*SPEF "IEEE 1481-1999"
*DESIGN  "ADDFX2"
*DATE "Mon Sep 27 08:41:22 2010"
*VENDOR "Cadence Design Systems"
*PROGRAM "Assura RCX"
*VERSION "3.2 Red Hat Linux release 7.2 (Enigma) - (09/09/2009-10:39)"
*DESIGN_FLOW "Physical Verification"
*DIVIDER /
*DELIMITER :
*BUS_DELIMITER []
*T_UNIT 1 PS
*C_UNIT 1e15 FF
*R_UNIT 1 OHM
*L_UNIT 1 MH
// DeviceFingerDelim "@"
// MATCHED
// caps2d version: 10

*NAME_MAP
*1 S
*2 VDD
*3 mp7
*4 mp6
*5 n3
*6 mp5
*7 n5
*8 mp8
*9 mp11
*10 mp10
*11 mp9
*12 mp13
*13 mp12
*14 mp13\@1
*15 mp12\@1
*16 mp2
*17 mp3
*18 CI
*19 mp4
*20 mp1
*21 mp0
*22 mn12
*23 CO
*24 mn12\@1
*25 mn2
*26 mn3
*27 mn4
*28 mn1
*29 mn0
*30 VSS
*31 n2
*32 n4
*33 Sb
*34 mn7
*35 COb
*36 mn6
*37 n1
*38 mn5
*39 n9
*40 A
*41 mn8
*42 n8
*43 B
*44 mn11
*45 n0
*46 mn10
*47 n7
*48 mn9
*49 n6
*50 mn13
*51 mn13\@1

*GROUND_NETS VSS

*PORTS
*2 I
*30 I
*40 I
*43 I
*18 I
*23 O
*1 O

*D_NET *2 5.4393e-16

*CONN
*P *2 I *C 0.1000 1.7100 
*I *3:s B *C 2.2775 1.0575 
*I *4:s B *C 2.7200 1.1225 
*I *6:s B *C 2.7200 1.1225 
*I *11:s B *C 4.1100 1.1950 
*I *12:s B *C 4.1100 1.1950 
*I *14:s B *C 4.4800 1.1950 
*I *13:s B *C 0.1100 1.1150 
*I *15:s B *C 0.5000 1.1150 
*I *16:s B *C 1.1500 1.0575 
*I *17:s B *C 1.1500 1.0575 
*I *21:s B *C 2.2775 1.0575 
*N *2:3 *C 3.5000 1.7100 
*N *2:4 *C 3.5000 1.7100 
*N *2:5 *C 2.6350 1.7100 
*N *2:6 *C 2.1500 1.7100 
*N *2:7 *C 1.2000 1.7100 
*N *2:8 *C 0.9500 1.7100 

*CAP
0 *16:s 1.27995e-17
1 *14:s 9.0065e-17
2 *4:s 1.29952e-17
3 *3:s 1.03848e-17
4 *2:8 8.57819e-18
5 *2:6 2.21545e-17
6 *2:5 1.96738e-17
7 *2:3 2.83017e-16
8 *2 8.42616e-17

*RES
0 *2:3 *2:4 6.818182  // $metal1_conn
1 *2:3 *2:7 6.25  // $metal1_conn
2 *2:5 *4:s 62.045826  // $metal1_conn
3 *2:6 *3:s 62.07473  // $metal1_conn
4 *2:8 *16:s 62.07473  // $metal1_conn
5 *14:s *2:4 0.205446  // $metal1_conn
6 *2:4 *2:5 0.432709  // $metal1_conn
7 *2:5 *2:6 0.241918  // $metal1_conn
8 *2:6 *2:7 0.476292  // $metal1_conn
9 *2:7 *2:8 0.125196  // $metal1_conn
10 *2:8 *2 0.235344  // $metal1_conn

*END

*D_NET *30 0

*CONN
*P *30 I *C 0.1000 0.0000 
*I *34:s B *C 2.2725 0.3525 
*I *36:s B *C 2.8650 0.3525 
*I *38:s B *C 2.8650 0.3525 
*I *48:s B *C 4.1100 0.4100 
*I *50:s B *C 4.1100 0.4100 
*I *51:s B *C 4.4800 0.4100 
*I *22:s B *C 0.1100 0.5300 
*I *24:s B *C 0.5000 0.5300 
*I *25:s B *C 1.1500 0.5025 
*I *26:s B *C 1.1500 0.5025 
*I *29:s B *C 2.2725 0.3525 
*N *30:3 *C 3.5000 0.0000 
*N *30:4 *C 3.5000 0.0000 
*N *30:5 *C 2.7500 0.0000 
*N *30:6 *C 2.1750 0.0000 
*N *30:7 *C 1.2000 0.0000 


*RES
0 *30:3 *30:4 5.636364  // $metal1_conn
1 *30:3 *30:7 5.166667  // $metal1_conn
2 *30:5 *36:s 75.097351  // $metal1_conn
3 *30:6 *34:s 75.204697  // $metal1_conn
4 *30:7 *25:s 75.060295  // $metal1_conn
5 *51:s *30:4 0.220493  // $metal1_conn
6 *30:4 *30:5 0.375979  // $metal1_conn
7 *30:5 *30:6 0.288009  // $metal1_conn
8 *30:6 *30:7 0.488831  // $metal1_conn
9 *30:7 *30 0.345885  // $metal1_conn

*END

*D_NET *40 1.3374e-15

*CONN
*P *40 I *C 3.9000 0.8550 
*I *38:g B *C 2.9125 0.3525 
*I *48:g B *C 3.8375 0.3525 
*I *25:g B *C 1.0025 0.5325 
*I *29:g B *C 2.1025 0.3525 
*I *6:g B *C 2.7675 1.1225 
*I *11:g B *C 3.8375 1.2825 
*I *16:g B *C 1.0025 1.0075 
*I *21:g B *C 2.0175 1.0575 
*N *40:2 *C 1.0300 0.7150 
*N *40:5 *C 2.0550 0.6900 
*N *40:8 *C 2.8850 0.6900 
*N *40:11 *C 3.8650 0.7200 
*N *40:13 *C 3.8650 0.7200 
*N *40:14 *C 2.8850 0.6900 
*N *40:15 *C 2.0550 0.6900 

*CAP
0 *21:g 6.56248e-17
1 *16:g 3.75782e-17
2 *11:g 6.4765e-17
3 *6:g 5.63867e-17
4 *29:g 5.83452e-17
5 *25:g 3.40144e-17
6 *48:g 4.84556e-17
7 *38:g 4.27693e-17
8 *40:2 1.63626e-16
9 *40:5 2.65833e-16
10 *40:8 2.69573e-16
11 *40:11 1.98489e-16
12 *40 3.1938e-17

*RES
0 *16:g *40:2 38.922722  // $poly_conn
1 *40:2 *25:g 19.691952  // $poly_conn
2 *29:g *40:5 59.761459  // $poly_conn
3 *40:5 *21:g 55.960373  // $poly_conn
4 *38:g *40:8 56.273628  // $poly_conn
5 *40:8 *6:g 88.446335  // $poly_conn
6 *11:g *40:11 108.153488  // $poly_conn
7 *40:11 *48:g 67.127846  // $poly_conn
8 *40 *40:13 0.065325  // $metal1_conn
9 *40:13 *40:14 0.870083  // $metal1_conn
10 *40:14 *40:15 0.693317  // $metal1_conn
11 *40:15 *40:2 45.841976  // $metal1_conn
12 *40:11 *40:13 45  // $metal1_conn
13 *40:8 *40:14 45  // $metal1_conn
14 *40:5 *40:15 45  // $metal1_conn

*END

*D_NET *43 1.30711e-15

*CONN
*P *43 I *C 2.1000 1.0450 
*I *36:g B *C 2.6475 0.3525 
*I *46:g B *C 3.7025 0.3525 
*I *26:g B *C 1.1975 0.5025 
*I *28:g B *C 1.9975 0.3525 
*I *4:g B *C 2.5725 1.0575 
*I *10:g B *C 3.7025 1.2825 
*I *17:g B *C 1.1975 1.0575 
*I *20:g B *C 1.9125 1.0575 
*N *43:1 *C 1.2500 0.8400 
*N *43:2 *C 1.1975 0.8400 
*N *43:6 *C 1.8750 0.8500 
*N *43:9 *C 2.6100 0.8500 
*N *43:12 *C 3.6750 0.8500 
*N *43:14 *C 2.6100 0.8500 
*N *43:15 *C 2.1000 0.8450 
*N *43:16 *C 1.8750 0.8500 

*CAP
0 *20:g 4.86091e-17
1 *17:g 4.32336e-17
2 *10:g 8.67624e-17
3 *4:g 4.32428e-17
4 *28:g 8.08957e-17
5 *26:g 5.05006e-17
6 *46:g 8.62623e-17
7 *36:g 5.37097e-17
8 *43:15 6.27501e-17
9 *43:1 1.38138e-16
10 *43:6 1.2758e-16
11 *43:9 2.21109e-16
12 *43:12 2.31789e-16
13 *43 3.25315e-17

*RES
0 *43:1 *43:2 45.361767  // $poly_conn
1 *43:2 *26:g 61.278324  // $poly_conn
2 *43:2 *17:g 21.534737  // $poly_conn
3 *28:g *43:6 109.455399  // $poly_conn
4 *43:6 *20:g 16.15522  // $poly_conn
5 *36:g *43:9 101.758873  // $poly_conn
6 *43:9 *4:g 18.425531  // $poly_conn
7 *10:g *43:12 74.820152  // $poly_conn
8 *43:12 *46:g 100.461182  // $poly_conn
9 *43:12 *43:14 45.861309  // $metal1_conn
10 *43:14 *43:15 0.407566  // $metal1_conn
11 *43:15 *43:16 0.180173  // $metal1_conn
12 *43:16 *43:1 0.483624  // $metal1_conn
13 *43:15 *43 0.106585  // $metal1_conn
14 *43:9 *43:14 45  // $metal1_conn
15 *43:6 *43:16 45  // $metal1_conn

*END

*D_NET *18 9.39977e-16

*CONN
*P *18 I *C 1.7000 0.4750 
*I *34:g B *C 2.4425 0.3525 
*I *44:g B *C 3.5975 0.3525 
*I *27:g B *C 1.4025 0.5025 
*I *3:g B *C 2.3675 1.0575 
*I *9:g B *C 3.5975 1.2825 
*I *19:g B *C 1.4025 1.0575 
*N *18:2 *C 1.4025 0.6525 
*N *18:4 *C 1.6650 0.5000 
*N *18:6 *C 2.4050 0.5300 
*N *18:9 *C 3.5425 0.5400 
*N *18:10 *C 3.4550 0.5300 
*N *18:12 *C 2.4050 0.5300 

*CAP
0 *19:g 4.71362e-17
1 *9:g 1.23821e-16
2 *3:g 5.30497e-17
3 *27:g 2.49998e-17
4 *44:g 4.606e-17
5 *34:g 2.49822e-17
6 *18:9 5.84611e-17
7 *18:2 3.14724e-17
8 *18:4 6.1669e-17
9 *18:6 2.28996e-16
10 *18:10 1.61125e-16
11 *18 7.82046e-17

*RES
0 *19:g *18:2 75.130043  // $poly_conn
1 *18:2 *27:g 18.71979  // $poly_conn
2 *18:2 *18:4 125.232262  // $poly_conn
3 *34:g *18:6 19.707582  // $poly_conn
4 *18:6 *3:g 100.476807  // $poly_conn
5 *9:g *18:9 157.338516  // $poly_conn
6 *18:9 *18:10 51.920658  // $poly_conn
7 *18:9 *44:g 32.611355  // $poly_conn
8 *18:10 *18:12 0.856204  // $metal1_conn
9 *18:12 *18 0.552003  // $metal1_conn
10 *18 *18:4 0.017694  // $metal1_conn
11 *18:6 *18:12 45  // $metal1_conn

*END

*D_NET *23 1.23614e-16

*CONN
*P *23 O *C 0.1000 0.8550 
*I *22:d B *C 0.3050 0.5300 
*I *24:d B *C 0.3050 0.5300 
*I *13:d B *C 0.3050 1.1150 
*I *15:d B *C 0.3050 1.1150 
*N *23:2 *C 0.3050 0.8200 

*CAP
0 *13:d 6.05644e-17
1 *22:d 1.43543e-17
2 *23:2 1.58084e-17
3 *23 3.28869e-17

*RES
0 *23:2 *23 0.137968  // $metal1_conn
1 *13:d *23:2 20.886862  // $metal1_conn
2 *23:2 *22:d 75.162277  // $metal1_conn

*END

*D_NET *1 1.15238e-16

*CONN
*P *1 O *C 4.3000 0.6650 
*I *50:d B *C 4.2850 0.4100 
*I *51:d B *C 4.2850 0.4100 
*I *12:d B *C 4.2850 1.1950 
*I *14:d B *C 4.2850 1.1950 

*CAP
0 *12:d 5.20292e-17
1 *50:d 1.83339e-17
2 *1 4.48747e-17

*RES
0 *1 *12:d 62.280159  // $metal1_conn
1 *50:d *1 75.119812  // $metal1_conn

*END

*D_NET *49 2.29184e-18

*CONN
*I *46:s B *C 3.7700 0.3525 
*I *48:d B *C 3.7700 0.3525 

*CAP
0 *46:s 2.29184e-18

*RES
0 *48:d *46:s 0.001  // $mwires

*END

*D_NET *47 1.94584e-18

*CONN
*I *44:s B *C 3.6500 0.3525 
*I *46:d B *C 3.6500 0.3525 

*CAP
0 *44:s 1.94584e-18

*RES
0 *46:d *44:s 0.001  // $mwires

*END

*D_NET *45 0

*CONN
*I *28:s B *C 2.0500 0.3525 
*I *29:d B *C 2.0500 0.3525 


*RES
0 *29:d *28:s 0.001  // $mwires

*END

*D_NET *42 1.94624e-18

*CONN
*I *10:s B *C 3.7700 1.2825 
*I *11:d B *C 3.7700 1.2825 

*CAP
0 *10:s 1.94624e-18

*RES
0 *11:d *10:s 0.001  // $mwires

*END

*D_NET *39 1.29749e-18

*CONN
*I *9:s B *C 3.6500 1.2825 
*I *10:d B *C 3.6500 1.2825 

*CAP
0 *9:s 1.29749e-18

*RES
0 *10:d *9:s 0.001  // $mwires

*END

*D_NET *37 0

*CONN
*I *20:s B *C 1.9650 1.0575 
*I *21:d B *C 1.9650 1.0575 


*RES
0 *21:d *20:s 0.001  // $mwires

*END

*D_NET *35 1.1068e-15

*CONN
*I *41:g B *C 3.1475 0.3525 
*I *22:g B *C 0.2025 0.5300 
*I *24:g B *C 0.4075 0.5300 
*I *27:d B *C 1.4950 0.5025 
*I *28:d B *C 1.9050 0.3525 
*I *8:g B *C 3.1475 1.1225 
*I *13:g B *C 0.2025 1.1150 
*I *15:g B *C 0.4075 1.1150 
*I *19:d B *C 1.4950 1.0575 
*I *20:d B *C 1.8200 1.0575 
*N *35:6 *C 0.4950 0.7600 
*N *35:9 *C 3.1475 0.9175 
*N *35:11 *C 3.4100 1.0100 
*N *35:12 *C 1.8100 1.2400 
*N *35:13 *C 1.5050 1.2400 
*N *35:14 *C 0.7400 0.7600 
*N *35:17 *C 1.5050 0.3050 

*CAP
0 *20:d 1.83945e-17
1 *19:d 1.17348e-17
2 *15:g 8.26099e-17
3 *8:g 2.14073e-17
4 *28:d 6.13899e-17
5 *27:d 3.61262e-17
6 *41:g 5.48674e-17
7 *35:17 1.27975e-16
8 *35:14 1.49519e-16
9 *35:13 1.0895e-16
10 *35:12 1.30134e-16
11 *35:9 3.66778e-17
12 *35:6 3.09486e-17
13 *35:11 2.36067e-16

*RES
0 *8:g *35:9 23.847994  // $poly_conn
1 *35:9 *41:g 125.130043  // $poly_conn
2 *35:9 *35:11 109.847649  // $poly_conn
3 *15:g *35:6 51.352463  // $poly_conn
4 *35:11 *35:12 1.323985  // $metal1_conn
5 *35:14 *35:6 0.14975  // $metal1_conn
6 *35:12 *20:d 62.07029  // $metal1_conn
7 *35:13 *19:d 62.07029  // $metal1_conn
8 *35:17 *28:d 75.28315  // $metal1_conn
9 *35:17 *27:d 75.116524  // $metal1_conn
10 *35:12 *35:13 0.225433  // $metal1_conn
11 *35:13 *35:14 0.886159  // $metal1_conn
12 *35:14 *35:17 0.900605  // $metal1_conn

*END

*D_NET *33 5.72265e-16

*CONN
*I *41:d B *C 3.2400 0.3525 
*I *44:d B *C 3.5050 0.3525 
*I *50:g B *C 4.1825 0.4100 
*I *51:g B *C 4.3875 0.4100 
*I *8:d B *C 3.2400 1.1225 
*I *9:d B *C 3.5050 1.2825 
*I *12:g B *C 4.1825 1.1950 
*I *14:g B *C 4.3875 1.1950 
*N *33:4 *C 4.1250 0.6750 
*N *33:9 *C 3.4950 1.1700 
*N *33:11 *C 3.4950 0.3650 

*CAP
0 *14:g 6.28846e-17
1 *9:d 1.15532e-17
2 *8:d 4.25466e-17
3 *50:g 5.9875e-17
4 *44:d 7.1818e-17
5 *41:d 4.61344e-17
6 *33:9 8.55833e-17
7 *33:4 1.9187e-16

*RES
0 *50:g *33:4 47.912865  // $poly_conn
1 *14:g *50:g 52.850044  // $poly_conn
2 *33:9 *33:4 0.787352  // $metal1_conn
3 *33:4 *33:11 0.620394  // $metal1_conn
4 *9:d *33:9 62.030743  // $metal1_conn
5 *33:9 *8:d 62.187935  // $metal1_conn
6 *44:d *33:11 75  // $metal1_conn
7 *33:11 *41:d 75.167801  // $metal1_conn

*END

*D_NET *32 1.49108e-16

*CONN
*I *34:d B *C 2.5450 0.3525 
*I *36:d B *C 2.5450 0.3525 
*I *38:d B *C 3.0300 0.3525 
*I *41:s B *C 3.0300 0.3525 

*CAP
0 *38:d 7.75854e-17
1 *34:d 7.15231e-17

*RES
0 *38:d *34:d 150.282227  // $metal1_conn

*END

*D_NET *31 1.3171e-16

*CONN
*I *25:d B *C 0.9100 0.5325 
*I *26:d B *C 1.3000 0.5025 
*I *27:s B *C 1.3000 0.5025 

*CAP
0 *26:d 6.43083e-17
1 *25:d 6.74022e-17

*RES
0 *26:d *25:d 150.243683  // $metal1_conn

*END

*D_NET *7 1.37728e-16

*CONN
*I *3:d B *C 2.4700 1.0575 
*I *4:d B *C 2.4700 1.0575 
*I *6:d B *C 2.9575 1.1225 
*I *8:s B *C 2.9575 1.1225 

*CAP
0 *6:d 6.84772e-17
1 *3:d 6.92505e-17

*RES
0 *6:d *3:d 124.23468  // $metal1_conn

*END

*D_NET *5 1.25969e-16

*CONN
*I *16:d B *C 0.9100 1.0075 
*I *17:d B *C 1.3000 1.0575 
*I *19:s B *C 1.3000 1.0575 

*CAP
0 *17:d 6.13138e-17
1 *16:d 6.46549e-17

*RES
0 *17:d *16:d 124.23468  // $metal1_conn

*END

