*SPEF "IEEE 1481-1999"
*DESIGN  "ADDFHX1"
*DATE "Mon Sep 27 08:39:28 2010"
*VENDOR "Cadence Design Systems"
*PROGRAM "Assura RCX"
*VERSION "3.2 Red Hat Linux release 7.2 (Enigma) - (09/09/2009-10:39)"
*DESIGN_FLOW "Physical Verification"
*DIVIDER /
*DELIMITER :
*BUS_DELIMITER []
*T_UNIT 1 PS
*C_UNIT 1e15 FF
*R_UNIT 1 OHM
*L_UNIT 1 MH
// DeviceFingerDelim "@"
// MATCHED
// caps2d version: 10

*NAME_MAP
*1 CI
*2 VSS
*3 mn7
*4 mn6
*5 mn2
*6 mn5
*7 mn3
*8 mn8
*9 CO
*10 mn4
*11 mn11
*12 S
*13 mn1
*14 mn10
*15 mn0
*16 mn9
*17 mn13
*18 mn12
*19 n5
*20 n4
*21 VDD
*22 mp2
*23 mp3
*24 mp4
*25 mp1
*26 mp0
*27 n2
*28 n3
*29 Sb
*30 COb
*31 n1
*32 n9
*33 n8
*34 n0
*35 mp7
*36 n7
*37 mp6
*38 n6
*39 mp5
*40 mp8
*41 mp11
*42 mp10
*43 mp9
*44 mp13
*45 mp12
*46 A
*47 B

*GROUND_NETS VSS

*PORTS
*21 I
*2 I
*46 I
*47 I
*1 I
*9 O
*12 O

*D_NET *21 4.76104e-16

*CONN
*P *21 I *C 0.1000 1.7100 
*I *35:s B *C 2.2150 1.1550 
*I *37:s B *C 2.6250 1.5700 
*I *39:s B *C 2.6250 1.5700 
*I *43:s B *C 3.9150 1.0950 
*I *44:s B *C 3.9150 1.0950 
*I *45:s B *C 0.1800 1.0950 
*I *22:s B *C 1.1200 1.1100 
*I *23:s B *C 1.1200 1.1100 
*I *26:s B *C 2.2150 1.1550 
*N *21:2 *C 2.6000 1.7100 
*N *21:3 *C 2.1300 1.7100 
*N *21:4 *C 1.1000 1.7100 
*N *21:5 *C 1.1000 1.7100 
*N *21:6 *C 0.1700 1.7100 
*N *21:7 *C 3.3000 1.7100 

*CAP
0 *22:s 1.25257e-17
1 *45:s 3.95912e-17
2 *43:s 5.44987e-17
3 *37:s 1.2487e-17
4 *35:s 1.37952e-17
5 *21:6 1.14604e-17
6 *21:3 2.42291e-17
7 *21:2 1.81127e-17
8 *21:4 2.87701e-16
9 *21 1.70319e-18

*RES
0 *37:s *21:2 62.074844  // $metal1_conn
1 *21:2 *21:3 0.233944  // $metal1_conn
2 *21:3 *21:5 0.515382  // $metal1_conn
3 *21:5 *21:6 0.466183  // $metal1_conn
4 *21:6 *21 0.034651  // $metal1_conn
5 *21:2 *21:7 0.350431  // $metal1_conn
6 *21:7 *43:s 62.486355  // $metal1_conn
7 *21:3 *35:s 62.045818  // $metal1_conn
8 *21:5 *22:s 62.060284  // $metal1_conn
9 *21:6 *45:s 62.339321  // $metal1_conn
10 *21:4 *21:5 6.818182  // $metal1_conn
11 *21:4 *21:7 6.818182  // $metal1_conn

*END

*D_NET *2 0

*CONN
*P *2 I *C 0.1000 0.0000 
*I *3:s B *C 2.1750 0.3475 
*I *4:s B *C 2.7000 0.3475 
*I *6:s B *C 2.7000 0.3475 
*I *16:s B *C 3.9150 0.5300 
*I *17:s B *C 3.9150 0.5300 
*I *18:s B *C 0.1800 0.5100 
*I *5:s B *C 1.1200 0.4825 
*I *7:s B *C 1.1200 0.4825 
*I *15:s B *C 2.1750 0.3475 
*N *2:2 *C 2.1750 0.0000 
*N *2:3 *C 1.1000 0.0000 
*N *2:4 *C 1.1000 0.0000 
*N *2:5 *C 0.1700 0.0000 
*N *2:6 *C 2.5850 0.0000 
*N *2:10 *C 3.3000 0.0000 


*RES
0 *3:s *2:2 75.184952  // $metal1_conn
1 *2:2 *2:4 0.538487  // $metal1_conn
2 *2:4 *2:5 0.466183  // $metal1_conn
3 *2:5 *2 0.034651  // $metal1_conn
4 *2:2 *2:6 0.204804  // $metal1_conn
5 *2:6 *4:s 75.13768  // $metal1_conn
6 *2:4 *5:s 75.060287  // $metal1_conn
7 *2:5 *18:s 75.274818  // $metal1_conn
8 *2:6 *2:10 0.358364  // $metal1_conn
9 *2:10 *16:s 75.439644  // $metal1_conn
10 *2:3 *2:4 5.636364  // $metal1_conn
11 *2:3 *2:10 5.636364  // $metal1_conn

*END

*D_NET *46 1.36606e-15

*CONN
*P *46 I *C 3.7000 0.8550 
*I *6:g B *C 2.7475 0.3475 
*I *16:g B *C 3.6825 0.3775 
*I *5:g B *C 0.9025 0.4825 
*I *15:g B *C 2.0725 0.3475 
*I *39:g B *C 2.6625 1.1550 
*I *43:g B *C 3.6825 1.1850 
*I *22:g B *C 0.9025 1.0550 
*I *26:g B *C 1.9975 1.1550 
*N *46:2 *C 0.9400 0.6850 
*N *46:5 *C 2.0350 0.7400 
*N *46:8 *C 2.7000 0.7400 
*N *46:11 *C 3.7200 0.7600 
*N *46:13 *C 3.7200 0.7600 
*N *46:14 *C 2.7000 0.7400 
*N *46:15 *C 2.0350 0.7400 

*CAP
0 *26:g 8.65798e-17
1 *22:g 5.3111e-17
2 *43:g 7.25689e-17
3 *39:g 6.31028e-17
4 *15:g 7.60493e-17
5 *5:g 3.85705e-17
6 *16:g 6.14695e-17
7 *6:g 5.10102e-17
8 *46:2 1.49626e-16
9 *46:5 2.67389e-16
10 *46:8 2.43837e-16
11 *46:11 1.67142e-16
12 *46 3.56084e-17

*RES
0 *22:g *46:2 45.642399  // $poly_conn
1 *46:2 *5:g 16.15522  // $poly_conn
2 *15:g *46:5 67.143478  // $poly_conn
3 *46:5 *26:g 59.451172  // $poly_conn
4 *6:g *46:8 66.171715  // $poly_conn
5 *46:8 *39:g 55.960373  // $poly_conn
6 *43:g *46:11 59.744961  // $poly_conn
7 *46:11 *16:g 62.309063  // $poly_conn
8 *46 *46:13 0.055401  // $metal1_conn
9 *46:13 *46:14 0.81189  // $metal1_conn
10 *46:14 *46:15 0.554699  // $metal1_conn
11 *46:15 *46:2 45.892818  // $metal1_conn
12 *46:11 *46:13 45  // $metal1_conn
13 *46:8 *46:14 45  // $metal1_conn
14 *46:5 *46:15 45  // $metal1_conn

*END

*D_NET *47 1.29873e-15

*CONN
*P *47 I *C 1.7000 0.8550 
*I *4:g B *C 2.4825 0.3475 
*I *14:g B *C 3.5675 0.3775 
*I *7:g B *C 1.1675 0.4825 
*I *13:g B *C 1.9675 0.3475 
*I *37:g B *C 2.4675 1.1550 
*I *42:g B *C 3.5675 1.1850 
*I *23:g B *C 1.1675 1.1100 
*I *25:g B *C 1.8925 1.1550 
*N *47:2 *C 1.1950 0.8450 
*N *47:5 *C 1.8925 0.9000 
*N *47:6 *C 1.8150 0.9000 
*N *47:9 *C 2.4750 0.9000 
*N *47:10 *C 2.4300 0.9000 
*N *47:13 *C 3.5300 0.9300 

*CAP
0 *25:g 6.36674e-17
1 *23:g 4.3569e-17
2 *42:g 6.24411e-17
3 *37:g 5.2225e-17
4 *13:g 9.13297e-17
5 *7:g 5.06806e-17
6 *14:g 1.07228e-16
7 *4:g 5.99929e-17
8 *47:5 4.47271e-17
9 *47:2 1.18944e-16
10 *47:6 8.67033e-17
11 *47:10 2.43567e-16
12 *47:13 2.12443e-16
13 *47 6.12128e-17

*RES
0 *23:g *47:2 19.691952  // $poly_conn
1 *47:2 *7:g 58.153492  // $poly_conn
2 *13:g *47:5 120.032669  // $poly_conn
3 *47:5 *47:6 47.826286  // $poly_conn
4 *47:5 *25:g 22.886339  // $poly_conn
5 *4:g *47:9 112.076836  // $poly_conn
6 *47:9 *47:10 45.294373  // $poly_conn
7 *47:9 *37:g 24.355949  // $poly_conn
8 *42:g *47:13 16.15522  // $poly_conn
9 *47:13 *14:g 105.898811  // $poly_conn
10 *47:2 *47 45.400219  // $metal1_conn
11 *47 *47:6 0.05398  // $metal1_conn
12 *47:6 *47:10 0.494726  // $metal1_conn
13 *47:10 *47:13 45.866833  // $metal1_conn

*END

*D_NET *1 9.27573e-16

*CONN
*P *1 I *C 1.7000 0.4750 
*I *3:g B *C 2.2775 0.3475 
*I *11:g B *C 3.4625 0.3775 
*I *10:g B *C 1.3725 0.4825 
*I *35:g B *C 2.2625 1.1550 
*I *41:g B *C 3.3875 1.1850 
*I *24:g B *C 1.4875 1.1100 
*N *1:2 *C 1.4875 0.6725 
*N *1:4 *C 1.6650 0.5200 
*N *1:6 *C 2.2400 0.5500 
*N *1:9 *C 3.3950 0.6075 
*N *1:10 *C 3.3200 0.5800 
*N *1:12 *C 2.2400 0.5500 

*CAP
0 *24:g 4.7498e-17
1 *41:g 7.7584e-17
2 *35:g 7.92198e-17
3 *10:g 4.06792e-17
4 *11:g 5.88906e-17
5 *3:g 3.32801e-17
6 *1:2 2.54139e-17
7 *1:4 9.90071e-17
8 *1:6 2.28443e-16
9 *1:10 2.04075e-16
10 *1 3.34826e-17

*RES
0 *24:g *1:2 66.122887  // $poly_conn
1 *1:2 *10:g 35.43248  // $poly_conn
2 *1:2 *1:4 104.365417  // $poly_conn
3 *3:g *1:6 16.15522  // $poly_conn
4 *1:6 *35:g 103.876114  // $poly_conn
5 *11:g *1:9 43.364723  // $poly_conn
6 *1:9 *1:10 55.028244  // $poly_conn
7 *1:9 *41:g 105.849594  // $poly_conn
8 *1:10 *1:12 0.885225  // $metal1_conn
9 *1:12 *1:4 0.470343  // $metal1_conn
10 *1:4 *1 0.016393  // $metal1_conn
11 *1:6 *1:12 45  // $metal1_conn

*END

*D_NET *9 1.91175e-16

*CONN
*P *9 O *C 0.1000 0.6650 
*I *18:d B *C 0.3650 0.5100 
*I *45:d B *C 0.3650 1.0950 

*CAP
0 *45:d 8.34245e-17
1 *18:d 4.20816e-17
2 *9 6.56692e-17

*RES
0 *45:d *9 21.159016  // $metal1_conn
1 *9 *18:d 75.184036  // $metal1_conn

*END

*D_NET *12 1.00668e-16

*CONN
*P *12 O *C 4.3000 0.6650 
*I *17:d B *C 4.0950 0.5300 
*I *44:d B *C 4.0950 1.0950 
*N *12:2 *C 4.1300 0.6000 

*CAP
0 *44:d 3.37117e-17
1 *17:d 4.42629e-17
2 *12 2.26934e-17

*RES
0 *12 *12:2 0.077919  // $metal1_conn
1 *12:2 *44:d 21.034163  // $metal1_conn
2 *17:d *12:2 75  // $metal1_conn

*END

*D_NET *38 2.31722e-18

*CONN
*I *14:s B *C 3.6250 0.3775 
*I *16:d B *C 3.6250 0.3775 

*CAP
0 *14:s 2.31722e-18

*RES
0 *16:d *14:s 0.001  // $mwires

*END

*D_NET *36 2.00123e-18

*CONN
*I *11:s B *C 3.5150 0.3775 
*I *14:d B *C 3.5150 0.3775 

*CAP
0 *11:s 2.00123e-18

*RES
0 *14:d *11:s 0.001  // $mwires

*END

*D_NET *34 0

*CONN
*I *13:s B *C 2.0200 0.3475 
*I *15:d B *C 2.0200 0.3475 


*RES
0 *15:d *13:s 0.001  // $mwires

*END

*D_NET *33 2.25667e-18

*CONN
*I *42:s B *C 3.6250 1.1850 
*I *43:d B *C 3.6250 1.1850 

*CAP
0 *42:s 2.25667e-18

*RES
0 *43:d *42:s 0.001  // $mwires

*END

*D_NET *32 4.26553e-18

*CONN
*I *41:s B *C 3.4775 1.1850 
*I *42:d B *C 3.4775 1.1850 

*CAP
0 *41:s 4.26553e-18

*RES
0 *42:d *41:s 0.001  // $mwires

*END

*D_NET *31 2.12216e-18

*CONN
*I *25:s B *C 1.9450 1.1550 
*I *26:d B *C 1.9450 1.1550 

*CAP
0 *25:s 2.12216e-18

*RES
0 *26:d *25:s 0.001  // $mwires

*END

*D_NET *30 1.07664e-15

*CONN
*I *8:g B *C 2.9525 0.3475 
*I *18:g B *C 0.2725 0.5100 
*I *10:d B *C 1.4650 0.4825 
*I *13:d B *C 1.8750 0.3475 
*I *40:g B *C 2.8675 1.1550 
*I *45:g B *C 0.2725 1.0950 
*I *24:d B *C 1.5800 1.1100 
*I *25:d B *C 1.8000 1.1550 
*N *30:2 *C 0.3000 0.7900 
*N *30:5 *C 2.9525 0.9025 
*N *30:7 *C 3.0900 1.0600 
*N *30:9 *C 1.7900 1.1700 
*N *30:10 *C 1.5900 1.2250 
*N *30:11 *C 0.6100 0.7900 
*N *30:13 *C 1.4750 0.3550 

*CAP
0 *25:d 1.28018e-16
1 *24:d 1.62321e-17
2 *45:g 2.99868e-17
3 *40:g 3.41101e-17
4 *13:d 5.88277e-17
5 *10:d 2.25206e-17
6 *18:g 1.96456e-17
7 *8:g 5.9978e-17
8 *30:13 1.40332e-16
9 *30:11 1.77514e-16
10 *30:10 9.77242e-17
11 *30:5 4.69156e-17
12 *30:2 6.41337e-17
13 *30:7 1.80702e-16

*RES
0 *45:g *30:2 19.691952  // $poly_conn
1 *30:2 *18:g 29.94836  // $poly_conn
2 *8:g *30:5 111.517517  // $poly_conn
3 *30:5 *40:g 39.346081  // $poly_conn
4 *30:5 *30:7 97.627777  // $poly_conn
5 *30:7 *30:9 1.158694  // $metal1_conn
6 *30:9 *30:10 0.125627  // $metal1_conn
7 *30:10 *30:11 1.033348  // $metal1_conn
8 *30:11 *30:2 45.21043  // $metal1_conn
9 *30:10 *24:d 62.046844  // $metal1_conn
10 *30:11 *30:13 0.937765  // $metal1_conn
11 *30:13 *13:d 75.356697  // $metal1_conn
12 *30:13 *10:d 75.072006  // $metal1_conn
13 *25:d *30:9 31  // $metal1_conn

*END

*D_NET *29 4.99584e-16

*CONN
*I *8:d B *C 3.0450 0.3475 
*I *11:d B *C 3.3700 0.3775 
*I *17:g B *C 3.9775 0.5300 
*I *40:d B *C 3.0675 1.2500 
*I *41:d B *C 3.3150 1.1850 
*I *44:g B *C 3.9775 1.0950 
*N *29:2 *C 3.9400 0.7600 
*N *29:5 *C 3.3600 0.3900 
*N *29:7 *C 3.0400 0.3900 
*N *29:8 *C 3.9400 0.7600 
*N *29:10 *C 3.2855 1.2500 

*CAP
0 *44:g 3.34222e-17
1 *41:d 7.7032e-17
2 *40:d 4.62286e-17
3 *17:g 2.47539e-17
4 *11:d 8.90198e-17
5 *8:d 5.18269e-17
6 *29:2 1.773e-16

*RES
0 *44:g *29:2 26.411629  // $poly_conn
1 *29:2 *17:g 16.15522  // $poly_conn
2 *29:5 *29:7 0.22317  // $metal1_conn
3 *29:5 *29:8 0.666085  // $metal1_conn
4 *29:8 *29:10 0.752203  // $metal1_conn
5 *29:10 *40:d 62.128975  // $metal1_conn
6 *11:d *29:5 75  // $metal1_conn
7 *8:d *29:7 75  // $metal1_conn
8 *29:2 *29:8 45  // $metal1_conn
9 *41:d *29:10 62  // $metal1_conn

*END

*D_NET *28 1.5918e-16

*CONN
*I *22:d B *C 0.8100 1.0550 
*I *23:d B *C 1.3275 1.1100 
*I *24:s B *C 1.3275 1.1100 

*CAP
0 *23:d 9.34918e-17
1 *22:d 6.56882e-17

*RES
0 *22:d *23:d 124.442337  // $metal1_conn

*END

*D_NET *27 1.61936e-16

*CONN
*I *5:d B *C 0.8100 0.4825 
*I *7:d B *C 1.2700 0.4825 
*I *10:s B *C 1.2700 0.4825 

*CAP
0 *7:d 8.48021e-17
1 *5:d 7.71337e-17

*RES
0 *7:d *5:d 150.282043  // $metal1_conn

*END

*D_NET *20 1.55585e-16

*CONN
*I *3:d B *C 2.3800 0.3475 
*I *4:d B *C 2.3800 0.3475 
*I *6:d B *C 2.8500 0.3475 
*I *8:s B *C 2.8500 0.3475 

*CAP
0 *6:d 7.11199e-17
1 *3:d 8.44656e-17

*RES
0 *6:d *3:d 150.281036  // $metal1_conn

*END

*D_NET *19 1.51185e-16

*CONN
*I *35:d B *C 2.3650 1.1550 
*I *37:d B *C 2.3650 1.1550 
*I *39:d B *C 2.7650 1.1550 
*I *40:s B *C 2.7650 1.1550 

*CAP
0 *39:d 8.00101e-17
1 *35:d 7.11748e-17

*RES
0 *39:d *35:d 124.234528  // $metal1_conn

*END

