*SPEF "IEEE 1481-1999"
*DESIGN  "ADDFHX2"
*DATE "Mon Sep 27 08:39:51 2010"
*VENDOR "Cadence Design Systems"
*PROGRAM "Assura RCX"
*VERSION "3.2 Red Hat Linux release 7.2 (Enigma) - (09/09/2009-10:39)"
*DESIGN_FLOW "Physical Verification"
*DIVIDER /
*DELIMITER :
*BUS_DELIMITER []
*T_UNIT 1 PS
*C_UNIT 1e15 FF
*R_UNIT 1 OHM
*L_UNIT 1 MH
// DeviceFingerDelim "@"
// MATCHED
// caps2d version: 10

*NAME_MAP
*1 S
*2 VDD
*3 mp7
*4 mp6
*5 n5
*6 mp5
*7 n3
*8 mp8
*9 mp11
*10 mp10
*11 mp9
*12 mp13
*13 mp0
*14 mp13\@1
*15 mp12
*16 mp12\@1
*17 mp2
*18 CI
*19 mp3
*20 mp4
*21 mp1
*22 mn0
*23 CO
*24 mn12
*25 mn12\@1
*26 mn2
*27 mn3
*28 mn4
*29 mn1
*30 VSS
*31 n4
*32 n2
*33 Sb
*34 mn7
*35 COb
*36 mn6
*37 n1
*38 mn5
*39 n9
*40 A
*41 mn8
*42 n8
*43 B
*44 mn11
*45 n0
*46 mn10
*47 n7
*48 mn9
*49 n6
*50 mn13
*51 mn13\@1

*GROUND_NETS VSS

*PORTS
*2 I
*30 I
*40 I
*43 I
*18 I
*23 O
*1 O

*D_NET *2 5.88493e-16

*CONN
*P *2 I *C 0.1000 1.7100 
*I *3:s B *C 2.5950 1.1900 
*I *4:s B *C 3.0050 1.5700 
*I *6:s B *C 3.0050 1.5700 
*I *11:s B *C 4.2050 1.1950 
*I *12:s B *C 4.2050 1.1950 
*I *14:s B *C 4.6150 1.1950 
*I *13:s B *C 2.5950 1.1900 
*I *15:s B *C 0.1150 1.0950 
*I *16:s B *C 0.5050 1.0950 
*I *17:s B *C 1.3500 1.1500 
*I *19:s B *C 1.3500 1.1500 
*N *2:3 *C 3.6000 1.7100 
*N *2:4 *C 3.6000 1.7100 
*N *2:5 *C 2.9800 1.7100 
*N *2:6 *C 2.5100 1.7100 
*N *2:7 *C 1.2000 1.7100 

*CAP
0 *17:s 1.66459e-17
1 *14:s 1.03269e-16
2 *4:s 1.10418e-17
3 *3:s 1.44456e-17
4 *2:6 3.09795e-17
5 *2:5 1.72653e-17
6 *2:3 2.99465e-16
7 *2 9.53815e-17

*RES
0 *2:3 *2:4 6.25  // $metal1_conn
1 *2:3 *2:7 6.25  // $metal1_conn
2 *2:5 *4:s 62.074623  // $metal1_conn
3 *2:6 *3:s 62.045818  // $metal1_conn
4 *2:7 *17:s 62.060284  // $metal1_conn
5 *14:s *2:4 0.273112  // $metal1_conn
6 *2:4 *2:5 0.310723  // $metal1_conn
7 *2:5 *2:6 0.234355  // $metal1_conn
8 *2:6 *2:7 0.657025  // $metal1_conn
9 *2:7 *2 0.34332  // $metal1_conn

*END

*D_NET *30 0

*CONN
*P *30 I *C 0.1000 0.0000 
*I *34:s B *C 2.4800 0.3825 
*I *36:s B *C 3.0050 0.3825 
*I *38:s B *C 3.0050 0.3825 
*I *48:s B *C 4.3025 0.5300 
*I *50:s B *C 4.3025 0.5300 
*I *51:s B *C 4.6600 0.5300 
*I *22:s B *C 2.4800 0.3825 
*I *24:s B *C 0.1150 0.5300 
*I *25:s B *C 0.5050 0.5300 
*I *26:s B *C 1.3500 0.5025 
*I *27:s B *C 1.3500 0.5025 
*N *30:3 *C 3.6000 0.0000 
*N *30:4 *C 3.6000 0.0000 
*N *30:5 *C 2.8900 0.0000 
*N *30:6 *C 2.4800 0.0000 
*N *30:7 *C 1.2000 0.0000 


*RES
0 *30:3 *30:4 5.166667  // $metal1_conn
1 *30:3 *30:7 5.166667  // $metal1_conn
2 *30:5 *36:s 75.097305  // $metal1_conn
3 *30:6 *34:s 75.209564  // $metal1_conn
4 *30:7 *26:s 75.060287  // $metal1_conn
5 *51:s *30:4 0.288157  // $metal1_conn
6 *30:4 *30:5 0.355857  // $metal1_conn
7 *30:5 *30:6 0.205216  // $metal1_conn
8 *30:6 *30:7 0.64293  // $metal1_conn
9 *30:7 *30 0.34332  // $metal1_conn

*END

*D_NET *40 1.33337e-15

*CONN
*P *40 I *C 3.9000 0.6650 
*I *38:g B *C 3.0525 0.3825 
*I *48:g B *C 4.0725 0.3825 
*I *22:g B *C 2.3775 0.3825 
*I *26:g B *C 1.1325 0.5025 
*I *6:g B *C 3.0425 1.0550 
*I *11:g B *C 4.0725 1.2350 
*I *13:g B *C 2.3775 1.1900 
*I *17:g B *C 1.1675 1.0550 
*N *40:2 *C 1.2050 0.7300 
*N *40:5 *C 2.4050 0.7250 
*N *40:8 *C 3.0050 0.6900 
*N *40:11 *C 4.1000 0.7200 
*N *40:13 *C 3.0050 0.6900 
*N *40:14 *C 2.4050 0.7250 

*CAP
0 *17:g 4.25193e-17
1 *13:g 9.18143e-17
2 *11:g 8.27162e-17
3 *6:g 7.43826e-17
4 *26:g 3.35628e-17
5 *22:g 6.62391e-17
6 *48:g 5.46798e-17
7 *38:g 4.54056e-17
8 *40:2 1.69059e-16
9 *40:5 2.49315e-16
10 *40:8 2.13719e-16
11 *40:11 8.8418e-17
12 *40 1.21539e-16

*RES
0 *17:g *40:2 34.103935  // $poly_conn
1 *40:2 *26:g 30.178047  // $poly_conn
2 *13:g *40:5 70.973999  // $poly_conn
3 *40:5 *22:g 53.025284  // $poly_conn
4 *38:g *40:8 43.756985  // $poly_conn
5 *40:8 *6:g 44.360348  // $poly_conn
6 *11:g *40:11 83.79451  // $poly_conn
7 *40:11 *48:g 51.743237  // $poly_conn
8 *40:11 *40 45.125431  // $metal1_conn
9 *40 *40:13 0.72508  // $metal1_conn
10 *40:13 *40:14 0.543256  // $metal1_conn
11 *40:14 *40:2 45.96497  // $metal1_conn
12 *40:8 *40:13 45  // $metal1_conn
13 *40:5 *40:14 45  // $metal1_conn

*END

*D_NET *43 1.3161e-15

*CONN
*P *43 I *C 1.9000 1.0450 
*I *36:g B *C 2.7875 0.3825 
*I *46:g B *C 3.9475 0.3825 
*I *27:g B *C 1.3975 0.5025 
*I *29:g B *C 2.2725 0.3825 
*I *4:g B *C 2.8475 1.1900 
*I *10:g B *C 3.9475 1.2350 
*I *19:g B *C 1.3975 1.1500 
*I *21:g B *C 2.2725 1.1900 
*N *43:2 *C 1.4250 0.8850 
*N *43:5 *C 2.2725 0.8975 
*N *43:6 *C 2.0200 0.9350 
*N *43:9 *C 2.8100 0.9350 
*N *43:12 *C 3.9100 0.8500 
*N *43:14 *C 2.8100 0.9350 
*N *43:15 *C 1.9000 0.9400 

*CAP
0 *21:g 6.37451e-17
1 *19:g 4.83326e-17
2 *10:g 6.98707e-17
3 *4:g 5.19448e-17
4 *29:g 7.64276e-17
5 *27:g 5.25172e-17
6 *46:g 9.38347e-17
7 *36:g 6.87923e-17
8 *43:15 5.61785e-17
9 *43:5 4.80335e-17
10 *43:2 1.15932e-16
11 *43:6 8.26787e-17
12 *43:9 2.70541e-16
13 *43:12 1.95091e-16
14 *43 2.21821e-17

*RES
0 *19:g *43:2 19.691952  // $poly_conn
1 *43:2 *27:g 63.281693  // $poly_conn
2 *21:g *43:5 34.104404  // $poly_conn
3 *43:5 *43:6 95.558266  // $poly_conn
4 *43:5 *29:g 104.617226  // $poly_conn
5 *4:g *43:9 16.15522  // $poly_conn
6 *43:9 *36:g 105.898811  // $poly_conn
7 *10:g *43:12 49.488552  // $poly_conn
8 *43:12 *46:g 84.103943  // $poly_conn
9 *43:12 *43:14 45.909889  // $metal1_conn
10 *43:14 *43:6 0.602893  // $metal1_conn
11 *43:6 *43:15 0.065957  // $metal1_conn
12 *43:15 *43:2 45.36005  // $metal1_conn
13 *43:15 *43 0.052171  // $metal1_conn
14 *43:9 *43:14 45  // $metal1_conn

*END

*D_NET *18 9.50514e-16

*CONN
*P *18 I *C 1.9000 0.4750 
*I *34:g B *C 2.5825 0.3825 
*I *44:g B *C 3.8425 0.3825 
*I *28:g B *C 1.6025 0.5025 
*I *3:g B *C 2.6425 1.1900 
*I *9:g B *C 3.7675 1.2350 
*I *20:g B *C 1.6025 1.1500 
*N *18:2 *C 1.6025 0.6825 
*N *18:4 *C 1.8950 0.5550 
*N *18:6 *C 2.6200 0.5850 
*N *18:9 *C 3.7675 0.5825 
*N *18:10 *C 3.6100 0.5300 
*N *18:12 *C 2.6200 0.5850 

*CAP
0 *20:g 5.28396e-17
1 *9:g 7.60156e-17
2 *3:g 7.9418e-17
3 *28:g 2.71684e-17
4 *44:g 5.39513e-17
5 *34:g 3.3147e-17
6 *18:9 5.15866e-17
7 *18:2 3.20379e-17
8 *18:4 1.1187e-16
9 *18:6 2.36888e-16
10 *18:10 1.63613e-16
11 *18 3.19787e-17

*RES
0 *20:g *18:2 78.976196  // $poly_conn
1 *18:2 *28:g 18.71979  // $poly_conn
2 *18:2 *18:4 122.977585  // $poly_conn
3 *3:g *18:6 105.898811  // $poly_conn
4 *18:6 *34:g 16.15522  // $poly_conn
5 *44:g *18:9 37.164749  // $poly_conn
6 *18:9 *18:10 76.289795  // $poly_conn
7 *18:9 *9:g 122.864586  // $poly_conn
8 *18:10 *18:12 0.79363  // $metal1_conn
9 *18:12 *18:4 0.554259  // $metal1_conn
10 *18:4 *18 0.038711  // $metal1_conn
11 *18:6 *18:12 45  // $metal1_conn

*END

*D_NET *23 9.61522e-17

*CONN
*P *23 O *C 0.3000 0.6650 
*I *24:d B *C 0.3100 0.5300 
*I *25:d B *C 0.3100 0.5300 
*I *15:d B *C 0.3100 1.0950 
*I *16:d B *C 0.3100 1.0950 

*CAP
0 *15:d 7.00661e-17
1 *24:d 2.60861e-17

*RES
0 *23 *24:d 75.054222  // $metal1_conn
1 *15:d *23 20.983358  // $metal1_conn

*END

*D_NET *1 1.40196e-16

*CONN
*P *1 O *C 4.5000 0.6650 
*I *50:d B *C 4.4650 0.5300 
*I *51:d B *C 4.4650 0.5300 
*I *12:d B *C 4.4000 1.1950 
*I *14:d B *C 4.4000 1.1950 
*N *1:2 *C 4.4650 0.6000 

*CAP
0 *12:d 8.55196e-17
1 *50:d 4.74453e-17
2 *1 7.23096e-18

*RES
0 *1 *1:2 0.012592  // $metal1_conn
1 *1:2 *12:d 21.190697  // $metal1_conn
2 *50:d *1:2 75  // $metal1_conn

*END

*D_NET *49 2.35235e-18

*CONN
*I *46:s B *C 4.0100 0.3825 
*I *48:d B *C 4.0100 0.3825 

*CAP
0 *46:s 2.35235e-18

*RES
0 *48:d *46:s 0.001  // $mwires

*END

*D_NET *47 1.82656e-18

*CONN
*I *44:s B *C 3.8950 0.3825 
*I *46:d B *C 3.8950 0.3825 

*CAP
0 *44:s 1.82656e-18

*RES
0 *46:d *44:s 0.001  // $mwires

*END

*D_NET *45 0

*CONN
*I *22:d B *C 2.3250 0.3825 
*I *29:s B *C 2.3250 0.3825 


*RES
0 *29:s *22:d 0.001  // $mwires

*END

*D_NET *42 2.91847e-18

*CONN
*I *10:s B *C 4.0100 1.2350 
*I *11:d B *C 4.0100 1.2350 

*CAP
0 *10:s 2.91847e-18

*RES
0 *11:d *10:s 0.001  // $mwires

*END

*D_NET *39 4.17588e-18

*CONN
*I *9:s B *C 3.8575 1.2350 
*I *10:d B *C 3.8575 1.2350 

*CAP
0 *9:s 4.17588e-18

*RES
0 *10:d *9:s 0.001  // $mwires

*END

*D_NET *37 2.06198e-18

*CONN
*I *13:d B *C 2.3250 1.1900 
*I *21:s B *C 2.3250 1.1900 

*CAP
0 *13:d 2.06198e-18

*RES
0 *21:s *13:d 0.001  // $mwires

*END

*D_NET *35 1.09112e-15

*CONN
*I *41:g B *C 3.2575 0.3825 
*I *24:g B *C 0.2075 0.5300 
*I *25:g B *C 0.4125 0.5300 
*I *28:d B *C 1.6950 0.5025 
*I *29:d B *C 2.2000 0.3825 
*I *8:g B *C 3.2475 1.1050 
*I *15:g B *C 0.2075 1.0950 
*I *16:g B *C 0.4125 1.0950 
*I *20:d B *C 1.6950 1.1500 
*I *21:d B *C 2.1800 1.1900 
*N *35:6 *C 0.5000 0.7600 
*N *35:9 *C 3.2525 0.8725 
*N *35:11 *C 3.4700 1.0100 
*N *35:12 *C 2.1700 1.2750 
*N *35:14 *C 1.7050 1.2450 
*N *35:15 *C 0.8400 0.7600 
*N *35:17 *C 1.7050 0.3850 

*CAP
0 *21:d 2.4568e-17
1 *20:d 1.27417e-16
2 *16:g 7.94556e-17
3 *8:g 4.07873e-17
4 *29:d 6.23814e-17
5 *28:d 2.00621e-17
6 *41:g 5.36926e-17
7 *35:17 1.38501e-16
8 *35:15 1.57944e-16
9 *35:12 1.2628e-16
10 *35:9 3.50337e-17
11 *35:6 3.35117e-17
12 *35:11 1.91484e-16

*RES
0 *35:9 *8:g 18.601831  // $poly_conn
1 *41:g *35:9 96.759262  // $poly_conn
2 *35:9 *35:11 109.022179  // $poly_conn
3 *16:g *35:6 51.352463  // $poly_conn
4 *35:11 *35:12 1.120156  // $metal1_conn
5 *35:15 *35:6 0.212931  // $metal1_conn
6 *35:12 *21:d 31.037157  // $metal1_conn
7 *20:d *35:14 62  // $metal1_conn
8 *35:17 *29:d 75.374672  // $metal1_conn
9 *35:17 *28:d 75.060143  // $metal1_conn
10 *35:12 *35:14 0.332341  // $metal1_conn
11 *35:14 *35:15 0.969385  // $metal1_conn
12 *35:15 *35:17 0.874522  // $metal1_conn

*END

*D_NET *33 5.45353e-16

*CONN
*I *41:d B *C 3.4000 0.3550 
*I *44:d B *C 3.7700 0.3825 
*I *50:g B *C 4.3625 0.5300 
*I *51:g B *C 4.5675 0.5300 
*I *8:d B *C 3.4475 1.2000 
*I *9:d B *C 3.6950 1.2350 
*I *12:g B *C 4.2775 1.1950 
*I *14:g B *C 4.5225 1.1950 
*N *33:8 *C 3.7400 0.3400 
*N *33:10 *C 4.3050 0.8650 
*N *33:12 *C 3.6655 1.2000 

*CAP
0 *14:g 2.39128e-16
1 *9:d 5.3568e-17
2 *8:d 4.79658e-17
3 *50:g 5.19583e-17
4 *44:d 9.46575e-17
5 *41:d 5.80752e-17

*RES
0 *50:g *14:g 15.222872  // $poly_conn
1 *14:g *33:10 45  // $metal1_conn
2 *44:d *33:8 75  // $metal1_conn
3 *33:8 *41:d 75.272514  // $metal1_conn
4 *9:d *33:12 62  // $metal1_conn
5 *33:12 *8:d 62.128975  // $metal1_conn
6 *33:8 *33:10 0.692868  // $metal1_conn
7 *33:10 *33:12 0.614373  // $metal1_conn

*END

*D_NET *32 1.6055e-16

*CONN
*I *26:d B *C 1.0400 0.5025 
*I *27:d B *C 1.5000 0.5025 
*I *28:s B *C 1.5000 0.5025 

*CAP
0 *27:d 8.60893e-17
1 *26:d 7.44602e-17

*RES
0 *27:d *26:d 150.282043  // $metal1_conn

*END

*D_NET *31 1.5462e-16

*CONN
*I *34:d B *C 2.6850 0.3825 
*I *36:d B *C 2.6850 0.3825 
*I *38:d B *C 3.1550 0.3825 
*I *41:s B *C 3.1550 0.3825 

*CAP
0 *38:d 7.78937e-17
1 *34:d 7.67261e-17

*RES
0 *38:d *34:d 150.27623  // $metal1_conn

*END

*D_NET *7 1.23866e-16

*CONN
*I *17:d B *C 1.0750 1.0550 
*I *19:d B *C 1.5000 1.1500 
*I *20:s B *C 1.5000 1.1500 

*CAP
0 *19:d 7.43046e-17
1 *17:d 4.95612e-17

*RES
0 *17:d *19:d 124.250023  // $metal1_conn

*END

*D_NET *5 1.51595e-16

*CONN
*I *3:d B *C 2.7450 1.1900 
*I *4:d B *C 2.7450 1.1900 
*I *6:d B *C 3.1950 1.1050 
*I *8:s B *C 3.1950 1.1050 

*CAP
0 *6:d 7.27464e-17
1 *3:d 7.88486e-17

*RES
0 *6:d *3:d 124.234528  // $metal1_conn

*END

