*SPEF "IEEE 1481-1999"
*DESIGN  "ADDHX2"
*DATE "Mon Sep 27 08:42:52 2010"
*VENDOR "Cadence Design Systems"
*PROGRAM "Assura RCX"
*VERSION "3.2 Red Hat Linux release 7.2 (Enigma) - (09/09/2009-10:39)"
*DESIGN_FLOW "Physical Verification"
*DIVIDER /
*DELIMITER :
*BUS_DELIMITER []
*T_UNIT 1 PS
*C_UNIT 1e15 FF
*R_UNIT 1 OHM
*L_UNIT 1 MH
// DeviceFingerDelim "@"
// MATCHED
// caps2d version: 10

*NAME_MAP
*1 VDD
*2 mn7
*3 mn6
*4 mn8
*5 mn8\@1
*6 mn0
*7 VSS
*8 mp5\@1
*9 mn4
*10 mp1
*11 mn3
*12 mn2
*13 mn5
*14 A
*15 B
*16 n1
*17 n3
*18 n4
*19 S
*20 n2
*21 Sb
*22 n0
*23 mp7
*24 COb
*25 mp6
*26 mp8
*27 mp8\@1
*28 mp0
*29 mp4
*30 mp3
*31 mp2
*32 mp5
*33 mn5\@1
*34 mn1
*35 CO

*GROUND_NETS VSS

*PORTS
*1 I
*7 I
*14 I
*15 I
*35 O
*19 O

*D_NET *1 3.70775e-16

*CONN
*P *1 I *C 0.1000 1.7100 
*I *23:s B *C 0.2450 1.1325 
*I *25:s B *C 0.7750 1.2200 
*I *26:s B *C 0.7750 1.2200 
*I *27:s B *C 1.1850 1.5700 
*I *28:s B *C 1.1850 1.5700 
*I *31:s B *C 2.2000 1.0950 
*I *32:s B *C 2.2000 1.0950 
*I *8:s B *C 2.6100 1.3450 
*I *10:s B *C 2.6100 1.3450 
*N *1:3 *C 0.8000 1.7100 
*N *1:6 *C 0.2350 1.7100 

*CAP
0 *8:s 8.55309e-17
1 *27:s 7.40923e-17
2 *23:s 2.69057e-17
3 *1:6 6.25642e-18
4 *1:3 1.75114e-16
5 *1 2.87551e-18

*RES
0 *1:6 *1 0.067231  // $metal1_conn
1 *1:3 *27:s 9.375  // $metal1_conn
2 *1:3 *8:s 10.714286  // $metal1_conn
3 *1:6 *23:s 62.333923  // $metal1_conn
4 *27:s *8:s 0.462914  // $metal1_conn
5 *27:s *1:6 0.212667  // $metal1_conn

*END

*D_NET *7 0

*CONN
*P *7 I *C 0.1000 0.0000 
*I *3:s B *C 0.6800 0.5300 
*I *4:s B *C 0.6800 0.5300 
*I *5:s B *C 1.1500 0.5875 
*I *6:s B *C 1.1500 0.5875 
*I *12:s B *C 2.1200 0.5300 
*I *13:s B *C 2.1200 0.5300 
*I *33:s B *C 2.5950 0.5875 
*I *34:s B *C 2.5950 0.5875 
*N *7:2 *C 2.3000 0.0000 


*RES
0 *5:s *7 0.247705  // $metal1_conn
1 *7:2 *33:s 8.857142  // $metal1_conn
2 *7:2 *5:s 7.75  // $metal1_conn
3 *33:s *5:s 0.483985  // $metal1_conn

*END

*D_NET *14 4.56214e-16

*CONN
*P *14 I *C 0.7000 1.0450 
*I *3:g B *C 0.5325 0.5875 
*I *6:g B *C 1.1975 0.5875 
*I *25:g B *C 0.5575 1.1325 
*I *28:g B *C 1.2275 1.1325 
*N *14:1 *C 0.6750 0.9250 
*N *14:2 *C 0.5675 0.9400 
*N *14:7 *C 1.3300 1.3400 

*CAP
0 *28:g 4.23418e-17
1 *25:g 2.28736e-17
2 *6:g 4.90091e-17
3 *3:g 5.05057e-17
4 *14:2 2.30644e-17
5 *14:1 1.59779e-16
6 *14:7 1.0864e-16

*RES
0 *14:1 *14:2 56.563171  // $poly_conn
1 *14:2 *3:g 78.687447  // $poly_conn
2 *14:2 *25:g 18.633196  // $poly_conn
3 *6:g *28:g 100.749367  // $poly_conn
4 *28:g *14:7 71.139587  // $poly_conn
5 *14:1 *14 0.008457  // $metal1_conn
6 *14 *14:7 0.606936  // $metal1_conn

*END

*D_NET *15 8.98485e-16

*CONN
*P *15 I *C 0.3000 0.6650 
*I *2:g B *C 0.2825 0.5875 
*I *11:g B *C 1.7975 0.5875 
*I *34:g B *C 2.6475 0.5875 
*I *23:g B *C 0.3375 1.1325 
*I *29:g B *C 1.4725 1.1325 
*I *10:g B *C 2.6475 1.0075 
*N *15:2 *C 0.3100 0.7700 
*N *15:5 *C 1.4900 0.9000 
*N *15:7 *C 1.7700 0.2600 
*N *15:10 *C 2.7250 0.3950 
*N *15:11 *C 1.7700 0.3950 
*N *15:12 *C 1.4900 0.3950 

*CAP
0 *10:g 4.79601e-17
1 *29:g 5.1302e-17
2 *23:g 3.17012e-17
3 *34:g 2.56534e-17
4 *11:g 8.06872e-17
5 *2:g 1.82848e-17
6 *15:12 1.4174e-16
7 *15:11 8.58936e-17
8 *15:2 7.00034e-17
9 *15:5 1.0382e-16
10 *15:7 5.05719e-17
11 *15:10 9.48417e-17
12 *15 9.60255e-17

*RES
0 *23:g *15:2 56.871437  // $poly_conn
1 *15:2 *2:g 19.691952  // $poly_conn
2 *29:g *15:5 66.244827  // $poly_conn
3 *11:g *15:7 101.871437  // $poly_conn
4 *10:g *34:g 61.538464  // $poly_conn
5 *34:g *15:10 74.935188  // $poly_conn
6 *15:10 *15:11 0.66809  // $metal1_conn
7 *15:11 *15:12 0.224151  // $metal1_conn
8 *15:12 *15 1.035999  // $metal1_conn
9 *15 *15:2 45.069923  // $metal1_conn
10 *15:11 *15:7 0.052638  // $metal1_conn
11 *15:12 *15:5 0.378866  // $metal1_conn

*END

*D_NET *35 1.93778e-16

*CONN
*P *35 O *C 1.1000 1.0450 
*I *4:d B *C 0.8300 0.5300 
*I *5:d B *C 0.8300 0.5300 
*I *26:d B *C 0.9250 1.2200 
*I *27:d B *C 0.9250 1.2200 

*CAP
0 *26:d 3.90628e-17
1 *4:d 9.28372e-17
2 *35 6.18782e-17

*RES
0 *26:d *35 62.112148  // $metal1_conn
1 *35 *4:d 75.417725  // $metal1_conn

*END

*D_NET *19 1.20914e-16

*CONN
*P *19 O *C 2.3000 0.6650 
*I *13:d B *C 2.2700 0.5300 
*I *33:d B *C 2.2700 0.5300 
*I *32:d B *C 2.3500 1.0950 
*I *8:d B *C 2.3500 1.0950 

*CAP
0 *32:d 6.30562e-17
1 *13:d 3.67126e-17
2 *19 2.11454e-17

*RES
0 *13:d *19 75.06443  // $metal1_conn
1 *19 *32:d 62.172905  // $metal1_conn

*END

*D_NET *20 0

*CONN
*I *11:s B *C 1.8500 0.5875 
*I *12:d B *C 1.8500 0.5875 


*RES
0 *12:d *11:s 0.001  // $mwires

*END

*D_NET *18 3.83887e-19

*CONN
*I *2:s B *C 0.4075 0.5875 
*I *3:d B *C 0.4075 0.5875 

*CAP
0 *2:s 3.83887e-19

*RES
0 *3:d *2:s 0.001  // $mwires

*END

*D_NET *17 0

*CONN
*I *30:s B *C 1.8525 1.1325 
*I *31:d B *C 1.8525 1.1325 


*RES
0 *31:d *30:s 0.001  // $mwires

*END

*D_NET *16 3.93489e-16

*CONN
*I *9:g B *C 1.5925 0.5875 
*I *34:d B *C 2.7400 0.5875 
*I *30:g B *C 1.7525 1.1325 
*I *10:d B *C 2.7400 1.0075 
*N *16:2 *C 1.7525 0.9250 
*N *16:4 *C 1.8100 0.9250 
*N *16:6 *C 2.7500 0.9600 

*CAP
0 *10:d 7.9733e-17
1 *30:g 4.27587e-17
2 *34:d 3.29333e-17
3 *9:g 3.74799e-17
4 *16:2 4.32628e-17
5 *16:4 1.57322e-16

*RES
0 *30:g *16:2 15.869391  // $poly_conn
1 *16:2 *9:g 84.446159  // $poly_conn
2 *16:2 *16:4 48.315495  // $poly_conn
3 *16:4 *16:6 0.869053  // $metal1_conn
4 *16:6 *34:d 75.235558  // $metal1_conn
5 *10:d *16:6 62  // $metal1_conn

*END

*D_NET *24 4.23541e-16

*CONN
*I *2:d B *C 0.1650 0.5875 
*I *4:g B *C 0.7275 0.5300 
*I *5:g B *C 0.9325 0.5300 
*I *23:d B *C 0.4475 1.1325 
*I *25:d B *C 0.4475 1.1325 
*I *26:g B *C 0.8225 1.2200 
*I *27:g B *C 1.0275 1.2200 
*N *24:8 *C 0.4700 0.9600 

*CAP
0 *27:g 2.57668e-16
1 *23:d 2.45448e-17
2 *2:d 5.1601e-17
3 *24:8 8.97276e-17

*RES
0 *24:8 *27:g 45.440193  // $metal1_conn
1 *24:8 *2:d 75.481018  // $metal1_conn
2 *23:d *24:8 62.112694  // $metal1_conn

*END

*D_NET *22 4.15518e-16

*CONN
*I *6:d B *C 1.3950 0.5875 
*I *9:s B *C 1.3950 0.5875 
*I *12:g B *C 1.9025 0.5875 
*I *28:d B *C 1.3500 1.1325 
*I *29:s B *C 1.3500 1.1325 
*I *31:g B *C 1.9525 1.1325 
*N *22:3 *C 1.8950 1.3400 
*N *22:5 *C 1.3300 1.1200 

*CAP
0 *31:g 5.26496e-17
1 *28:d 1.0552e-16
2 *12:g 9.26411e-17
3 *6:d 7.80582e-17
4 *22:3 8.66496e-17

*RES
0 *12:g *31:g 94.582222  // $poly_conn
1 *31:g *22:3 65.156593  // $poly_conn
2 *22:3 *22:5 0.503225  // $metal1_conn
3 *22:5 *6:d 75.342346  // $metal1_conn
4 *28:d *22:5 62  // $metal1_conn

*END

*D_NET *21 3.86222e-16

*CONN
*I *9:d B *C 1.6950 0.5875 
*I *11:d B *C 1.6950 0.5875 
*I *13:g B *C 2.1675 0.5300 
*I *33:g B *C 2.3725 0.5300 
*I *29:d B *C 1.6125 1.1325 
*I *30:d B *C 1.6125 1.1325 
*I *32:g B *C 2.2475 1.0950 
*I *8:g B *C 2.4525 1.0950 
*N *21:9 *C 1.6500 0.7350 

*CAP
0 *8:g 2.40184e-16
1 *29:d 4.69851e-17
2 *9:d 3.49323e-17
3 *21:9 6.41203e-17

*RES
0 *21:9 *9:d 75.111481  // $metal1_conn
1 *29:d *21:9 62.2687  // $metal1_conn
2 *21:9 *8:g 45.331024  // $metal1_conn

*END

