*SPEF "IEEE 1481-1999"
*DESIGN  "ADDHX1"
*DATE "Mon Sep 27 08:42:29 2010"
*VENDOR "Cadence Design Systems"
*PROGRAM "Assura RCX"
*VERSION "3.2 Red Hat Linux release 7.2 (Enigma) - (09/09/2009-10:39)"
*DESIGN_FLOW "Physical Verification"
*DIVIDER /
*DELIMITER :
*BUS_DELIMITER []
*T_UNIT 1 PS
*C_UNIT 1e15 FF
*R_UNIT 1 OHM
*L_UNIT 1 MH
// DeviceFingerDelim "@"
// MATCHED
// caps2d version: 10

*NAME_MAP
*1 mp7
*2 mp1
*3 mp0
*4 mp4
*5 mp3
*6 mp2
*7 mp5
*8 mn8
*9 mn6
*10 mn7
*11 mn1
*12 mn0
*13 mn4
*14 CO
*15 mn3
*16 mn2
*17 mn5
*18 VDD
*19 A
*20 B
*21 Sb
*22 COb
*23 n1
*24 VSS
*25 n0
*26 n3
*27 n4
*28 n2
*29 S
*30 mp8
*31 mp6

*GROUND_NETS VSS

*PORTS
*18 I
*24 I
*19 I
*20 I
*14 O
*29 O

*D_NET *18 3.56709e-16

*CONN
*P *18 I *C 0.1000 1.7100 
*I *30:s B *C 0.3500 1.2175 
*I *31:s B *C 0.3500 1.2175 
*I *1:s B *C 0.7600 1.5000 
*I *2:s B *C 1.0750 1.1825 
*I *3:s B *C 1.0750 1.1825 
*I *6:s B *C 1.9050 1.0950 
*I *7:s B *C 1.9050 1.0950 
*N *18:2 *C 1.1000 1.7100 
*N *18:3 *C 1.1000 1.7100 
*N *18:4 *C 0.7350 1.7100 
*N *18:5 *C 0.2650 1.7100 

*CAP
0 *6:s 6.50448e-17
1 *2:s 6.75528e-17
2 *1:s 1.06707e-17
3 *30:s 4.94459e-18
4 *18:5 7.27861e-18
5 *18:4 1.02283e-17
6 *18:2 1.82694e-16
7 *18 8.29544e-18

*RES
0 *6:s *18:3 62.783493  // $metal1_conn
1 *18:3 *18:4 0.18309  // $metal1_conn
2 *18:4 *18:5 0.23562  // $metal1_conn
3 *18:5 *18 0.082408  // $metal1_conn
4 *18:3 *2:s 62.395985  // $metal1_conn
5 *18:4 *1:s 31.122208  // $metal1_conn
6 *18:5 *30:s 62.083984  // $metal1_conn
7 *18:2 *18:3 6.818182  // $metal1_conn

*END

*D_NET *24 0

*CONN
*P *24 I *C 0.1000 0.0000 
*I *8:s B *C 0.3550 0.4625 
*I *9:s B *C 0.3550 0.4625 
*I *11:s B *C 1.1350 0.5825 
*I *12:s B *C 1.1350 0.5825 
*I *16:s B *C 1.9050 0.5250 
*I *17:s B *C 1.9050 0.5250 
*N *24:2 *C 1.1000 0.0000 
*N *24:3 *C 1.1000 0.0000 
*N *24:4 *C 1.0200 0.0000 
*N *24:5 *C 0.3050 0.0000 


*RES
0 *16:s *24:3 75.834595  // $metal1_conn
1 *24:3 *24:4 0.040019  // $metal1_conn
2 *24:4 *24:5 0.357696  // $metal1_conn
3 *24:5 *24 0.101543  // $metal1_conn
4 *24:4 *11:s 75.120674  // $metal1_conn
5 *24:5 *8:s 75.215652  // $metal1_conn
6 *24:2 *24:3 5.636364  // $metal1_conn

*END

*D_NET *19 6.04897e-16

*CONN
*P *19 I *C 0.3300 0.6650 
*I *9:g B *C 0.4075 0.4625 
*I *12:g B *C 1.1825 0.5825 
*I *31:g B *C 0.3975 1.2175 
*I *3:g B *C 1.1825 1.1825 
*N *19:2 *C 0.4000 0.6550 
*N *19:5 *C 1.1700 0.7750 
*N *19:7 *C 0.4000 0.6550 

*CAP
0 *3:g 5.1138e-17
1 *31:g 6.28232e-17
2 *12:g 2.59683e-17
3 *9:g 3.8793e-17
4 *19:2 2.10924e-16
5 *19:5 1.9253e-16
6 *19 2.27201e-17

*RES
0 *9:g *19:2 21.283424  // $poly_conn
1 *19:2 *31:g 107.180855  // $poly_conn
2 *3:g *19:5 66.116623  // $poly_conn
3 *19:5 *12:g 19.962778  // $poly_conn
4 *19:5 *19:7 46.12682  // $metal1_conn
5 *19:7 *19 0.041921  // $metal1_conn
6 *19:2 *19:7 45  // $metal1_conn

*END

*D_NET *20 5.20672e-16

*CONN
*P *20 I *C 0.6050 0.8250 
*I *10:g B *C 0.5425 0.4625 
*I *11:g B *C 0.9675 0.5825 
*I *15:g B *C 1.6675 0.5825 
*I *1:g B *C 0.6025 1.2175 
*I *2:g B *C 0.9675 1.1825 
*I *4:g B *C 1.4625 1.1825 
*N *20:4 *C 0.9675 0.8625 
*N *20:5 *C 0.5850 0.8250 

*CAP
0 *4:g 9.89816e-17
1 *2:g 4.94809e-17
2 *1:g 2.64653e-17
3 *15:g 1.00572e-16
4 *11:g 2.78163e-17
5 *10:g 3.95466e-17
6 *20:4 2.6184e-17
7 *20:5 1.51626e-16

*RES
0 *15:g *4:g 136.600357  // $poly_conn
1 *4:g *2:g 218.941208  // $poly_conn
2 *2:g *20:4 53.335175  // $poly_conn
3 *20:4 *20:5 82.570953  // $poly_conn
4 *20:5 *10:g 63.552521  // $poly_conn
5 *20:4 *11:g 52.053123  // $poly_conn
6 *20:5 *1:g 62.27047  // $poly_conn
7 *20:5 *20 45.012814  // $metal1_conn

*END

*D_NET *14 1.23771e-16

*CONN
*P *14 O *C 0.0900 0.9950 
*I *8:d B *C 0.1100 0.4050 
*I *30:d B *C 0.1100 1.1300 

*CAP
0 *30:d 3.22801e-17
1 *8:d 5.45374e-17
2 *14 3.69536e-17

*RES
0 *30:d *14 20.755156  // $metal1_conn
1 *14 *8:d 37.926365  // $metal1_conn

*END

*D_NET *29 9.54696e-17

*CONN
*P *29 O *C 2.0900 0.8550 
*I *17:d B *C 2.0700 0.5250 
*I *7:d B *C 2.0700 1.0950 

*CAP
0 *7:d 3.58501e-17
1 *17:d 3.60445e-17
2 *29 2.3575e-17

*RES
0 *29 *17:d 37.706085  // $metal1_conn
1 *29 *7:d 20.81143  // $metal1_conn

*END

*D_NET *28 0

*CONN
*I *15:s B *C 1.7200 0.5825 
*I *16:d B *C 1.7200 0.5825 


*RES
0 *16:d *15:s 0.001  // $mwires

*END

*D_NET *27 1.40379e-18

*CONN
*I *9:d B *C 0.4750 0.4625 
*I *10:s B *C 0.4750 0.4625 

*CAP
0 *9:d 1.40379e-18

*RES
0 *10:s *9:d 0.001  // $mwires

*END

*D_NET *26 0

*CONN
*I *5:s B *C 1.7200 1.1825 
*I *6:d B *C 1.7200 1.1825 


*RES
0 *6:d *5:s 0.001  // $mwires

*END

*D_NET *25 5.20163e-16

*CONN
*I *12:d B *C 1.3200 0.5825 
*I *13:s B *C 1.3200 0.5825 
*I *16:g B *C 1.7725 0.5825 
*I *3:d B *C 1.3225 1.1825 
*I *4:s B *C 1.3225 1.1825 
*I *6:g B *C 1.7725 1.1825 
*N *25:3 *C 1.7250 0.2800 
*N *25:5 *C 1.3100 0.5950 

*CAP
0 *6:g 9.08127e-17
1 *3:d 1.13907e-16
2 *16:g 7.93537e-17
3 *12:d 1.42062e-16
4 *25:3 9.40286e-17

*RES
0 *6:g *16:g 107.692307  // $poly_conn
1 *16:g *25:3 94.488556  // $poly_conn
2 *25:3 *25:5 0.489954  // $metal1_conn
3 *25:5 *3:d 62.448906  // $metal1_conn
4 *12:d *25:5 75  // $metal1_conn

*END

*D_NET *23 6.64512e-16

*CONN
*I *11:d B *C 0.8750 0.5825 
*I *13:g B *C 1.4575 0.5825 
*I *2:d B *C 0.8950 1.1825 
*I *5:g B *C 1.6675 1.1825 
*N *23:2 *C 1.4300 0.7850 
*N *23:4 *C 1.6300 1.4100 
*N *23:5 *C 1.4450 1.4100 
*N *23:6 *C 0.8650 1.0000 

*CAP
0 *5:g 5.87358e-17
1 *2:d 1.89794e-17
2 *13:g 2.66045e-17
3 *11:d 6.78246e-17
4 *23:6 1.25172e-16
5 *23:5 1.35497e-16
6 *23:2 1.67031e-16
7 *23:4 6.46673e-17

*RES
0 *13:g *23:2 69.82016  // $poly_conn
1 *5:g *23:4 66.283424  // $poly_conn
2 *23:4 *23:5 0.140288  // $metal1_conn
3 *23:5 *23:6 0.76407  // $metal1_conn
4 *23:6 *11:d 75.32637  // $metal1_conn
5 *23:5 *23:2 0.552573  // $metal1_conn
6 *23:6 *2:d 62.092335  // $metal1_conn

*END

*D_NET *22 4.30807e-16

*CONN
*I *8:g B *C 0.2025 0.4050 
*I *10:d B *C 0.6350 0.4625 
*I *30:g B *C 0.2025 1.1300 
*I *31:d B *C 0.5000 1.2175 
*I *1:d B *C 0.5000 1.2175 
*N *22:1 *C 0.2600 0.8250 
*N *22:2 *C 0.2025 0.8250 
*N *22:6 *C 0.5000 0.9550 

*CAP
0 *31:d 2.27259e-17
1 *30:g 4.1803e-17
2 *10:d 1.30382e-16
3 *8:g 4.88735e-17
4 *22:6 1.02724e-16
5 *22:2 4.03678e-17
6 *22:1 4.39314e-17

*RES
0 *22:1 *22:2 45.778431  // $poly_conn
1 *22:2 *8:g 67.688583  // $poly_conn
2 *22:2 *30:g 21.534737  // $poly_conn
3 *10:d *22:6 75.687485  // $metal1_conn
4 *22:6 *22:1 0.265375  // $metal1_conn
5 *22:6 *31:d 62.181633  // $metal1_conn

*END

*D_NET *21 2.98158e-16

*CONN
*I *13:d B *C 1.5625 0.5825 
*I *15:d B *C 1.5625 0.5825 
*I *17:g B *C 1.9775 0.5250 
*I *4:d B *C 1.5650 1.1825 
*I *5:d B *C 1.5650 1.1825 
*I *7:g B *C 1.9775 1.0950 
*N *21:2 *C 1.9300 0.7600 
*N *21:4 *C 1.5650 0.7600 

*CAP
0 *7:g 4.81399e-17
1 *4:d 6.12375e-17
2 *17:g 3.80046e-17
3 *13:d 2.78538e-17
4 *21:4 6.15029e-17
5 *21:2 6.14194e-17

*RES
0 *7:g *21:2 26.411629  // $poly_conn
1 *21:2 *17:g 17.437269  // $poly_conn
2 *21:2 *21:4 45.238049  // $metal1_conn
3 *21:4 *13:d 75.134895  // $metal1_conn
4 *21:4 *4:d 62.357639  // $metal1_conn

*END

