*SPEF "IEEE 1481-1999"
*DESIGN  "ADDHXL"
*DATE "Mon Sep 27 08:43:37 2010"
*VENDOR "Cadence Design Systems"
*PROGRAM "Assura RCX"
*VERSION "3.2 Red Hat Linux release 7.2 (Enigma) - (09/09/2009-10:39)"
*DESIGN_FLOW "Physical Verification"
*DIVIDER /
*DELIMITER :
*BUS_DELIMITER []
*T_UNIT 1 PS
*C_UNIT 1e15 FF
*R_UNIT 1 OHM
*L_UNIT 1 MH
// DeviceFingerDelim "@"
// MATCHED
// caps2d version: 10

*NAME_MAP
*1 mp6
*2 mp7
*3 mp1
*4 mp0
*5 mp4
*6 mp3
*7 mp2
*8 mp5
*9 mn8
*10 mn6
*11 mn7
*12 mn1
*13 mn0
*14 mn4
*15 mn3
*16 mn2
*17 mn5
*18 A
*19 B
*20 Sb
*21 COb
*22 VSS
*23 n0
*24 n1
*25 n3
*26 n4
*27 n2
*28 S
*29 VDD
*30 CO
*31 mp8

*GROUND_NETS VSS

*PORTS
*29 I
*22 I
*18 I
*19 I
*30 O
*28 O

*D_NET *29 3.28796e-16

*CONN
*P *29 I *C 0.1000 1.7100 
*I *31:s B *C 0.5550 1.5700 
*I *1:s B *C 0.5550 1.5700 
*I *2:s B *C 0.9750 1.5700 
*I *3:s B *C 1.5050 1.1225 
*I *4:s B *C 1.5050 1.1225 
*I *7:s B *C 2.5500 1.5700 
*I *8:s B *C 2.5500 1.5700 
*N *29:2 *C 2.1000 1.7100 
*N *29:3 *C 2.1000 1.7100 
*N *29:4 *C 1.4550 1.7100 
*N *29:5 *C 0.9500 1.7100 
*N *29:6 *C 0.7000 1.7100 
*N *29:7 *C 0.5300 1.7100 

*CAP
0 *7:s 1.44936e-17
1 *3:s 5.237e-17
2 *2:s 9.68533e-18
3 *31:s 1.70983e-17
4 *29:7 7.06572e-18
5 *29:5 6.75059e-18
6 *29:4 1.69355e-17
7 *29:2 2.01011e-16
8 *29 3.38621e-18

*RES
0 *7:s *29:3 62.309803  // $metal1_conn
1 *29:3 *29:4 0.323045  // $metal1_conn
2 *29:4 *29:5 0.252688  // $metal1_conn
3 *29:5 *29:6 0.125091  // $metal1_conn
4 *29:6 *29:7 0.084999  // $metal1_conn
5 *29:7 *29 0.215047  // $metal1_conn
6 *29:4 *3:s 62.34296  // $metal1_conn
7 *29:5 *2:s 62.074203  // $metal1_conn
8 *29:7 *31:s 62.074203  // $metal1_conn
9 *29:2 *29:3 10.714286  // $metal1_conn
10 *29:2 *29:6 10.714286  // $metal1_conn

*END

*D_NET *22 0

*CONN
*P *22 I *C 0.1000 0.0000 
*I *9:s B *C 0.5050 0.4825 
*I *10:s B *C 0.5050 0.4825 
*I *12:s B *C 1.5000 0.5125 
*I *13:s B *C 1.5000 0.5125 
*I *16:s B *C 2.5400 0.5125 
*I *17:s B *C 2.5400 0.5125 
*N *22:2 *C 2.1000 0.0000 
*N *22:3 *C 2.1000 0.0000 
*N *22:4 *C 1.4750 0.0000 
*N *22:5 *C 0.7000 0.0000 
*N *22:6 *C 0.5300 0.0000 


*RES
0 *16:s *22:3 75.319084  // $metal1_conn
1 *22:3 *22:4 0.313022  // $metal1_conn
2 *22:4 *22:5 0.388194  // $metal1_conn
3 *22:5 *22:6 0.084999  // $metal1_conn
4 *22:6 *22 0.215047  // $metal1_conn
5 *22:4 *12:s 75.345421  // $metal1_conn
6 *22:6 *9:s 75.299927  // $metal1_conn
7 *22:2 *22:3 8.857142  // $metal1_conn
8 *22:2 *22:5 8.857142  // $metal1_conn

*END

*D_NET *18 6.78038e-16

*CONN
*P *18 I *C 0.5000 0.6650 
*I *10:g B *C 0.6125 0.4825 
*I *13:g B *C 1.6275 0.5125 
*I *1:g B *C 0.6125 1.2175 
*I *4:g B *C 1.6275 1.1225 
*N *18:2 *C 0.6125 0.6650 
*N *18:3 *C 0.5300 0.6650 
*N *18:7 *C 1.6650 0.3350 

*CAP
0 *4:g 6.4579e-17
1 *1:g 7.05029e-17
2 *13:g 2.74989e-17
3 *10:g 3.07541e-17
4 *18:2 4.57047e-17
5 *18:3 3.06859e-17
6 *18:7 2.22394e-16
7 *18 1.85918e-16

*RES
0 *1:g *18:2 110.791527  // $poly_conn
1 *18:2 *18:3 47.861767  // $poly_conn
2 *18:2 *10:g 24.894089  // $poly_conn
3 *4:g *13:g 110.256416  // $poly_conn
4 *13:g *18:7 62.437271  // $poly_conn
5 *18 *18:3 0.014272  // $metal1_conn
6 *18:3 *18:7 1.493032  // $metal1_conn

*END

*D_NET *19 4.82294e-16

*CONN
*P *19 I *C 0.7000 0.8550 
*I *11:g B *C 0.7625 0.4825 
*I *12:g B *C 1.3725 0.5125 
*I *15:g B *C 2.1525 0.5125 
*I *2:g B *C 0.8175 1.2175 
*I *3:g B *C 1.3825 1.1225 
*I *5:g B *C 1.9375 1.1225 
*N *19:4 *C 1.3775 0.8875 
*N *19:5 *C 0.7900 0.8500 

*CAP
0 *5:g 7.94761e-17
1 *3:g 5.8763e-17
2 *2:g 3.06886e-17
3 *15:g 8.44011e-17
4 *12:g 2.563e-17
5 *11:g 3.60479e-17
6 *19:4 3.3937e-17
7 *19:5 7.55379e-17
8 *19 5.78126e-17

*RES
0 *15:g *5:g 149.492126  // $poly_conn
1 *5:g *3:g 237.878052  // $poly_conn
2 *3:g *19:4 31.915613  // $poly_conn
3 *19:4 *19:5 137.455994  // $poly_conn
4 *19:5 *11:g 63.965935  // $poly_conn
5 *19:4 *12:g 77.466095  // $poly_conn
6 *19:5 *2:g 55.61676  // $poly_conn
7 *19:5 *19 45.061794  // $metal1_conn

*END

*D_NET *30 1.18408e-16

*CONN
*P *30 O *C 0.3000 0.6650 
*I *9:d B *C 0.3050 0.4825 
*I *31:d B *C 0.3050 1.2175 

*CAP
0 *31:d 5.57878e-17
1 *9:d 2.59925e-17
2 *30 3.66272e-17

*RES
0 *30 *9:d 75.101753  // $metal1_conn
1 *30 *31:d 62.302277  // $metal1_conn

*END

*D_NET *28 8.93551e-17

*CONN
*P *28 O *C 2.7000 1.0450 
*I *17:d B *C 2.6800 0.5125 
*I *8:d B *C 2.6800 1.1225 
*N *28:2 *C 2.6900 1.0750 

*CAP
0 *17:d 4.20354e-17
1 *28 4.73197e-17

*RES
0 *28:2 *28 0.018638  // $metal1_conn
1 *28 *17:d 75.453568  // $metal1_conn
2 *8:d *28:2 62  // $metal1_conn

*END

*D_NET *27 7.95925e-19

*CONN
*I *15:s B *C 2.2725 0.5125 
*I *16:d B *C 2.2725 0.5125 

*CAP
0 *15:s 7.95925e-19

*RES
0 *16:d *15:s 0.001  // $mwires

*END

*D_NET *26 1.4321e-18

*CONN
*I *10:d B *C 0.6875 0.4825 
*I *11:s B *C 0.6875 0.4825 

*CAP
0 *10:d 1.4321e-18

*RES
0 *11:s *10:d 0.001  // $mwires

*END

*D_NET *25 2.20343e-18

*CONN
*I *6:s B *C 2.3400 1.1225 
*I *7:d B *C 2.3400 1.1225 

*CAP
0 *6:s 2.20343e-18

*RES
0 *7:d *6:s 0.001  // $mwires

*END

*D_NET *24 6.19864e-16

*CONN
*I *12:d B *C 1.2225 0.5125 
*I *14:g B *C 1.9475 0.5125 
*I *3:d B *C 1.2900 1.1225 
*I *6:g B *C 2.2875 1.1225 
*N *24:2 *C 1.9850 0.6900 
*N *24:4 *C 2.2600 0.8750 
*N *24:5 *C 2.0050 0.8750 
*N *24:6 *C 1.2800 1.0100 

*CAP
0 *6:g 6.00769e-17
1 *3:d 1.1765e-17
2 *14:g 4.63399e-17
3 *12:d 8.23901e-17
4 *24:6 1.48789e-16
5 *24:5 1.06326e-16
6 *24:2 7.77823e-17
7 *24:4 8.63948e-17

*RES
0 *14:g *24:2 62.437271  // $poly_conn
1 *6:g *24:4 72.384262  // $poly_conn
2 *24:4 *24:5 0.1744  // $metal1_conn
3 *24:5 *24:6 0.939903  // $metal1_conn
4 *24:6 *12:d 75.447189  // $metal1_conn
5 *24:5 *24:2 0.110945  // $metal1_conn
6 *24:6 *3:d 62.051319  // $metal1_conn

*END

*D_NET *23 4.45784e-16

*CONN
*I *13:d B *C 1.7875 0.5125 
*I *14:s B *C 1.7875 0.5125 
*I *16:g B *C 2.3925 0.5125 
*I *4:d B *C 1.7825 1.1225 
*I *5:s B *C 1.7825 1.1225 
*I *7:g B *C 2.3925 1.1225 
*N *23:3 *C 2.3550 0.3100 
*N *23:5 *C 1.7950 0.5250 

*CAP
0 *7:g 1.0014e-16
1 *4:d 8.1115e-17
2 *16:g 5.22575e-17
3 *13:d 1.26069e-16
4 *23:3 8.6202e-17

*RES
0 *7:g *16:g 110.256416  // $poly_conn
1 *16:g *23:3 68.847527  // $poly_conn
2 *23:3 *23:5 0.511709  // $metal1_conn
3 *23:5 *4:d 62.407623  // $metal1_conn
4 *13:d *23:5 75  // $metal1_conn

*END

*D_NET *21 4.1792e-16

*CONN
*I *9:g B *C 0.3975 0.4825 
*I *11:d B *C 0.8625 0.4825 
*I *31:g B *C 0.3975 1.2175 
*I *1:d B *C 0.7150 1.2175 
*I *2:d B *C 0.7150 1.2175 
*N *21:1 *C 0.4700 1.0100 
*N *21:2 *C 0.3975 1.0100 
*N *21:7 *C 0.7150 1.2650 

*CAP
0 *1:d 9.9134e-17
1 *31:g 2.9249e-17
2 *11:d 1.25323e-16
3 *9:g 5.76317e-17
4 *21:2 4.87055e-17
5 *21:1 5.78763e-17

*RES
0 *21:1 *21:2 47.294373  // $poly_conn
1 *21:2 *9:g 111.589119  // $poly_conn
2 *21:2 *31:g 20.563484  // $poly_conn
3 *11:d *21:7 75.815094  // $metal1_conn
4 *21:7 *21:1 0.342298  // $metal1_conn
5 *1:d *21:7 62  // $metal1_conn

*END

*D_NET *20 3.1665e-16

*CONN
*I *14:d B *C 2.0500 0.5125 
*I *15:d B *C 2.0500 0.5125 
*I *17:g B *C 2.5875 0.5125 
*I *5:d B *C 2.1125 1.1225 
*I *6:d B *C 2.1125 1.1225 
*I *8:g B *C 2.5875 1.1225 
*N *20:2 *C 2.5500 0.7150 
*N *20:4 *C 2.4500 0.7150 

*CAP
0 *8:g 4.07799e-17
1 *5:d 6.16771e-17
2 *17:g 3.43358e-17
3 *14:d 7.44726e-17
4 *20:4 5.4174e-17
5 *20:2 5.12107e-17

*RES
0 *8:g *20:2 67.437271  // $poly_conn
1 *20:2 *17:g 23.847527  // $poly_conn
2 *20:2 *20:4 45.077084  // $metal1_conn
3 *20:4 *14:d 75.410408  // $metal1_conn
4 *20:4 *5:d 62.414036  // $metal1_conn

*END

