*SPEF "IEEE 1481-1999"
*DESIGN  "AND2XL"
*DATE "Mon Sep 27 08:45:54 2010"
*VENDOR "Cadence Design Systems"
*PROGRAM "Assura RCX"
*VERSION "3.2 Red Hat Linux release 7.2 (Enigma) - (09/09/2009-10:39)"
*DESIGN_FLOW "Physical Verification"
*DIVIDER /
*DELIMITER :
*BUS_DELIMITER []
*T_UNIT 1 PS
*C_UNIT 1e15 FF
*R_UNIT 1 OHM
*L_UNIT 1 MH
// DeviceFingerDelim "@"
// MATCHED
// caps2d version: 10

*NAME_MAP
*1 mp0
*2 mn2
*3 VDD
*4 mp2
*5 net57
*6 net73
*7 Y
*8 A
*9 mn1
*10 B
*11 VSS
*12 mp1
*13 mn0

*GROUND_NETS VSS

*PORTS
*3 I
*11 I
*8 I
*10 I
*7 O

*D_NET *3 1.12739e-16

*CONN
*P *3 I *C 0.1000 1.7100 
*I *12:s B *C 0.1400 1.5400 
*I *1:s B *C 0.4850 1.1725 
*I *4:s B *C 0.4850 1.1725 
*N *3:2 *C 0.4000 1.7100 
*N *3:3 *C 0.4000 1.7100 

*CAP
0 *1:s 2.94907e-17
1 *12:s 5.09119e-18
2 *3:2 7.61139e-17
3 *3 2.04334e-18

*RES
0 *1:s *3:3 62.363174  // $metal1_conn
1 *3:3 *3 0.150348  // $metal1_conn
2 *3 *12:s 62.112186  // $metal1_conn
3 *3:2 *3:3 18.75  // $metal1_conn

*END

*D_NET *11 0

*CONN
*P *11 I *C 0.1000 0.0000 
*I *13:s B *C 0.4850 0.5275 
*I *2:s B *C 0.4850 0.5275 
*N *11:2 *C 0.4000 0.0000 
*N *11:3 *C 0.4000 0.0000 


*RES
0 *13:s *11:3 75.382286  // $metal1_conn
1 *11:3 *11 0.149894  // $metal1_conn
2 *11:2 *11:3 15.5  // $metal1_conn

*END

*D_NET *8 2.3797e-16

*CONN
*P *8 I *C 0.4500 1.0250 
*I *13:g B *C 0.3825 0.5275 
*I *1:g B *C 0.3825 1.1725 
*N *8:1 *C 0.4400 0.9150 
*N *8:2 *C 0.3825 0.9150 

*CAP
0 *1:g 3.46825e-17
1 *13:g 6.83183e-17
2 *8:2 6.21603e-17
3 *8:1 4.2395e-17
4 *8 3.04141e-17

*RES
0 *8:1 *8:2 45.778431  // $poly_conn
1 *8:2 *13:g 74.098839  // $poly_conn
2 *8:2 *1:g 31.791147  // $poly_conn
3 *8 *8:1 0.054308  // $metal1_conn

*END

*D_NET *10 1.79869e-16

*CONN
*P *10 I *C 0.1100 0.8050 
*I *9:g B *C 0.2725 0.5275 
*I *12:g B *C 0.1775 1.1725 
*N *10:2 *C 0.1775 0.7600 
*N *10:3 *C 0.1200 0.7600 
*N *10:5 *C 0.1150 0.7600 
*N *10:6 *C 0.1150 0.8050 

*CAP
0 *12:g 3.98517e-17
1 *9:g 4.52475e-17
2 *10:6 3.54116e-17
3 *10:5 1.94198e-17
4 *10:2 3.18753e-17
5 *10:3 8.06352e-18

*RES
0 *9:g *10:2 50.955109  // $poly_conn
1 *10:2 *10:3 48.026802  // $poly_conn
2 *10:2 *12:g 66.307938  // $poly_conn
3 *10:5 *10:3 0.001154  // $metal1_conn
4 *10 *10:6 0.001038  // $metal1_conn
5 *10:5 *10:6 0.027901  // $metal1_conn

*END

*D_NET *7 1.06593e-16

*CONN
*P *7 O *C 0.6900 0.6400 
*I *2:d B *C 0.6800 0.5275 
*I *4:d B *C 0.6800 1.1725 

*CAP
0 *4:d 4.16991e-17
1 *2:d 1.72551e-17
2 *7 4.76385e-17

*RES
0 *4:d *7 62.315617  // $metal1_conn
1 *7 *2:d 75.063255  // $metal1_conn

*END

*D_NET *6 1.08081e-18

*CONN
*I *9:s B *C 0.3275 0.5275 
*I *13:d B *C 0.3275 0.5275 

*CAP
0 *9:s 1.08081e-18

*RES
0 *13:d *9:s 0.001  // $mwires

*END

*D_NET *5 2.81003e-16

*CONN
*I *9:d B *C 0.1800 0.5275 
*I *2:g B *C 0.5875 0.5275 
*I *12:d B *C 0.2800 1.1725 
*I *1:d B *C 0.2800 1.1725 
*I *4:g B *C 0.5875 1.1725 
*N *5:2 *C 0.5875 0.7350 
*N *5:3 *C 0.5200 0.7350 
*N *5:5 *C 0.2800 0.7350 

*CAP
0 *4:g 4.11629e-17
1 *12:d 3.80924e-17
2 *2:g 2.53523e-17
3 *9:d 3.08554e-17
4 *5:5 5.15938e-17
5 *5:2 2.60613e-17
6 *5:3 6.78848e-17

*RES
0 *4:g *5:2 81.304344  // $poly_conn
1 *5:2 *5:3 46.611767  // $poly_conn
2 *5:2 *2:g 31.304344  // $poly_conn
3 *5:3 *5:5 0.159831  // $metal1_conn
4 *5:5 *9:d 75.185585  // $metal1_conn
5 *5:5 *12:d 62.299297  // $metal1_conn

*END

