*SPEF "IEEE 1481-1999"
*DESIGN  "AND2X1"
*DATE "Mon Sep 27 08:44:00 2010"
*VENDOR "Cadence Design Systems"
*PROGRAM "Assura RCX"
*VERSION "3.2 Red Hat Linux release 7.2 (Enigma) - (09/09/2009-10:39)"
*DESIGN_FLOW "Physical Verification"
*DIVIDER /
*DELIMITER :
*BUS_DELIMITER []
*T_UNIT 1 PS
*C_UNIT 1e15 FF
*R_UNIT 1 OHM
*L_UNIT 1 MH
// DeviceFingerDelim "@"
// MATCHED
// caps2d version: 10

*NAME_MAP
*1 mp0
*2 mn2
*3 VDD
*4 mp2
*5 n0
*6 net127
*7 Y
*8 A
*9 mn0
*10 B
*11 VSS
*12 mp1
*13 mn1

*GROUND_NETS VSS

*PORTS
*3 I
*11 I
*8 I
*10 I
*7 O

*D_NET *3 1.31262e-16

*CONN
*P *3 I *C 0.1000 1.7100 
*I *12:s B *C 0.1350 1.5650 
*I *1:s B *C 0.5250 1.1350 
*I *4:s B *C 0.5250 1.1350 
*N *3:2 *C 0.4000 1.7100 
*N *3:3 *C 0.4000 1.7100 

*CAP
0 *1:s 3.71122e-17
1 *12:s 5.23023e-18
2 *3:2 8.61549e-17
3 *3 2.76421e-18

*RES
0 *1:s *3:3 62.347599  // $metal1_conn
1 *3:3 *3 0.150803  // $metal1_conn
2 *3 *12:s 62.067257  // $metal1_conn
3 *3:2 *3:3 18.75  // $metal1_conn

*END

*D_NET *11 0

*CONN
*P *11 I *C 0.1000 0.0000 
*I *13:d B *C 0.5050 0.4550 
*I *2:s B *C 0.5050 0.4550 
*N *11:2 *C 0.4000 0.0000 
*N *11:3 *C 0.4000 0.0000 


*RES
0 *13:d *11:3 37.857239  // $metal1_conn
1 *11:3 *11 0.150194  // $metal1_conn
2 *11:2 *11:3 15.5  // $metal1_conn

*END

*D_NET *8 2.68183e-16

*CONN
*P *8 I *C 0.3700 0.9800 
*I *13:g B *C 0.3575 0.5125 
*I *1:g B *C 0.3925 1.2225 
*N *8:2 *C 0.3900 0.8300 
*N *8:4 *C 0.3800 0.8300 
*N *8:5 *C 0.3900 0.8300 
*N *8:6 *C 0.3800 0.9800 

*CAP
0 *1:g 5.18428e-17
1 *13:g 5.87543e-17
2 *8:6 3.67057e-17
3 *8:4 5.51923e-17
4 *8:2 6.56879e-17

*RES
0 *1:g *8:2 62.27047  // $poly_conn
1 *8:2 *13:g 52.014061  // $poly_conn
2 *8:4 *8:5 0.002543  // $metal1_conn
3 *8 *8:6 0.002415  // $metal1_conn
4 *8:4 *8:6 0.08162  // $metal1_conn
5 *8:2 *8:5 45  // $metal1_conn

*END

*D_NET *10 2.11024e-16

*CONN
*P *10 I *C 0.0900 0.7900 
*I *9:g B *C 0.2525 0.5125 
*I *12:g B *C 0.1825 1.2225 
*N *10:2 *C 0.1825 0.7950 
*N *10:3 *C 0.1150 0.7950 

*CAP
0 *12:g 3.8821e-17
1 *9:g 5.16837e-17
2 *10:2 4.01254e-17
3 *10:3 1.07389e-17
4 *10 6.96548e-17

*RES
0 *9:g *10:2 57.365364  // $poly_conn
1 *10:2 *10:3 48.860134  // $poly_conn
2 *10:2 *12:g 70.154091  // $poly_conn
3 *10 *10:3 0.0069  // $metal1_conn

*END

*D_NET *7 1.29661e-16

*CONN
*P *7 O *C 0.6900 0.6000 
*I *2:d B *C 0.6900 0.4550 
*I *4:d B *C 0.6900 1.1350 

*CAP
0 *4:d 5.4692e-17
1 *2:d 2.84628e-17
2 *7 4.65065e-17

*RES
0 *4:d *7 21.037022  // $metal1_conn
1 *7 *2:d 37.604546  // $metal1_conn

*END

*D_NET *6 0

*CONN
*I *9:d B *C 0.3050 0.5125 
*I *13:s B *C 0.3050 0.5125 


*RES
0 *13:s *9:d 0.001  // $mwires

*END

*D_NET *5 3.72002e-16

*CONN
*I *9:s B *C 0.1600 0.5125 
*I *2:g B *C 0.5975 0.4550 
*I *12:d B *C 0.2875 1.2225 
*I *1:d B *C 0.2875 1.2225 
*I *4:g B *C 0.5975 1.1350 
*N *5:2 *C 0.5600 0.7700 
*N *5:4 *C 0.2400 0.6800 

*CAP
0 *4:g 4.99493e-17
1 *12:d 4.97061e-17
2 *2:g 3.72717e-17
3 *9:s 3.51089e-17
4 *5:4 9.66828e-17
5 *5:2 1.03284e-16

*RES
0 *4:g *5:2 32.783291  // $poly_conn
1 *5:2 *2:g 36.629444  // $poly_conn
2 *5:2 *5:4 45.289459  // $metal1_conn
3 *5:4 *9:s 75.129585  // $metal1_conn
4 *5:4 *12:d 62.461235  // $metal1_conn

*END

