*SPEF "IEEE 1481-1999"
*DESIGN  "AND3XL"
*DATE "Mon Sep 27 08:48:09 2010"
*VENDOR "Cadence Design Systems"
*PROGRAM "Assura RCX"
*VERSION "3.2 Red Hat Linux release 7.2 (Enigma) - (09/09/2009-10:39)"
*DESIGN_FLOW "Physical Verification"
*DIVIDER /
*DELIMITER :
*BUS_DELIMITER []
*T_UNIT 1 PS
*C_UNIT 1e15 FF
*R_UNIT 1 OHM
*L_UNIT 1 MH
// DeviceFingerDelim "@"
// MATCHED
// caps2d version: 10

*NAME_MAP
*1 mp2
*2 mp1
*3 mp0
*4 mp3
*5 VSS
*6 net87
*7 net103
*8 net107
*9 mn2
*10 mn1
*11 A
*12 VDD
*13 mn0
*14 Y
*15 B
*16 mn3
*17 C

*GROUND_NETS VSS

*PORTS
*12 I
*5 I
*11 I
*15 I
*17 I
*14 O

*D_NET *12 2.07471e-16

*CONN
*P *12 I *C 0.1000 1.7100 
*I *1:s B *C 0.3550 1.3725 
*I *2:s B *C 0.3550 1.3725 
*I *3:s B *C 0.8400 1.3725 
*I *4:s B *C 0.8400 1.3725 
*N *12:2 *C 0.6000 1.7100 
*N *12:3 *C 0.6000 1.7100 
*N *12:4 *C 0.3550 1.7100 

*CAP
0 *3:s 2.59805e-17
1 *1:s 2.20304e-17
2 *12:4 8.23602e-18
3 *12:2 1.40738e-16
4 *12 1.04855e-17

*RES
0 *3:s *12:3 62.311386  // $metal1_conn
1 *12:3 *12:4 0.122667  // $metal1_conn
2 *12:4 *12 0.127431  // $metal1_conn
3 *12:4 *1:s 62.174721  // $metal1_conn
4 *12:2 *12:3 12.5  // $metal1_conn

*END

*D_NET *5 0

*CONN
*P *5 I *C 0.1000 0.0000 
*I *13:s B *C 0.8250 0.4525 
*I *16:s B *C 0.8250 0.4525 
*N *5:2 *C 0.6000 0.0000 
*N *5:3 *C 0.6000 0.0000 


*RES
0 *13:s *5:3 75.411484  // $metal1_conn
1 *5:3 *5 0.250491  // $metal1_conn
2 *5:2 *5:3 10.333333  // $metal1_conn

*END

*D_NET *11 2.37648e-16

*CONN
*P *11 I *C 0.9000 1.0450 
*I *13:g B *C 0.7225 0.4525 
*I *3:g B *C 0.7225 1.3725 
*N *11:2 *C 0.7500 1.0000 

*CAP
0 *3:g 3.81529e-17
1 *13:g 5.03782e-17
2 *11:2 1.1112e-16
3 *11 3.79975e-17

*RES
0 *3:g *11:2 59.435539  // $poly_conn
1 *11:2 *13:g 113.281693  // $poly_conn
2 *11:2 *11 45.078674  // $metal1_conn

*END

*D_NET *15 2.65926e-16

*CONN
*P *15 I *C 0.3000 0.8550 
*I *10:g B *C 0.4025 0.4525 
*I *2:g B *C 0.4575 1.3725 
*N *15:2 *C 0.4300 0.8500 

*CAP
0 *2:g 5.06273e-17
1 *10:g 5.94739e-17
2 *15:2 1.15647e-16
3 *15 4.01779e-17

*RES
0 *2:g *15:2 97.897079  // $poly_conn
1 *15:2 *10:g 74.820152  // $poly_conn
2 *15:2 *15 45.046768  // $metal1_conn

*END

*D_NET *17 2.28448e-16

*CONN
*P *17 I *C 0.1000 0.6650 
*I *9:g B *C 0.2975 0.4525 
*I *1:g B *C 0.2525 1.3725 
*N *17:2 *C 0.2525 0.6600 
*N *17:3 *C 0.1100 0.6600 

*CAP
0 *1:g 5.23185e-17
1 *9:g 4.39901e-17
2 *17:2 5.0384e-17
3 *17:3 1.45143e-17
4 *17 6.72412e-17

*RES
0 *9:g *17:2 31.724342  // $poly_conn
1 *17:2 *17:3 55.373291  // $poly_conn
2 *17:2 *1:g 143.231003  // $poly_conn
3 *17:3 *17 0.003112  // $metal1_conn

*END

*D_NET *14 1.25303e-16

*CONN
*P *14 O *C 1.1000 0.4750 
*I *16:d B *C 1.0500 0.4525 
*I *4:d B *C 1.0650 1.3725 
*N *14:2 *C 1.0900 0.4650 

*CAP
0 *4:d 6.26518e-17
1 *14 6.26514e-17

*RES
0 *14:2 *14 0.006225  // $metal1_conn
1 *14 *4:d 62.510082  // $metal1_conn
2 *16:d *14:2 75  // $metal1_conn

*END

*D_NET *8 1.79372e-18

*CONN
*I *9:s B *C 0.3500 0.4525 
*I *10:d B *C 0.3500 0.4525 

*CAP
0 *9:s 1.79372e-18

*RES
0 *10:d *9:s 0.001  // $mwires

*END

*D_NET *7 6.28826e-18

*CONN
*I *10:s B *C 0.5625 0.4525 
*I *13:d B *C 0.5625 0.4525 

*CAP
0 *10:s 6.28826e-18

*RES
0 *13:d *10:s 0.001  // $mwires

*END

*D_NET *6 4.27764e-16

*CONN
*I *9:d B *C 0.2050 0.4525 
*I *16:g B *C 0.9275 0.4525 
*I *1:d B *C 0.1600 1.3725 
*I *2:d B *C 0.5900 1.3725 
*I *3:d B *C 0.5900 1.3725 
*I *4:g B *C 0.9575 1.3725 
*N *6:2 *C 0.9300 0.6600 
*N *6:5 *C 0.5900 1.2300 
*N *6:7 *C 0.5900 0.6300 

*CAP
0 *4:g 5.04994e-17
1 *2:d 2.05196e-17
2 *1:d 4.69867e-17
3 *16:g 2.5357e-17
4 *9:d 3.2686e-17
5 *6:7 1.04799e-16
6 *6:5 5.63795e-17
7 *6:2 9.05363e-17

*RES
0 *4:g *6:2 146.615021  // $poly_conn
1 *6:2 *16:g 24.345591  // $poly_conn
2 *2:d *6:5 62.074184  // $metal1_conn
3 *6:5 *1:d 62.321056  // $metal1_conn
4 *6:5 *6:7 0.465528  // $metal1_conn
5 *6:7 *9:d 75.380646  // $metal1_conn
6 *6:7 *6:2 45.219727  // $metal1_conn

*END

