*SPEF "IEEE 1481-1999"
*DESIGN  "AND3X6"
*DATE "Mon Sep 27 08:47:24 2010"
*VENDOR "Cadence Design Systems"
*PROGRAM "Assura RCX"
*VERSION "3.2 Red Hat Linux release 7.2 (Enigma) - (09/09/2009-10:39)"
*DESIGN_FLOW "Physical Verification"
*DIVIDER /
*DELIMITER :
*BUS_DELIMITER []
*T_UNIT 1 PS
*C_UNIT 1e15 FF
*R_UNIT 1 OHM
*L_UNIT 1 MH
// DeviceFingerDelim "@"
// MATCHED
// caps2d version: 10

*NAME_MAP
*1 VDD
*2 mn0
*3 mn1
*4 mn2
*5 mn2\@1
*6 mn1\@1
*7 VSS
*8 mp3\@3
*9 mn0\@1
*10 mp3\@4
*11 mn3
*12 mn3\@1
*13 mn3\@2
*14 A
*15 B
*16 C
*17 net107\@2
*18 net107\@3
*19 net95
*20 Y
*21 net107
*22 mp0
*23 net107\@1
*24 mp1
*25 mp2
*26 mp2\@1
*27 mp1\@1
*28 mp0\@1
*29 mp3
*30 mp3\@1
*31 mp3\@2
*32 mn3\@3
*33 mn3\@4

*GROUND_NETS VSS

*PORTS
*1 I
*7 I
*14 I
*15 I
*16 I
*20 O

*D_NET *1 4.48816e-16

*CONN
*P *1 I *C 0.1000 1.7100 
*I *22:s B *C 0.2050 1.1750 
*I *24:s B *C 0.6050 1.1750 
*I *25:s B *C 0.6050 1.1750 
*I *26:s B *C 1.0150 1.1750 
*I *27:s B *C 1.0150 1.1750 
*I *28:s B *C 1.4550 1.1350 
*I *29:s B *C 1.4550 1.1350 
*I *30:s B *C 1.8350 1.1350 
*I *31:s B *C 1.8350 1.1350 
*I *8:s B *C 2.2450 1.1350 
*I *10:s B *C 2.2450 1.1350 
*N *1:2 *C 2.0000 1.7100 

*CAP
0 *8:s 3.37187e-16
1 *1:2 1.11629e-16

*RES
0 *8:s *1 0.047218  // $metal1_conn
1 *1:2 *8:s 12.5  // $metal1_conn
2 *1:2 *8:s 10.714286  // $metal1_conn

*END

*D_NET *7 0

*CONN
*P *7 I *C 0.1000 0.0000 
*I *2:s B *C 0.2750 0.4350 
*I *9:s B *C 1.4800 0.5000 
*I *11:s B *C 1.4800 0.5000 
*I *12:s B *C 1.8350 0.5000 
*I *13:s B *C 1.8350 0.5000 
*I *32:s B *C 2.2450 0.5000 
*I *33:s B *C 2.2450 0.5000 
*N *7:2 *C 2.0000 0.0000 
*N *7:6 *C 0.7000 0.0000 
*N *7:7 *C 0.2350 0.0000 


*RES
0 *7:7 *7 0.067287  // $metal1_conn
1 *7:2 *32:s 10.333333  // $metal1_conn
2 *7:2 *7:6 8.857142  // $metal1_conn
3 *7:7 *2:s 75.222038  // $metal1_conn
4 *32:s *7:6 0.347559  // $metal1_conn
5 *7:6 *7:7 0.23311  // $metal1_conn

*END

*D_NET *14 5.58694e-16

*CONN
*P *14 I *C 0.3000 0.6650 
*I *2:g B *C 0.3675 0.4350 
*I *9:g B *C 1.2625 0.4350 
*I *22:g B *C 0.2975 1.1750 
*I *28:g B *C 1.3225 1.1750 

*CAP
0 *28:g 4.59711e-16
1 *9:g 4.98384e-17
2 *2:g 3.57864e-17
3 *14 1.33583e-17

*RES
0 *28:g *9:g 20.376194  // $poly_conn
1 *2:g *28:g 16.530041  // $poly_conn
2 *28:g *14 0.018547  // $metal1_conn

*END

*D_NET *15 5.0798e-16

*CONN
*P *15 I *C 1.1000 0.8550 
*I *3:g B *C 0.5025 0.4350 
*I *6:g B *C 1.1175 0.4350 
*I *24:g B *C 0.5025 1.1750 
*I *27:g B *C 1.1175 1.1750 

*CAP
0 *27:g 3.76288e-16
1 *6:g 5.55477e-17
2 *3:g 4.76726e-17
3 *15 2.84715e-17

*RES
0 *27:g *6:g 29.94836  // $poly_conn
1 *27:g *3:g 22.256054  // $poly_conn
2 *15 *27:g 0.087514  // $metal1_conn

*END

*D_NET *16 3.27685e-16

*CONN
*P *16 I *C 0.7000 0.8550 
*I *4:g B *C 0.7525 0.4350 
*I *5:g B *C 0.9575 0.4350 
*I *25:g B *C 0.7075 1.1750 
*I *26:g B *C 0.9125 1.1750 
*N *16:2 *C 0.7800 0.7775 
*N *16:7 *C 0.7800 0.8450 

*CAP
0 *26:g 1.55492e-16
1 *5:g 4.68957e-17
2 *4:g 2.94047e-17
3 *16:2 3.05534e-17
4 *16 6.53392e-17

*RES
0 *5:g *16:2 84.314346  // $poly_conn
1 *16:2 *4:g 51.239071  // $poly_conn
2 *16:2 *26:g 4.315495  // $poly_conn
3 *16 *16:7 0.030836  // $metal1_conn
4 *26:g *16:7 45  // $metal1_conn

*END

*D_NET *20 4.62959e-16

*CONN
*P *20 O *C 2.3000 0.8550 
*I *11:d B *C 1.6300 0.5000 
*I *12:d B *C 1.6300 0.5000 
*I *13:d B *C 2.0400 0.5000 
*I *32:d B *C 2.0400 0.5000 
*I *33:d B *C 2.4400 0.5000 
*I *29:d B *C 1.6300 1.1350 
*I *30:d B *C 1.6300 1.1350 
*I *31:d B *C 2.0400 1.1350 
*I *8:d B *C 2.0400 1.1350 
*I *10:d B *C 2.4400 1.1350 

*CAP
0 *10:d 2.54619e-16
1 *11:d 1.90907e-16
2 *20 1.74325e-17

*RES
0 *10:d *20 0.039182  // $metal1_conn
1 *20 *11:d 0.132846  // $metal1_conn

*END

*D_NET *18 5.23473e-18

*CONN
*I *6:s B *C 1.1900 0.4350 
*I *9:d B *C 1.1900 0.4350 

*CAP
0 *6:s 5.23473e-18

*RES
0 *9:d *6:s 0.001  // $mwires

*END

*D_NET *17 4.81629e-18

*CONN
*I *5:s B *C 1.0375 0.4350 
*I *6:d B *C 1.0375 0.4350 

*CAP
0 *5:s 4.81629e-18

*RES
0 *6:d *5:s 0.001  // $mwires

*END

*D_NET *23 5.83849e-18

*CONN
*I *3:s B *C 0.6275 0.4350 
*I *4:s B *C 0.6275 0.4350 

*CAP
0 *3:s 5.83849e-18

*RES
0 *4:s *3:s 0.001  // $mwires

*END

*D_NET *21 3.06995e-18

*CONN
*I *2:d B *C 0.4350 0.4350 
*I *3:d B *C 0.4350 0.4350 

*CAP
0 *2:d 3.06995e-18

*RES
0 *3:d *2:d 0.001  // $mwires

*END

*D_NET *19 8.31793e-16

*CONN
*I *4:d B *C 0.8550 0.4350 
*I *5:d B *C 0.8550 0.4350 
*I *11:g B *C 1.5275 0.5000 
*I *12:g B *C 1.7325 0.5000 
*I *13:g B *C 1.9375 0.5000 
*I *32:g B *C 2.1425 0.5000 
*I *33:g B *C 2.3475 0.5000 
*I *22:d B *C 0.4000 1.1750 
*I *24:d B *C 0.4000 1.1750 
*I *25:d B *C 0.8100 1.1750 
*I *26:d B *C 0.8100 1.1750 
*I *27:d B *C 1.2200 1.1750 
*I *28:d B *C 1.2200 1.1750 
*I *29:g B *C 1.5275 1.1350 
*I *30:g B *C 1.7325 1.1350 
*I *31:g B *C 1.9375 1.1350 
*I *8:g B *C 2.1425 1.1350 
*I *10:g B *C 2.3475 1.1350 
*N *19:18 *C 1.4500 0.7900 

*CAP
0 *10:g 3.44385e-16
1 *27:d 2.38783e-16
2 *25:d 3.38569e-17
3 *4:d 1.0518e-16
4 *19:18 1.09588e-16

*RES
0 *10:g *19:18 0.175754  // $metal1_conn
1 *19:18 *4:d 75.748352  // $metal1_conn
2 *27:d *25:d 31.067122  // $metal1_conn
3 *19:18 *27:d 0.353845  // $metal1_conn

*END

