*SPEF "IEEE 1481-1999"
*DESIGN  "AND3X1"
*DATE "Mon Sep 27 08:46:16 2010"
*VENDOR "Cadence Design Systems"
*PROGRAM "Assura RCX"
*VERSION "3.2 Red Hat Linux release 7.2 (Enigma) - (09/09/2009-10:39)"
*DESIGN_FLOW "Physical Verification"
*DIVIDER /
*DELIMITER :
*BUS_DELIMITER []
*T_UNIT 1 PS
*C_UNIT 1e15 FF
*R_UNIT 1 OHM
*L_UNIT 1 MH
// DeviceFingerDelim "@"
// MATCHED
// caps2d version: 10

*NAME_MAP
*1 mp2
*2 mp1
*3 mp0
*4 mp3
*5 VSS
*6 net086
*7 net0106
*8 net0102
*9 mn2
*10 mn1
*11 A
*12 VDD
*13 mn0
*14 Y
*15 B
*16 mn3
*17 C

*GROUND_NETS VSS

*PORTS
*12 I
*5 I
*11 I
*15 I
*17 I
*14 O

*D_NET *12 2.08468e-16

*CONN
*P *12 I *C 0.1000 1.7100 
*I *1:s B *C 0.4900 1.5700 
*I *2:s B *C 0.4900 1.5700 
*I *3:s B *C 1.1000 1.2350 
*I *4:s B *C 1.1000 1.2350 
*N *12:2 *C 0.7000 1.7100 
*N *12:3 *C 0.7000 1.7100 
*N *12:4 *C 0.4650 1.7100 

*CAP
0 *3:s 4.26644e-17
1 *1:s 1.58636e-17
2 *12:4 7.83031e-18
3 *12:2 1.29068e-16
4 *12 1.30414e-17

*RES
0 *3:s *12:3 62.418983  // $metal1_conn
1 *12:3 *12:4 0.117222  // $metal1_conn
2 *12:4 *12 0.181926  // $metal1_conn
3 *12:4 *1:s 62.073784  // $metal1_conn
4 *12:2 *12:3 10.714286  // $metal1_conn

*END

*D_NET *5 0

*CONN
*P *5 I *C 0.1000 0.0000 
*I *13:s B *C 1.0800 0.4600 
*I *16:s B *C 1.0800 0.4600 
*N *5:2 *C 0.7000 0.0000 
*N *5:3 *C 0.7000 0.0000 


*RES
0 *13:s *5:3 75.447571  // $metal1_conn
1 *5:3 *5 0.299539  // $metal1_conn
2 *5:2 *5:3 8.857142  // $metal1_conn

*END

*D_NET *11 2.26852e-16

*CONN
*P *11 I *C 0.9000 1.0450 
*I *13:g B *C 0.8625 0.5175 
*I *3:g B *C 0.9175 1.3225 
*N *11:2 *C 0.8900 1.0400 
*N *11:4 *C 0.8900 1.0400 

*CAP
0 *3:g 3.47984e-17
1 *13:g 4.75612e-17
2 *11:2 3.8552e-17
3 *11 1.0594e-16

*RES
0 *3:g *11:2 36.35862  // $poly_conn
1 *11:2 *13:g 106.871437  // $poly_conn
2 *11:4 *11 0.003093  // $metal1_conn
3 *11:2 *11:4 45  // $metal1_conn

*END

*D_NET *15 2.46372e-16

*CONN
*P *15 I *C 0.3000 0.8550 
*I *10:g B *C 0.5975 0.5175 
*I *2:g B *C 0.5975 1.3225 
*N *15:2 *C 0.5700 0.8500 

*CAP
0 *2:g 4.83909e-17
1 *10:g 4.2769e-17
2 *15:2 1.02333e-16
3 *15 5.28792e-17

*RES
0 *2:g *15:2 85.076569  // $poly_conn
1 *15:2 *10:g 58.153492  // $poly_conn
2 *15:2 *15 45.149944  // $metal1_conn

*END

*D_NET *17 2.23981e-16

*CONN
*P *17 I *C 0.1000 1.0450 
*I *9:g B *C 0.4375 0.5175 
*I *1:g B *C 0.3325 1.3225 
*N *17:2 *C 0.3325 1.0400 
*N *17:3 *C 0.1300 1.0400 

*CAP
0 *1:g 3.56802e-17
1 *9:g 5.53496e-17
2 *17:2 4.68614e-17
3 *17:3 1.44038e-17
4 *17 7.16864e-17

*RES
0 *9:g *17:2 127.878197  // $poly_conn
1 *17:2 *17:3 60.636452  // $poly_conn
2 *17:2 *1:g 32.974602  // $poly_conn
3 *17:3 *17 0.003952  // $metal1_conn

*END

*D_NET *14 1.06953e-16

*CONN
*P *14 O *C 1.3000 0.6650 
*I *16:d B *C 1.2725 0.4600 
*I *4:d B *C 1.2725 1.2350 

*CAP
0 *4:d 5.2362e-17
1 *16:d 1.79374e-17
2 *14 3.66538e-17

*RES
0 *14 *16:d 75.083672  // $metal1_conn
1 *14 *4:d 21.006981  // $metal1_conn

*END

*D_NET *8 7.37195e-18

*CONN
*I *10:s B *C 0.7300 0.5175 
*I *13:d B *C 0.7300 0.5175 

*CAP
0 *10:s 7.37195e-18

*RES
0 *13:d *10:s 0.001  // $mwires

*END

*D_NET *7 3.37268e-18

*CONN
*I *9:s B *C 0.5175 0.5175 
*I *10:d B *C 0.5175 0.5175 

*CAP
0 *9:s 3.37268e-18

*RES
0 *10:d *9:s 0.001  // $mwires

*END

*D_NET *6 4.29582e-16

*CONN
*I *9:d B *C 0.3450 0.5175 
*I *16:g B *C 1.1725 0.4600 
*I *1:d B *C 0.2400 1.3225 
*I *2:d B *C 0.7575 1.3225 
*I *3:d B *C 0.7575 1.3225 
*I *4:g B *C 1.1725 1.2350 
*N *6:2 *C 1.1300 0.7000 
*N *6:4 *C 0.7300 0.5600 
*N *6:5 *C 0.7300 1.3000 

*CAP
0 *4:g 4.78674e-17
1 *2:d 1.49976e-17
2 *1:d 3.33242e-17
3 *16:g 3.11531e-17
4 *9:d 3.1529e-17
5 *6:5 8.54771e-17
6 *6:4 9.73451e-17
7 *6:2 8.78889e-17

*RES
0 *4:g *6:2 76.373032  // $poly_conn
1 *6:2 *16:g 17.398676  // $poly_conn
2 *6:2 *6:4 45.4048  // $metal1_conn
3 *6:4 *6:5 0.525624  // $metal1_conn
4 *6:5 *1:d 62.317539  // $metal1_conn
5 *6:4 *9:d 75.264778  // $metal1_conn
6 *6:5 *2:d 62.056858  // $metal1_conn

*END

