*SPEF "IEEE 1481-1999"
*DESIGN  "AND4X8"
*DATE "Mon Sep 27 08:50:05 2010"
*VENDOR "Cadence Design Systems"
*PROGRAM "Assura RCX"
*VERSION "3.2 Red Hat Linux release 7.2 (Enigma) - (09/09/2009-10:39)"
*DESIGN_FLOW "Physical Verification"
*DIVIDER /
*DELIMITER :
*BUS_DELIMITER []
*T_UNIT 1 PS
*C_UNIT 1e15 FF
*R_UNIT 1 OHM
*L_UNIT 1 MH
// DeviceFingerDelim "@"
// MATCHED
// caps2d version: 10

*NAME_MAP
*1 VSS
*2 mn4
*3 mn4\@1
*4 mn2
*5 mn4\@2
*6 mn3
*7 mn4\@3
*8 mn3\@1
*9 mn4\@4
*10 mn2\@1
*11 mn4\@5
*12 mn1\@1
*13 mn4\@6
*14 mn0\@1
*15 mn0
*16 mn1
*17 Y
*18 net116
*19 net132
*20 VDD
*21 mp1
*22 mp2
*23 mp3
*24 mp3\@1
*25 mp2\@1
*26 mp1\@1
*27 net132\@1
*28 net132\@2
*29 net132\@3
*30 net132\@4
*31 net132\@5
*32 mp0
*33 mp4
*34 mp4\@1
*35 mp4\@2
*36 mp4\@3
*37 mp4\@4
*38 mp4\@5
*39 mp4\@6
*40 mp0\@1
*41 A
*42 B
*43 C
*44 D

*GROUND_NETS VSS

*PORTS
*20 I
*1 I
*41 I
*42 I
*43 I
*44 I
*17 O

*D_NET *20 6.07617e-16

*CONN
*P *20 I *C 0.1000 1.7100 
*I *32:s B *C 2.0800 1.1225 
*I *33:s B *C 2.0800 1.1225 
*I *34:s B *C 2.4500 1.1225 
*I *35:s B *C 2.4500 1.1225 
*I *36:s B *C 2.8600 1.1225 
*I *37:s B *C 2.8600 1.1225 
*I *38:s B *C 3.2700 1.1225 
*I *39:s B *C 3.2700 1.1225 
*I *40:s B *C 0.1400 1.2100 
*I *21:s B *C 0.6550 1.2100 
*I *22:s B *C 0.6550 1.2100 
*I *23:s B *C 1.1250 1.2100 
*I *24:s B *C 1.1250 1.2100 
*I *25:s B *C 1.5950 1.2100 
*I *26:s B *C 1.5950 1.2100 

*CAP
0 *23:s 2.48271e-17
1 *20 5.8279e-16

*RES
0 *20 *23:s 62.09726  // $metal1_conn

*END

*D_NET *1 0

*CONN
*P *1 I *C 0.1000 0.0000 
*I *2:s B *C 1.9500 0.4225 
*I *3:s B *C 2.3300 0.4225 
*I *5:s B *C 2.3300 0.4225 
*I *7:s B *C 2.7400 0.4225 
*I *9:s B *C 2.7400 0.4225 
*I *11:s B *C 3.1500 0.4225 
*I *13:s B *C 3.1500 0.4225 
*I *15:s B *C 0.2250 0.4050 
*I *14:s B *C 1.9500 0.4225 
*N *1:2 *C 2.7000 0.0000 
*N *1:6 *C 0.9000 0.0000 
*N *1:7 *C 0.2150 0.0000 


*RES
0 *1:7 *1 0.057214  // $metal1_conn
1 *1:2 *11:s 6.888889  // $metal1_conn
2 *1:2 *1:6 6.888889  // $metal1_conn
3 *1:7 *15:s 75.20446  // $metal1_conn
4 *11:s *1:6 0.461091  // $metal1_conn
5 *1:6 *1:7 0.343262  // $metal1_conn

*END

*D_NET *41 7.74895e-16

*CONN
*P *41 I *C 1.7000 1.0450 
*I *15:g B *C 0.3175 0.4050 
*I *14:g B *C 1.7475 0.4050 
*I *32:g B *C 1.8475 1.2100 
*I *40:g B *C 0.2325 1.2100 

*CAP
0 *14:g 8.09981e-17
1 *15:g 5.82081e-17
2 *41 6.35689e-16

*RES
0 *41 *14:g 76.786453  // $poly_conn
1 *15:g *41 77.65509  // $poly_conn

*END

*D_NET *42 6.84119e-16

*CONN
*P *42 I *C 0.5000 0.8550 
*I *16:g B *C 0.4375 0.4050 
*I *12:g B *C 1.6425 0.4050 
*I *21:g B *C 0.4375 1.2100 
*I *26:g B *C 1.6425 1.2100 

*CAP
0 *26:g 3.90581e-16
1 *12:g 7.04862e-17
2 *16:g 6.52433e-17
3 *42 1.57808e-16

*RES
0 *26:g *12:g 64.563744  // $poly_conn
1 *26:g *16:g 73.808937  // $poly_conn
2 *26:g *42 0.006058  // $metal1_conn

*END

*D_NET *43 5.01958e-16

*CONN
*P *43 I *C 1.3000 0.6650 
*I *4:g B *C 0.7025 0.4050 
*I *10:g B *C 1.3225 0.4050 
*I *22:g B *C 0.7025 1.2100 
*I *25:g B *C 1.3775 1.2100 

*CAP
0 *25:g 3.82643e-16
1 *10:g 5.85469e-17
2 *4:g 4.08804e-17
3 *43 1.98882e-17

*RES
0 *25:g *10:g 29.94836  // $poly_conn
1 *25:g *4:g 68.409897  // $poly_conn
2 *43 *25:g 0.030798  // $metal1_conn

*END

*D_NET *44 3.12838e-16

*CONN
*P *44 I *C 0.9000 0.4750 
*I *6:g B *C 1.0125 0.4050 
*I *8:g B *C 1.2175 0.4050 
*I *23:g B *C 0.9075 1.2100 
*I *24:g B *C 1.1725 1.2100 
*N *44:2 *C 0.9750 0.6550 

*CAP
0 *24:g 1.09904e-16
1 *8:g 6.30743e-17
2 *6:g 1.71766e-17
3 *44:2 9.52298e-17
4 *44 2.74542e-17

*RES
0 *8:g *44:2 70.215561  // $poly_conn
1 *44:2 *6:g 21.283424  // $poly_conn
2 *44:2 *24:g 53.313755  // $poly_conn
3 *44:2 *44 45.144455  // $metal1_conn

*END

*D_NET *17 5.49905e-16

*CONN
*P *17 O *C 3.1000 0.8550 
*I *2:d B *C 2.1250 0.4225 
*I *3:d B *C 2.1250 0.4225 
*I *5:d B *C 2.5350 0.4225 
*I *7:d B *C 2.5350 0.4225 
*I *9:d B *C 2.9450 0.4225 
*I *11:d B *C 2.9450 0.4225 
*I *13:d B *C 3.3450 0.4225 
*I *33:d B *C 2.2450 1.1225 
*I *34:d B *C 2.2450 1.1225 
*I *35:d B *C 2.6550 1.1225 
*I *36:d B *C 2.6550 1.1225 
*I *37:d B *C 3.0650 1.1225 
*I *38:d B *C 3.0650 1.1225 
*I *39:d B *C 3.4650 1.1225 

*CAP
0 *39:d 3.18618e-16
1 *2:d 2.10982e-16
2 *17 2.03053e-17

*RES
0 *39:d *17 0.050895  // $metal1_conn
1 *17 *2:d 0.190396  // $metal1_conn

*END

*D_NET *31 2.0734e-18

*CONN
*I *12:d B *C 1.6950 0.4050 
*I *14:d B *C 1.6950 0.4050 

*CAP
0 *12:d 2.0734e-18

*RES
0 *14:d *12:d 0.001  // $mwires

*END

*D_NET *30 9.06931e-18

*CONN
*I *10:s B *C 1.4825 0.4050 
*I *12:s B *C 1.4825 0.4050 

*CAP
0 *10:s 9.06931e-18

*RES
0 *12:s *10:s 0.001  // $mwires

*END

*D_NET *29 1.35399e-18

*CONN
*I *8:s B *C 1.2700 0.4050 
*I *10:d B *C 1.2700 0.4050 

*CAP
0 *8:s 1.35399e-18

*RES
0 *10:d *8:s 0.001  // $mwires

*END

*D_NET *28 8.24609e-18

*CONN
*I *4:s B *C 0.8575 0.4050 
*I *6:s B *C 0.8575 0.4050 

*CAP
0 *4:s 8.24609e-18

*RES
0 *6:s *4:s 0.001  // $mwires

*END

*D_NET *27 0

*CONN
*I *16:d B *C 0.5700 0.4050 
*I *4:d B *C 0.5700 0.4050 


*RES
0 *4:d *16:d 0.001  // $mwires

*END

*D_NET *19 0

*CONN
*I *15:d B *C 0.3775 0.4050 
*I *16:s B *C 0.3775 0.4050 


*RES
0 *16:s *15:d 0.001  // $mwires

*END

*D_NET *18 1.02884e-15

*CONN
*I *2:g B *C 2.0225 0.4225 
*I *3:g B *C 2.2275 0.4225 
*I *5:g B *C 2.4325 0.4225 
*I *7:g B *C 2.6375 0.4225 
*I *9:g B *C 2.8425 0.4225 
*I *11:g B *C 3.0475 0.4225 
*I *13:g B *C 3.2525 0.4225 
*I *6:d B *C 1.1150 0.4050 
*I *8:d B *C 1.1150 0.4050 
*I *32:d B *C 1.7450 1.2100 
*I *33:g B *C 2.1425 1.1225 
*I *34:g B *C 2.3475 1.1225 
*I *35:g B *C 2.5525 1.1225 
*I *36:g B *C 2.7575 1.1225 
*I *37:g B *C 2.9625 1.1225 
*I *38:g B *C 3.1675 1.1225 
*I *39:g B *C 3.3725 1.1225 
*I *40:d B *C 0.3350 1.2100 
*I *21:d B *C 0.3350 1.2100 
*I *22:d B *C 0.8050 1.2100 
*I *23:d B *C 0.8050 1.2100 
*I *24:d B *C 1.2750 1.2100 
*I *25:d B *C 1.2750 1.2100 
*I *26:d B *C 1.7450 1.2100 
*N *18:27 *C 1.9350 0.6850 

*CAP
0 *39:g 4.50569e-16
1 *32:d 3.69885e-16
2 *6:d 8.66183e-17
3 *18:27 1.2177e-16

*RES
0 *18:27 *6:d 75.72979  // $metal1_conn
1 *39:g *18:27 0.22289  // $metal1_conn
2 *18:27 *32:d 0.550439  // $metal1_conn

*END

