*SPEF "IEEE 1481-1999"
*DESIGN  "AND4X6"
*DATE "Mon Sep 27 08:49:41 2010"
*VENDOR "Cadence Design Systems"
*PROGRAM "Assura RCX"
*VERSION "3.2 Red Hat Linux release 7.2 (Enigma) - (09/09/2009-10:39)"
*DESIGN_FLOW "Physical Verification"
*DIVIDER /
*DELIMITER :
*BUS_DELIMITER []
*T_UNIT 1 PS
*C_UNIT 1e15 FF
*R_UNIT 1 OHM
*L_UNIT 1 MH
// DeviceFingerDelim "@"
// MATCHED
// caps2d version: 10

*NAME_MAP
*1 A
*2 B
*3 C
*4 net116
*5 D
*6 net132\@2
*7 mn1
*8 mn0
*9 mn4
*10 mp0
*11 mn4\@1
*12 mp4
*13 mn4\@2
*14 mp4\@1
*15 mn4\@3
*16 mp4\@2
*17 mn4\@4
*18 mp4\@3
*19 mn0\@1
*20 mp4\@4
*21 mn1\@1
*22 mp1
*23 mp0\@1
*24 mp1\@1
*25 mp2
*26 Y
*27 mp3
*28 mp3\@1
*29 mp2\@1
*30 VDD
*31 mn2\@1
*32 mn3\@1
*33 mn3
*34 mn2
*35 net132\@3
*36 net132\@4
*37 net132\@5
*38 net132\@1
*39 net132
*40 VSS

*GROUND_NETS VSS

*PORTS
*30 I
*40 I
*1 I
*2 I
*3 I
*5 I
*26 O

*D_NET *30 5.34007e-16

*CONN
*P *30 I *C 0.1000 1.7100 
*I *10:s B *C 2.3050 1.1350 
*I *12:s B *C 2.3050 1.1350 
*I *14:s B *C 2.6850 1.1350 
*I *16:s B *C 2.6850 1.1350 
*I *18:s B *C 3.0950 1.1350 
*I *20:s B *C 3.0950 1.1350 
*I *22:s B *C 1.7300 1.2100 
*I *23:s B *C 0.2750 1.2100 
*I *24:s B *C 0.7900 1.2100 
*I *25:s B *C 0.7900 1.2100 
*I *27:s B *C 1.2600 1.2100 
*I *28:s B *C 1.2600 1.2100 
*I *29:s B *C 1.7300 1.2100 
*N *30:3 *C 2.6000 1.7100 

*CAP
0 *27:s 2.48019e-17
1 *18:s 3.27292e-16
2 *30:3 1.81913e-16

*RES
0 *18:s *30 0.082243  // $metal1_conn
1 *30:3 *18:s 9.375  // $metal1_conn
2 *30:3 *18:s 8.333333  // $metal1_conn
3 *18:s *27:s 62.097115  // $metal1_conn

*END

*D_NET *40 0

*CONN
*P *40 I *C 0.1000 0.0000 
*I *8:s B *C 2.1000 0.4300 
*I *9:s B *C 2.1000 0.4300 
*I *11:s B *C 2.4800 0.4300 
*I *13:s B *C 2.4800 0.4300 
*I *15:s B *C 2.8900 0.4300 
*I *17:s B *C 2.8900 0.4300 
*I *19:s B *C 0.3600 0.4050 
*N *40:2 *C 2.6000 0.0000 
*N *40:6 *C 0.9000 0.0000 
*N *40:7 *C 0.3500 0.0000 


*RES
0 *40:7 *40 0.124841  // $metal1_conn
1 *40:2 *15:s 7.75  // $metal1_conn
2 *40:2 *40:6 6.888889  // $metal1_conn
3 *40:7 *19:s 75.20359  // $metal1_conn
4 *15:s *40:6 0.528515  // $metal1_conn
5 *40:6 *40:7 0.275436  // $metal1_conn

*END

*D_NET *1 7.65592e-16

*CONN
*P *1 I *C 1.9000 1.0450 
*I *8:g B *C 1.8825 0.4050 
*I *19:g B *C 0.4525 0.4050 
*I *10:g B *C 1.9825 1.2100 
*I *23:g B *C 0.3675 1.2100 

*CAP
0 *19:g 5.85175e-17
1 *8:g 7.98927e-17
2 *1 6.27181e-16

*RES
0 *1 *8:g 76.786453  // $poly_conn
1 *19:g *1 77.65509  // $poly_conn

*END

*D_NET *2 6.66978e-16

*CONN
*P *2 I *C 0.7000 0.8550 
*I *7:g B *C 1.7775 0.4050 
*I *21:g B *C 0.5725 0.4050 
*I *22:g B *C 1.7775 1.2100 
*I *24:g B *C 0.5725 1.2100 

*CAP
0 *21:g 6.67077e-17
1 *7:g 7.65781e-17
2 *2 5.23693e-16

*RES
0 *2 *7:g 84.065346  // $poly_conn
1 *2 *21:g 73.808937  // $poly_conn

*END

*D_NET *3 4.9569e-16

*CONN
*P *3 I *C 1.5000 0.6650 
*I *31:g B *C 0.8375 0.4050 
*I *34:g B *C 1.4575 0.4050 
*I *25:g B *C 0.8375 1.2100 
*I *29:g B *C 1.5125 1.2100 

*CAP
0 *29:g 3.9821e-16
1 *34:g 5.59514e-17
2 *31:g 4.15291e-17

*RES
0 *29:g *34:g 29.94836  // $poly_conn
1 *29:g *31:g 70.252686  // $poly_conn
2 *29:g *3 0.010208  // $metal1_conn

*END

*D_NET *5 2.91726e-16

*CONN
*P *5 I *C 0.9000 0.4750 
*I *32:g B *C 1.1425 0.4050 
*I *33:g B *C 1.3475 0.4050 
*I *27:g B *C 1.0425 1.2100 
*I *28:g B *C 1.3075 1.2100 
*N *5:2 *C 1.1050 0.6350 

*CAP
0 *28:g 1.12138e-16
1 *33:g 6.06985e-17
2 *32:g 1.72154e-17
3 *5:2 6.14484e-17
4 *5 4.02261e-17

*RES
0 *33:g *5:2 70.215561  // $poly_conn
1 *5:2 *32:g 16.15522  // $poly_conn
2 *5:2 *28:g 58.441963  // $poly_conn
3 *5:2 *5 45.210022  // $metal1_conn

*END

*D_NET *26 4.3753e-16

*CONN
*P *26 O *C 2.9000 0.8550 
*I *9:d B *C 2.2750 0.4300 
*I *11:d B *C 2.2750 0.4300 
*I *13:d B *C 2.6850 0.4300 
*I *15:d B *C 2.6850 0.4300 
*I *17:d B *C 3.0850 0.4300 
*I *12:d B *C 2.4800 1.1350 
*I *14:d B *C 2.4800 1.1350 
*I *16:d B *C 2.8900 1.1350 
*I *18:d B *C 2.8900 1.1350 
*I *20:d B *C 3.2900 1.1350 

*CAP
0 *20:d 2.25195e-16
1 *9:d 1.9577e-16
2 *26 1.65652e-17

*RES
0 *20:d *26 0.046557  // $metal1_conn
1 *26 *9:d 0.172075  // $metal1_conn

*END

*D_NET *39 2.26439e-18

*CONN
*I *7:d B *C 1.8300 0.4050 
*I *8:d B *C 1.8300 0.4050 

*CAP
0 *7:d 2.26439e-18

*RES
0 *8:d *7:d 0.001  // $mwires

*END

*D_NET *38 8.48496e-18

*CONN
*I *7:s B *C 1.6175 0.4050 
*I *34:s B *C 1.6175 0.4050 

*CAP
0 *7:s 8.48496e-18

*RES
0 *34:s *7:s 0.001  // $mwires

*END

*D_NET *37 2.27984e-18

*CONN
*I *33:s B *C 1.4025 0.4050 
*I *34:d B *C 1.4025 0.4050 

*CAP
0 *33:s 2.27984e-18

*RES
0 *34:d *33:s 0.001  // $mwires

*END

*D_NET *36 8.34351e-18

*CONN
*I *31:s B *C 0.9900 0.4050 
*I *32:s B *C 0.9900 0.4050 

*CAP
0 *31:s 8.34351e-18

*RES
0 *32:s *31:s 0.001  // $mwires

*END

*D_NET *35 0

*CONN
*I *21:d B *C 0.7050 0.4050 
*I *31:d B *C 0.7050 0.4050 


*RES
0 *31:d *21:d 0.001  // $mwires

*END

*D_NET *6 0

*CONN
*I *19:d B *C 0.5125 0.4050 
*I *21:s B *C 0.5125 0.4050 


*RES
0 *21:s *19:d 0.001  // $mwires

*END

*D_NET *4 8.82925e-16

*CONN
*I *9:g B *C 2.1725 0.4300 
*I *11:g B *C 2.3775 0.4300 
*I *13:g B *C 2.5825 0.4300 
*I *15:g B *C 2.7875 0.4300 
*I *17:g B *C 2.9925 0.4300 
*I *32:d B *C 1.2450 0.4050 
*I *33:d B *C 1.2450 0.4050 
*I *10:d B *C 1.8800 1.2100 
*I *12:g B *C 2.3775 1.1350 
*I *14:g B *C 2.5825 1.1350 
*I *16:g B *C 2.7875 1.1350 
*I *18:g B *C 2.9925 1.1350 
*I *20:g B *C 3.1975 1.1350 
*I *22:d B *C 1.8800 1.2100 
*I *23:d B *C 0.4700 1.2100 
*I *24:d B *C 0.4700 1.2100 
*I *25:d B *C 0.9400 1.2100 
*I *27:d B *C 0.9400 1.2100 
*I *28:d B *C 1.4100 1.2100 
*I *29:d B *C 1.4100 1.2100 
*N *4:15 *C 2.4150 0.7150 
*N *4:16 *C 2.0700 0.7150 

*CAP
0 *20:g 3.27606e-16
1 *10:d 3.62057e-16
2 *32:d 7.96087e-17
3 *4:16 1.13653e-16

*RES
0 *4:16 *32:d 75.760719  // $metal1_conn
1 *20:g *4:15 45.166805  // $metal1_conn
2 *20:g *4:15 45  // $metal1_conn
3 *4:15 *4:16 0.228848  // $metal1_conn
4 *4:16 *10:d 0.527496  // $metal1_conn

*END

