*SPEF "IEEE 1481-1999"
*DESIGN  "AO22XL"
*DATE "Mon Sep 27 08:53:50 2010"
*VENDOR "Cadence Design Systems"
*PROGRAM "Assura RCX"
*VERSION "3.2 Red Hat Linux release 7.2 (Enigma) - (09/09/2009-10:39)"
*DESIGN_FLOW "Physical Verification"
*DIVIDER /
*DELIMITER :
*BUS_DELIMITER []
*T_UNIT 1 PS
*C_UNIT 1e15 FF
*R_UNIT 1 OHM
*L_UNIT 1 MH
// DeviceFingerDelim "@"
// MATCHED
// caps2d version: 10

*NAME_MAP
*1 mp2
*2 mp4
*3 mn0
*4 Y
*5 mn1
*6 mn3
*7 mn2
*8 mn4
*9 n1
*10 VDD
*11 n0
*12 n2
*13 n3
*14 B0
*15 B1
*16 VSS
*17 A0
*18 A1
*19 mp0
*20 mp1
*21 mp3

*GROUND_NETS VSS

*PORTS
*10 I
*16 I
*17 I
*18 I
*14 I
*15 I
*4 O

*D_NET *10 2.51533e-16

*CONN
*P *10 I *C 0.1000 1.7100 
*I *19:s B *C 0.4400 1.3725 
*I *20:s B *C 0.4400 1.3725 
*I *2:s B *C 1.3100 1.3900 
*N *10:2 *C 0.8000 1.7100 
*N *10:3 *C 0.8000 1.7100 
*N *10:4 *C 0.4400 1.7100 

*CAP
0 *2:s 3.01928e-17
1 *19:s 3.08587e-17
2 *10:4 1.3736e-17
3 *10:2 1.70804e-16
4 *10 5.94141e-18

*RES
0 *2:s *10:3 62.467495  // $metal1_conn
1 *10:3 *10:4 0.180127  // $metal1_conn
2 *10:4 *10 0.169859  // $metal1_conn
3 *10:4 *19:s 62.18269  // $metal1_conn
4 *10:2 *10:3 9.375  // $metal1_conn

*END

*D_NET *16 0

*CONN
*P *16 I *C 0.1000 0.0000 
*I *3:s B *C 0.2450 0.4525 
*I *7:s B *C 1.0750 0.4525 
*I *8:s B *C 1.0750 0.4525 
*N *16:2 *C 0.2350 0.0000 
*N *16:3 *C 0.8000 0.0000 
*N *16:4 *C 0.8000 0.0000 


*RES
0 *3:s *16:2 75.273094  // $metal1_conn
1 *16:2 *16 0.066764  // $metal1_conn
2 *16:2 *16:4 0.2824  // $metal1_conn
3 *16:4 *7:s 75.432571  // $metal1_conn
4 *16:3 *16:4 7.75  // $metal1_conn

*END

*D_NET *17 1.97965e-16

*CONN
*P *17 I *C 0.3000 0.6650 
*I *3:g B *C 0.3375 0.4525 
*I *19:g B *C 0.3375 1.3725 
*N *17:2 *C 0.3100 0.6600 
*N *17:4 *C 0.3100 0.6600 

*CAP
0 *19:g 5.37394e-17
1 *3:g 2.15118e-17
2 *17:2 4.97858e-17
3 *17 7.29276e-17

*RES
0 *19:g *17:2 146.615021  // $poly_conn
1 *17:2 *3:g 26.102209  // $poly_conn
2 *17:4 *17 0.003104  // $metal1_conn
3 *17:2 *17:4 45  // $metal1_conn

*END

*D_NET *18 2.67704e-16

*CONN
*P *18 I *C 0.5000 0.6650 
*I *5:g B *C 0.5425 0.4525 
*I *20:g B *C 0.5425 1.3725 
*N *18:2 *C 0.5000 0.6600 
*N *18:4 *C 0.5000 0.6600 

*CAP
0 *20:g 6.79637e-17
1 *5:g 2.84012e-17
2 *18:2 6.88988e-17
3 *18 1.0244e-16

*RES
0 *20:g *18:2 145.564621  // $poly_conn
1 *18:2 *5:g 25.051804  // $poly_conn
2 *18:4 *18 0.003104  // $metal1_conn
3 *18:2 *18:4 45  // $metal1_conn

*END

*D_NET *14 2.45176e-16

*CONN
*P *14 I *C 1.1000 0.8550 
*I *7:g B *C 0.9725 0.4525 
*I *1:g B *C 0.9725 1.3725 
*N *14:1 *C 1.0600 0.8200 
*N *14:2 *C 0.9725 0.8200 

*CAP
0 *1:g 4.18553e-17
1 *7:g 5.00497e-17
2 *14:2 3.65093e-17
3 *14:1 1.16762e-16

*RES
0 *14:1 *14:2 48.300362  // $poly_conn
1 *14:2 *7:g 68.970634  // $poly_conn
2 *14:2 *1:g 107.432175  // $poly_conn
3 *14 *14:1 0.028298  // $metal1_conn

*END

*D_NET *15 2.65582e-16

*CONN
*P *15 I *C 0.7000 0.8550 
*I *6:g B *C 0.8025 0.4525 
*I *21:g B *C 0.7475 1.3725 
*N *15:2 *C 0.7000 0.6600 

*CAP
0 *21:g 6.22362e-17
1 *6:g 3.42303e-17
2 *15:2 1.08473e-16
3 *15 6.06428e-17

*RES
0 *6:g *15:2 31.997482  // $poly_conn
1 *15:2 *21:g 144.243973  // $poly_conn
2 *15 *15:2 45.116646  // $metal1_conn

*END

*D_NET *4 1.03316e-16

*CONN
*P *4 O *C 1.3000 0.6650 
*I *8:d B *C 1.2700 0.4525 
*I *2:d B *C 1.4400 1.0075 

*CAP
0 *2:d 4.25328e-17
1 *8:d 2.67771e-17
2 *4 3.40065e-17

*RES
0 *2:d *4 62.245747  // $metal1_conn
1 *4 *8:d 75.121552  // $metal1_conn

*END

*D_NET *12 2.51062e-18

*CONN
*I *6:s B *C 0.8875 0.4525 
*I *7:d B *C 0.8875 0.4525 

*CAP
0 *6:s 2.51062e-18

*RES
0 *7:d *6:s 0.001  // $mwires

*END

*D_NET *9 1.73161e-18

*CONN
*I *3:d B *C 0.4400 0.4525 
*I *5:s B *C 0.4400 0.4525 

*CAP
0 *3:d 1.73161e-18

*RES
0 *5:s *3:d 0.001  // $mwires

*END

*D_NET *13 2.06669e-16

*CONN
*I *19:d B *C 0.2450 1.3725 
*I *20:d B *C 0.6450 1.3725 
*I *21:s B *C 0.6450 1.3725 
*I *1:s B *C 1.0650 1.3725 
*N *13:3 *C 0.6450 1.3250 

*CAP
0 *1:s 7.42645e-17
1 *20:d 8.34044e-17
2 *19:d 4.90004e-17

*RES
0 *19:d *13:3 62.380291  // $metal1_conn
1 *13:3 *1:s 62.47588  // $metal1_conn
2 *20:d *13:3 62  // $metal1_conn

*END

*D_NET *11 3.64763e-16

*CONN
*I *5:d B *C 0.6725 0.4525 
*I *6:d B *C 0.6725 0.4525 
*I *8:g B *C 1.1775 0.4525 
*I *21:d B *C 0.8600 1.3725 
*I *1:d B *C 0.8600 1.3725 
*I *2:g B *C 1.3475 1.0075 
*N *11:2 *C 1.1875 0.6025 
*N *11:3 *C 1.1180 0.6300 
*N *11:4 *C 1.0875 0.6400 
*N *11:6 *C 0.8700 0.6600 

*CAP
0 *2:g 4.74306e-17
1 *21:d 7.06988e-17
2 *8:g 2.45368e-17
3 *5:d 5.206e-17
4 *11:6 7.78929e-17
5 *11:4 1.717e-17
6 *11:3 7.49743e-17

*RES
0 *2:g *11:2 110.81041  // $poly_conn
1 *11:2 *11:3 9.557125  // $poly_conn
2 *11:3 *11:4 45.874798  // $poly_conn
3 *11:2 *8:g 18.80533  // $poly_conn
4 *11:3 *11:4 45.015591  // $metal1_conn
5 *11:4 *11:6 0.152201  // $metal1_conn
6 *11:6 *5:d 75.255661  // $metal1_conn
7 *11:6 *21:d 62.516628  // $metal1_conn

*END

