*SPEF "IEEE 1481-1999"
*DESIGN  "AO22X1"
*DATE "Mon Sep 27 08:52:42 2010"
*VENDOR "Cadence Design Systems"
*PROGRAM "Assura RCX"
*VERSION "3.2 Red Hat Linux release 7.2 (Enigma) - (09/09/2009-10:39)"
*DESIGN_FLOW "Physical Verification"
*DIVIDER /
*DELIMITER :
*BUS_DELIMITER []
*T_UNIT 1 PS
*C_UNIT 1e15 FF
*R_UNIT 1 OHM
*L_UNIT 1 MH
// DeviceFingerDelim "@"
// MATCHED
// caps2d version: 10

*NAME_MAP
*1 mp2
*2 mp4
*3 mn0
*4 Y
*5 mn1
*6 mn3
*7 mn2
*8 mn4
*9 n1
*10 VDD
*11 n0
*12 n2
*13 n3
*14 B0
*15 B1
*16 VSS
*17 A0
*18 A1
*19 mp0
*20 mp1
*21 mp3

*GROUND_NETS VSS

*PORTS
*10 I
*16 I
*17 I
*18 I
*14 I
*15 I
*4 O

*D_NET *10 2.43997e-16

*CONN
*P *10 I *C 0.1000 1.7100 
*I *19:s B *C 0.3600 1.5700 
*I *20:s B *C 0.3600 1.5700 
*I *2:s B *C 1.1200 1.2450 
*N *10:2 *C 0.8000 1.7100 
*N *10:3 *C 0.8000 1.7100 
*N *10:4 *C 0.3350 1.7100 

*CAP
0 *2:s 7.84844e-17
1 *19:s 1.09774e-17
2 *10:4 1.08023e-17
3 *10:2 1.35175e-16
4 *10 8.55823e-18

*RES
0 *2:s *10:3 21.17028  // $metal1_conn
1 *10:3 *10:4 0.232334  // $metal1_conn
2 *10:4 *10 0.117069  // $metal1_conn
3 *10:4 *19:s 62.073887  // $metal1_conn
4 *10:2 *10:3 9.375  // $metal1_conn

*END

*D_NET *16 0

*CONN
*P *16 I *C 0.1000 0.0000 
*I *3:s B *C 0.2000 0.4625 
*I *7:s B *C 1.1200 0.4050 
*I *8:s B *C 1.1200 0.4050 
*N *16:2 *C 0.8000 0.0000 
*N *16:3 *C 0.8000 0.0000 
*N *16:4 *C 0.1900 0.0000 


*RES
0 *7:s *16:3 37.945435  // $metal1_conn
1 *16:3 *16:4 0.304843  // $metal1_conn
2 *16:4 *16 0.04455  // $metal1_conn
3 *16:4 *3:s 75.278717  // $metal1_conn
4 *16:2 *16:3 7.75  // $metal1_conn

*END

*D_NET *17 2.20973e-16

*CONN
*P *17 I *C 0.1650 1.0450 
*I *3:g B *C 0.2925 0.4625 
*I *19:g B *C 0.2025 1.2325 
*N *17:2 *C 0.1750 0.6900 

*CAP
0 *19:g 5.20649e-17
1 *3:g 4.43484e-17
2 *17:2 8.76352e-17
3 *17 3.69243e-17

*RES
0 *3:g *17:2 44.85659  // $poly_conn
1 *17:2 *19:g 99.863373  // $poly_conn
2 *17 *17:2 45.212086  // $metal1_conn

*END

*D_NET *18 2.57166e-16

*CONN
*P *18 I *C 0.3700 0.9000 
*I *5:g B *C 0.3975 0.4625 
*I *20:g B *C 0.3975 1.2325 
*N *18:2 *C 0.3600 0.8500 
*N *18:4 *C 0.3600 0.8500 
*N *18:6 *C 0.3650 0.9000 

*CAP
0 *20:g 5.35526e-17
1 *5:g 6.87227e-17
2 *18:4 3.79683e-17
3 *18:2 5.36533e-17
4 *18 4.32692e-17

*RES
0 *20:g *18:2 61.027016  // $poly_conn
1 *18:2 *5:g 71.283424  // $poly_conn
2 *18:6 *18 0.001002  // $metal1_conn
3 *18:4 *18:6 0.030965  // $metal1_conn
4 *18:2 *18:4 45  // $metal1_conn

*END

*D_NET *14 2.21467e-16

*CONN
*P *14 I *C 0.9050 0.6200 
*I *7:g B *C 0.8075 0.4625 
*I *1:g B *C 0.8075 1.2325 
*N *14:1 *C 0.8950 0.6650 
*N *14:2 *C 0.8075 0.6650 

*CAP
0 *1:g 5.04757e-17
1 *7:g 2.33664e-17
2 *14:2 3.19884e-17
3 *14:1 6.05099e-17
4 *14 5.51262e-17

*RES
0 *14:1 *14:2 48.300362  // $poly_conn
1 *14:2 *7:g 26.662943  // $poly_conn
2 *14:2 *1:g 111.278328  // $poly_conn
3 *14 *14:1 0.027869  // $metal1_conn

*END

*D_NET *15 2.47293e-16

*CONN
*P *15 I *C 0.5650 0.7600 
*I *6:g B *C 0.6025 0.4625 
*I *21:g B *C 0.6025 1.2325 
*N *15:2 *C 0.5750 0.6850 
*N *15:4 *C 0.5700 0.6850 

*CAP
0 *21:g 5.34973e-17
1 *6:g 3.40743e-17
2 *15:4 2.82444e-17
3 *15:2 4.87084e-17
4 *15 8.2769e-17

*RES
0 *21:g *15:2 104.307335  // $poly_conn
1 *15:2 *6:g 29.94836  // $poly_conn
2 *15:4 *15 0.046448  // $metal1_conn
3 *15:2 *15:4 45  // $metal1_conn

*END

*D_NET *4 1.3306e-16

*CONN
*P *4 O *C 1.3250 1.1850 
*I *8:d B *C 1.3050 0.4050 
*I *2:d B *C 1.3050 1.2450 

*CAP
0 *8:d 6.12409e-17
1 *4 7.18192e-17

*RES
0 *8:d *4 38.022343  // $metal1_conn
1 *4 *2:d 20.707779  // $metal1_conn

*END

*D_NET *12 5.78505e-18

*CONN
*I *6:s B *C 0.7050 0.4625 
*I *7:d B *C 0.7050 0.4625 

*CAP
0 *6:s 5.78505e-18

*RES
0 *7:d *6:s 0.001  // $mwires

*END

*D_NET *9 0

*CONN
*I *3:d B *C 0.3450 0.4625 
*I *5:s B *C 0.3450 0.4625 


*RES
0 *5:s *3:d 0.001  // $mwires

*END

*D_NET *13 1.55607e-16

*CONN
*I *19:d B *C 0.1100 1.2325 
*I *20:d B *C 0.5000 1.2325 
*I *21:s B *C 0.5000 1.2325 
*I *1:s B *C 0.9000 1.2325 
*N *13:3 *C 0.5000 1.2800 

*CAP
0 *1:s 6.45354e-17
1 *20:d 6.51186e-17
2 *19:d 2.59533e-17

*RES
0 *1:s *13:3 62.390617  // $metal1_conn
1 *13:3 *19:d 62.276039  // $metal1_conn
2 *20:d *13:3 62  // $metal1_conn

*END

*D_NET *11 3.71892e-16

*CONN
*I *5:d B *C 0.5000 0.4625 
*I *6:d B *C 0.5000 0.4625 
*I *8:g B *C 1.2125 0.4050 
*I *21:d B *C 0.7050 1.2325 
*I *1:d B *C 0.7050 1.2325 
*I *2:g B *C 1.2125 1.2450 
*N *11:2 *C 1.1650 0.9200 
*N *11:4 *C 0.7350 0.9200 

*CAP
0 *2:g 3.63138e-17
1 *21:d 4.22978e-17
2 *8:g 4.2256e-17
3 *5:d 6.79938e-17
4 *11:4 1.10901e-16
5 *11:2 7.21301e-17

*RES
0 *2:g *11:2 23.847527  // $poly_conn
1 *11:2 *8:g 89.23214  // $poly_conn
2 *11:2 *11:4 45.281841  // $metal1_conn
3 *11:4 *5:d 75.505836  // $metal1_conn
4 *11:4 *21:d 62.202  // $metal1_conn

*END

