*SPEF "IEEE 1481-1999"
*DESIGN  "AOI2BB2X2"
*DATE "Mon Sep 27 09:03:29 2010"
*VENDOR "Cadence Design Systems"
*PROGRAM "Assura RCX"
*VERSION "3.2 Red Hat Linux release 7.2 (Enigma) - (09/09/2009-10:39)"
*DESIGN_FLOW "Physical Verification"
*DIVIDER /
*DELIMITER :
*BUS_DELIMITER []
*T_UNIT 1 PS
*C_UNIT 1e15 FF
*R_UNIT 1 OHM
*L_UNIT 1 MH
// DeviceFingerDelim "@"
// MATCHED
// caps2d version: 10

*NAME_MAP
*1 VDD
*2 mn1
*3 mn0
*4 B0
*5 mn2
*6 B1
*7 mn3
*8 mn3\@1
*9 VSS
*10 mp4\@1
*11 mn2\@1
*12 mn4
*13 mn5
*14 mn5\@1
*15 A0N
*16 n4
*17 n2
*18 n2\@1
*19 n3
*20 n3\@1
*21 A1N
*22 Y
*23 n0
*24 mp1
*25 n1
*26 mp0
*27 mp2
*28 mp3
*29 mp3\@1
*30 mp2\@1
*31 mp4
*32 mp5
*33 mp5\@1
*34 mn4\@1

*GROUND_NETS VSS

*PORTS
*1 I
*9 I
*15 I
*21 I
*4 I
*6 I
*22 O

*D_NET *1 3.03812e-16

*CONN
*P *1 I *C 0.1000 1.7100 
*I *24:s B *C 0.4950 1.3800 
*I *26:s B *C 0.4950 1.3800 
*I *27:s B *C 1.2600 1.2100 
*I *28:s B *C 1.2600 1.2100 
*I *29:s B *C 1.6700 1.2100 
*I *30:s B *C 1.6700 1.2100 
*N *1:1 *C 2.3000 1.7100 
*N *1:4 *C 0.8000 1.7100 
*N *1:5 *C 0.4700 1.7100 

*CAP
0 *29:s 1.43222e-16
1 *24:s 1.10772e-17
2 *1:5 4.24276e-18
3 *1:1 1.37897e-16
4 *1 7.37401e-18

*RES
0 *1:5 *1 0.184424  // $metal1_conn
1 *1:1 *29:s 11.044655  // $metal1_conn
2 *1:1 *1:4 9.375  // $metal1_conn
3 *1:5 *24:s 62.199146  // $metal1_conn
4 *29:s *1:4 0.229642  // $metal1_conn
5 *1:4 *1:5 0.164688  // $metal1_conn

*END

*D_NET *9 0

*CONN
*P *9 I *C 0.1000 0.0000 
*I *2:s B *C 0.4575 0.5875 
*I *3:s B *C 0.4575 0.5875 
*I *5:s B *C 1.1650 0.4050 
*I *11:s B *C 1.8775 0.4050 
*I *12:d B *C 1.8775 0.4050 
*I *34:d B *C 2.6350 0.4050 
*N *9:2 *C 2.3000 0.0000 
*N *9:3 *C 2.3000 0.0000 
*N *9:4 *C 1.8000 0.0000 
*N *9:5 *C 1.1550 0.0000 
*N *9:6 *C 0.8000 0.0000 
*N *9:7 *C 0.3450 0.0000 


*RES
0 *34:d *9:3 75.399673  // $metal1_conn
1 *9:3 *9:4 0.249628  // $metal1_conn
2 *9:4 *9:5 0.321882  // $metal1_conn
3 *9:5 *9:6 0.177179  // $metal1_conn
4 *9:6 *9:7 0.227144  // $metal1_conn
5 *9:7 *9 0.121968  // $metal1_conn
6 *9:4 *11:s 75.198807  // $metal1_conn
7 *9:5 *5:s 75.202446  // $metal1_conn
8 *9:7 *2:s 75.073784  // $metal1_conn
9 *9:2 *9:3 8.857142  // $metal1_conn
10 *9:2 *9:6 7.75  // $metal1_conn

*END

*D_NET *15 2.04418e-16

*CONN
*P *15 I *C 0.5000 0.6650 
*I *3:g B *C 0.5325 0.5875 
*I *26:g B *C 0.5325 1.0425 
*N *15:2 *C 0.4950 0.7850 

*CAP
0 *26:g 3.54556e-17
1 *3:g 2.46034e-17
2 *15:2 1.09335e-16
3 *15 3.5024e-17

*RES
0 *26:g *15:2 28.975733  // $poly_conn
1 *15:2 *3:g 22.565475  // $poly_conn
2 *15 *15:2 45.072521  // $metal1_conn

*END

*D_NET *21 2.15408e-16

*CONN
*P *21 I *C 0.3000 0.8550 
*I *2:g B *C 0.2825 0.5875 
*I *24:g B *C 0.3375 1.0425 
*N *21:2 *C 0.3100 0.7700 
*N *21:4 *C 0.3050 0.7700 

*CAP
0 *24:g 3.72629e-17
1 *2:g 2.5225e-17
2 *21:4 7.86355e-17
3 *21:2 3.23474e-17
4 *21 4.19375e-17

*RES
0 *24:g *21:2 33.794518  // $poly_conn
1 *21:2 *2:g 19.691952  // $poly_conn
2 *21:4 *21 0.05258  // $metal1_conn
3 *21:2 *21:4 45  // $metal1_conn

*END

*D_NET *4 4.35593e-16

*CONN
*P *4 I *C 2.3000 0.6650 
*I *12:g B *C 2.0275 0.4050 
*I *34:g B *C 2.5425 0.4050 
*I *31:g B *C 2.0275 1.2100 
*I *10:g B *C 2.6425 1.2100 

*CAP
0 *34:g 4.97411e-17
1 *12:g 3.09736e-17
2 *4 3.54878e-16

*RES
0 *4 *34:g 19.094141  // $poly_conn
1 *4 *12:g 24.098839  // $poly_conn

*END

*D_NET *6 3.61525e-16

*CONN
*P *6 I *C 2.5000 0.8550 
*I *13:g B *C 2.2325 0.4050 
*I *14:g B *C 2.4375 0.4050 
*I *32:g B *C 2.2325 1.2100 
*I *33:g B *C 2.4375 1.2100 

*CAP
0 *33:g 2.13635e-16
1 *14:g 5.9054e-17
2 *13:g 3.67251e-17
3 *6 5.21109e-17

*RES
0 *33:g *14:g 74.168388  // $poly_conn
1 *33:g *13:g 67.437271  // $poly_conn
2 *6 *33:g 45.129005  // $metal1_conn

*END

*D_NET *22 4.05342e-16

*CONN
*P *22 O *C 1.9000 0.8550 
*I *7:d B *C 1.4650 0.4050 
*I *8:d B *C 1.4650 0.4050 
*I *13:s B *C 2.3350 0.4050 
*I *14:s B *C 2.3350 0.4050 
*I *31:d B *C 2.1300 1.2100 
*I *32:d B *C 2.1300 1.2100 
*I *33:d B *C 2.5400 1.2100 
*I *10:d B *C 2.5400 1.2100 
*N *22:4 *C 1.9100 0.4950 

*CAP
0 *33:d 1.62114e-16
1 *13:s 5.73413e-17
2 *7:d 4.42504e-17
3 *22:4 7.01145e-17
4 *22 7.1522e-17

*RES
0 *33:d *22 0.254452  // $metal1_conn
1 *22 *22:4 0.231226  // $metal1_conn
2 *22:4 *13:s 75.323036  // $metal1_conn
3 *22:4 *7:d 75.312859  // $metal1_conn

*END

*D_NET *20 0

*CONN
*I *14:d B *C 2.4900 0.4050 
*I *34:s B *C 2.4900 0.4050 


*RES
0 *34:s *14:d 0.001  // $mwires

*END

*D_NET *19 4.56514e-18

*CONN
*I *12:s B *C 2.1300 0.4050 
*I *13:d B *C 2.1300 0.4050 

*CAP
0 *12:s 4.56514e-18

*RES
0 *13:d *12:s 0.001  // $mwires

*END

*D_NET *18 4.29354e-18

*CONN
*I *8:s B *C 1.6475 0.4050 
*I *11:d B *C 1.6475 0.4050 

*CAP
0 *8:s 4.29354e-18

*RES
0 *11:d *8:s 0.001  // $mwires

*END

*D_NET *17 0

*CONN
*I *5:d B *C 1.3100 0.4050 
*I *7:s B *C 1.3100 0.4050 


*RES
0 *7:s *5:d 0.001  // $mwires

*END

*D_NET *16 2.90791e-16

*CONN
*I *27:d B *C 1.0850 1.2100 
*I *28:d B *C 1.4650 1.2100 
*I *29:d B *C 1.4650 1.2100 
*I *30:d B *C 1.9000 1.2100 
*I *31:s B *C 1.9000 1.2100 
*I *32:s B *C 2.3350 1.2100 
*I *33:s B *C 2.3350 1.2100 
*I *10:s B *C 2.7350 1.2100 

*CAP
0 *10:s 1.81692e-16
1 *32:s 7.46246e-17
2 *28:d 3.44745e-17

*RES
0 *32:s *10:s 62  // $metal1_conn
1 *10:s *28:d 31.060982  // $metal1_conn

*END

*D_NET *25 6.23786e-16

*CONN
*I *2:d B *C 0.1650 0.5875 
*I *7:g B *C 1.3625 0.4050 
*I *8:g B *C 1.5675 0.4050 
*I *24:d B *C 0.2450 1.0425 
*I *28:g B *C 1.3625 1.2100 
*I *29:g B *C 1.5675 1.2100 
*N *25:8 *C 0.1300 0.5750 

*CAP
0 *29:g 3.36603e-16
1 *24:d 5.16091e-17
2 *8:g 3.0354e-17
3 *7:g 4.51286e-17
4 *2:d 1.60091e-16

*RES
0 *29:g *8:g 20.001841  // $poly_conn
1 *29:g *7:g 19.719322  // $poly_conn
2 *29:g *25:8 46.27557  // $metal1_conn
3 *2:d *25:8 75  // $metal1_conn
4 *25:8 *24:d 62.434578  // $metal1_conn

*END

*D_NET *23 5.53523e-16

*CONN
*I *3:d B *C 0.6425 0.5875 
*I *5:g B *C 1.2575 0.4050 
*I *11:g B *C 1.7275 0.4050 
*I *26:d B *C 0.6925 0.9950 
*I *27:g B *C 1.1575 1.2100 
*I *30:g B *C 1.7725 1.2100 
*N *23:8 *C 0.6700 0.8150 

*CAP
0 *30:g 3.24488e-16
1 *26:d 2.46644e-17
2 *11:g 4.74723e-17
3 *5:g 6.34288e-17
4 *3:d 4.10739e-17
5 *23:8 5.23959e-17

*RES
0 *30:g *11:g 60.119781  // $poly_conn
1 *5:g *30:g 60.119781  // $poly_conn
2 *23:8 *26:d 62.137905  // $metal1_conn
3 *23:8 *3:d 75.171356  // $metal1_conn
4 *30:g *23:8 0.388478  // $metal1_conn

*END

