*SPEF "IEEE 1481-1999"
*DESIGN  "AOI21X4"
*DATE "Mon Sep 27 08:56:27 2010"
*VENDOR "Cadence Design Systems"
*PROGRAM "Assura RCX"
*VERSION "3.2 Red Hat Linux release 7.2 (Enigma) - (09/09/2009-10:39)"
*DESIGN_FLOW "Physical Verification"
*DIVIDER /
*DELIMITER :
*BUS_DELIMITER []
*T_UNIT 1 PS
*C_UNIT 1e15 FF
*R_UNIT 1 OHM
*L_UNIT 1 MH
// DeviceFingerDelim "@"
// MATCHED
// caps2d version: 10

*NAME_MAP
*1 VDD
*2 mp0\@2
*3 mp0\@3
*4 mp1\@3
*5 net82\@2
*6 net82\@3
*7 Y
*8 net70
*9 A0
*10 net82
*11 A1
*12 net82\@1
*13 VSS
*14 mp1
*15 mp0
*16 mp2
*17 mp2\@1
*18 mp2\@2
*19 mp2\@3
*20 mp0\@1
*21 mn0
*22 B0
*23 mp1\@1
*24 mn1
*25 mp1\@2
*26 mn1\@1
*27 mn0\@1
*28 mn0\@2
*29 mn1\@2
*30 mn1\@3
*31 mn2\@1
*32 mn0\@3
*33 mn2\@2
*34 mn2
*35 mn2\@3

*GROUND_NETS VSS

*PORTS
*1 I
*13 I
*9 I
*11 I
*22 I
*7 O

*D_NET *1 3.49437e-16

*CONN
*P *1 I *C 0.1000 1.7100 
*I *14:s B *C 1.6700 1.1500 
*I *15:s B *C 1.6700 1.1500 
*I *20:s B *C 0.4400 1.1500 
*I *23:s B *C 0.4400 1.1500 
*I *25:s B *C 0.8500 1.1500 
*I *2:s B *C 0.8500 1.1500 
*I *3:s B *C 1.2600 1.1500 
*I *4:s B *C 1.2600 1.1500 
*N *1:1 *C 2.3000 1.7100 

*CAP
0 *14:s 1.98028e-16
1 *1:1 1.46004e-16
2 *1 5.40418e-18

*RES
0 *14:s *1 0.169435  // $metal1_conn
1 *1:1 *14:s 11.028868  // $metal1_conn
2 *1:1 *14:s 9.375  // $metal1_conn

*END

*D_NET *13 0

*CONN
*P *13 I *C 0.1000 0.0000 
*I *21:s B *C 0.5450 0.4050 
*I *27:s B *C 1.1550 0.4050 
*I *28:s B *C 1.1550 0.4050 
*I *32:s B *C 1.7750 0.4050 
*I *34:s B *C 1.7750 0.4050 
*I *31:s B *C 2.1925 0.4050 
*I *33:s B *C 2.1925 0.4050 
*I *35:s B *C 2.6000 0.4050 
*N *13:2 *C 2.3000 0.0000 
*N *13:6 *C 1.1250 0.0000 
*N *13:7 *C 0.8000 0.0000 
*N *13:8 *C 0.5350 0.0000 


*RES
0 *13:8 *13 0.216901  // $metal1_conn
1 *13:2 *35:s 8.857142  // $metal1_conn
2 *13:2 *13:7 7.75  // $metal1_conn
3 *13:6 *27:s 75.198807  // $metal1_conn
4 *13:8 *21:s 75.202446  // $metal1_conn
5 *35:s *13:6 0.309391  // $metal1_conn
6 *13:6 *13:7 0.16219  // $metal1_conn
7 *13:7 *13:8 0.132211  // $metal1_conn

*END

*D_NET *9 8.32204e-16

*CONN
*P *9 I *C 1.7000 0.8550 
*I *21:g B *C 0.6375 0.4050 
*I *27:g B *C 1.0525 0.4050 
*I *28:g B *C 1.2575 0.4050 
*I *32:g B *C 1.6725 0.4050 
*I *15:g B *C 1.7725 1.1500 
*I *20:g B *C 0.3375 1.1500 
*I *2:g B *C 0.9525 1.1500 
*I *3:g B *C 1.1575 1.1500 

*CAP
0 *15:g 5.81673e-16
1 *32:g 6.51987e-17
2 *28:g 5.17037e-17
3 *27:g 4.77152e-17
4 *21:g 5.19556e-17
5 *9 3.3957e-17

*RES
0 *15:g *32:g 36.668037  // $poly_conn
1 *28:g *15:g 50.604725  // $poly_conn
2 *15:g *27:g 35.937695  // $poly_conn
3 *21:g *15:g 28.975733  // $poly_conn
4 *9 *15:g 0.086977  // $metal1_conn

*END

*D_NET *11 6.72872e-16

*CONN
*P *11 I *C 0.9000 0.8550 
*I *24:g B *C 0.7425 0.4050 
*I *26:g B *C 0.9475 0.4050 
*I *29:g B *C 1.3625 0.4050 
*I *30:g B *C 1.5675 0.4050 
*I *14:g B *C 1.5675 1.1500 
*I *23:g B *C 0.5425 1.1500 
*I *25:g B *C 0.7475 1.1500 
*I *4:g B *C 1.3625 1.1500 
*N *11:2 *C 0.7725 0.6475 
*N *11:9 *C 1.3900 0.7525 

*CAP
0 *30:g 6.14109e-17
1 *29:g 5.34236e-17
2 *26:g 6.77333e-17
3 *24:g 4.74542e-17
4 *11:9 3.82697e-17
5 *11:2 3.15129e-17
6 *11 3.73068e-16

*RES
0 *11:9 *30:g 85.55378  // $poly_conn
1 *11:9 *29:g 52.606361  // $poly_conn
2 *26:g *11:2 57.519176  // $poly_conn
3 *11:2 *24:g 25.503479  // $poly_conn
4 *11 *11:9 7.028393  // $poly_conn
5 *11:2 *11 17.108534  // $poly_conn

*END

*D_NET *22 3.26799e-16

*CONN
*P *22 I *C 2.3000 0.6650 
*I *34:g B *C 1.8775 0.4050 
*I *31:g B *C 2.0825 0.4050 
*I *33:g B *C 2.3025 0.4050 
*I *35:g B *C 2.5075 0.4050 
*I *16:g B *C 1.9875 1.1500 
*I *17:g B *C 2.1925 1.1500 
*I *18:g B *C 2.3975 1.1500 
*I *19:g B *C 2.6025 1.1500 

*CAP
0 *22 3.26799e-16


*END

*D_NET *7 4.63212e-16

*CONN
*P *7 O *C 2.1000 0.8550 
*I *24:d B *C 0.8450 0.4050 
*I *26:d B *C 0.8450 0.4050 
*I *29:d B *C 1.4650 0.4050 
*I *30:d B *C 1.4650 0.4050 
*I *34:d B *C 1.9800 0.4050 
*I *31:d B *C 1.9800 0.4050 
*I *33:d B *C 2.4050 0.4050 
*I *35:d B *C 2.4050 0.4050 
*I *16:d B *C 2.0900 1.1500 
*I *17:d B *C 2.0900 1.1500 
*I *18:d B *C 2.5000 1.1500 
*I *19:d B *C 2.5000 1.1500 
*N *7:3 *C 1.9200 0.4950 
*N *7:5 *C 1.4650 0.4750 

*CAP
0 *18:d 9.5109e-17
1 *34:d 6.43802e-17
2 *29:d 8.82897e-17
3 *24:d 6.66003e-17
4 *7:3 9.87775e-17
5 *7 5.00553e-17

*RES
0 *7:3 *7 0.358721  // $metal1_conn
1 *7 *18:d 0.085942  // $metal1_conn
2 *34:d *7:3 0.044186  // $metal1_conn
3 *29:d *7:5 75  // $metal1_conn
4 *7:5 *24:d 75.472137  // $metal1_conn
5 *7:3 *7:5 0.340295  // $metal1_conn

*END

*D_NET *6 1.80288e-18

*CONN
*I *30:s B *C 1.6200 0.4050 
*I *32:d B *C 1.6200 0.4050 

*CAP
0 *30:s 1.80288e-18

*RES
0 *32:d *30:s 0.001  // $mwires

*END

*D_NET *5 1.77435e-18

*CONN
*I *28:d B *C 1.3100 0.4050 
*I *29:s B *C 1.3100 0.4050 

*CAP
0 *28:d 1.77435e-18

*RES
0 *29:s *28:d 0.001  // $mwires

*END

*D_NET *12 1.81915e-18

*CONN
*I *26:s B *C 1.0000 0.4050 
*I *27:d B *C 1.0000 0.4050 

*CAP
0 *26:s 1.81915e-18

*RES
0 *27:d *26:s 0.001  // $mwires

*END

*D_NET *10 0

*CONN
*I *21:d B *C 0.6900 0.4050 
*I *24:s B *C 0.6900 0.4050 


*RES
0 *24:s *21:d 0.001  // $mwires

*END

*D_NET *8 4.6585e-16

*CONN
*I *14:d B *C 1.4650 1.1500 
*I *15:d B *C 1.8800 1.1500 
*I *16:s B *C 1.8800 1.1500 
*I *17:s B *C 2.2950 1.1500 
*I *18:s B *C 2.2950 1.1500 
*I *19:s B *C 2.6950 1.1500 
*I *20:d B *C 0.2450 1.1500 
*I *23:d B *C 0.6450 1.1500 
*I *25:d B *C 0.6450 1.1500 
*I *2:d B *C 1.0550 1.1500 
*I *3:d B *C 1.0550 1.1500 
*I *4:d B *C 1.4650 1.1500 

*CAP
0 *19:s 4.6585e-16


*END

