*SPEF "IEEE 1481-1999"
*DESIGN  "AOI221X1"
*DATE "Mon Sep 27 08:57:12 2010"
*VENDOR "Cadence Design Systems"
*PROGRAM "Assura RCX"
*VERSION "3.2 Red Hat Linux release 7.2 (Enigma) - (09/09/2009-10:39)"
*DESIGN_FLOW "Physical Verification"
*DIVIDER /
*DELIMITER :
*BUS_DELIMITER []
*T_UNIT 1 PS
*C_UNIT 1e15 FF
*R_UNIT 1 OHM
*L_UNIT 1 MH
// DeviceFingerDelim "@"
// MATCHED
// caps2d version: 10

*NAME_MAP
*1 mp2
*2 mp4
*3 mn0
*4 Y
*5 mn1
*6 mn3
*7 mn2
*8 mn4
*9 net111
*10 VDD
*11 net128
*12 net108
*13 net120
*14 B0
*15 B1
*16 VSS
*17 A0
*18 A1
*19 mp0
*20 mp1
*21 C0
*22 mp3

*GROUND_NETS VSS

*PORTS
*10 I
*16 I
*17 I
*18 I
*14 I
*15 I
*21 I
*4 O

*D_NET *10 1.53939e-16

*CONN
*P *10 I *C 0.1000 1.7100 
*I *19:s B *C 0.1100 1.1050 
*I *20:s B *C 0.5650 1.5075 
*N *10:1 *C 0.7000 1.7100 
*N *10:2 *C 0.5400 1.7100 

*CAP
0 *20:s 1.14128e-17
1 *19:s 4.07574e-17
2 *10:2 5.99687e-18
3 *10:1 8.91117e-17
4 *10 6.66058e-18

*RES
0 *10:1 *10:2 10.7943  // $metal1_conn
1 *10:2 *10 0.220434  // $metal1_conn
2 *10 *19:s 21.070749  // $metal1_conn
3 *10:2 *20:s 62.157589  // $metal1_conn

*END

*D_NET *16 0

*CONN
*P *16 I *C 0.1000 0.0000 
*I *3:s B *C 0.1650 0.3600 
*I *7:s B *C 0.9900 0.3600 
*I *8:s B *C 0.9900 0.3600 
*N *16:2 *C 0.1550 0.0000 
*N *16:3 *C 0.7000 0.0000 
*N *16:4 *C 0.7000 0.0000 


*RES
0 *3:s *16:2 37.714367  // $metal1_conn
1 *16:2 *16 0.026709  // $metal1_conn
2 *16:2 *16:4 0.27261  // $metal1_conn
3 *16:4 *7:s 75.329361  // $metal1_conn
4 *16:3 *16:4 8.857142  // $metal1_conn

*END

*D_NET *17 1.63416e-16

*CONN
*P *17 I *C 0.2250 0.6100 
*I *3:g B *C 0.2575 0.3600 
*I *19:g B *C 0.2025 1.1050 
*N *17:2 *C 0.2300 0.6000 
*N *17:4 *C 0.2300 0.6000 

*CAP
0 *19:g 4.51343e-17
1 *3:g 3.78628e-17
2 *17:2 3.3803e-17
3 *17 4.66158e-17

*RES
0 *3:g *17:2 19.691952  // $poly_conn
1 *17:2 *19:g 70.973999  // $poly_conn
2 *17:4 *17 0.006219  // $metal1_conn
3 *17:2 *17:4 45  // $metal1_conn

*END

*D_NET *18 2.22446e-16

*CONN
*P *18 I *C 0.4250 0.4500 
*I *5:g B *C 0.4075 0.3600 
*I *20:g B *C 0.4075 1.1050 
*N *18:2 *C 0.4350 0.6000 

*CAP
0 *20:g 6.13233e-17
1 *5:g 3.54591e-17
2 *18:2 7.88299e-17
3 *18 4.6834e-17

*RES
0 *20:g *18:2 70.973999  // $poly_conn
1 *18:2 *5:g 19.691952  // $poly_conn
2 *18 *18:2 45.09396  // $metal1_conn

*END

*D_NET *14 2.60229e-16

*CONN
*P *14 I *C 0.9100 0.8500 
*I *7:g B *C 0.8875 0.3600 
*I *1:g B *C 0.9775 1.1050 
*N *14:2 *C 0.9150 0.7800 

*CAP
0 *1:g 4.90689e-17
1 *7:g 7.00431e-17
2 *14:2 1.09091e-16
3 *14 3.20258e-17

*RES
0 *1:g *14:2 27.586557  // $poly_conn
1 *14:2 *7:g 62.683887  // $poly_conn
2 *14 *14:2 45.041954  // $metal1_conn

*END

*D_NET *15 2.29069e-16

*CONN
*P *15 I *C 0.7100 0.6900 
*I *6:g B *C 0.7725 0.3600 
*I *22:g B *C 0.7725 1.1050 
*N *15:2 *C 0.7725 0.6600 
*N *15:3 *C 0.7200 0.6600 

*CAP
0 *22:g 5.68566e-17
1 *6:g 5.23122e-17
2 *15:3 7.60678e-17
3 *15 4.3832e-17

*RES
0 *22:g *15:2 60.791523  // $poly_conn
1 *15:2 *15:3 45.361767  // $poly_conn
2 *15:2 *6:g 40.278706  // $poly_conn
3 *15:3 *15 0.018656  // $metal1_conn

*END

*D_NET *21 2.02756e-16

*CONN
*P *21 I *C 1.1100 0.6650 
*I *8:g B *C 1.0925 0.3600 
*I *2:g B *C 1.1825 1.1050 
*N *21:2 *C 1.1300 0.6800 

*CAP
0 *2:g 4.44331e-17
1 *8:g 3.61145e-17
2 *21:2 2.89688e-17
3 *21 9.32392e-17

*RES
0 *2:g *21:2 52.989925  // $poly_conn
1 *21:2 *8:g 39.232143  // $poly_conn
2 *21:2 *21 45.012218  // $metal1_conn

*END

*D_NET *4 2.32551e-16

*CONN
*P *4 O *C 1.2750 0.4200 
*I *5:d B *C 0.5900 0.3600 
*I *6:d B *C 0.5900 0.3600 
*I *8:d B *C 1.2200 0.3600 
*I *2:d B *C 1.2750 1.1050 

*CAP
0 *2:d 7.44558e-17
1 *8:d 2.39046e-17
2 *5:d 7.19898e-17
3 *4 6.2201e-17

*RES
0 *2:d *4 21.168758  // $metal1_conn
1 *4 *5:d 75.442314  // $metal1_conn
2 *4 *8:d 75.079247  // $metal1_conn

*END

*D_NET *13 3.18719e-18

*CONN
*I *6:s B *C 0.8300 0.3600 
*I *7:d B *C 0.8300 0.3600 

*CAP
0 *6:s 3.18719e-18

*RES
0 *7:d *6:s 0.001  // $mwires

*END

*D_NET *11 0

*CONN
*I *3:d B *C 0.3325 0.3600 
*I *5:s B *C 0.3325 0.3600 


*RES
0 *5:s *3:d 0.001  // $mwires

*END

*D_NET *9 1.50611e-16

*CONN
*I *19:d B *C 0.3050 1.1050 
*I *20:d B *C 0.3050 1.1050 
*I *22:s B *C 0.8750 1.1050 
*I *1:s B *C 0.8750 1.1050 

*CAP
0 *22:s 9.20221e-17
1 *19:d 5.85891e-17

*RES
0 *22:s *19:d 124.533295  // $metal1_conn

*END

*D_NET *12 1.26423e-16

*CONN
*I *22:d B *C 0.6800 1.1050 
*I *1:d B *C 1.0800 1.1050 
*I *2:s B *C 1.0800 1.1050 

*CAP
0 *1:d 6.57247e-17
1 *22:d 6.06982e-17

*RES
0 *1:d *22:d 93.377678  // $metal1_conn

*END

