*SPEF "IEEE 1481-1999"
*DESIGN  "AOI21X2"
*DATE "Mon Sep 27 08:56:05 2010"
*VENDOR "Cadence Design Systems"
*PROGRAM "Assura RCX"
*VERSION "3.2 Red Hat Linux release 7.2 (Enigma) - (09/09/2009-10:39)"
*DESIGN_FLOW "Physical Verification"
*DIVIDER /
*DELIMITER :
*BUS_DELIMITER []
*T_UNIT 1 PS
*C_UNIT 1e15 FF
*R_UNIT 1 OHM
*L_UNIT 1 MH
// DeviceFingerDelim "@"
// MATCHED
// caps2d version: 10

*NAME_MAP
*1 mp0
*2 mp1
*3 mp1\@1
*4 mp0\@1
*5 mp2
*6 A0
*7 mp2\@1
*8 A1
*9 VDD
*10 net70
*11 net74
*12 mn0
*13 net74\@1
*14 mn1
*15 mn1\@1
*16 mn0\@1
*17 mn2
*18 mn2\@1
*19 B0
*20 Y
*21 VSS

*GROUND_NETS VSS

*PORTS
*9 I
*21 I
*6 I
*8 I
*19 I
*20 O

*D_NET *9 1.71598e-16

*CONN
*P *9 I *C 0.1000 1.7100 
*I *1:s B *C 0.3600 1.0950 
*I *2:s B *C 0.3600 1.0950 
*I *3:s B *C 0.7700 1.0950 
*I *4:s B *C 0.7700 1.0950 
*N *9:2 *C 0.8000 1.7100 

*CAP
0 *3:s 9.13566e-17
1 *9:2 7.44428e-17
2 *9 5.7987e-18

*RES
0 *3:s *9 0.129787  // $metal1_conn
1 *9:2 *3:s 9.375  // $metal1_conn

*END

*D_NET *21 0

*CONN
*P *21 I *C 0.1000 0.0000 
*I *12:s B *C 0.2650 0.3700 
*I *16:s B *C 0.9025 0.3700 
*I *17:s B *C 0.9025 0.3700 
*I *18:s B *C 1.3050 0.3700 
*N *21:3 *C 0.8000 0.0000 
*N *21:4 *C 0.8000 0.0000 
*N *21:5 *C 0.2550 0.0000 


*RES
0 *21:5 *21 0.077193  // $metal1_conn
1 *21:3 *21:4 7.75  // $metal1_conn
2 *21:5 *12:s 75.180115  // $metal1_conn
3 *18:s *21:4 0.034859  // $metal1_conn
4 *21:4 *21:5 0.272793  // $metal1_conn

*END

*D_NET *6 4.1909e-16

*CONN
*P *6 I *C 0.7000 0.6650 
*I *12:g B *C 0.3575 0.3700 
*I *16:g B *C 0.7975 0.3700 
*I *1:g B *C 0.2575 1.0950 
*I *4:g B *C 0.8725 1.0950 

*CAP
0 *16:g 5.23679e-17
1 *12:g 5.02766e-17
2 *6 3.16446e-16

*RES
0 *6 *16:g 31.246044  // $poly_conn
1 *12:g *6 21.283424  // $poly_conn

*END

*D_NET *8 3.13234e-16

*CONN
*P *8 I *C 0.3000 0.8550 
*I *14:g B *C 0.4625 0.3700 
*I *15:g B *C 0.6675 0.3700 
*I *2:g B *C 0.4625 1.0950 
*I *3:g B *C 0.6675 1.0950 
*N *8:3 *C 0.5000 0.6975 
*N *8:7 *C 0.3005 0.8275 
*N *8:8 *C 0.5000 0.8000 
*N *8:9 *C 0.5000 0.8275 

*CAP
0 *3:g 8.36013e-17
1 *15:g 4.71535e-17
2 *14:g 5.31167e-17
3 *8:9 4.42292e-17
4 *8:3 3.78455e-17
5 *8 4.72878e-17

*RES
0 *8:3 *15:g 75.778534  // $poly_conn
1 *8:3 *14:g 47.120159  // $poly_conn
2 *3:g *8:3 6.86452  // $poly_conn
3 *8:7 *8 0.005392  // $metal1_conn
4 *3:g *8:8 45  // $metal1_conn
5 *8:7 *8:9 0.096483  // $metal1_conn
6 *8:8 *8:9 0.005392  // $metal1_conn

*END

*D_NET *19 2.11821e-16

*CONN
*P *19 I *C 1.5000 0.6650 
*I *17:g B *C 1.0075 0.3700 
*I *18:g B *C 1.2125 0.3700 
*I *5:g B *C 1.1325 1.0950 
*I *7:g B *C 1.3375 1.0950 

*CAP
0 *7:g 1.15771e-16
1 *17:g 5.80394e-17
2 *19 3.8011e-17

*RES
0 *7:g *17:g 17.879896  // $poly_conn
1 *19 *7:g 45.117569  // $metal1_conn

*END

*D_NET *20 2.0169e-16

*CONN
*P *20 O *C 1.1000 0.6650 
*I *14:d B *C 0.5650 0.3700 
*I *15:d B *C 0.5650 0.3700 
*I *17:d B *C 1.1100 0.3700 
*I *18:d B *C 1.1100 0.3700 
*I *5:d B *C 1.2350 1.0950 
*I *7:d B *C 1.2350 1.0950 
*N *20:3 *C 1.1100 0.4300 

*CAP
0 *5:d 5.1421e-17
1 *17:d 5.01853e-17
2 *14:d 6.94881e-17
3 *20 3.0596e-17

*RES
0 *5:d *20 62.282265  // $metal1_conn
1 *20 *20:3 0.144561  // $metal1_conn
2 *17:d *20:3 75  // $metal1_conn
3 *20:3 *14:d 75.411285  // $metal1_conn

*END

*D_NET *13 2.32326e-18

*CONN
*I *15:s B *C 0.7325 0.3700 
*I *16:d B *C 0.7325 0.3700 

*CAP
0 *15:s 2.32326e-18

*RES
0 *16:d *15:s 0.001  // $mwires

*END

*D_NET *11 0

*CONN
*I *12:d B *C 0.4100 0.3700 
*I *14:s B *C 0.4100 0.3700 


*RES
0 *14:s *12:d 0.001  // $mwires

*END

*D_NET *10 2.35538e-16

*CONN
*I *1:d B *C 0.1650 1.0950 
*I *2:d B *C 0.5650 1.0950 
*I *3:d B *C 0.5650 1.0950 
*I *4:d B *C 1.0025 1.0950 
*I *5:s B *C 1.0025 1.0950 
*I *7:s B *C 1.4300 1.0950 

*CAP
0 *7:s 2.03192e-16
1 *2:d 3.23452e-17

*RES
0 *7:s *2:d 31.062344  // $metal1_conn

*END

