*SPEF "IEEE 1481-1999"
*DESIGN  "AOI221XL"
*DATE "Mon Sep 27 08:58:18 2010"
*VENDOR "Cadence Design Systems"
*PROGRAM "Assura RCX"
*VERSION "3.2 Red Hat Linux release 7.2 (Enigma) - (09/09/2009-10:39)"
*DESIGN_FLOW "Physical Verification"
*DIVIDER /
*DELIMITER :
*BUS_DELIMITER []
*T_UNIT 1 PS
*C_UNIT 1e15 FF
*R_UNIT 1 OHM
*L_UNIT 1 MH
// DeviceFingerDelim "@"
// MATCHED
// caps2d version: 10

*NAME_MAP
*1 mp2
*2 mp4
*3 mn0
*4 Y
*5 mn1
*6 mn3
*7 mn2
*8 mn4
*9 net107
*10 VDD
*11 net124
*12 net104
*13 net116
*14 B0
*15 B1
*16 VSS
*17 A0
*18 A1
*19 mp0
*20 mp1
*21 C0
*22 mp3

*GROUND_NETS VSS

*PORTS
*10 I
*16 I
*17 I
*18 I
*14 I
*15 I
*21 I
*4 O

*D_NET *10 2.47111e-16

*CONN
*P *10 I *C 0.1000 1.7100 
*I *19:s B *C 0.2600 1.5700 
*I *20:s B *C 0.6600 1.4550 
*N *10:1 *C 1.0000 1.7100 
*N *10:2 *C 0.6350 1.7100 
*N *10:3 *C 0.2350 1.7100 

*CAP
0 *20:s 2.49763e-17
1 *19:s 3.73802e-18
2 *10:3 7.47215e-18
3 *10:2 9.76873e-18
4 *10:1 2.01156e-16

*RES
0 *10:1 *10:2 7.682328  // $metal1_conn
1 *10:2 *10:3 0.199634  // $metal1_conn
2 *10:3 *10 0.067063  // $metal1_conn
3 *10:2 *20:s 62.149872  // $metal1_conn
4 *10:3 *19:s 62.073887  // $metal1_conn

*END

*D_NET *16 0

*CONN
*P *16 I *C 0.1000 0.0000 
*I *3:s B *C 0.3050 0.5225 
*I *7:s B *C 1.4400 0.5225 
*I *8:s B *C 1.4400 0.5225 
*N *16:2 *C 0.2950 0.0000 
*N *16:3 *C 1.0000 0.0000 
*N *16:4 *C 1.0000 0.0000 


*RES
0 *3:s *16:2 75.338028  // $metal1_conn
1 *16:2 *16 0.096656  // $metal1_conn
2 *16:2 *16:4 0.351939  // $metal1_conn
3 *16:4 *7:s 75.511429  // $metal1_conn
4 *16:3 *16:4 6.2  // $metal1_conn

*END

*D_NET *17 1.75522e-16

*CONN
*P *17 I *C 0.3000 1.0450 
*I *3:g B *C 0.3975 0.5225 
*I *19:g B *C 0.2975 1.1975 
*N *17:2 *C 0.3350 0.8650 
*N *17:4 *C 0.3175 0.8650 
*N *17:5 *C 0.3350 0.8650 
*N *17:6 *C 0.3175 1.0450 

*CAP
0 *19:g 3.11698e-17
1 *3:g 4.99919e-17
2 *17:6 2.80902e-17
3 *17:4 2.00866e-17
4 *17:2 4.61832e-17

*RES
0 *3:g *17:2 71.605339  // $poly_conn
1 *17:2 *19:g 48.206497  // $poly_conn
2 *17:4 *17:5 0.004428  // $metal1_conn
3 *17 *17:6 0.004302  // $metal1_conn
4 *17:4 *17:6 0.062801  // $metal1_conn
5 *17:2 *17:5 45  // $metal1_conn

*END

*D_NET *18 2.15784e-16

*CONN
*P *18 I *C 0.5000 0.2850 
*I *5:g B *C 0.5025 0.5225 
*I *20:g B *C 0.5025 1.1975 
*N *18:2 *C 0.5300 0.7050 

*CAP
0 *20:g 4.35886e-17
1 *5:g 3.6812e-17
2 *18:2 8.54065e-17
3 *18 4.99769e-17

*RES
0 *20:g *18:2 90.204765  // $poly_conn
1 *18:2 *5:g 19.691952  // $poly_conn
2 *18:2 *18 45.22578  // $metal1_conn

*END

*D_NET *14 2.28639e-16

*CONN
*P *14 I *C 1.3000 0.8550 
*I *7:g B *C 1.2375 0.5225 
*I *1:g B *C 1.3125 1.1975 
*N *14:2 *C 1.2750 0.8750 

*CAP
0 *1:g 3.27435e-17
1 *7:g 4.26996e-17
2 *14:2 1.53196e-16

*RES
0 *1:g *14:2 47.912708  // $poly_conn
1 *14:2 *7:g 64.579376  // $poly_conn
2 *14 *14:2 45.005985  // $metal1_conn

*END

*D_NET *15 2.20484e-16

*CONN
*P *15 I *C 0.9000 0.8550 
*I *6:g B *C 1.0975 0.5225 
*I *22:g B *C 1.0975 1.1975 
*N *15:2 *C 1.0700 0.9050 

*CAP
0 *22:g 3.53553e-17
1 *6:g 4.08581e-17
2 *15:2 7.771e-17
3 *15 6.65606e-17

*RES
0 *22:g *15:2 38.922722  // $poly_conn
1 *15:2 *6:g 70.973999  // $poly_conn
2 *15:2 *15 45.115658  // $metal1_conn

*END

*D_NET *21 1.8555e-16

*CONN
*P *21 I *C 1.5000 1.0450 
*I *8:g B *C 1.6425 0.5225 
*I *2:g B *C 1.6975 1.1975 
*N *21:2 *C 1.6700 0.8600 

*CAP
0 *2:g 2.36332e-17
1 *8:g 2.46056e-17
2 *21:2 7.4811e-17
3 *21 6.24997e-17

*RES
0 *2:g *21:2 50.461182  // $poly_conn
1 *21:2 *8:g 59.435539  // $poly_conn
2 *21:2 *21 45.203346  // $metal1_conn

*END

*D_NET *4 2.31504e-16

*CONN
*P *4 O *C 1.9000 0.8550 
*I *5:d B *C 0.8000 0.5225 
*I *6:d B *C 0.8000 0.5225 
*I *8:d B *C 1.7350 0.5225 
*I *2:d B *C 1.8150 1.1975 
*N *4:1 *C 1.8500 0.8550 
*N *4:2 *C 1.7450 0.6700 

*CAP
0 *2:d 2.09899e-17
1 *8:d 8.2444e-18
2 *5:d 7.6495e-17
3 *4:2 7.80097e-17
4 *4:1 4.77653e-17

*RES
0 *4 *4:1 0.009901  // $metal1_conn
1 *4:1 *4:2 0.206919  // $metal1_conn
2 *4:2 *5:d 75.636017  // $metal1_conn
3 *4:1 *2:d 62.214378  // $metal1_conn
4 *4:2 *8:d 75.069832  // $metal1_conn

*END

*D_NET *13 0

*CONN
*I *6:s B *C 1.1675 0.5225 
*I *7:d B *C 1.1675 0.5225 


*RES
0 *7:d *6:s 0.001  // $mwires

*END

*D_NET *11 1.25321e-18

*CONN
*I *3:d B *C 0.4500 0.5225 
*I *5:s B *C 0.4500 0.5225 

*CAP
0 *3:d 1.25321e-18

*RES
0 *5:s *3:d 0.001  // $mwires

*END

*D_NET *9 2.01124e-16

*CONN
*I *19:d B *C 0.4000 1.1975 
*I *20:d B *C 0.4000 1.1975 
*I *22:s B *C 1.2050 1.1975 
*I *1:s B *C 1.2050 1.1975 

*CAP
0 *22:s 1.15578e-16
1 *19:d 8.55466e-17

*RES
0 *22:s *19:d 124.722931  // $metal1_conn

*END

*D_NET *12 1.64222e-16

*CONN
*I *22:d B *C 0.9700 1.1975 
*I *1:d B *C 1.5050 1.1975 
*I *2:s B *C 1.5050 1.1975 

*CAP
0 *1:d 7.62885e-17
1 *22:d 8.79337e-17

*RES
0 *1:d *22:d 124.479469  // $metal1_conn

*END

