*SPEF "IEEE 1481-1999"
*DESIGN  "AOI2BB1X2"
*DATE "Mon Sep 27 09:02:00 2010"
*VENDOR "Cadence Design Systems"
*PROGRAM "Assura RCX"
*VERSION "3.2 Red Hat Linux release 7.2 (Enigma) - (09/09/2009-10:39)"
*DESIGN_FLOW "Physical Verification"
*DIVIDER /
*DELIMITER :
*BUS_DELIMITER []
*T_UNIT 1 PS
*C_UNIT 1e15 FF
*R_UNIT 1 OHM
*L_UNIT 1 MH
// DeviceFingerDelim "@"
// MATCHED
// caps2d version: 10

*NAME_MAP
*1 net87
*2 mp2
*3 mp3
*4 mp3\@1
*5 mp2\@1
*6 mp0
*7 mp1
*8 VDD
*9 A1N
*10 net104
*11 net79
*12 mn2
*13 net79\@1
*14 mn3
*15 mn3\@1
*16 mn2\@1
*17 mn0
*18 mn1
*19 B0
*20 A0N
*21 Y
*22 VSS

*GROUND_NETS VSS

*PORTS
*8 I
*22 I
*20 I
*9 I
*19 I
*21 O

*D_NET *8 2.12599e-16

*CONN
*P *8 I *C 0.1000 1.7100 
*I *2:s B *C 0.3650 1.2350 
*I *5:s B *C 1.0725 1.1475 
*I *6:s B *C 1.0725 1.1475 
*N *8:2 *C 0.9000 1.7100 
*N *8:3 *C 0.9000 1.7100 
*N *8:4 *C 0.3550 1.7100 

*CAP
0 *5:s 4.45156e-17
1 *2:s 2.43935e-17
2 *8:4 1.05565e-17
3 *8:2 1.27485e-16
4 *8 5.64816e-18

*RES
0 *5:s *8:3 31.336994  // $metal1_conn
1 *8:3 *8:4 0.272339  // $metal1_conn
2 *8:4 *8 0.127071  // $metal1_conn
3 *8:4 *2:s 62.206036  // $metal1_conn
4 *8:2 *8:3 8.333333  // $metal1_conn

*END

*D_NET *22 0

*CONN
*P *22 I *C 0.1000 0.0000 
*I *12:s B *C 0.2650 0.3600 
*I *14:s B *C 0.6650 0.3600 
*I *15:s B *C 0.6650 0.3600 
*I *16:s B *C 1.1600 0.4175 
*I *17:s B *C 1.1600 0.4175 
*I *18:s B *C 1.6200 0.4175 
*N *22:3 *C 0.9000 0.0000 


*RES
0 *16:s *22 0.077064  // $metal1_conn
1 *22:3 *16:s 6.888889  // $metal1_conn
2 *18:s *16:s 75.54525  // $metal1_conn
3 *16:s *14:s 75.172997  // $metal1_conn

*END

*D_NET *20 2.57176e-16

*CONN
*P *20 I *C 1.1000 0.6650 
*I *17:g B *C 1.2075 0.4175 
*I *6:g B *C 1.1325 1.1475 
*N *20:2 *C 1.1700 0.6600 

*CAP
0 *6:g 7.69799e-17
1 *17:g 3.11003e-17
2 *20:2 1.05455e-16
3 *20 4.36409e-17

*RES
0 *17:g *20:2 36.374249  // $poly_conn
1 *20:2 *6:g 90.220406  // $poly_conn
2 *20:2 *20 45.02261  // $metal1_conn

*END

*D_NET *9 2.26283e-16

*CONN
*P *9 I *C 1.5000 0.8550 
*I *18:g B *C 1.5275 0.4175 
*I *7:g B *C 1.2375 1.1475 
*N *9:2 *C 1.4900 0.9150 
*N *9:5 *C 1.4900 0.9150 

*CAP
0 *7:g 6.96554e-17
1 *18:g 3.1254e-17
2 *9:5 3.93463e-17
3 *9:2 2.82994e-17
4 *9 5.7728e-17

*RES
0 *18:g *9:2 99.488556  // $poly_conn
1 *9:2 *7:g 72.154488  // $poly_conn
2 *9 *9:5 0.037158  // $metal1_conn
3 *9:2 *9:5 45  // $metal1_conn

*END

*D_NET *19 5.01539e-16

*CONN
*P *19 I *C 0.5000 0.8550 
*I *12:g B *C 0.3575 0.3600 
*I *16:g B *C 0.9725 0.3600 
*I *2:g B *C 0.4575 1.2350 
*I *5:g B *C 0.8725 1.2350 

*CAP
0 *5:g 9.10067e-17
1 *2:g 7.81338e-17
2 *16:g 3.13584e-16
3 *19 1.88142e-17

*RES
0 *16:g *5:g 66.530045  // $poly_conn
1 *2:g *16:g 68.719322  // $poly_conn
2 *16:g *19 0.047251  // $metal1_conn

*END

*D_NET *21 2.82473e-16

*CONN
*P *21 O *C 0.1000 0.6650 
*I *12:d B *C 0.4600 0.3600 
*I *14:d B *C 0.4600 0.3600 
*I *15:d B *C 0.8700 0.3600 
*I *16:d B *C 0.8700 0.3600 
*I *3:d B *C 0.6650 1.2350 
*I *4:d B *C 0.6650 1.2350 

*CAP
0 *3:d 9.20863e-17
1 *15:d 1.08112e-16
2 *21 8.22746e-17

*RES
0 *21 *3:d 21.412058  // $metal1_conn
1 *15:d *21 0.349207  // $metal1_conn

*END

*D_NET *1 1.42137e-18

*CONN
*I *6:d B *C 1.1850 1.1475 
*I *7:s B *C 1.1850 1.1475 

*CAP
0 *6:d 1.42137e-18

*RES
0 *7:s *6:d 0.001  // $mwires

*END

*D_NET *13 0

*CONN
*I *4:s B *C 0.8200 1.2350 
*I *5:d B *C 0.8200 1.2350 


*RES
0 *5:d *4:s 0.001  // $mwires

*END

*D_NET *11 1.82166e-18

*CONN
*I *2:d B *C 0.5100 1.2350 
*I *3:s B *C 0.5100 1.2350 

*CAP
0 *2:d 1.82166e-18

*RES
0 *3:s *2:d 0.001  // $mwires

*END

*D_NET *10 5.62376e-16

*CONN
*I *14:g B *C 0.5625 0.3600 
*I *15:g B *C 0.7675 0.3600 
*I *17:d B *C 1.3675 0.4175 
*I *18:d B *C 1.3675 0.4175 
*I *3:g B *C 0.5625 1.2350 
*I *4:g B *C 0.7675 1.2350 
*I *7:d B *C 1.3300 1.1475 
*N *10:2 *C 0.7300 0.9150 
*N *10:8 *C 1.3200 1.0200 

*CAP
0 *7:d 1.57363e-17
1 *4:g 5.79179e-17
2 *3:g 7.32345e-17
3 *17:d 7.38948e-17
4 *15:g 1.62563e-16
5 *10:8 1.01511e-16
6 *10:2 7.75185e-17

*RES
0 *4:g *10:2 22.975597  // $poly_conn
1 *10:2 *3:g 51.228252  // $poly_conn
2 *10:2 *15:g 4.693467  // $poly_conn
3 *10:8 *10:2 45.459343  // $metal1_conn
4 *10:8 *7:d 62.110825  // $metal1_conn
5 *17:d *10:8 75.481247  // $metal1_conn

*END

