*SPEF "IEEE 1481-1999"
*DESIGN  "AOI211X2"
*DATE "Mon Sep 27 08:54:35 2010"
*VENDOR "Cadence Design Systems"
*PROGRAM "Assura RCX"
*VERSION "3.2 Red Hat Linux release 7.2 (Enigma) - (09/09/2009-10:39)"
*DESIGN_FLOW "Physical Verification"
*DIVIDER /
*DELIMITER :
*BUS_DELIMITER []
*T_UNIT 1 PS
*C_UNIT 1e15 FF
*R_UNIT 1 OHM
*L_UNIT 1 MH
// DeviceFingerDelim "@"
// MATCHED
// caps2d version: 10

*NAME_MAP
*1 mp1
*2 mn3\@1
*3 mp1\@1
*4 mp0\@1
*5 VDD
*6 mp2
*7 net95
*8 mp2\@1
*9 net95\@1
*10 mp3
*11 A0
*12 mp3\@1
*13 A1
*14 Y
*15 net82
*16 net91
*17 B0
*18 VSS
*19 mn0
*20 mn1
*21 mn1\@1
*22 mn0\@1
*23 mn2
*24 mn2\@1
*25 C0
*26 mp0
*27 mn3

*GROUND_NETS VSS

*PORTS
*5 I
*18 I
*11 I
*13 I
*17 I
*25 I
*14 O

*D_NET *5 2.74259e-16

*CONN
*P *5 I *C 0.1000 1.7100 
*I *26:s B *C 0.1100 1.1900 
*I *1:s B *C 0.5100 1.1900 
*I *3:s B *C 0.5100 1.1900 
*I *4:s B *C 0.9750 1.5700 
*N *5:2 *C 1.0000 1.7100 

*CAP
0 *1:s 4.24223e-17
1 *5:2 1.6655e-16
2 *5 6.52865e-17

*RES
0 *5:2 *5 7.5  // $metal1_conn
1 *5 *1:s 62.248123  // $metal1_conn

*END

*D_NET *18 0

*CONN
*P *18 I *C 0.1000 0.0000 
*I *19:s B *C 0.3000 0.4050 
*I *22:s B *C 0.9850 0.4050 
*I *23:s B *C 0.9850 0.4050 
*I *24:s B *C 1.4750 0.4050 
*I *27:s B *C 1.4750 0.4050 
*I *2:s B *C 1.8900 0.4050 
*N *18:3 *C 1.0000 0.0000 
*N *18:6 *C 0.2900 0.0000 


*RES
0 *18:6 *18 0.094835  // $metal1_conn
1 *18:3 *2:s 6.2  // $metal1_conn
2 *18:6 *19:s 75.20475  // $metal1_conn
3 *2:s *18:6 0.300498  // $metal1_conn

*END

*D_NET *11 4.34183e-16

*CONN
*P *11 I *C 0.3000 0.6650 
*I *19:g B *C 0.3925 0.4050 
*I *22:g B *C 0.8175 0.4050 
*I *26:g B *C 0.2025 1.1900 
*I *4:g B *C 0.8175 1.1900 

*CAP
0 *4:g 3.21326e-16
1 *22:g 5.22279e-17
2 *19:g 4.51368e-17
3 *11 1.54927e-17

*RES
0 *4:g *22:g 22.256054  // $poly_conn
1 *19:g *4:g 19.094143  // $poly_conn
2 *4:g *11 0.038706  // $metal1_conn

*END

*D_NET *13 3.37499e-16

*CONN
*P *13 I *C 0.7000 0.8550 
*I *20:g B *C 0.5075 0.4050 
*I *21:g B *C 0.7125 0.4050 
*I *1:g B *C 0.4075 1.1900 
*I *3:g B *C 0.6125 1.1900 
*N *13:2 *C 0.5850 0.6325 
*N *13:7 *C 0.5850 0.8350 
*N *13:8 *C 0.5850 0.8450 
*N *13:9 *C 0.7005 0.8450 

*CAP
0 *3:g 1.06273e-16
1 *21:g 4.91364e-17
2 *20:g 4.21338e-17
3 *13:9 6.59162e-17
4 *13:8 3.16819e-17
5 *13:2 4.23584e-17

*RES
0 *21:g *13:2 49.023605  // $poly_conn
1 *13:2 *20:g 36.203091  // $poly_conn
2 *13:2 *3:g 16.124161  // $poly_conn
3 *13:9 *13 0.001734  // $metal1_conn
4 *3:g *13:7 45  // $metal1_conn
5 *13:7 *13:8 0.001734  // $metal1_conn
6 *13:8 *13:9 0.060324  // $metal1_conn

*END

*D_NET *17 2.70649e-16

*CONN
*P *17 I *C 1.5000 0.6650 
*I *23:g B *C 1.1525 0.4050 
*I *24:g B *C 1.3575 0.4050 
*I *6:g B *C 1.1825 1.1600 
*I *8:g B *C 1.3875 1.1600 

*CAP
0 *8:g 1.94973e-16
1 *17 7.56756e-17

*RES
0 *8:g *17 45.107834  // $metal1_conn

*END

*D_NET *25 2.16103e-16

*CONN
*P *25 I *C 1.9000 0.6650 
*I *27:g B *C 1.5925 0.4050 
*I *2:g B *C 1.7975 0.4050 
*I *10:g B *C 1.5925 1.1600 
*I *12:g B *C 1.7975 1.1600 

*CAP
0 *12:g 1.84115e-16
1 *25 3.19877e-17

*RES
0 *25 *12:g 45.048443  // $metal1_conn

*END

*D_NET *14 4.05428e-16

*CONN
*P *14 O *C 1.1000 0.6650 
*I *20:d B *C 0.6100 0.4050 
*I *21:d B *C 0.6100 0.4050 
*I *23:d B *C 1.2550 0.4050 
*I *24:d B *C 1.2550 0.4050 
*I *27:d B *C 1.6950 0.4050 
*I *2:d B *C 1.6950 0.4050 
*I *10:d B *C 1.6950 1.1600 
*I *12:d B *C 1.6950 1.1600 
*N *14:2 *C 1.1000 0.4950 
*N *14:5 *C 1.2550 0.4750 

*CAP
0 *10:d 1.10882e-16
1 *27:d 5.13733e-17
2 *23:d 5.04726e-17
3 *20:d 6.3716e-17
4 *14:2 4.31582e-17
5 *14 8.58265e-17

*RES
0 *10:d *14 31.708012  // $metal1_conn
1 *14 *14:2 0.085638  // $metal1_conn
2 *14:5 *27:d 75.346832  // $metal1_conn
3 *23:d *14:5 75  // $metal1_conn
4 *14:2 *20:d 75.374229  // $metal1_conn
5 *14:2 *14:5 0.116834  // $metal1_conn

*END

*D_NET *9 1.71309e-18

*CONN
*I *21:s B *C 0.7650 0.4050 
*I *22:d B *C 0.7650 0.4050 

*CAP
0 *21:s 1.71309e-18

*RES
0 *22:d *21:s 0.001  // $mwires

*END

*D_NET *7 0

*CONN
*I *19:d B *C 0.4500 0.4050 
*I *20:s B *C 0.4500 0.4050 


*RES
0 *20:s *19:d 0.001  // $mwires

*END

*D_NET *16 2.48327e-16

*CONN
*I *26:d B *C 0.3050 1.1900 
*I *1:d B *C 0.3050 1.1900 
*I *3:d B *C 0.7150 1.1900 
*I *4:d B *C 0.7150 1.1900 
*I *6:s B *C 1.2850 1.1600 
*I *8:s B *C 1.2850 1.1600 

*CAP
0 *6:s 9.33273e-17
1 *3:d 1.55e-16

*RES
0 *3:d *6:s 62.418568  // $metal1_conn

*END

*D_NET *15 1.88707e-16

*CONN
*I *6:d B *C 1.0900 1.1600 
*I *8:d B *C 1.4900 1.1600 
*I *10:s B *C 1.4900 1.1600 
*I *12:s B *C 1.8900 1.1600 

*CAP
0 *12:s 1.88707e-16


*END

