*SPEF "IEEE 1481-1999"
*DESIGN  "AOI211XL"
*DATE "Mon Sep 27 08:55:20 2010"
*VENDOR "Cadence Design Systems"
*PROGRAM "Assura RCX"
*VERSION "3.2 Red Hat Linux release 7.2 (Enigma) - (09/09/2009-10:39)"
*DESIGN_FLOW "Physical Verification"
*DIVIDER /
*DELIMITER :
*BUS_DELIMITER []
*T_UNIT 1 PS
*C_UNIT 1e15 FF
*R_UNIT 1 OHM
*L_UNIT 1 MH
// DeviceFingerDelim "@"
// MATCHED
// caps2d version: 10

*NAME_MAP
*1 A0
*2 A1
*3 mp0
*4 mp1
*5 mp2
*6 mp3
*7 VSS
*8 C0
*9 net91
*10 net82
*11 net95
*12 mn0
*13 mn1
*14 VDD
*15 mn2
*16 Y
*17 B0
*18 mn3

*GROUND_NETS VSS

*PORTS
*14 I
*7 I
*1 I
*2 I
*17 I
*8 I
*16 O

*D_NET *14 1.63244e-16

*CONN
*P *14 I *C 0.1000 1.7100 
*I *3:s B *C 0.3350 1.2825 
*I *4:s B *C 0.3350 1.2825 
*N *14:1 *C 0.6000 1.7100 
*N *14:2 *C 0.3350 1.7100 

*CAP
0 *3:s 2.49639e-17
1 *14:2 6.13152e-18
2 *14:1 1.24182e-16
3 *14 7.96706e-18

*RES
0 *14:1 *14:2 12.632697  // $metal1_conn
1 *14:2 *14 0.117402  // $metal1_conn
2 *14:2 *3:s 62.234776  // $metal1_conn

*END

*D_NET *7 0

*CONN
*P *7 I *C 0.1000 0.0000 
*I *12:s B *C 0.2400 0.3325 
*I *15:s B *C 0.8300 0.3325 
*I *18:s B *C 0.8300 0.3325 
*N *7:2 *C 0.2300 0.0000 
*N *7:3 *C 0.6000 0.0000 
*N *7:4 *C 0.6000 0.0000 


*RES
0 *12:s *7:2 75.194962  // $metal1_conn
1 *7:2 *7 0.064334  // $metal1_conn
2 *7:2 *7:4 0.184941  // $metal1_conn
3 *7:4 *15:s 75.316528  // $metal1_conn
4 *7:3 *7:4 10.333333  // $metal1_conn

*END

*D_NET *1 2.56445e-16

*CONN
*P *1 I *C 0.1000 0.6650 
*I *12:g B *C 0.3325 0.3325 
*I *3:g B *C 0.2325 1.2825 
*N *1:2 *C 0.1300 0.5700 
*N *1:4 *C 0.1150 0.5700 
*N *1:5 *C 0.1300 0.5700 
*N *1:6 *C 0.1150 0.6650 

*CAP
0 *3:g 5.13406e-17
1 *12:g 6.51686e-17
2 *1:6 7.54866e-17
3 *1:4 1.91821e-17
4 *1:2 4.52673e-17

*RES
0 *12:g *1:2 70.215561  // $poly_conn
1 *1:2 *3:g 150.481033  // $poly_conn
2 *1:4 *1:5 0.002021  // $metal1_conn
3 *1 *1:6 0.001953  // $metal1_conn
4 *1:4 *1:6 0.052128  // $metal1_conn
5 *1:2 *1:5 45  // $metal1_conn

*END

*D_NET *2 2.63421e-16

*CONN
*P *2 I *C 0.3000 0.8550 
*I *13:g B *C 0.4375 0.3325 
*I *4:g B *C 0.4375 1.2825 
*N *2:2 *C 0.4000 0.6750 

*CAP
0 *4:g 5.4151e-17
1 *13:g 5.6263e-17
2 *2:2 1.02326e-16
3 *2 5.06809e-17

*RES
0 *4:g *2:2 118.719322  // $poly_conn
1 *2:2 *13:g 59.744961  // $poly_conn
2 *2:2 *2 45.161552  // $metal1_conn

*END

*D_NET *17 2.47188e-16

*CONN
*P *17 I *C 0.7000 0.8550 
*I *15:g B *C 0.7275 0.3325 
*I *5:g B *C 0.7275 1.2825 
*N *17:2 *C 0.7000 0.6400 

*CAP
0 *5:g 5.43924e-17
1 *15:g 3.33102e-17
2 *17:2 1.23348e-16
3 *17 3.61373e-17

*RES
0 *5:g *17:2 128.666306  // $poly_conn
1 *17:2 *15:g 51.743237  // $poly_conn
2 *17 *17:2 45.114017  // $metal1_conn

*END

*D_NET *8 2.30943e-16

*CONN
*P *8 I *C 0.9000 1.0450 
*I *18:g B *C 0.9325 0.3325 
*I *6:g B *C 0.9325 1.2825 
*N *8:2 *C 0.9050 0.6700 

*CAP
0 *6:g 4.55493e-17
1 *18:g 3.43774e-17
2 *8:2 1.0584e-16
3 *8 4.51769e-17

*RES
0 *6:g *8:2 120.973999  // $poly_conn
1 *8:2 *18:g 59.435539  // $poly_conn
2 *8 *8:2 45.225037  // $metal1_conn

*END

*D_NET *16 2.28337e-16

*CONN
*P *16 O *C 1.1000 1.0450 
*I *13:d B *C 0.5825 0.3325 
*I *15:d B *C 0.5825 0.3325 
*I *18:d B *C 1.0250 0.3325 
*I *6:d B *C 1.0525 1.2825 
*N *16:2 *C 1.0725 0.4800 

*CAP
0 *6:d 1.76245e-17
1 *18:d 2.65342e-17
2 *13:d 6.35254e-17
3 *16:2 7.04314e-17
4 *16 5.02216e-17

*RES
0 *6:d *16 62.126686  // $metal1_conn
1 *16 *16:2 0.38819  // $metal1_conn
2 *16:2 *13:d 75.383827  // $metal1_conn
3 *16:2 *18:d 75.064102  // $metal1_conn

*END

*D_NET *11 0

*CONN
*I *12:d B *C 0.3850 0.3325 
*I *13:s B *C 0.3850 0.3325 


*RES
0 *13:s *12:d 0.001  // $mwires

*END

*D_NET *10 0

*CONN
*I *5:d B *C 0.8300 1.2825 
*I *6:s B *C 0.8300 1.2825 


*RES
0 *6:s *5:d 0.001  // $mwires

*END

*D_NET *9 1.0215e-16

*CONN
*I *3:d B *C 0.1400 1.2825 
*I *4:d B *C 0.5825 1.2825 
*I *5:s B *C 0.5825 1.2825 

*CAP
0 *4:d 4.02363e-17
1 *3:d 6.19132e-17

*RES
0 *3:d *4:d 124.308624  // $metal1_conn

*END

