*SPEF "IEEE 1481-1999"
*DESIGN  "AOI211X4"
*DATE "Mon Sep 27 08:54:58 2010"
*VENDOR "Cadence Design Systems"
*PROGRAM "Assura RCX"
*VERSION "3.2 Red Hat Linux release 7.2 (Enigma) - (09/09/2009-10:39)"
*DESIGN_FLOW "Physical Verification"
*DIVIDER /
*DELIMITER :
*BUS_DELIMITER []
*T_UNIT 1 PS
*C_UNIT 1e15 FF
*R_UNIT 1 OHM
*L_UNIT 1 MH
// DeviceFingerDelim "@"
// MATCHED
// caps2d version: 10

*NAME_MAP
*1 C0
*2 VDD
*3 Y
*4 mp2
*5 mp2\@1
*6 net82
*7 mp2\@2
*8 net91
*9 mp2\@3
*10 mp3
*11 mp3\@1
*12 mp3\@2
*13 mp3\@3
*14 mp1
*15 mp0
*16 mp1\@1
*17 mp0\@1
*18 mp0\@2
*19 mp1\@2
*20 mp1\@3
*21 mp0\@3
*22 mn1\@1
*23 mn0\@1
*24 mn0\@2
*25 mn1\@2
*26 mn1\@3
*27 mn0\@3
*28 mn2\@3
*29 VSS
*30 A0
*31 A1
*32 net99
*33 net99\@1
*34 net99\@2
*35 mn2
*36 net99\@3
*37 mn2\@1
*38 B0
*39 mn2\@2
*40 mn3
*41 mn3\@1
*42 mn3\@2
*43 mn3\@3
*44 mn0
*45 mn1

*GROUND_NETS VSS

*PORTS
*2 I
*29 I
*30 I
*31 I
*38 I
*1 I
*3 O

*D_NET *2 5.33877e-16

*CONN
*P *2 I *C 0.1000 1.7100 
*I *15:s B *C 0.1700 1.2400 
*I *14:s B *C 0.5700 1.2400 
*I *16:s B *C 0.5700 1.2400 
*I *17:s B *C 0.9800 1.2400 
*I *18:s B *C 0.9800 1.2400 
*I *19:s B *C 1.3900 1.2400 
*I *20:s B *C 1.3900 1.2400 
*I *21:s B *C 1.8550 1.5700 
*N *2:1 *C 2.9000 1.7100 

*CAP
0 *21:s 2.20897e-16
1 *2:1 3.1298e-16

*RES
0 *21:s *2 0.029601  // $metal1_conn
1 *2:1 *21:s 8.869098  // $metal1_conn
2 *2:1 *21:s 7.5  // $metal1_conn

*END

*D_NET *29 0

*CONN
*P *29 I *C 0.1000 0.0000 
*I *35:s B *C 2.2350 0.4050 
*I *37:s B *C 2.2350 0.4050 
*I *39:s B *C 2.6975 0.4050 
*I *40:s B *C 2.6975 0.4050 
*I *41:s B *C 3.1350 0.4050 
*I *42:s B *C 3.1350 0.4050 
*I *43:s B *C 3.5500 0.4050 
*I *44:s B *C 0.5200 0.4050 
*I *23:s B *C 1.1300 0.4050 
*I *24:s B *C 1.1300 0.4050 
*I *27:s B *C 1.7700 0.4050 
*I *28:s B *C 1.7700 0.4050 
*N *29:3 *C 2.9000 0.0000 
*N *29:8 *C 1.1000 0.0000 
*N *29:9 *C 1.0000 0.0000 
*N *29:10 *C 0.5100 0.0000 


*RES
0 *29:10 *29 0.204922  // $metal1_conn
1 *29:3 *43:s 6.888889  // $metal1_conn
2 *29:3 *29:9 6.2  // $metal1_conn
3 *29:8 *23:s 75.199654  // $metal1_conn
4 *29:10 *44:s 75.2033  // $metal1_conn
5 *43:s *29:8 0.310165  // $metal1_conn
6 *29:8 *29:9 0.049894  // $metal1_conn
7 *29:9 *29:10 0.245244  // $metal1_conn

*END

*D_NET *30 8.54687e-16

*CONN
*P *30 I *C 0.3000 0.6650 
*I *44:g B *C 0.6125 0.4050 
*I *23:g B *C 1.0275 0.4050 
*I *24:g B *C 1.2325 0.4050 
*I *27:g B *C 1.6475 0.4050 
*I *15:g B *C 0.2625 1.2400 
*I *17:g B *C 0.8775 1.2400 
*I *18:g B *C 1.0825 1.2400 
*I *21:g B *C 1.6975 1.2400 

*CAP
0 *27:g 5.70489e-17
1 *24:g 6.36431e-17
2 *23:g 4.70521e-17
3 *44:g 7.41639e-17
4 *30 6.12779e-16

*RES
0 *30 *27:g 25.090984  // $poly_conn
1 *24:g *30 55.112999  // $poly_conn
2 *30 *23:g 24.065475  // $poly_conn
3 *44:g *30 93.574539  // $poly_conn

*END

*D_NET *31 6.62358e-16

*CONN
*P *31 I *C 0.9000 0.8550 
*I *45:g B *C 0.7175 0.4050 
*I *22:g B *C 0.9225 0.4050 
*I *25:g B *C 1.3375 0.4050 
*I *26:g B *C 1.5425 0.4050 
*I *14:g B *C 0.4675 1.2400 
*I *16:g B *C 0.6725 1.2400 
*I *19:g B *C 1.2875 1.2400 
*I *20:g B *C 1.4925 1.2400 
*N *31:2 *C 0.7450 0.6325 
*N *31:9 *C 1.3650 0.7775 

*CAP
0 *26:g 6.27674e-17
1 *25:g 5.51426e-17
2 *22:g 6.50453e-17
3 *45:g 4.59561e-17
4 *31:9 3.42346e-17
5 *31:2 3.38611e-17
6 *31 3.65351e-16

*RES
0 *26:g *31:9 92.006653  // $poly_conn
1 *31:9 *25:g 58.931377  // $poly_conn
2 *22:g *31:2 54.827171  // $poly_conn
3 *31:2 *45:g 21.751892  // $poly_conn
4 *31:9 *31 4.315495  // $poly_conn
5 *31:2 *31 19.709112  // $poly_conn

*END

*D_NET *38 3.98952e-16

*CONN
*P *38 I *C 2.5000 0.8550 
*I *35:g B *C 2.0975 0.4050 
*I *37:g B *C 2.3725 0.4050 
*I *39:g B *C 2.5825 0.4050 
*I *28:g B *C 1.8925 0.4050 
*I *4:g B *C 2.0925 1.2400 
*I *5:g B *C 2.2975 1.2400 
*I *7:g B *C 2.5025 1.2400 
*I *9:g B *C 2.7075 1.2400 

*CAP
0 *9:g 3.7905e-16
1 *38 1.99017e-17

*RES
0 *38 *9:g 0.03619  // $metal1_conn

*END

*D_NET *1 3.27188e-16

*CONN
*P *1 I *C 3.3000 0.6650 
*I *40:g B *C 2.8125 0.4050 
*I *41:g B *C 3.0175 0.4050 
*I *42:g B *C 3.2525 0.4050 
*I *43:g B *C 3.4575 0.4050 
*I *10:g B *C 2.9125 1.2400 
*I *11:g B *C 3.1175 1.2400 
*I *12:g B *C 3.3225 1.2400 
*I *13:g B *C 3.5275 1.2400 

*CAP
0 *1 3.27188e-16


*END

*D_NET *3 7.9837e-16

*CONN
*P *3 O *C 1.9000 0.6650 
*I *35:d B *C 1.9950 0.4050 
*I *37:d B *C 2.4775 0.4050 
*I *39:d B *C 2.4775 0.4050 
*I *40:d B *C 2.9150 0.4050 
*I *41:d B *C 2.9150 0.4050 
*I *42:d B *C 3.3550 0.4050 
*I *43:d B *C 3.3550 0.4050 
*I *45:d B *C 0.8200 0.4050 
*I *22:d B *C 0.8200 0.4050 
*I *25:d B *C 1.4400 0.4050 
*I *26:d B *C 1.4400 0.4050 
*I *28:d B *C 1.9950 0.4050 
*I *10:d B *C 3.0150 1.2400 
*I *11:d B *C 3.0150 1.2400 
*I *12:d B *C 3.4250 1.2400 
*I *13:d B *C 3.4250 1.2400 
*N *3:3 *C 1.9350 0.6650 
*N *3:4 *C 1.9350 0.4850 
*N *3:6 *C 1.4400 0.4750 

*CAP
0 *12:d 2.2798e-16
1 *25:d 9.89712e-17
2 *45:d 7.00075e-17
3 *40:d 1.19437e-16
4 *35:d 5.9299e-17
5 *3:4 6.87765e-17
6 *3:3 1.40817e-16
7 *3 1.3081e-17

*RES
0 *3:3 *3 0.002698  // $metal1_conn
1 *35:d *40:d 0.309211  // $metal1_conn
2 *3:4 *35:d 0.040883  // $metal1_conn
3 *25:d *3:6 75  // $metal1_conn
4 *3:6 *45:d 75.474144  // $metal1_conn
5 *12:d *3:3 1.129634  // $metal1_conn
6 *3:3 *3:4 0.110399  // $metal1_conn
7 *3:4 *3:6 0.372693  // $metal1_conn

*END

*D_NET *36 1.7621e-18

*CONN
*I *26:s B *C 1.5950 0.4050 
*I *27:d B *C 1.5950 0.4050 

*CAP
0 *26:s 1.7621e-18

*RES
0 *27:d *26:s 0.001  // $mwires

*END

*D_NET *34 1.7621e-18

*CONN
*I *24:d B *C 1.2850 0.4050 
*I *25:s B *C 1.2850 0.4050 

*CAP
0 *24:d 1.7621e-18

*RES
0 *25:s *24:d 0.001  // $mwires

*END

*D_NET *33 1.7621e-18

*CONN
*I *22:s B *C 0.9750 0.4050 
*I *23:d B *C 0.9750 0.4050 

*CAP
0 *22:s 1.7621e-18

*RES
0 *23:d *22:s 0.001  // $mwires

*END

*D_NET *32 0

*CONN
*I *44:d B *C 0.6650 0.4050 
*I *45:s B *C 0.6650 0.4050 


*RES
0 *45:s *44:d 0.001  // $mwires

*END

*D_NET *8 4.99688e-16

*CONN
*I *4:s B *C 2.1950 1.2400 
*I *5:s B *C 2.1950 1.2400 
*I *7:s B *C 2.6050 1.2400 
*I *9:s B *C 2.6050 1.2400 
*I *15:d B *C 0.3650 1.2400 
*I *14:d B *C 0.3650 1.2400 
*I *16:d B *C 0.7750 1.2400 
*I *17:d B *C 0.7750 1.2400 
*I *18:d B *C 1.1850 1.2400 
*I *19:d B *C 1.1850 1.2400 
*I *20:d B *C 1.5950 1.2400 
*I *21:d B *C 1.5950 1.2400 

*CAP
0 *20:d 2.98239e-16
1 *7:s 2.01449e-16

*RES
0 *20:d *7:s 0.442853  // $metal1_conn

*END

*D_NET *6 3.3895e-16

*CONN
*I *4:d B *C 2.0200 1.2400 
*I *5:d B *C 2.4000 1.2400 
*I *7:d B *C 2.4000 1.2400 
*I *9:d B *C 2.8100 1.2400 
*I *10:s B *C 2.8100 1.2400 
*I *11:s B *C 3.2200 1.2400 
*I *12:s B *C 3.2200 1.2400 
*I *13:s B *C 3.6200 1.2400 

*CAP
0 *13:s 3.3895e-16


*END

