*SPEF "IEEE 1481-1999"
*DESIGN  "AOI2BB1X1"
*DATE "Mon Sep 27 09:01:38 2010"
*VENDOR "Cadence Design Systems"
*PROGRAM "Assura RCX"
*VERSION "3.2 Red Hat Linux release 7.2 (Enigma) - (09/09/2009-10:39)"
*DESIGN_FLOW "Physical Verification"
*DIVIDER /
*DELIMITER :
*BUS_DELIMITER []
*T_UNIT 1 PS
*C_UNIT 1e15 FF
*R_UNIT 1 OHM
*L_UNIT 1 MH
// DeviceFingerDelim "@"
// MATCHED
// caps2d version: 10

*NAME_MAP
*1 mp3
*2 A1N
*3 mp2
*4 mp0
*5 mp1
*6 VSS
*7 A0N
*8 n0
*9 n1
*10 n2
*11 mn3
*12 mn2
*13 VDD
*14 mn0
*15 Y
*16 B0
*17 mn1

*GROUND_NETS VSS

*PORTS
*13 I
*6 I
*7 I
*2 I
*16 I
*15 O

*D_NET *13 1.48534e-16

*CONN
*P *13 I *C 0.1000 1.7100 
*I *3:s B *C 0.6825 1.1925 
*I *4:s B *C 0.6825 1.1925 
*N *13:2 *C 0.6000 1.7100 
*N *13:3 *C 0.6000 1.7100 

*CAP
0 *3:s 3.3901e-17
1 *13:2 1.03719e-16
2 *13 1.09147e-17

*RES
0 *3:s *13:3 31.206064  // $metal1_conn
1 *13:3 *13 0.249782  // $metal1_conn
2 *13:2 *13:3 12.5  // $metal1_conn

*END

*D_NET *6 0

*CONN
*P *6 I *C 0.1000 0.0000 
*I *11:s B *C 0.2275 0.3750 
*I *12:s B *C 0.6850 0.4325 
*I *14:s B *C 0.6850 0.4325 
*I *17:s B *C 1.0650 0.4325 
*N *6:2 *C 0.6000 0.0000 
*N *6:3 *C 0.6000 0.0000 
*N *6:4 *C 0.1800 0.0000 


*RES
0 *17:s *6:3 75.514  // $metal1_conn
1 *6:3 *6:4 0.209831  // $metal1_conn
2 *6:4 *6 0.03955  // $metal1_conn
3 *6:3 *12:s 75.271088  // $metal1_conn
4 *6:4 *11:s 75.179268  // $metal1_conn
5 *6:2 *6:3 10.333333  // $metal1_conn

*END

*D_NET *7 2.81311e-16

*CONN
*P *7 I *C 0.7000 0.8850 
*I *14:g B *C 0.7375 0.4325 
*I *4:g B *C 0.7375 1.1925 
*N *7:2 *C 0.7100 0.8150 
*N *7:4 *C 0.7050 0.8150 

*CAP
0 *4:g 6.99217e-17
1 *14:g 4.59164e-17
2 *7:4 4.55437e-17
3 *7:2 6.1954e-17
4 *7 5.79756e-17

*RES
0 *4:g *7:2 60.71759  // $poly_conn
1 *7:2 *14:g 70.973999  // $poly_conn
2 *7:4 *7 0.043351  // $metal1_conn
3 *7:2 *7:4 45  // $metal1_conn

*END

*D_NET *2 2.1783e-16

*CONN
*P *2 I *C 1.0400 0.7250 
*I *17:g B *C 0.9725 0.4325 
*I *5:g B *C 0.8425 1.1925 
*N *2:2 *C 0.9725 0.7300 
*N *2:4 *C 1.0300 0.7300 

*CAP
0 *5:g 7.66217e-17
1 *17:g 2.71246e-17
2 *2:2 4.05242e-17
3 *2:4 1.01873e-17
4 *2 6.33723e-17

*RES
0 *17:g *2:2 47.92067  // $poly_conn
1 *2:2 *5:g 111.658813  // $poly_conn
2 *2:2 *2:4 48.315495  // $poly_conn
3 *2 *2:4 0.003097  // $metal1_conn

*END

*D_NET *16 2.95951e-16

*CONN
*P *16 I *C 0.5200 1.0450 
*I *12:g B *C 0.5325 0.3750 
*I *3:g B *C 0.4875 1.2800 
*N *16:2 *C 0.5150 0.8150 

*CAP
0 *3:g 9.08339e-17
1 *12:g 5.80009e-17
2 *16:2 1.12804e-16
3 *16 3.43125e-17

*RES
0 *12:g *16:2 68.680725  // $poly_conn
1 *16:2 *3:g 58.424316  // $poly_conn
2 *16 *16:2 45.137405  // $metal1_conn

*END

*D_NET *15 1.93644e-16

*CONN
*P *15 O *C 0.1950 0.5450 
*I *11:d B *C 0.4300 0.3750 
*I *12:d B *C 0.4300 0.3750 
*I *1:d B *C 0.2900 1.2800 
*N *15:3 *C 0.4300 0.4450 

*CAP
0 *1:d 6.03864e-17
1 *11:d 4.64582e-17
2 *15 8.67991e-17

*RES
0 *1:d *15 21.219742  // $metal1_conn
1 *15 *15:3 0.190776  // $metal1_conn
2 *11:d *15:3 75  // $metal1_conn

*END

*D_NET *10 0

*CONN
*I *1:s B *C 0.4350 1.2800 
*I *3:d B *C 0.4350 1.2800 


*RES
0 *3:d *1:s 0.001  // $mwires

*END

*D_NET *9 0

*CONN
*I *4:d B *C 0.7900 1.1925 
*I *5:s B *C 0.7900 1.1925 


*RES
0 *5:s *4:d 0.001  // $mwires

*END

*D_NET *8 4.22896e-16

*CONN
*I *11:g B *C 0.3275 0.3750 
*I *14:d B *C 0.8550 0.4325 
*I *17:d B *C 0.8550 0.4325 
*I *1:g B *C 0.3825 1.2800 
*I *5:d B *C 0.9350 1.1925 
*N *8:2 *C 0.3550 0.6250 
*N *8:5 *C 0.8700 0.6250 

*CAP
0 *5:d 5.3825e-17
1 *1:g 9.1665e-17
2 *14:d 2.91585e-17
3 *11:g 2.8264e-17
4 *8:5 1.01157e-16
5 *8:2 1.18826e-16

*RES
0 *1:g *8:2 109.435547  // $poly_conn
1 *8:2 *11:g 22.256054  // $poly_conn
2 *5:d *8:5 62.485153  // $metal1_conn
3 *8:5 *8:2 45.360271  // $metal1_conn
4 *8:5 *14:d 75.133858  // $metal1_conn

*END

