*SPEF "IEEE 1481-1999"
*DESIGN  "AOI22XL"
*DATE "Mon Sep 27 09:01:16 2010"
*VENDOR "Cadence Design Systems"
*PROGRAM "Assura RCX"
*VERSION "3.2 Red Hat Linux release 7.2 (Enigma) - (09/09/2009-10:39)"
*DESIGN_FLOW "Physical Verification"
*DIVIDER /
*DELIMITER :
*BUS_DELIMITER []
*T_UNIT 1 PS
*C_UNIT 1e15 FF
*R_UNIT 1 OHM
*L_UNIT 1 MH
// DeviceFingerDelim "@"
// MATCHED
// caps2d version: 10

*NAME_MAP
*1 A0
*2 A1
*3 mp0
*4 mp1
*5 mp3
*6 mp2
*7 VSS
*8 net89
*9 net98
*10 net106
*11 mn0
*12 mn1
*13 VDD
*14 mn3
*15 Y
*16 B0
*17 mn2
*18 B1

*GROUND_NETS VSS

*PORTS
*13 I
*7 I
*1 I
*2 I
*16 I
*18 I
*15 O

*D_NET *13 1.83088e-16

*CONN
*P *13 I *C 0.1000 1.7100 
*I *3:s B *C 0.3050 1.2225 
*I *4:s B *C 0.3050 1.2225 
*N *13:1 *C 0.6000 1.7100 
*N *13:2 *C 0.3050 1.7100 

*CAP
0 *3:s 4.20972e-17
1 *13:2 4.31902e-18
2 *13:1 1.30143e-16
3 *13 6.52902e-18

*RES
0 *13:1 *13:2 12.647667  // $metal1_conn
1 *13:2 *13 0.102306  // $metal1_conn
2 *13:2 *3:s 62.282879  // $metal1_conn

*END

*D_NET *7 0

*CONN
*P *7 I *C 0.1000 0.0000 
*I *11:s B *C 0.1100 0.3025 
*I *17:s B *C 0.9700 0.3025 
*N *7:2 *C 0.6000 0.0000 
*N *7:3 *C 0.6000 0.0000 


*RES
0 *17:s *7:3 75.382301  // $metal1_conn
1 *7:3 *7 0.250667  // $metal1_conn
2 *7 *11:s 75.183495  // $metal1_conn
3 *7:2 *7:3 10.333333  // $metal1_conn

*END

*D_NET *1 2.33415e-16

*CONN
*P *1 I *C 0.1400 0.9400 
*I *11:g B *C 0.2025 0.3025 
*I *3:g B *C 0.2025 1.2225 
*N *1:2 *C 0.2025 0.8500 
*N *1:3 *C 0.1500 0.8500 

*CAP
0 *3:g 3.69993e-17
1 *11:g 4.64678e-17
2 *1:3 1.12491e-16
3 *1 3.74566e-17

*RES
0 *3:g *1:2 64.63768  // $poly_conn
1 *1:2 *1:3 45.361767  // $poly_conn
2 *1:2 *11:g 118.483833  // $poly_conn
3 *1:3 *1 0.05594  // $metal1_conn

*END

*D_NET *2 2.54798e-16

*CONN
*P *2 I *C 0.3600 0.8000 
*I *12:g B *C 0.4075 0.3025 
*I *4:g B *C 0.4075 1.2225 
*N *2:2 *C 0.3700 0.4750 

*CAP
0 *4:g 6.47984e-17
1 *12:g 2.78036e-17
2 *2:2 1.09501e-16
3 *2 5.26943e-17

*RES
0 *4:g *2:2 154.61676  // $poly_conn
1 *2:2 *12:g 16.15522  // $poly_conn
2 *2 *2:2 45.194656  // $metal1_conn

*END

*D_NET *16 2.06235e-16

*CONN
*P *16 I *C 0.9400 1.1050 
*I *17:g B *C 0.8775 0.3025 
*I *6:g B *C 0.8775 1.2225 
*N *16:1 *C 0.9300 0.7600 
*N *16:2 *C 0.8775 0.7600 

*CAP
0 *6:g 3.7957e-17
1 *17:g 3.8816e-17
2 *16:1 8.51715e-17
3 *16 4.42907e-17

*RES
0 *16:1 *16:2 45.294373  // $poly_conn
1 *16:2 *17:g 93.640404  // $poly_conn
2 *16:2 *6:g 85.948097  // $poly_conn
3 *16 *16:1 0.206637  // $metal1_conn

*END

*D_NET *18 2.31781e-16

*CONN
*P *18 I *C 0.7400 0.5200 
*I *14:g B *C 0.6725 0.3025 
*I *5:g B *C 0.6725 1.2225 
*N *18:2 *C 0.7100 0.6600 

*CAP
0 *5:g 5.2073e-17
1 *14:g 3.55273e-17
2 *18:2 1.44181e-16

*RES
0 *5:g *18:2 107.180855  // $poly_conn
1 *18:2 *14:g 63.591114  // $poly_conn
2 *18 *18:2 45.004101  // $metal1_conn

*END

*D_NET *15 2.22289e-16

*CONN
*P *15 O *C 0.5400 0.6600 
*I *12:d B *C 0.5400 0.3025 
*I *14:d B *C 0.5400 0.3025 
*I *5:d B *C 0.7750 1.2225 
*I *6:d B *C 0.7750 1.2225 
*N *15:3 *C 0.7750 1.1750 

*CAP
0 *5:d 7.68101e-17
1 *12:d 5.23699e-17
2 *15 9.31093e-17

*RES
0 *12:d *15 75.275444  // $metal1_conn
1 *15 *15:3 0.494026  // $metal1_conn
2 *5:d *15:3 62  // $metal1_conn

*END

*D_NET *10 0

*CONN
*I *11:d B *C 0.3050 0.3025 
*I *12:s B *C 0.3050 0.3025 


*RES
0 *12:s *11:d 0.001  // $mwires

*END

*D_NET *9 3.13896e-18

*CONN
*I *14:s B *C 0.7750 0.3025 
*I *17:d B *C 0.7750 0.3025 

*CAP
0 *14:s 3.13896e-18

*RES
0 *17:d *14:s 0.001  // $mwires

*END

*D_NET *8 1.98613e-16

*CONN
*I *3:d B *C 0.1100 1.2225 
*I *4:d B *C 0.5400 1.2225 
*I *5:s B *C 0.5400 1.2225 
*I *6:s B *C 0.9700 1.2225 
*N *8:3 *C 0.5100 1.1750 

*CAP
0 *6:s 6.38704e-17
1 *4:d 8.05184e-17
2 *3:d 5.42244e-17

*RES
0 *6:s *8:3 62.51022  // $metal1_conn
1 *8:3 *3:d 62.280994  // $metal1_conn
2 *4:d *8:3 62  // $metal1_conn

*END

