*SPEF "IEEE 1481-1999"
*DESIGN  "AOI2BB1XL"
*DATE "Mon Sep 27 09:02:45 2010"
*VENDOR "Cadence Design Systems"
*PROGRAM "Assura RCX"
*VERSION "3.2 Red Hat Linux release 7.2 (Enigma) - (09/09/2009-10:39)"
*DESIGN_FLOW "Physical Verification"
*DIVIDER /
*DELIMITER :
*BUS_DELIMITER []
*T_UNIT 1 PS
*C_UNIT 1e15 FF
*R_UNIT 1 OHM
*L_UNIT 1 MH
// DeviceFingerDelim "@"
// MATCHED
// caps2d version: 10

*NAME_MAP
*1 mp3
*2 A1N
*3 mp2
*4 mp0
*5 mp1
*6 VSS
*7 A0N
*8 net100
*9 net87
*10 net79
*11 mn3
*12 mn2
*13 VDD
*14 mn0
*15 Y
*16 B0
*17 mn1

*GROUND_NETS VSS

*PORTS
*13 I
*6 I
*7 I
*2 I
*16 I
*15 O

*D_NET *13 1.72866e-16

*CONN
*P *13 I *C 0.1000 1.7100 
*I *3:s B *C 0.6000 1.3725 
*I *4:s B *C 0.6000 1.3725 
*N *13:2 *C 0.6000 1.7100 
*N *13:3 *C 0.6000 1.7100 

*CAP
0 *3:s 1.57796e-17
1 *13:2 1.4614e-16
2 *13 1.09463e-17

*RES
0 *3:s *13:3 62.16024  // $metal1_conn
1 *13:3 *13 0.250574  // $metal1_conn
2 *13:2 *13:3 12.5  // $metal1_conn

*END

*D_NET *6 0

*CONN
*P *6 I *C 0.1000 0.0000 
*I *11:s B *C 0.1950 0.3025 
*I *12:s B *C 0.6000 0.3025 
*I *14:s B *C 0.6000 0.3025 
*I *17:s B *C 1.0200 0.3025 
*N *6:2 *C 0.6000 0.0000 
*N *6:3 *C 0.6000 0.0000 
*N *6:4 *C 0.1850 0.0000 


*RES
0 *17:s *6:3 75.411179  // $metal1_conn
1 *6:3 *6:4 0.207989  // $metal1_conn
2 *6:4 *6 0.042187  // $metal1_conn
3 *6:3 *12:s 75.194908  // $metal1_conn
4 *6:4 *11:s 75.175591  // $metal1_conn
5 *6:2 *6:3 10.333333  // $metal1_conn

*END

*D_NET *7 3.58959e-16

*CONN
*P *7 I *C 0.7000 1.0450 
*I *14:g B *C 0.7075 0.3025 
*I *4:g B *C 0.7075 1.3725 
*N *7:2 *C 0.6800 1.0400 

*CAP
0 *4:g 6.21566e-17
1 *14:g 7.73817e-17
2 *7:2 9.10085e-17
3 *7 1.28412e-16

*RES
0 *4:g *7:2 49.179131  // $poly_conn
1 *7:2 *14:g 161.999634  // $poly_conn
2 *7 *7:2 45.002712  // $metal1_conn

*END

*D_NET *2 3.1109e-16

*CONN
*P *2 I *C 1.1000 0.6650 
*I *17:g B *C 0.9275 0.3025 
*I *5:g B *C 0.8125 1.3725 
*N *2:2 *C 0.9275 0.5100 
*N *2:4 *C 1.0300 0.5100 
*N *2:5 *C 1.0650 0.5100 
*N *2:6 *C 1.0650 0.6650 

*CAP
0 *5:g 9.88865e-17
1 *17:g 2.30207e-17
2 *2:5 3.78087e-17
3 *2:2 6.80221e-17
4 *2:4 1.22644e-17
5 *2 7.10875e-17

*RES
0 *17:g *2:2 24.84375  // $poly_conn
1 *2:2 *5:g 210.376755  // $poly_conn
2 *2:2 *2:4 53.006985  // $poly_conn
3 *2:4 *2:5 0.00454  // $metal1_conn
4 *2:6 *2 0.004604  // $metal1_conn
5 *2:5 *2:6 0.066934  // $metal1_conn

*END

*D_NET *16 3.42466e-16

*CONN
*P *16 I *C 0.5000 1.0450 
*I *12:g B *C 0.4925 0.3025 
*I *3:g B *C 0.4925 1.3725 
*N *16:2 *C 0.5200 0.8300 

*CAP
0 *3:g 8.0783e-17
1 *12:g 5.21002e-17
2 *16:2 1.39066e-16
3 *16 7.05175e-17

*RES
0 *3:g *16:2 103.025291  // $poly_conn
1 *16:2 *12:g 108.153488  // $poly_conn
2 *16 *16:2 45.126522  // $metal1_conn

*END

*D_NET *15 1.95328e-16

*CONN
*P *15 O *C 0.1000 0.8550 
*I *11:d B *C 0.3900 0.3025 
*I *12:d B *C 0.3900 0.3025 
*I *1:d B *C 0.2950 1.3725 

*CAP
0 *1:d 4.59294e-17
1 *11:d 8.16647e-17
2 *15 6.77334e-17

*RES
0 *1:d *15 62.4524  // $metal1_conn
1 *15 *11:d 75.52269  // $metal1_conn

*END

*D_NET *10 0

*CONN
*I *1:s B *C 0.4400 1.3725 
*I *3:d B *C 0.4400 1.3725 


*RES
0 *3:d *1:s 0.001  // $mwires

*END

*D_NET *9 0

*CONN
*I *4:d B *C 0.7600 1.3725 
*I *5:s B *C 0.7600 1.3725 


*RES
0 *5:s *4:d 0.001  // $mwires

*END

*D_NET *8 4.66986e-16

*CONN
*I *11:g B *C 0.2875 0.3025 
*I *14:d B *C 0.8175 0.3025 
*I *17:d B *C 0.8175 0.3025 
*I *1:g B *C 0.3875 1.3725 
*I *5:d B *C 0.9050 1.3725 
*N *8:2 *C 0.3500 0.6400 
*N *8:4 *C 0.8700 0.6400 

*CAP
0 *5:d 6.13449e-17
1 *1:g 8.74277e-17
2 *14:d 4.27715e-17
3 *11:g 3.22729e-17
4 *8:4 1.18986e-16
5 *8:2 1.24183e-16

*RES
0 *1:g *8:2 150.770599  // $poly_conn
1 *8:2 *11:g 71.579041  // $poly_conn
2 *8:2 *8:4 45.352379  // $metal1_conn
3 *8:4 *14:d 75.227089  // $metal1_conn
4 *8:4 *5:d 62.48196  // $metal1_conn

*END

