*SPEF "IEEE 1481-1999"
*DESIGN  "AOI221X2"
*DATE "Mon Sep 27 08:57:34 2010"
*VENDOR "Cadence Design Systems"
*PROGRAM "Assura RCX"
*VERSION "3.2 Red Hat Linux release 7.2 (Enigma) - (09/09/2009-10:39)"
*DESIGN_FLOW "Physical Verification"
*DIVIDER /
*DELIMITER :
*BUS_DELIMITER []
*T_UNIT 1 PS
*C_UNIT 1e15 FF
*R_UNIT 1 OHM
*L_UNIT 1 MH
// DeviceFingerDelim "@"
// MATCHED
// caps2d version: 10

*NAME_MAP
*1 VDD
*2 mn0
*3 mn1
*4 B0
*5 mn1\@1
*6 B1
*7 mn0\@1
*8 mn2
*9 VSS
*10 mp4\@1
*11 mn3
*12 mn3\@1
*13 mn2\@1
*14 mn4
*15 C0
*16 net103
*17 net124
*18 net124\@1
*19 net116
*20 net116\@1
*21 Y
*22 mp0
*23 net104
*24 mp1
*25 mp1\@1
*26 A0
*27 mp0\@1
*28 A1
*29 mp2
*30 mp3
*31 mp3\@1
*32 mp2\@1
*33 mp4
*34 mn4\@1

*GROUND_NETS VSS

*PORTS
*1 I
*9 I
*26 I
*28 I
*4 I
*6 I
*15 I
*21 O

*D_NET *1 3.67872e-16

*CONN
*P *1 I *C 0.1000 1.7100 
*I *22:s B *C 0.1650 1.2100 
*I *24:s B *C 0.5650 1.2100 
*I *25:s B *C 0.5650 1.2100 
*I *27:s B *C 0.9650 1.2100 
*N *1:1 *C 2.0000 1.7100 

*CAP
0 *27:s 1.02401e-16
1 *24:s 3.8364e-17
2 *1:1 2.27107e-16

*RES
0 *27:s *1 0.027116  // $metal1_conn
1 *1:1 *27:s 13.028604  // $metal1_conn
2 *1:1 *27:s 10.714286  // $metal1_conn
3 *27:s *24:s 62.222366  // $metal1_conn

*END

*D_NET *9 0

*CONN
*P *9 I *C 0.1000 0.0000 
*I *2:s B *C 0.3650 0.4200 
*I *7:s B *C 1.1850 0.4200 
*I *8:d B *C 1.1850 0.4200 
*I *13:d B *C 1.9600 0.4200 
*I *14:s B *C 1.9600 0.4200 
*I *34:s B *C 2.3050 0.4200 
*N *9:2 *C 2.0000 0.0000 
*N *9:5 *C 0.9750 0.0000 
*N *9:6 *C 0.7000 0.0000 
*N *9:7 *C 0.3550 0.0000 


*RES
0 *9:7 *9 0.127368  // $metal1_conn
1 *9:2 *34:s 10.333333  // $metal1_conn
2 *9:2 *9:6 8.857142  // $metal1_conn
3 *9:5 *7:s 75.190247  // $metal1_conn
4 *9:7 *2:s 75.213844  // $metal1_conn
5 *34:s *9:5 0.43568  // $metal1_conn
6 *9:5 *9:6 0.137643  // $metal1_conn
7 *9:6 *9:7 0.172729  // $metal1_conn

*END

*D_NET *26 4.21428e-16

*CONN
*P *26 I *C 0.3000 0.6650 
*I *2:g B *C 0.4575 0.4200 
*I *7:g B *C 0.8725 0.4200 
*I *22:g B *C 0.2575 1.2100 
*I *27:g B *C 0.8725 1.2100 

*CAP
0 *27:g 2.97847e-16
1 *7:g 5.63228e-17
2 *2:g 6.72579e-17

*RES
0 *27:g *7:g 19.691952  // $poly_conn
1 *2:g *27:g 47.482254  // $poly_conn
2 *27:g *26 0.002304  // $metal1_conn

*END

*D_NET *28 2.8929e-16

*CONN
*P *28 I *C 0.7000 0.8550 
*I *3:g B *C 0.5625 0.4200 
*I *5:g B *C 0.7675 0.4200 
*I *24:g B *C 0.4625 1.2100 
*I *25:g B *C 0.6675 1.2100 
*N *28:2 *C 0.6900 0.6475 
*N *28:3 *C 0.6900 0.8500 
*N *28:8 *C 0.6900 0.8500 

*CAP
0 *25:g 1.0653e-16
1 *5:g 4.66845e-17
2 *3:g 5.12248e-17
3 *28:2 3.97562e-17
4 *28 4.50947e-17

*RES
0 *5:g *28:2 36.203091  // $poly_conn
1 *28:2 *3:g 49.023605  // $poly_conn
2 *28:2 *28:3 16.124161  // $poly_conn
3 *28:3 *25:g 5.943492  // $poly_conn
4 *28:8 *28 0.003108  // $metal1_conn
5 *28:3 *28:8 45  // $metal1_conn

*END

*D_NET *4 5.19268e-16

*CONN
*P *4 I *C 1.7000 0.6650 
*I *8:g B *C 1.3275 0.4200 
*I *13:g B *C 1.7425 0.4200 
*I *29:g B *C 1.3275 1.2100 
*I *32:g B *C 1.9425 1.2100 

*CAP
0 *13:g 7.03464e-17
1 *8:g 5.55964e-17
2 *4 3.93325e-16

*RES
0 *4 *13:g 46.099857  // $poly_conn
1 *4 *8:g 20.974003  // $poly_conn

*END

*D_NET *6 3.91521e-16

*CONN
*P *6 I *C 1.5000 0.8550 
*I *11:g B *C 1.4325 0.4200 
*I *12:g B *C 1.6375 0.4200 
*I *30:g B *C 1.5325 1.2100 
*I *31:g B *C 1.7375 1.2100 
*N *6:3 *C 1.5050 0.8450 
*N *6:7 *C 1.5050 0.8450 

*CAP
0 *31:g 8.94443e-17
1 *12:g 6.14519e-17
2 *11:g 5.68852e-17
3 *6:3 1.83739e-16

*RES
0 *6:3 *12:g 84.600174  // $poly_conn
1 *6:3 *11:g 69.215561  // $poly_conn
2 *31:g *6:3 4.815496  // $poly_conn
3 *6 *6:7 0.002797  // $metal1_conn
4 *6:3 *6:7 45  // $metal1_conn

*END

*D_NET *15 2.61699e-16

*CONN
*P *15 I *C 2.5000 0.8550 
*I *14:g B *C 2.0075 0.4200 
*I *34:g B *C 2.2125 0.4200 
*I *33:g B *C 2.1475 1.2100 
*I *10:g B *C 2.3525 1.2100 

*CAP
0 *10:g 1.44974e-16
1 *14:g 8.17162e-17
2 *15 3.50094e-17

*RES
0 *10:g *14:g 20.326265  // $poly_conn
1 *15 *10:g 45.188969  // $metal1_conn

*END

*D_NET *21 5.77611e-16

*CONN
*P *21 O *C 1.1000 0.8550 
*I *3:d B *C 0.6650 0.4200 
*I *5:d B *C 0.6650 0.4200 
*I *11:s B *C 1.5350 0.4200 
*I *12:s B *C 1.5350 0.4200 
*I *14:d B *C 2.1100 0.4200 
*I *34:d B *C 2.1100 0.4200 
*I *33:d B *C 2.2500 1.2100 
*I *10:d B *C 2.2500 1.2100 
*N *21:3 *C 1.5350 0.4800 
*N *21:4 *C 1.1100 0.4800 

*CAP
0 *33:d 1.53094e-16
1 *14:d 5.59414e-17
2 *11:s 7.33998e-17
3 *3:d 5.64353e-17
4 *21:4 7.70772e-17
5 *21 1.61663e-16

*RES
0 *21 *33:d 62.972004  // $metal1_conn
1 *21:4 *21 0.248111  // $metal1_conn
2 *14:d *21:3 75.422676  // $metal1_conn
3 *11:s *21:3 75  // $metal1_conn
4 *21:4 *3:d 75.337349  // $metal1_conn
5 *21:3 *21:4 0.314926  // $metal1_conn

*END

*D_NET *20 1.71625e-18

*CONN
*I *12:d B *C 1.6900 0.4200 
*I *13:s B *C 1.6900 0.4200 

*CAP
0 *12:d 1.71625e-18

*RES
0 *13:s *12:d 0.001  // $mwires

*END

*D_NET *19 1.73762e-18

*CONN
*I *8:s B *C 1.3800 0.4200 
*I *11:d B *C 1.3800 0.4200 

*CAP
0 *8:s 1.73762e-18

*RES
0 *11:d *8:s 0.001  // $mwires

*END

*D_NET *18 1.69916e-18

*CONN
*I *5:s B *C 0.8200 0.4200 
*I *7:d B *C 0.8200 0.4200 

*CAP
0 *5:s 1.69916e-18

*RES
0 *7:d *5:s 0.001  // $mwires

*END

*D_NET *17 0

*CONN
*I *2:d B *C 0.5100 0.4200 
*I *3:s B *C 0.5100 0.4200 


*RES
0 *3:s *2:d 0.001  // $mwires

*END

*D_NET *16 3.78669e-16

*CONN
*I *22:d B *C 0.3600 1.2100 
*I *24:d B *C 0.3600 1.2100 
*I *25:d B *C 0.7700 1.2100 
*I *27:d B *C 0.7700 1.2100 
*I *29:s B *C 1.4300 1.2100 
*I *30:s B *C 1.4300 1.2100 
*I *31:s B *C 1.8400 1.2100 
*I *32:s B *C 1.8400 1.2100 

*CAP
0 *31:s 2.03455e-16
1 *25:d 1.75214e-16

*RES
0 *31:s *25:d 0.485401  // $metal1_conn

*END

*D_NET *23 2.79231e-16

*CONN
*I *29:d B *C 1.2350 1.2100 
*I *30:d B *C 1.6350 1.2100 
*I *31:d B *C 1.6350 1.2100 
*I *32:d B *C 2.0450 1.2100 
*I *33:s B *C 2.0450 1.2100 
*I *10:s B *C 2.4450 1.2100 

*CAP
0 *10:s 2.75319e-16
1 *30:d 3.91237e-18

*RES
0 *10:s *30:d 62.015034  // $metal1_conn

*END

