*SPEF "IEEE 1481-1999"
*DESIGN  "AOI2BB2XL"
*DATE "Mon Sep 27 09:04:13 2010"
*VENDOR "Cadence Design Systems"
*PROGRAM "Assura RCX"
*VERSION "3.2 Red Hat Linux release 7.2 (Enigma) - (09/09/2009-10:39)"
*DESIGN_FLOW "Physical Verification"
*DIVIDER /
*DELIMITER :
*BUS_DELIMITER []
*T_UNIT 1 PS
*C_UNIT 1e15 FF
*R_UNIT 1 OHM
*L_UNIT 1 MH
// DeviceFingerDelim "@"
// MATCHED
// caps2d version: 10

*NAME_MAP
*1 net146
*2 mp1
*3 net124
*4 mp0
*5 mp2
*6 mn1
*7 net164
*8 mp3
*9 mn0
*10 net144
*11 VSS
*12 mp5
*13 mn2
*14 net156
*15 mp4
*16 mn3
*17 mn5
*18 mn4
*19 A1N
*20 Y
*21 B0
*22 B1
*23 VDD
*24 A0N

*GROUND_NETS VSS

*PORTS
*23 I
*11 I
*24 I
*19 I
*21 I
*22 I
*20 O

*D_NET *23 2.56928e-16

*CONN
*P *23 I *C 0.1000 1.7100 
*I *2:s B *C 0.4400 1.2525 
*I *4:s B *C 0.4400 1.2525 
*I *5:s B *C 1.3100 1.1075 
*I *8:s B *C 1.3100 1.1075 
*N *23:2 *C 1.1000 1.7100 
*N *23:3 *C 1.1000 1.7100 
*N *23:4 *C 0.4400 1.7100 

*CAP
0 *5:s 3.94349e-17
1 *2:s 3.15493e-17
2 *23:4 1.44537e-17
3 *23:2 1.60598e-16
4 *23 1.08922e-17

*RES
0 *5:s *23:3 62.505283  // $metal1_conn
1 *23:3 *23:4 0.330396  // $metal1_conn
2 *23:4 *23 0.169859  // $metal1_conn
3 *23:4 *2:s 62.259254  // $metal1_conn
4 *23:2 *23:3 6.818182  // $metal1_conn

*END

*D_NET *11 0

*CONN
*P *11 I *C 0.1000 0.0000 
*I *6:s B *C 0.4900 0.4925 
*I *9:s B *C 0.4900 0.4925 
*I *13:s B *C 1.2600 0.5075 
*I *18:d B *C 1.9650 0.5075 
*N *11:2 *C 1.1000 0.0000 
*N *11:3 *C 1.1000 0.0000 
*N *11:4 *C 0.4000 0.0000 


*RES
0 *18:d *11:3 75.782234  // $metal1_conn
1 *11:3 *11:4 0.350432  // $metal1_conn
2 *11:4 *11 0.149823  // $metal1_conn
3 *11:3 *13:s 75.059334  // $metal1_conn
4 *11:4 *6:s 75.074097  // $metal1_conn
5 *11:2 *11:3 5.636364  // $metal1_conn

*END

*D_NET *24 2.24663e-16

*CONN
*P *24 I *C 0.5000 0.5000 
*I *9:g B *C 0.5425 0.4925 
*I *4:g B *C 0.5425 1.2525 
*N *24:2 *C 0.5050 0.6900 

*CAP
0 *4:g 4.06668e-17
1 *9:g 3.55344e-17
2 *24:2 1.08385e-16
3 *24 4.00774e-17

*RES
0 *4:g *24:2 107.180855  // $poly_conn
1 *24:2 *9:g 22.565475  // $poly_conn
2 *24:2 *24 45.104645  // $metal1_conn

*END

*D_NET *19 2.33583e-16

*CONN
*P *19 I *C 0.3000 1.0450 
*I *6:g B *C 0.3375 0.4925 
*I *2:g B *C 0.3375 1.2525 
*N *19:2 *C 0.3100 1.0350 
*N *19:4 *C 0.3050 1.0350 

*CAP
0 *2:g 2.98839e-17
1 *6:g 5.09073e-17
2 *19:4 8.77239e-17
3 *19:2 3.93115e-17
4 *19 2.57566e-17

*RES
0 *2:g *19:2 19.691952  // $poly_conn
1 *19:2 *6:g 111.999641  // $poly_conn
2 *19:4 *19 0.006207  // $metal1_conn
3 *19:2 *19:4 45  // $metal1_conn

*END

*D_NET *21 1.69367e-16

*CONN
*P *21 I *C 2.1000 0.8550 
*I *18:g B *C 1.8725 0.5075 
*I *15:g B *C 1.8725 1.1075 
*N *21:2 *C 1.9100 0.7150 

*CAP
0 *15:g 3.32764e-17
1 *18:g 2.18576e-17
2 *21:2 8.35031e-17
3 *21 3.07299e-17

*RES
0 *15:g *21:2 63.591114  // $poly_conn
1 *21:2 *18:g 25.129578  // $poly_conn
2 *21 *21:2 45.192883  // $metal1_conn

*END

*D_NET *22 2.30321e-16

*CONN
*P *22 I *C 1.5000 0.6650 
*I *17:g B *C 1.6175 0.5075 
*I *12:g B *C 1.6175 1.1075 
*N *22:2 *C 1.5800 0.7750 

*CAP
0 *12:g 3.82082e-17
1 *17:g 3.81347e-17
2 *22:2 6.5409e-17
3 *22 8.85688e-17

*RES
0 *12:g *22:2 48.206497  // $poly_conn
1 *22:2 *17:g 40.514191  // $poly_conn
2 *22:2 *22 45.092941  // $metal1_conn

*END

*D_NET *20 2.95968e-16

*CONN
*P *20 O *C 1.1000 0.6650 
*I *16:d B *C 1.5150 0.5075 
*I *17:s B *C 1.5150 0.5075 
*I *12:d B *C 1.7450 1.1075 
*I *15:d B *C 1.7450 1.1075 
*N *20:3 *C 1.5150 0.4950 

*CAP
0 *12:d 9.07422e-17
1 *16:d 1.18111e-16
2 *20 8.71146e-17

*RES
0 *12:d *20:3 62.589634  // $metal1_conn
1 *20:3 *20 0.429793  // $metal1_conn
2 *16:d *20:3 75  // $metal1_conn

*END

*D_NET *14 7.03494e-18

*CONN
*I *17:d B *C 1.7450 0.5075 
*I *18:s B *C 1.7450 0.5075 

*CAP
0 *17:d 7.03494e-18

*RES
0 *18:s *17:d 0.001  // $mwires

*END

*D_NET *10 8.767e-19

*CONN
*I *13:d B *C 1.3600 0.5075 
*I *16:s B *C 1.3600 0.5075 

*CAP
0 *13:d 8.767e-19

*RES
0 *16:s *13:d 0.001  // $mwires

*END

*D_NET *7 5.4729e-16

*CONN
*I *6:d B *C 0.2450 0.4925 
*I *16:g B *C 1.4125 0.5075 
*I *2:d B *C 0.2450 1.2525 
*I *8:g B *C 1.4125 1.1075 
*N *7:3 *C 1.4400 0.3250 
*N *7:5 *C 0.2350 0.4800 

*CAP
0 *8:g 6.01197e-17
1 *2:d 8.30609e-17
2 *16:g 6.51563e-17
3 *6:d 1.77568e-16
4 *7:3 1.61385e-16

*RES
0 *8:g *16:g 107.692307  // $poly_conn
1 *16:g *7:3 64.691956  // $poly_conn
2 *7:3 *7:5 0.960141  // $metal1_conn
3 *7:5 *2:d 62.668602  // $metal1_conn
4 *6:d *7:5 75  // $metal1_conn

*END

*D_NET *3 1.86424e-16

*CONN
*I *5:d B *C 1.1350 1.1075 
*I *8:d B *C 1.5150 1.1075 
*I *12:s B *C 1.5150 1.1075 
*I *15:s B *C 1.9725 1.1075 
*N *3:3 *C 1.5150 1.0600 

*CAP
0 *15:s 5.96576e-17
1 *8:d 8.185e-17
2 *5:d 4.49168e-17

*RES
0 *5:d *3:3 62.381252  // $metal1_conn
1 *3:3 *15:s 62.439251  // $metal1_conn
2 *8:d *3:3 62  // $metal1_conn

*END

*D_NET *1 3.2222e-16

*CONN
*I *9:d B *C 0.6750 0.4925 
*I *13:g B *C 1.3075 0.5075 
*I *4:d B *C 0.6875 1.2800 
*I *5:g B *C 1.2075 1.1075 
*N *1:2 *C 1.2075 0.7225 
*N *1:3 *C 0.9300 0.6950 
*N *1:5 *C 0.6950 0.6650 

*CAP
0 *5:g 3.54179e-17
1 *4:d 5.54199e-17
2 *13:g 5.58039e-17
3 *9:d 3.66459e-17
4 *1:5 5.00716e-17
5 *1:2 3.38494e-17
6 *1:3 5.50109e-17

*RES
0 *13:g *1:2 55.113472  // $poly_conn
1 *1:2 *1:3 106.488663  // $poly_conn
2 *1:2 *5:g 66.45433  // $poly_conn
3 *1:3 *1:5 0.14389  // $metal1_conn
4 *1:5 *4:d 62.459705  // $metal1_conn
5 *1:5 *9:d 75.110458  // $metal1_conn

*END

