*SPEF "IEEE 1481-1999"
*DESIGN  "AOI22X1"
*DATE "Mon Sep 27 09:00:10 2010"
*VENDOR "Cadence Design Systems"
*PROGRAM "Assura RCX"
*VERSION "3.2 Red Hat Linux release 7.2 (Enigma) - (09/09/2009-10:39)"
*DESIGN_FLOW "Physical Verification"
*DIVIDER /
*DELIMITER :
*BUS_DELIMITER []
*T_UNIT 1 PS
*C_UNIT 1e15 FF
*R_UNIT 1 OHM
*L_UNIT 1 MH
// DeviceFingerDelim "@"
// MATCHED
// caps2d version: 10

*NAME_MAP
*1 A0
*2 A1
*3 mp0
*4 mp1
*5 mp3
*6 mp2
*7 VSS
*8 net89
*9 net98
*10 net102
*11 mn0
*12 mn1
*13 VDD
*14 mn3
*15 Y
*16 B0
*17 mn2
*18 B1

*GROUND_NETS VSS

*PORTS
*13 I
*7 I
*1 I
*2 I
*16 I
*18 I
*15 O

*D_NET *13 1.76369e-16

*CONN
*P *13 I *C 0.1000 1.7100 
*I *3:s B *C 0.3600 1.2650 
*I *4:s B *C 0.3600 1.2650 
*N *13:1 *C 0.6000 1.7100 
*N *13:2 *C 0.3050 1.7100 

*CAP
0 *3:s 4.05011e-17
1 *13:2 7.39102e-18
2 *13:1 1.1888e-16
3 *13 9.59631e-18

*RES
0 *13:1 *13:2 12.646621  // $metal1_conn
1 *13:2 *13 0.101289  // $metal1_conn
2 *13:2 *3:s 62.130917  // $metal1_conn

*END

*D_NET *7 0

*CONN
*P *7 I *C 0.1000 0.0000 
*I *11:s B *C 0.1100 0.3600 
*I *17:s B *C 0.8650 0.3600 
*N *7:2 *C 0.6000 0.0000 
*N *7:3 *C 0.6000 0.0000 


*RES
0 *17:s *7:3 37.878914  // $metal1_conn
1 *7:3 *7 0.2505  // $metal1_conn
2 *7 *11:s 37.729359  // $metal1_conn
3 *7:2 *7:3 10.333333  // $metal1_conn

*END

*D_NET *1 2.33579e-16

*CONN
*P *1 I *C 0.1050 0.7250 
*I *11:g B *C 0.2025 0.3600 
*I *3:g B *C 0.2025 1.2650 
*N *1:2 *C 0.2025 0.6600 
*N *1:3 *C 0.1150 0.6600 

*CAP
0 *3:g 6.76963e-17
1 *11:g 4.24783e-17
2 *1:2 3.85658e-17
3 *1:3 6.74908e-17
4 *1 1.7348e-17

*RES
0 *3:g *1:2 101.817162  // $poly_conn
1 *1:2 *1:3 48.300362  // $poly_conn
2 *1:2 *11:g 40.278706  // $poly_conn
3 *1:3 *1 0.033388  // $metal1_conn

*END

*D_NET *2 2.71244e-16

*CONN
*P *2 I *C 0.3250 0.4050 
*I *12:g B *C 0.3625 0.3600 
*I *4:g B *C 0.4075 1.2650 
*N *2:2 *C 0.3350 0.6000 

*CAP
0 *4:g 8.08643e-17
1 *12:g 3.84615e-17
2 *2:2 1.19994e-16
3 *2 3.19243e-17

*RES
0 *4:g *2:2 114.087357  // $poly_conn
1 *2:2 *12:g 16.530039  // $poly_conn
2 *2 *2:2 45.116646  // $metal1_conn

*END

*D_NET *16 2.11433e-16

*CONN
*P *16 I *C 0.8100 0.5900 
*I *17:g B *C 0.7725 0.3600 
*I *6:g B *C 0.8275 1.2650 
*N *16:2 *C 0.8000 0.8500 

*CAP
0 *6:g 4.44574e-17
1 *17:g 5.04593e-17
2 *16:2 7.83444e-17
3 *16 3.8172e-17

*RES
0 *6:g *16:2 47.897079  // $poly_conn
1 *16:2 *17:g 83.79451  // $poly_conn
2 *16 *16:2 45.155529  // $metal1_conn

*END

*D_NET *18 2.73918e-16

*CONN
*P *18 I *C 0.6300 0.8850 
*I *14:g B *C 0.6175 0.3600 
*I *5:g B *C 0.6175 1.2650 
*N *18:2 *C 0.6200 0.7600 

*CAP
0 *5:g 5.73385e-17
1 *14:g 5.21544e-17
2 *18:2 1.19461e-16
3 *18 4.49636e-17

*RES
0 *5:g *18:2 69.217384  // $poly_conn
1 *18:2 *14:g 58.960976  // $poly_conn
2 *18 *18:2 45.079784  // $metal1_conn

*END

*D_NET *15 2.65843e-16

*CONN
*P *15 O *C 0.4950 1.0450 
*I *12:d B *C 0.4900 0.3600 
*I *14:d B *C 0.4900 0.3600 
*I *5:d B *C 0.7225 1.2650 
*I *6:d B *C 0.7225 1.2650 

*CAP
0 *5:d 7.43177e-17
1 *12:d 1.13664e-16
2 *15 7.78609e-17

*RES
0 *5:d *15 31.254459  // $metal1_conn
1 *15 *12:d 38.051739  // $metal1_conn

*END

*D_NET *10 1.75434e-18

*CONN
*I *11:d B *C 0.2825 0.3600 
*I *12:s B *C 0.2825 0.3600 

*CAP
0 *11:d 1.75434e-18

*RES
0 *12:s *11:d 0.001  // $mwires

*END

*D_NET *9 0

*CONN
*I *14:s B *C 0.6950 0.3600 
*I *17:d B *C 0.6950 0.3600 


*RES
0 *17:d *14:s 0.001  // $mwires

*END

*D_NET *8 1.8134e-16

*CONN
*I *3:d B *C 0.1100 1.2650 
*I *4:d B *C 0.5125 1.2650 
*I *5:s B *C 0.5125 1.2650 
*I *6:s B *C 0.9200 1.2650 
*N *8:3 *C 0.5100 1.3350 

*CAP
0 *6:s 4.91092e-17
1 *4:d 8.97881e-17
2 *3:d 4.24427e-17

*RES
0 *6:s *8:3 21.124329  // $metal1_conn
1 *8:3 *3:d 31.406813  // $metal1_conn
2 *4:d *8:3 31  // $metal1_conn

*END

