*SPEF "IEEE 1481-1999"
*DESIGN  "AOI222X2"
*DATE "Mon Sep 27 08:59:04 2010"
*VENDOR "Cadence Design Systems"
*PROGRAM "Assura RCX"
*VERSION "3.2 Red Hat Linux release 7.2 (Enigma) - (09/09/2009-10:39)"
*DESIGN_FLOW "Physical Verification"
*DIVIDER /
*DELIMITER :
*BUS_DELIMITER []
*T_UNIT 1 PS
*C_UNIT 1e15 FF
*R_UNIT 1 OHM
*L_UNIT 1 MH
// DeviceFingerDelim "@"
// MATCHED
// caps2d version: 10

*NAME_MAP
*1 VDD
*2 C0
*3 C1
*4 mp1\@1
*5 mp0\@1
*6 mp2\@1
*7 net126
*8 net134
*9 net147
*10 net147\@1
*11 net151
*12 net151\@1
*13 net155
*14 net155\@1
*15 Y
*16 A0
*17 A1
*18 VSS
*19 mp3
*20 mp3\@1
*21 mp2
*22 mp4
*23 mp5
*24 mp5\@1
*25 mp4\@1
*26 mn0
*27 B0
*28 mp0
*29 mn1
*30 B1
*31 mp1
*32 mn1\@1
*33 mn0\@1
*34 mn2
*35 mn3
*36 mn3\@1
*37 mn5
*38 mn2\@1
*39 mn5\@1
*40 mn4
*41 mn4\@1

*GROUND_NETS VSS

*PORTS
*1 I
*18 I
*16 I
*17 I
*27 I
*30 I
*2 I
*3 I
*15 O

*D_NET *1 4.30067e-16

*CONN
*P *1 I *C 0.1000 1.7100 
*I *28:s B *C 0.2650 1.2100 
*I *31:s B *C 0.6650 1.2100 
*I *4:s B *C 0.6650 1.2100 
*I *5:s B *C 1.0650 1.2100 
*N *1:1 *C 2.4000 1.7100 

*CAP
0 *5:s 1.14387e-16
1 *31:s 4.04772e-17
2 *1:1 2.75202e-16

*RES
0 *5:s *1 0.077231  // $metal1_conn
1 *1:1 *5:s 10.05386  // $metal1_conn
2 *1:1 *5:s 9.375  // $metal1_conn
3 *5:s *31:s 62.223492  // $metal1_conn

*END

*D_NET *18 0

*CONN
*P *18 I *C 0.1000 0.0000 
*I *26:s B *C 0.4650 0.4450 
*I *33:s B *C 1.3400 0.4450 
*I *34:s B *C 1.3400 0.4450 
*I *38:s B *C 2.2925 0.4450 
*I *40:s B *C 2.2925 0.4450 
*I *41:s B *C 2.9150 0.4450 
*N *18:2 *C 2.4000 0.0000 
*N *18:3 *C 2.4000 0.0000 
*N *18:4 *C 2.1500 0.0000 
*N *18:5 *C 1.0750 0.0000 
*N *18:6 *C 0.8000 0.0000 
*N *18:7 *C 0.4550 0.0000 


*RES
0 *41:s *18:3 75.518814  // $metal1_conn
1 *18:3 *18:4 0.125091  // $metal1_conn
2 *18:4 *18:5 0.538342  // $metal1_conn
3 *18:5 *18:6 0.13762  // $metal1_conn
4 *18:6 *18:7 0.1727  // $metal1_conn
5 *18:7 *18 0.177461  // $metal1_conn
6 *18:4 *38:s 75.18998  // $metal1_conn
7 *18:5 *33:s 75.18998  // $metal1_conn
8 *18:7 *26:s 75.230133  // $metal1_conn
9 *18:2 *18:3 7.75  // $metal1_conn
10 *18:2 *18:6 7.75  // $metal1_conn

*END

*D_NET *16 4.35634e-16

*CONN
*P *16 I *C 0.3000 0.6650 
*I *26:g B *C 0.5575 0.4450 
*I *33:g B *C 0.9725 0.4450 
*I *28:g B *C 0.3575 1.2100 
*I *5:g B *C 0.9725 1.2100 

*CAP
0 *5:g 3.0463e-16
1 *33:g 5.44113e-17
2 *26:g 5.2054e-17
3 *16 2.45385e-17

*RES
0 *5:g *33:g 19.691952  // $poly_conn
1 *26:g *5:g 33.039806  // $poly_conn
2 *5:g *16 0.10321  // $metal1_conn

*END

*D_NET *17 3.02453e-16

*CONN
*P *17 I *C 0.7000 0.8550 
*I *29:g B *C 0.6625 0.4450 
*I *32:g B *C 0.8675 0.4450 
*I *31:g B *C 0.5625 1.2100 
*I *4:g B *C 0.7675 1.2100 
*N *17:2 *C 0.7250 0.6725 
*N *17:3 *C 0.7100 0.8500 
*N *17:8 *C 0.7100 0.8500 

*CAP
0 *4:g 1.06711e-16
1 *32:g 5.03857e-17
2 *29:g 4.77342e-17
3 *17:2 3.67552e-17
4 *17 6.08675e-17

*RES
0 *32:g *17:2 42.865917  // $poly_conn
1 *17:2 *29:g 21.176929  // $poly_conn
2 *17:2 *17:3 12.856586  // $poly_conn
3 *17:3 *4:g 3.928095  // $poly_conn
4 *17 *17:8 0.004596  // $metal1_conn
5 *17:3 *17:8 45  // $metal1_conn

*END

*D_NET *27 4.54787e-16

*CONN
*P *27 I *C 1.9000 0.6650 
*I *34:g B *C 1.5375 0.4450 
*I *38:g B *C 2.0475 0.4450 
*I *21:g B *C 2.1625 1.2100 
*I *6:g B *C 1.5375 1.2100 

*CAP
0 *38:g 4.90865e-17
1 *34:g 3.88841e-17
2 *27 3.66817e-16

*RES
0 *27 *38:g 16.530039  // $poly_conn
1 *27 *34:g 19.691952  // $poly_conn

*END

*D_NET *30 3.47968e-16

*CONN
*P *30 I *C 1.7000 0.8550 
*I *35:g B *C 1.6975 0.4450 
*I *36:g B *C 1.9025 0.4450 
*I *19:g B *C 1.7525 1.2100 
*I *20:g B *C 1.9575 1.2100 
*N *30:3 *C 1.7250 0.8450 
*N *30:4 *C 1.7250 0.6725 
*N *30:9 *C 1.7250 0.8450 

*CAP
0 *20:g 8.26058e-17
1 *36:g 4.54407e-17
2 *35:g 3.08145e-17
3 *30:9 1.06867e-16
4 *30:4 3.18814e-17
5 *30:3 1.97217e-17
6 *30 3.06369e-17

*RES
0 *30:4 *36:g 54.784554  // $poly_conn
1 *30:4 *35:g 21.83713  // $poly_conn
2 *20:g *30:3 4.815496  // $poly_conn
3 *30:3 *30:4 15.539031  // $poly_conn
4 *30:3 *30:9 45  // $metal1_conn
5 *30 *30:9 0.015221  // $metal1_conn

*END

*D_NET *2 4.38084e-16

*CONN
*P *2 I *C 2.3000 0.6650 
*I *40:g B *C 2.3675 0.4450 
*I *41:g B *C 2.8225 0.4450 
*I *22:g B *C 2.3675 1.2100 
*I *25:g B *C 2.9825 1.2100 

*CAP
0 *25:g 3.07294e-16
1 *41:g 5.46111e-17
2 *40:g 4.79467e-17
3 *2 2.82321e-17

*RES
0 *25:g *41:g 43.574535  // $poly_conn
1 *25:g *40:g 19.691952  // $poly_conn
2 *25:g *2 0.024438  // $metal1_conn

*END

*D_NET *3 2.78472e-16

*CONN
*P *3 I *C 2.7000 0.8550 
*I *37:g B *C 2.5125 0.4450 
*I *39:g B *C 2.7175 0.4450 
*I *23:g B *C 2.5725 1.2100 
*I *24:g B *C 2.7775 1.2100 
*N *3:3 *C 2.6900 0.6725 

*CAP
0 *24:g 1.01191e-16
1 *39:g 4.64611e-17
2 *37:g 4.51178e-17
3 *3:3 2.85615e-17
4 *3 5.71397e-17

*RES
0 *3:3 *39:g 21.83713  // $poly_conn
1 *3:3 *37:g 54.784554  // $poly_conn
2 *24:g *3:3 16.070948  // $poly_conn
3 *24:g *3 45.005081  // $metal1_conn

*END

*D_NET *15 7.0283e-16

*CONN
*P *15 O *C 1.3000 0.8550 
*I *29:d B *C 0.7650 0.4450 
*I *32:d B *C 0.7650 0.4450 
*I *35:d B *C 1.8000 0.4450 
*I *36:d B *C 1.8000 0.4450 
*I *37:d B *C 2.6150 0.4450 
*I *39:d B *C 2.6150 0.4450 
*I *22:d B *C 2.4700 1.2100 
*I *23:d B *C 2.4700 1.2100 
*I *24:d B *C 2.8800 1.2100 
*I *25:d B *C 2.8800 1.2100 
*N *15:3 *C 1.8000 0.4800 
*N *15:4 *C 1.3100 0.4800 

*CAP
0 *24:d 2.14251e-16
1 *37:d 8.85407e-17
2 *35:d 1.05615e-16
3 *29:d 6.51226e-17
4 *15:4 7.24028e-17
5 *15 1.56897e-16

*RES
0 *15:4 *15 0.239882  // $metal1_conn
1 *15 *24:d 0.996974  // $metal1_conn
2 *37:d *15:3 75.602707  // $metal1_conn
3 *35:d *15:3 75  // $metal1_conn
4 *15:4 *29:d 75.403229  // $metal1_conn
5 *15:3 *15:4 0.357611  // $metal1_conn

*END

*D_NET *14 0

*CONN
*I *39:s B *C 2.7700 0.4450 
*I *41:d B *C 2.7700 0.4450 


*RES
0 *41:d *39:s 0.001  // $mwires

*END

*D_NET *13 2.8979e-18

*CONN
*I *40:d B *C 2.4400 0.4450 
*I *37:s B *C 2.4400 0.4450 

*CAP
0 *40:d 2.8979e-18

*RES
0 *37:s *40:d 0.001  // $mwires

*END

*D_NET *12 3.07884e-18

*CONN
*I *36:s B *C 1.9750 0.4450 
*I *38:d B *C 1.9750 0.4450 

*CAP
0 *36:s 3.07884e-18

*RES
0 *38:d *36:s 0.001  // $mwires

*END

*D_NET *11 3.15016e-18

*CONN
*I *34:d B *C 1.6175 0.4450 
*I *35:s B *C 1.6175 0.4450 

*CAP
0 *34:d 3.15016e-18

*RES
0 *35:s *34:d 0.001  // $mwires

*END

*D_NET *10 1.68035e-18

*CONN
*I *32:s B *C 0.9200 0.4450 
*I *33:d B *C 0.9200 0.4450 

*CAP
0 *32:s 1.68035e-18

*RES
0 *33:d *32:s 0.001  // $mwires

*END

*D_NET *9 0

*CONN
*I *26:d B *C 0.6100 0.4450 
*I *29:s B *C 0.6100 0.4450 


*RES
0 *29:s *26:d 0.001  // $mwires

*END

*D_NET *8 3.26227e-16

*CONN
*I *19:d B *C 1.8550 1.2100 
*I *20:d B *C 1.8550 1.2100 
*I *21:d B *C 2.2650 1.2100 
*I *22:s B *C 2.2650 1.2100 
*I *23:s B *C 2.6750 1.2100 
*I *24:s B *C 2.6750 1.2100 
*I *25:s B *C 3.0750 1.2100 
*I *6:d B *C 1.4450 1.2100 

*CAP
0 *25:s 3.19132e-16
1 *23:s 2.96264e-18
2 *19:d 4.13232e-18

*RES
0 *25:s *23:s 62.01503  // $metal1_conn
1 *25:s *19:d 62.01503  // $metal1_conn

*END

*D_NET *7 4.29264e-16

*CONN
*I *19:s B *C 1.6450 1.2100 
*I *20:s B *C 2.0600 1.2100 
*I *21:s B *C 2.0600 1.2100 
*I *28:d B *C 0.4600 1.2100 
*I *31:d B *C 0.4600 1.2100 
*I *4:d B *C 0.8700 1.2100 
*I *5:d B *C 0.8700 1.2100 
*I *6:s B *C 1.6450 1.2100 

*CAP
0 *4:d 2.02495e-16
1 *20:s 2.2677e-16

*RES
0 *4:d *20:s 0.550153  // $metal1_conn

*END

