*SPEF "IEEE 1481-1999"
*DESIGN  "AOI22X4"
*DATE "Mon Sep 27 09:00:54 2010"
*VENDOR "Cadence Design Systems"
*PROGRAM "Assura RCX"
*VERSION "3.2 Red Hat Linux release 7.2 (Enigma) - (09/09/2009-10:39)"
*DESIGN_FLOW "Physical Verification"
*DIVIDER /
*DELIMITER :
*BUS_DELIMITER []
*T_UNIT 1 PS
*C_UNIT 1e15 FF
*R_UNIT 1 OHM
*L_UNIT 1 MH
// DeviceFingerDelim "@"
// MATCHED
// caps2d version: 10

*NAME_MAP
*1 VDD
*2 Y
*3 mp2
*4 mp3
*5 net89
*6 mp3\@1
*7 net98
*8 mp2\@1
*9 mp2\@2
*10 mp3\@2
*11 mp3\@3
*12 mp2\@3
*13 mp1
*14 mp0
*15 mp1\@1
*16 mp0\@1
*17 mp0\@2
*18 mp1\@2
*19 mp1\@3
*20 mp0\@3
*21 mn1
*22 mn1\@1
*23 mn0\@1
*24 mn0\@2
*25 mn1\@2
*26 mn1\@3
*27 mn0\@3
*28 VSS
*29 A0
*30 A1
*31 net98\@1
*32 net98\@2
*33 net98\@3
*34 mn2
*35 net102
*36 mn3
*37 net102\@1
*38 B0
*39 mn3\@1
*40 net102\@2
*41 B1
*42 mn2\@1
*43 net102\@3
*44 mn2\@2
*45 mn3\@2
*46 mn3\@3
*47 mn2\@3
*48 mn0

*GROUND_NETS VSS

*PORTS
*1 I
*28 I
*29 I
*30 I
*38 I
*41 I
*2 O

*D_NET *1 4.06118e-16

*CONN
*P *1 I *C 0.1000 1.7100 
*I *14:s B *C 0.3500 1.1500 
*I *13:s B *C 0.3500 1.1500 
*I *15:s B *C 0.7600 1.1500 
*I *16:s B *C 0.7600 1.1500 
*I *17:s B *C 1.1700 1.1500 
*I *18:s B *C 1.1700 1.1500 
*I *19:s B *C 1.5800 1.1500 
*I *20:s B *C 1.5800 1.1500 
*N *1:1 *C 2.7000 1.7100 

*CAP
0 *19:s 1.92458e-16
1 *1:1 2.06869e-16
2 *1 6.79057e-18

*RES
0 *19:s *1 0.124778  // $metal1_conn
1 *1:1 *19:s 8.894142  // $metal1_conn
2 *1:1 *19:s 8.333333  // $metal1_conn

*END

*D_NET *28 0

*CONN
*P *28 I *C 0.1000 0.0000 
*I *34:s B *C 1.7850 0.4050 
*I *42:s B *C 2.5050 0.4050 
*I *44:s B *C 2.5050 0.4050 
*I *47:s B *C 3.1150 0.4050 
*I *48:s B *C 0.4550 0.4050 
*I *23:s B *C 1.0650 0.4050 
*I *24:s B *C 1.0650 0.4050 
*I *27:s B *C 1.7850 0.4050 
*N *28:2 *C 2.7000 0.0000 
*N *28:3 *C 2.7000 0.0000 
*N *28:4 *C 2.4750 0.0000 
*N *28:5 *C 1.7550 0.0000 
*N *28:6 *C 1.0350 0.0000 
*N *28:7 *C 0.9000 0.0000 
*N *28:8 *C 0.4450 0.0000 


*RES
0 *47:s *28:3 75.450874  // $metal1_conn
1 *28:3 *28:4 0.112506  // $metal1_conn
2 *28:4 *28:5 0.360254  // $metal1_conn
3 *28:5 *28:6 0.360254  // $metal1_conn
4 *28:6 *28:7 0.067425  // $metal1_conn
5 *28:7 *28:8 0.227712  // $metal1_conn
6 *28:8 *28 0.172363  // $metal1_conn
7 *28:4 *42:s 75.199654  // $metal1_conn
8 *28:5 *34:s 75.199654  // $metal1_conn
9 *28:6 *23:s 75.199654  // $metal1_conn
10 *28:8 *48:s 75.2033  // $metal1_conn
11 *28:2 *28:3 6.888889  // $metal1_conn
12 *28:2 *28:7 6.888889  // $metal1_conn

*END

*D_NET *29 8.23586e-16

*CONN
*P *29 I *C 1.5000 0.8550 
*I *48:g B *C 0.5475 0.4050 
*I *23:g B *C 0.9625 0.4050 
*I *24:g B *C 1.1675 0.4050 
*I *27:g B *C 1.6825 0.4050 
*I *14:g B *C 0.2475 1.1500 
*I *16:g B *C 0.8625 1.1500 
*I *17:g B *C 1.0675 1.1500 
*I *20:g B *C 1.6825 1.1500 
*N *29:5 *C 0.9900 0.6325 

*CAP
0 *20:g 5.7129e-16
1 *27:g 3.82785e-17
2 *24:g 6.33768e-17
3 *23:g 4.67391e-17
4 *48:g 7.14207e-17
5 *29 3.24816e-17

*RES
0 *20:g *27:g 35.150497  // $poly_conn
1 *24:g *29:5 54.827171  // $poly_conn
2 *29:5 *23:g 21.751892  // $poly_conn
3 *48:g *20:g 83.318123  // $poly_conn
4 *29:5 *20:g 2.521123  // $poly_conn
5 *29 *20:g 0.075404  // $metal1_conn

*END

*D_NET *30 6.4316e-16

*CONN
*P *30 I *C 0.9000 0.8550 
*I *21:g B *C 0.6525 0.4050 
*I *22:g B *C 0.8575 0.4050 
*I *25:g B *C 1.2725 0.4050 
*I *26:g B *C 1.4775 0.4050 
*I *13:g B *C 0.4525 1.1500 
*I *15:g B *C 0.6575 1.1500 
*I *18:g B *C 1.2725 1.1500 
*I *19:g B *C 1.4775 1.1500 
*N *30:2 *C 0.6825 0.6325 
*N *30:9 *C 1.3000 0.7525 

*CAP
0 *26:g 3.9601e-17
1 *25:g 5.40949e-17
2 *22:g 6.53794e-17
3 *21:g 4.65926e-17
4 *30:9 3.57731e-17
5 *30:2 2.77469e-17
6 *30 3.73973e-16

*RES
0 *30:9 *26:g 85.55378  // $poly_conn
1 *30:9 *25:g 52.606361  // $poly_conn
2 *22:g *30:2 53.673023  // $poly_conn
3 *30:2 *21:g 21.657324  // $poly_conn
4 *30 *30:9 7.028393  // $poly_conn
5 *30:2 *30 18.623686  // $poly_conn

*END

*D_NET *38 7.95187e-16

*CONN
*P *38 I *C 2.1000 0.6650 
*I *34:g B *C 1.8875 0.4050 
*I *42:g B *C 2.4025 0.4050 
*I *44:g B *C 2.6075 0.4050 
*I *47:g B *C 3.0225 0.4050 
*I *3:g B *C 1.8875 1.1500 
*I *8:g B *C 2.5025 1.1500 
*I *9:g B *C 2.7075 1.1500 
*I *12:g B *C 3.3225 1.1500 

*CAP
0 *47:g 6.96536e-17
1 *44:g 4.73719e-17
2 *42:g 5.00296e-17
3 *34:g 3.86823e-17
4 *38 5.8945e-16

*RES
0 *38 *47:g 80.754028  // $poly_conn
1 *38 *44:g 34.962017  // $poly_conn
2 *38 *42:g 49.554779  // $poly_conn
3 *38 *34:g 29.227045  // $poly_conn

*END

*D_NET *41 6.50993e-16

*CONN
*P *41 I *C 2.3000 0.8550 
*I *36:g B *C 2.0925 0.4050 
*I *39:g B *C 2.2975 0.4050 
*I *45:g B *C 2.7125 0.4050 
*I *46:g B *C 2.9175 0.4050 
*I *4:g B *C 2.0925 1.1500 
*I *6:g B *C 2.2975 1.1500 
*I *10:g B *C 2.9125 1.1500 
*I *11:g B *C 3.1175 1.1500 
*N *41:3 *C 2.2700 0.7525 
*N *41:9 *C 2.8875 0.6325 

*CAP
0 *46:g 4.65224e-17
1 *45:g 6.87403e-17
2 *39:g 5.31193e-17
3 *36:g 3.93915e-17
4 *41:9 5.93748e-17
5 *41:3 3.54628e-17
6 *41 3.48381e-16

*RES
0 *41:9 *46:g 21.733652  // $poly_conn
1 *41:9 *45:g 53.634861  // $poly_conn
2 *41:3 *39:g 52.606361  // $poly_conn
3 *41:3 *36:g 85.55378  // $poly_conn
4 *41 *41:9 18.224672  // $poly_conn
5 *41 *41:3 7.028393  // $poly_conn

*END

*D_NET *2 7.26442e-16

*CONN
*P *2 O *C 1.9000 0.8550 
*I *36:d B *C 2.1950 0.4050 
*I *39:d B *C 2.1950 0.4050 
*I *45:d B *C 2.8150 0.4050 
*I *46:d B *C 2.8150 0.4050 
*I *21:d B *C 0.7550 0.4050 
*I *22:d B *C 0.7550 0.4050 
*I *25:d B *C 1.3750 0.4050 
*I *26:d B *C 1.3750 0.4050 
*I *3:d B *C 1.9900 1.1500 
*I *4:d B *C 1.9900 1.1500 
*I *6:d B *C 2.4000 1.1500 
*I *8:d B *C 2.4000 1.1500 
*I *9:d B *C 2.8100 1.1500 
*I *10:d B *C 2.8100 1.1500 
*I *11:d B *C 3.2200 1.1500 
*I *12:d B *C 3.2200 1.1500 
*N *2:2 *C 2.1950 0.4750 
*N *2:3 *C 1.7700 0.4850 
*N *2:5 *C 1.3750 0.4750 

*CAP
0 *11:d 2.76828e-16
1 *25:d 8.58379e-17
2 *21:d 6.48531e-17
3 *45:d 6.40519e-17
4 *36:d 9.53193e-17
5 *2:3 7.19661e-17
6 *2 6.75856e-17

*RES
0 *2:3 *2 0.237174  // $metal1_conn
1 *2 *11:d 0.118089  // $metal1_conn
2 *2:2 *45:d 75.467133  // $metal1_conn
3 *36:d *2:2 75  // $metal1_conn
4 *25:d *2:5 75  // $metal1_conn
5 *2:5 *21:d 75.474144  // $metal1_conn
6 *2:2 *2:3 0.324729  // $metal1_conn
7 *2:3 *2:5 0.300434  // $metal1_conn

*END

*D_NET *43 0

*CONN
*I *46:s B *C 2.9700 0.4050 
*I *47:d B *C 2.9700 0.4050 


*RES
0 *47:d *46:s 0.001  // $mwires

*END

*D_NET *40 2.07872e-18

*CONN
*I *44:d B *C 2.6600 0.4050 
*I *45:s B *C 2.6600 0.4050 

*CAP
0 *44:d 2.07872e-18

*RES
0 *45:s *44:d 0.001  // $mwires

*END

*D_NET *37 1.75671e-18

*CONN
*I *39:s B *C 2.3500 0.4050 
*I *42:d B *C 2.3500 0.4050 

*CAP
0 *39:s 1.75671e-18

*RES
0 *42:d *39:s 0.001  // $mwires

*END

*D_NET *35 4.26698e-18

*CONN
*I *34:d B *C 1.9900 0.4050 
*I *36:s B *C 1.9900 0.4050 

*CAP
0 *34:d 4.26698e-18

*RES
0 *36:s *34:d 0.001  // $mwires

*END

*D_NET *33 4.25615e-18

*CONN
*I *26:s B *C 1.5800 0.4050 
*I *27:d B *C 1.5800 0.4050 

*CAP
0 *26:s 4.25615e-18

*RES
0 *27:d *26:s 0.001  // $mwires

*END

*D_NET *32 1.76875e-18

*CONN
*I *24:d B *C 1.2200 0.4050 
*I *25:s B *C 1.2200 0.4050 

*CAP
0 *24:d 1.76875e-18

*RES
0 *25:s *24:d 0.001  // $mwires

*END

*D_NET *31 1.77435e-18

*CONN
*I *22:s B *C 0.9100 0.4050 
*I *23:d B *C 0.9100 0.4050 

*CAP
0 *22:s 1.77435e-18

*RES
0 *23:d *22:s 0.001  // $mwires

*END

*D_NET *7 0

*CONN
*I *48:d B *C 0.6000 0.4050 
*I *21:s B *C 0.6000 0.4050 


*RES
0 *21:s *48:d 0.001  // $mwires

*END

*D_NET *5 5.85207e-16

*CONN
*I *3:s B *C 1.7850 1.1500 
*I *4:s B *C 2.1950 1.1500 
*I *6:s B *C 2.1950 1.1500 
*I *8:s B *C 2.6050 1.1500 
*I *9:s B *C 2.6050 1.1500 
*I *10:s B *C 3.0150 1.1500 
*I *11:s B *C 3.0150 1.1500 
*I *12:s B *C 3.4150 1.1500 
*I *14:d B *C 0.1550 1.1500 
*I *13:d B *C 0.5550 1.1500 
*I *15:d B *C 0.5550 1.1500 
*I *16:d B *C 0.9650 1.1500 
*I *17:d B *C 0.9650 1.1500 
*I *18:d B *C 1.3750 1.1500 
*I *19:d B *C 1.3750 1.1500 
*I *20:d B *C 1.7850 1.1500 

*CAP
0 *12:s 5.85207e-16


*END

