*SPEF "IEEE 1481-1999"
*DESIGN  "AOI2BB2X1"
*DATE "Mon Sep 27 09:03:07 2010"
*VENDOR "Cadence Design Systems"
*PROGRAM "Assura RCX"
*VERSION "3.2 Red Hat Linux release 7.2 (Enigma) - (09/09/2009-10:39)"
*DESIGN_FLOW "Physical Verification"
*DIVIDER /
*DELIMITER :
*BUS_DELIMITER []
*T_UNIT 1 PS
*C_UNIT 1e15 FF
*R_UNIT 1 OHM
*L_UNIT 1 MH
// DeviceFingerDelim "@"
// MATCHED
// caps2d version: 10

*NAME_MAP
*1 n0
*2 mp1
*3 n4
*4 mp0
*5 mp2
*6 mn1
*7 n1
*8 mp3
*9 mn0
*10 n2
*11 VSS
*12 mp5
*13 mn2
*14 n3
*15 mp4
*16 mn3
*17 mn5
*18 mn4
*19 A1N
*20 Y
*21 B0
*22 B1
*23 VDD
*24 A0N

*GROUND_NETS VSS

*PORTS
*23 I
*11 I
*24 I
*19 I
*21 I
*22 I
*20 O

*D_NET *23 2.20783e-16

*CONN
*P *23 I *C 0.1000 1.7100 
*I *2:s B *C 0.3675 1.2225 
*I *4:s B *C 0.3675 1.2225 
*I *5:s B *C 1.2000 1.1350 
*I *8:s B *C 1.2000 1.1350 
*N *23:2 *C 1.0000 1.7100 
*N *23:3 *C 1.0000 1.7100 
*N *23:4 *C 0.3650 1.7100 

*CAP
0 *5:s 4.38189e-17
1 *2:s 2.80166e-17
2 *23:4 1.1953e-17
3 *23:2 1.31843e-16
4 *23 5.15133e-18

*RES
0 *5:s *23:3 62.427616  // $metal1_conn
1 *23:3 *23:4 0.318086  // $metal1_conn
2 *23:4 *23 0.13238  // $metal1_conn
3 *23:4 *2:s 62.273647  // $metal1_conn
4 *23:2 *23:3 7.5  // $metal1_conn

*END

*D_NET *11 0

*CONN
*P *11 I *C 0.1000 0.0000 
*I *6:s B *C 0.4800 0.5875 
*I *9:s B *C 0.4800 0.5875 
*I *13:s B *C 1.0450 0.3900 
*I *18:d B *C 1.8200 0.3900 
*N *11:2 *C 1.0000 0.0000 
*N *11:3 *C 1.0000 0.0000 
*N *11:4 *C 0.3950 0.0000 


*RES
0 *18:d *11:3 75.641113  // $metal1_conn
1 *11:3 *11:4 0.303049  // $metal1_conn
2 *11:4 *11 0.147417  // $metal1_conn
3 *11:3 *13:s 75.204407  // $metal1_conn
4 *11:4 *6:s 75.07431  // $metal1_conn
5 *11:2 *11:3 6.2  // $metal1_conn

*END

*D_NET *24 2.04608e-16

*CONN
*P *24 I *C 0.3000 1.0450 
*I *9:g B *C 0.5275 0.5875 
*I *4:g B *C 0.4725 1.2225 
*N *24:2 *C 0.5000 0.8900 

*CAP
0 *4:g 3.11939e-17
1 *9:g 3.49261e-17
2 *24:2 8.50604e-17
3 *24 5.3428e-17

*RES
0 *9:g *24:2 50.461182  // $poly_conn
1 *24:2 *4:g 49.179131  // $poly_conn
2 *24:2 *24 45.187141  // $metal1_conn

*END

*D_NET *19 1.90009e-16

*CONN
*P *19 I *C 0.5000 0.6650 
*I *6:g B *C 0.2625 0.5875 
*I *2:g B *C 0.2625 1.2225 
*N *19:2 *C 0.2900 0.7700 

*CAP
0 *2:g 3.93894e-17
1 *6:g 2.21723e-17
2 *19:2 7.88258e-17
3 *19 4.96214e-17

*RES
0 *2:g *19:2 79.948364  // $poly_conn
1 *19:2 *6:g 19.691952  // $poly_conn
2 *19:2 *19 45.150715  // $metal1_conn

*END

*D_NET *21 1.98242e-16

*CONN
*P *21 I *C 1.9000 0.6650 
*I *18:g B *C 1.7275 0.3900 
*I *15:g B *C 1.7725 1.1350 
*N *21:2 *C 1.7725 0.6600 
*N *21:4 *C 1.8300 0.6600 

*CAP
0 *15:g 4.57909e-17
1 *18:g 3.52673e-17
2 *21:2 2.21187e-17
3 *21:4 7.62971e-17
4 *21 1.87682e-17

*RES
0 *15:g *21:2 62.023235  // $poly_conn
1 *21:2 *18:g 34.735729  // $poly_conn
2 *21:2 *21:4 48.315495  // $poly_conn
3 *21 *21:4 0.022613  // $metal1_conn

*END

*D_NET *22 2.56175e-16

*CONN
*P *22 I *C 1.5000 0.8550 
*I *17:g B *C 1.5675 0.3900 
*I *12:g B *C 1.5675 1.1350 
*N *22:2 *C 1.5675 0.8300 
*N *22:3 *C 1.5100 0.8300 

*CAP
0 *12:g 4.14713e-17
1 *17:g 5.21003e-17
2 *22:2 2.77479e-17
3 *22:3 1.11069e-16
4 *22 2.37868e-17

*RES
0 *12:g *22:2 24.894089  // $poly_conn
1 *22:2 *22:3 45.778431  // $poly_conn
2 *22:2 *17:g 76.17614  // $poly_conn
3 *22:3 *22 0.015539  // $metal1_conn

*END

*D_NET *20 2.12285e-16

*CONN
*P *20 O *C 1.5000 0.2850 
*I *16:d B *C 1.4350 0.3900 
*I *17:s B *C 1.4350 0.3900 
*I *12:d B *C 1.6700 1.1350 
*I *15:d B *C 1.6700 1.1350 
*N *20:3 *C 1.4650 0.3200 

*CAP
0 *12:d 9.77509e-17
1 *16:d 8.52533e-17
2 *20 2.92808e-17

*RES
0 *12:d *20:3 62.689178  // $metal1_conn
1 *20:3 *20 0.016107  // $metal1_conn
2 *16:d *20:3 75  // $metal1_conn

*END

*D_NET *14 9.39647e-18

*CONN
*I *17:d B *C 1.6475 0.3900 
*I *18:s B *C 1.6475 0.3900 

*CAP
0 *17:d 9.39647e-18

*RES
0 *18:s *17:d 0.001  // $mwires

*END

*D_NET *10 2.72591e-18

*CONN
*I *13:d B *C 1.2200 0.3900 
*I *16:s B *C 1.2200 0.3900 

*CAP
0 *13:d 2.72591e-18

*RES
0 *16:s *13:d 0.001  // $mwires

*END

*D_NET *7 4.69216e-16

*CONN
*I *6:d B *C 0.1550 0.5875 
*I *16:g B *C 1.3025 0.3900 
*I *2:d B *C 0.1550 1.2225 
*I *8:g B *C 1.3025 1.1350 
*N *7:2 *C 1.3300 0.6300 
*N *7:6 *C 0.1300 0.5750 

*CAP
0 *8:g 5.98185e-17
1 *2:d 5.13849e-17
2 *16:g 3.53352e-17
3 *6:d 1.22223e-16
4 *7:2 2.00454e-16

*RES
0 *8:g *7:2 70.973999  // $poly_conn
1 *7:2 *16:g 19.691952  // $poly_conn
2 *2:d *7:6 62.425262  // $metal1_conn
3 *7:6 *7:2 46.036701  // $metal1_conn
4 *6:d *7:6 75  // $metal1_conn

*END

*D_NET *3 1.6452e-16

*CONN
*I *5:d B *C 1.0050 1.1350 
*I *8:d B *C 1.4350 1.1350 
*I *12:s B *C 1.4350 1.1350 
*I *15:s B *C 1.8650 1.1350 
*N *3:3 *C 1.4050 1.1900 

*CAP
0 *15:s 4.02267e-17
1 *8:d 6.67279e-17
2 *5:d 5.75656e-17

*RES
0 *15:s *3:3 31.467398  // $metal1_conn
1 *3:3 *5:d 31.417562  // $metal1_conn
2 *8:d *3:3 31  // $metal1_conn

*END

*D_NET *1 2.99962e-16

*CONN
*I *9:d B *C 0.6625 0.5875 
*I *13:g B *C 1.1375 0.3900 
*I *4:d B *C 0.5650 1.2225 
*I *5:g B *C 1.0975 1.1350 
*N *1:2 *C 1.0850 0.6700 
*N *1:4 *C 0.7150 0.6700 

*CAP
0 *5:g 4.46648e-17
1 *4:d 6.06439e-17
2 *13:g 3.61193e-17
3 *9:d 2.41143e-17
4 *1:4 5.23692e-17
5 *1:2 8.20502e-17

*RES
0 *13:g *1:2 31.148153  // $poly_conn
1 *1:2 *5:g 58.615147  // $poly_conn
2 *1:2 *1:4 45.250954  // $metal1_conn
3 *1:4 *4:d 62.415985  // $metal1_conn
4 *1:4 *9:d 75.057671  // $metal1_conn

*END

