*SPEF "IEEE 1481-1999"
*DESIGN  "AOI21X1"
*DATE "Mon Sep 27 08:55:42 2010"
*VENDOR "Cadence Design Systems"
*PROGRAM "Assura RCX"
*VERSION "3.2 Red Hat Linux release 7.2 (Enigma) - (09/09/2009-10:39)"
*DESIGN_FLOW "Physical Verification"
*DIVIDER /
*DELIMITER :
*BUS_DELIMITER []
*T_UNIT 1 PS
*C_UNIT 1e15 FF
*R_UNIT 1 OHM
*L_UNIT 1 MH
// DeviceFingerDelim "@"
// MATCHED
// caps2d version: 10

*NAME_MAP
*1 mp1
*2 mn2
*3 VDD
*4 mp2
*5 net62
*6 Y
*7 net78
*8 B0
*9 A0
*10 mn0
*11 A1
*12 VSS
*13 mp0
*14 mn1

*GROUND_NETS VSS

*PORTS
*3 I
*12 I
*9 I
*11 I
*8 I
*6 O

*D_NET *3 1.55453e-16

*CONN
*P *3 I *C 0.1000 1.7100 
*I *13:s B *C 0.3050 1.2450 
*I *1:s B *C 0.3050 1.2450 
*N *3:1 *C 0.5000 1.7100 
*N *3:2 *C 0.3050 1.7100 

*CAP
0 *13:s 6.05027e-17
1 *3:2 5.18865e-18
2 *3:1 8.12142e-17
3 *3 8.54709e-18

*RES
0 *3:1 *3:2 15.097479  // $metal1_conn
1 *3:2 *3 0.102238  // $metal1_conn
2 *3:2 *13:s 31.259623  // $metal1_conn

*END

*D_NET *12 0

*CONN
*P *12 I *C 0.1000 0.0000 
*I *10:s B *C 0.1550 0.3600 
*I *2:s B *C 0.6300 0.2850 
*N *12:2 *C 0.5000 0.0000 
*N *12:3 *C 0.5000 0.0000 


*RES
0 *2:s *12:3 75.255905  // $metal1_conn
1 *12:3 *12 0.20041  // $metal1_conn
2 *12 *10:s 75.182976  // $metal1_conn
3 *12:2 *12:3 12.4  // $metal1_conn

*END

*D_NET *9 2.18031e-16

*CONN
*P *9 I *C 0.1200 0.6400 
*I *10:g B *C 0.2025 0.3600 
*I *13:g B *C 0.2025 1.2450 
*N *9:2 *C 0.2025 0.6200 
*N *9:3 *C 0.1300 0.6200 
*N *9:5 *C 0.1250 0.6200 

*CAP
0 *13:g 5.70369e-17
1 *10:g 4.79004e-17
2 *9:5 3.84986e-17
3 *9:2 5.2575e-17
4 *9:3 1.01121e-17
5 *9 1.19076e-17

*RES
0 *13:g *9:2 106.945374  // $poly_conn
1 *9:2 *9:3 47.037205  // $poly_conn
2 *9:2 *10:g 30.022295  // $poly_conn
3 *9:3 *9:5 0.001318  // $metal1_conn
4 *9:5 *9 0.010956  // $metal1_conn

*END

*D_NET *11 2.58525e-16

*CONN
*P *11 I *C 0.3200 0.8000 
*I *14:g B *C 0.3075 0.3600 
*I *1:g B *C 0.4075 1.2450 
*N *11:2 *C 0.3350 0.7800 
*N *11:4 *C 0.3275 0.7800 
*N *11:5 *C 0.3350 0.7800 
*N *11:6 *C 0.3275 0.8000 

*CAP
0 *1:g 5.8856e-17
1 *14:g 7.5344e-17
2 *11:6 1.50399e-17
3 *11:4 4.66523e-17
4 *11:2 6.26325e-17

*RES
0 *1:g *11:2 62.805305  // $poly_conn
1 *11:2 *14:g 62.683887  // $poly_conn
2 *11:4 *11:5 0.00183  // $metal1_conn
3 *11 *11:6 0.001708  // $metal1_conn
4 *11:4 *11:6 0.010956  // $metal1_conn
5 *11:2 *11:5 45  // $metal1_conn

*END

*D_NET *8 2.26395e-16

*CONN
*P *8 I *C 0.5200 0.9600 
*I *2:g B *C 0.5125 0.3600 
*I *4:g B *C 0.6125 1.2450 
*N *8:2 *C 0.5400 0.6100 

*CAP
0 *4:g 5.14259e-17
1 *2:g 2.61235e-17
2 *8:2 1.03209e-16
3 *8 4.56368e-17

*RES
0 *4:g *8:2 106.39505  // $poly_conn
1 *8:2 *2:g 19.094141  // $poly_conn
2 *8 *8:2 45.203869  // $metal1_conn

*END

*D_NET *6 2.04975e-16

*CONN
*P *6 O *C 0.7400 0.6650 
*I *14:d B *C 0.4100 0.3600 
*I *2:d B *C 0.4100 0.3600 
*I *4:d B *C 0.7125 1.2450 

*CAP
0 *4:d 4.78479e-17
1 *14:d 7.19118e-17
2 *6 8.52153e-17

*RES
0 *4:d *6 21.07085  // $metal1_conn
1 *6 *14:d 37.857605  // $metal1_conn

*END

*D_NET *7 0

*CONN
*I *10:d B *C 0.2550 0.3600 
*I *14:s B *C 0.2550 0.3600 


*RES
0 *14:s *10:d 0.001  // $mwires

*END

*D_NET *5 1.3837e-16

*CONN
*I *13:d B *C 0.1100 1.2450 
*I *1:d B *C 0.5100 1.2450 
*I *4:s B *C 0.5100 1.2450 

*CAP
0 *1:d 9.71631e-17
1 *13:d 4.12066e-17

*RES
0 *1:d *13:d 62.556263  // $metal1_conn

*END

