*SPEF "IEEE 1481-1999"
*DESIGN  "AOI2BB1X4"
*DATE "Mon Sep 27 09:02:22 2010"
*VENDOR "Cadence Design Systems"
*PROGRAM "Assura RCX"
*VERSION "3.2 Red Hat Linux release 7.2 (Enigma) - (09/09/2009-10:39)"
*DESIGN_FLOW "Physical Verification"
*DIVIDER /
*DELIMITER :
*BUS_DELIMITER []
*T_UNIT 1 PS
*C_UNIT 1e15 FF
*R_UNIT 1 OHM
*L_UNIT 1 MH
// DeviceFingerDelim "@"
// MATCHED
// caps2d version: 10

*NAME_MAP
*1 VDD
*2 mn2
*3 mn3
*4 B0
*5 mn3\@1
*6 mn2\@1
*7 mn2\@2
*8 VSS
*9 mp1
*10 mn3\@2
*11 mn3\@3
*12 mn2\@3
*13 mn0
*14 A0N
*15 net79\@2
*16 net79\@3
*17 net87
*18 A1N
*19 net104
*20 Y
*21 net79
*22 mp2
*23 net79\@1
*24 mp3
*25 mp3\@1
*26 mp2\@1
*27 mp2\@2
*28 mp3\@2
*29 mp3\@3
*30 mp2\@3
*31 mp0
*32 mn1

*GROUND_NETS VSS

*PORTS
*1 I
*8 I
*14 I
*18 I
*4 I
*20 O

*D_NET *1 3.50571e-16

*CONN
*P *1 I *C 0.1000 1.7100 
*I *22:s B *C 0.3250 1.2800 
*I *26:s B *C 0.9500 1.2800 
*I *27:s B *C 0.9500 1.2800 
*I *30:s B *C 1.7700 1.2800 
*I *31:s B *C 1.7700 1.2800 
*N *1:2 *C 1.2000 1.7100 
*N *1:3 *C 1.2000 1.7100 
*N *1:4 *C 0.9500 1.7100 
*N *1:5 *C 0.2700 1.7100 

*CAP
0 *30:s 7.32934e-17
1 *26:s 3.15918e-17
2 *22:s 3.64266e-17
3 *1:5 1.32707e-17
4 *1:4 2.16385e-17
5 *1:2 1.71835e-16
6 *1 2.51477e-18

*RES
0 *30:s *1:3 31.563749  // $metal1_conn
1 *1:3 *1:4 0.125112  // $metal1_conn
2 *1:4 *1:5 0.340446  // $metal1_conn
3 *1:5 *1 0.084763  // $metal1_conn
4 *1:4 *26:s 62.177299  // $metal1_conn
5 *1:5 *22:s 62.173637  // $metal1_conn
6 *1:2 *1:3 6.25  // $metal1_conn

*END

*D_NET *8 0

*CONN
*P *8 I *C 0.1000 0.0000 
*I *2:s B *C 0.2400 0.3750 
*I *3:s B *C 0.6400 0.3750 
*I *5:s B *C 0.6400 0.3750 
*I *6:s B *C 1.0500 0.3750 
*I *7:s B *C 1.0500 0.3750 
*I *10:s B *C 1.4600 0.3750 
*I *11:s B *C 1.4600 0.3750 
*I *12:s B *C 1.8700 0.3750 
*I *13:s B *C 1.8700 0.3750 
*I *32:s B *C 2.2700 0.3750 
*N *8:4 *C 1.2000 0.0000 


*RES
0 *12:s *8 0.064714  // $metal1_conn
1 *8:4 *12:s 5.166667  // $metal1_conn
2 *32:s *12:s 75.401306  // $metal1_conn

*END

*D_NET *14 3.113e-16

*CONN
*P *14 I *C 1.9000 0.8550 
*I *13:g B *C 1.9725 0.3750 
*I *31:g B *C 1.8725 1.2800 
*N *14:2 *C 1.9100 0.8450 
*N *14:4 *C 1.9050 0.8450 

*CAP
0 *31:g 8.7548e-17
1 *13:g 5.06562e-17
2 *14:4 8.69633e-17
3 *14:2 6.32315e-17
4 *14 2.29013e-17

*RES
0 *13:g *14:2 89.554054  // $poly_conn
1 *14:2 *31:g 52.052654  // $poly_conn
2 *14:4 *14 0.006216  // $metal1_conn
3 *14:2 *14:4 45  // $metal1_conn

*END

*D_NET *18 2.33696e-16

*CONN
*P *18 I *C 2.3000 0.8550 
*I *32:g B *C 2.1775 0.3750 
*I *9:g B *C 1.9775 1.2800 
*N *18:2 *C 2.1775 0.9400 
*N *18:4 *C 2.2900 0.9400 

*CAP
0 *9:g 8.94777e-17
1 *32:g 3.60777e-17
2 *18:2 2.64374e-17
3 *18:4 2.59883e-17
4 *18 5.57152e-17

*RES
0 *32:g *18:2 99.669708  // $poly_conn
1 *18:2 *9:g 73.975166  // $poly_conn
2 *18:2 *18:4 52.684845  // $poly_conn
3 *18 *18:4 0.052833  // $metal1_conn

*END

*D_NET *4 8.42138e-16

*CONN
*P *4 I *C 0.5000 0.8550 
*I *2:g B *C 0.3325 0.3750 
*I *6:g B *C 0.9475 0.3750 
*I *7:g B *C 1.1525 0.3750 
*I *12:g B *C 1.7675 0.3750 
*I *22:g B *C 0.4325 1.2800 
*I *26:g B *C 0.8475 1.2800 
*I *27:g B *C 1.0525 1.2800 
*I *30:g B *C 1.6675 1.2800 
*N *4:6 *C 1.0250 0.8825 

*CAP
0 *30:g 5.08125e-17
1 *27:g 6.69639e-17
2 *26:g 7.47507e-17
3 *22:g 7.37174e-17
4 *12:g 4.85614e-16
5 *4:6 7.60943e-17
6 *4 1.41854e-17

*RES
0 *12:g *30:g 57.555679  // $poly_conn
1 *4:6 *27:g 52.273441  // $poly_conn
2 *4:6 *26:g 81.707634  // $poly_conn
3 *22:g *12:g 59.744961  // $poly_conn
4 *12:g *4:6 4.400733  // $poly_conn
5 *12:g *4 0.005989  // $metal1_conn

*END

*D_NET *20 5.09588e-16

*CONN
*P *20 O *C 0.3000 1.2350 
*I *2:d B *C 0.4350 0.3750 
*I *3:d B *C 0.4350 0.3750 
*I *5:d B *C 0.8450 0.3750 
*I *6:d B *C 0.8450 0.3750 
*I *7:d B *C 1.2550 0.3750 
*I *10:d B *C 1.2550 0.3750 
*I *11:d B *C 1.6650 0.3750 
*I *12:d B *C 1.6650 0.3750 
*I *24:d B *C 0.6400 1.2800 
*I *25:d B *C 0.6400 1.2800 
*I *28:d B *C 1.2600 1.2800 
*I *29:d B *C 1.2600 1.2800 
*N *20:8 *C 0.6400 1.2250 

*CAP
0 *28:d 8.3453e-17
1 *24:d 2.55231e-17
2 *11:d 2.53042e-16
3 *20:8 5.62904e-17
4 *20 9.12794e-17

*RES
0 *11:d *20 0.700448  // $metal1_conn
1 *20 *20:8 0.240636  // $metal1_conn
2 *20:8 *28:d 31.507095  // $metal1_conn
3 *20:8 *24:d 31.059198  // $metal1_conn

*END

*D_NET *17 1.35348e-18

*CONN
*I *31:d B *C 1.9250 1.2800 
*I *9:s B *C 1.9250 1.2800 

*CAP
0 *31:d 1.35348e-18

*RES
0 *9:s *31:d 0.001  // $mwires

*END

*D_NET *16 5.84337e-18

*CONN
*I *29:s B *C 1.5150 1.2800 
*I *30:d B *C 1.5150 1.2800 

*CAP
0 *29:s 5.84337e-18

*RES
0 *30:d *29:s 0.001  // $mwires

*END

*D_NET *15 1.86242e-18

*CONN
*I *27:d B *C 1.1050 1.2800 
*I *28:s B *C 1.1050 1.2800 

*CAP
0 *27:d 1.86242e-18

*RES
0 *28:s *27:d 0.001  // $mwires

*END

*D_NET *23 1.95976e-18

*CONN
*I *25:s B *C 0.7950 1.2800 
*I *26:d B *C 0.7950 1.2800 

*CAP
0 *25:s 1.95976e-18

*RES
0 *26:d *25:s 0.001  // $mwires

*END

*D_NET *21 1.93443e-18

*CONN
*I *22:d B *C 0.4850 1.2800 
*I *24:s B *C 0.4850 1.2800 

*CAP
0 *22:d 1.93443e-18

*RES
0 *24:s *22:d 0.001  // $mwires

*END

*D_NET *19 9.09407e-16

*CONN
*I *3:g B *C 0.5375 0.3750 
*I *5:g B *C 0.7425 0.3750 
*I *10:g B *C 1.3575 0.3750 
*I *11:g B *C 1.5625 0.3750 
*I *13:d B *C 2.0750 0.3750 
*I *32:d B *C 2.0750 0.3750 
*I *24:g B *C 0.5375 1.2800 
*I *25:g B *C 0.7425 1.2800 
*I *28:g B *C 1.1575 1.2800 
*I *29:g B *C 1.3625 1.2800 
*I *9:d B *C 2.0700 1.2800 
*N *19:14 *C 2.0750 1.0775 

*CAP
0 *9:d 2.74865e-17
1 *29:g 2.18798e-17
2 *28:g 7.19519e-17
3 *25:g 5.84389e-17
4 *24:g 7.38376e-17
5 *13:d 6.96214e-17
6 *11:g 4.93432e-16
7 *19:14 9.27592e-17

*RES
0 *11:g *29:g 14.567427  // $poly_conn
1 *11:g *28:g 50.128483  // $poly_conn
2 *25:g *11:g 17.152769  // $poly_conn
3 *11:g *24:g 55.112999  // $poly_conn
4 *9:d *19:14 20.807928  // $metal1_conn
5 *19:14 *13:d 75.511757  // $metal1_conn
6 *19:14 *11:g 0.536572  // $metal1_conn

*END

