*SPEF "IEEE 1481-1999"
*DESIGN  "AOI32XL"
*DATE "Mon Sep 27 09:07:16 2010"
*VENDOR "Cadence Design Systems"
*PROGRAM "Assura RCX"
*VERSION "3.2 Red Hat Linux release 7.2 (Enigma) - (09/09/2009-10:39)"
*DESIGN_FLOW "Physical Verification"
*DIVIDER /
*DELIMITER :
*BUS_DELIMITER []
*T_UNIT 1 PS
*C_UNIT 1e15 FF
*R_UNIT 1 OHM
*L_UNIT 1 MH
// DeviceFingerDelim "@"
// MATCHED
// caps2d version: 10

*NAME_MAP
*1 mp4
*2 mp3
*3 mn0
*4 Y
*5 mn1
*6 mn2
*7 mn4
*8 mn3
*9 net126
*10 VDD
*11 net130
*12 net114
*13 net118
*14 B0
*15 B1
*16 VSS
*17 A0
*18 A1
*19 A2
*20 mp0
*21 mp1
*22 mp2

*GROUND_NETS VSS

*PORTS
*10 I
*16 I
*17 I
*18 I
*19 I
*14 I
*15 I
*4 O

*D_NET *10 1.94516e-16

*CONN
*P *10 I *C 0.1000 1.7100 
*I *20:s B *C 0.3050 1.2325 
*I *21:s B *C 0.7150 1.5700 
*I *22:s B *C 0.7150 1.5700 
*N *10:1 *C 0.8000 1.7100 
*N *10:2 *C 0.6900 1.7100 
*N *10:3 *C 0.2200 1.7100 

*CAP
0 *21:s 9.91194e-18
1 *20:s 2.20641e-19
2 *10:3 8.814e-18
3 *10:2 7.54215e-18
4 *10:1 1.68028e-16

*RES
0 *10:1 *10:2 9.429629  // $metal1_conn
1 *10:2 *10:3 0.23386  // $metal1_conn
2 *10:3 *10 0.059364  // $metal1_conn
3 *10:2 *21:s 62.073475  // $metal1_conn
4 *10:3 *20:s 62.073475  // $metal1_conn

*END

*D_NET *16 0

*CONN
*P *16 I *C 0.1000 0.0000 
*I *3:s B *C 0.2600 0.4725 
*I *8:s B *C 1.3250 0.4725 
*N *16:2 *C 0.8000 0.0000 
*N *16:3 *C 0.8000 0.0000 
*N *16:4 *C 0.2500 0.0000 


*RES
0 *8:s *16:3 75.588211  // $metal1_conn
1 *16:3 *16:4 0.273927  // $metal1_conn
2 *16:4 *16 0.074316  // $metal1_conn
3 *16:4 *3:s 75.284912  // $metal1_conn
4 *16:2 *16:3 7.75  // $metal1_conn

*END

*D_NET *17 1.69418e-16

*CONN
*P *17 I *C 0.3000 0.8550 
*I *3:g B *C 0.3525 0.4725 
*I *20:g B *C 0.3525 1.2325 
*N *17:2 *C 0.3100 0.6800 

*CAP
0 *20:g 4.22358e-17
1 *3:g 2.3712e-17
2 *17:2 6.85606e-17
3 *17 3.49097e-17

*RES
0 *20:g *17:2 103.296112  // $poly_conn
1 *17:2 *3:g 23.808931  // $poly_conn
2 *17 *17:2 45.104282  // $metal1_conn

*END

*D_NET *18 2.64029e-16

*CONN
*P *18 I *C 0.5000 0.4750 
*I *5:g B *C 0.5575 0.4725 
*I *21:g B *C 0.5575 1.2325 
*N *18:2 *C 0.5300 0.6550 

*CAP
0 *21:g 6.71052e-17
1 *5:g 2.78994e-17
2 *18:2 1.25171e-16
3 *18 4.3854e-17

*RES
0 *21:g *18:2 111.999641  // $poly_conn
1 *18:2 *5:g 19.691952  // $poly_conn
2 *18:2 *18 45.107456  // $metal1_conn

*END

*D_NET *19 2.44635e-16

*CONN
*P *19 I *C 0.7000 0.2850 
*I *6:g B *C 0.7525 0.4725 
*I *22:g B *C 0.7525 1.2325 
*N *19:2 *C 0.7150 0.6450 

*CAP
0 *22:g 5.66706e-17
1 *6:g 2.2119e-17
2 *19:2 1.15129e-16
3 *19 5.07161e-17

*RES
0 *22:g *19:2 113.591118  // $poly_conn
1 *19:2 *6:g 16.15522  // $poly_conn
2 *19 *19:2 45.212959  // $metal1_conn

*END

*D_NET *14 2.26404e-16

*CONN
*P *14 I *C 1.3000 0.8550 
*I *8:g B *C 1.2325 0.4725 
*I *2:g B *C 1.3325 1.2325 
*N *14:2 *C 1.3325 0.9000 
*N *14:4 *C 1.3900 0.9000 

*CAP
0 *2:g 3.29279e-17
1 *8:g 6.37467e-17
2 *14:2 4.40388e-17
3 *14:4 4.86172e-17
4 *14 3.70738e-17

*RES
0 *2:g *14:2 47.92067  // $poly_conn
1 *14:2 *8:g 103.966499  // $poly_conn
2 *14:2 *14:4 48.315495  // $poly_conn
3 *14:4 *14 0.048626  // $metal1_conn

*END

*D_NET *15 2.43866e-16

*CONN
*P *15 I *C 1.1000 0.6650 
*I *7:g B *C 1.1275 0.4725 
*I *1:g B *C 1.1275 1.2325 
*N *15:2 *C 1.0900 0.6600 
*N *15:4 *C 1.0900 0.6600 

*CAP
0 *1:g 4.53974e-17
1 *7:g 4.01322e-17
2 *15:2 5.92145e-17
3 *15 9.91218e-17

*RES
0 *1:g *15:2 109.744965  // $poly_conn
1 *15:2 *7:g 20.001371  // $poly_conn
2 *15:4 *15 0.003082  // $metal1_conn
3 *15:2 *15:4 45  // $metal1_conn

*END

*D_NET *4 1.81718e-16

*CONN
*P *4 O *C 0.9000 1.0450 
*I *6:d B *C 0.9400 0.4725 
*I *7:d B *C 0.9400 0.4725 
*I *1:d B *C 1.2300 1.2325 
*I *2:d B *C 1.2300 1.2325 

*CAP
0 *1:d 4.34609e-17
1 *6:d 8.4653e-17
2 *4 5.36037e-17

*RES
0 *1:d *4 62.298523  // $metal1_conn
1 *4 *6:d 75.41053  // $metal1_conn

*END

*D_NET *13 0

*CONN
*I *7:s B *C 1.1800 0.4725 
*I *8:d B *C 1.1800 0.4725 


*RES
0 *8:d *7:s 0.001  // $mwires

*END

*D_NET *11 5.90245e-19

*CONN
*I *5:d B *C 0.6550 0.4725 
*I *6:s B *C 0.6550 0.4725 

*CAP
0 *5:d 5.90245e-19

*RES
0 *6:s *5:d 0.001  // $mwires

*END

*D_NET *9 6.14385e-18

*CONN
*I *3:d B *C 0.4550 0.4725 
*I *5:s B *C 0.4550 0.4725 

*CAP
0 *3:d 6.14385e-18

*RES
0 *5:s *3:d 0.001  // $mwires

*END

*D_NET *12 1.5946e-16

*CONN
*I *20:d B *C 0.4550 1.2325 
*I *21:d B *C 0.4550 1.2325 
*I *22:d B *C 0.9400 1.2325 
*I *1:s B *C 0.9400 1.2325 
*I *2:s B *C 1.4250 1.2325 
*N *12:3 *C 0.8550 1.2800 
*N *12:5 *C 1.4350 1.2800 

*CAP
0 *2:s 6.7315e-17
1 *22:d 6.7709e-17
2 *20:d 2.44365e-17

*RES
0 *20:d *12:3 62.26281  // $metal1_conn
1 *12:3 *12:5 0.476413  // $metal1_conn
2 *22:d *12:3 62  // $metal1_conn
3 *2:s *12:5 62  // $metal1_conn

*END

