*SPEF "IEEE 1481-1999"
*DESIGN  "AOI33X1"
*DATE "Mon Sep 27 09:07:38 2010"
*VENDOR "Cadence Design Systems"
*PROGRAM "Assura RCX"
*VERSION "3.2 Red Hat Linux release 7.2 (Enigma) - (09/09/2009-10:39)"
*DESIGN_FLOW "Physical Verification"
*DIVIDER /
*DELIMITER :
*BUS_DELIMITER []
*T_UNIT 1 PS
*C_UNIT 1e15 FF
*R_UNIT 1 OHM
*L_UNIT 1 MH
// DeviceFingerDelim "@"
// MATCHED
// caps2d version: 10

*NAME_MAP
*1 net059
*2 mp0
*3 net137
*4 mp1
*5 net141
*6 mp2
*7 net157
*8 mp5
*9 net149
*10 mp4
*11 A0
*12 mp3
*13 A1
*14 VDD
*15 A2
*16 mn0
*17 mn1
*18 mn2
*19 mn5
*20 mn4
*21 mn3
*22 B0
*23 B1
*24 B2
*25 Y
*26 VSS

*GROUND_NETS VSS

*PORTS
*14 I
*26 I
*11 I
*13 I
*15 I
*22 I
*23 I
*24 I
*25 O

*D_NET *14 2.5812e-16

*CONN
*P *14 I *C 0.1000 1.7100 
*I *2:s B *C 0.1850 1.2850 
*I *4:s B *C 0.5850 1.2850 
*I *6:s B *C 0.5850 1.2850 
*N *14:1 *C 0.8000 1.7100 
*N *14:2 *C 0.5850 1.7100 
*N *14:3 *C 0.1750 1.7100 

*CAP
0 *4:s 6.03519e-17
1 *2:s 3.48243e-17
2 *14:3 9.22963e-18
3 *14:2 1.18347e-17
4 *14:1 1.4188e-16

*RES
0 *14:1 *14:2 9.482857  // $metal1_conn
1 *14:2 *14:3 0.205387  // $metal1_conn
2 *14:3 *14 0.03719  // $metal1_conn
3 *14:2 *4:s 31.23646  // $metal1_conn
4 *14:3 *2:s 20.947931  // $metal1_conn

*END

*D_NET *26 0

*CONN
*P *26 I *C 0.1000 0.0000 
*I *16:s B *C 0.2850 0.3800 
*I *21:s B *C 1.3300 0.3800 
*N *26:2 *C 0.8000 0.0000 
*N *26:3 *C 0.8000 0.0000 
*N *26:4 *C 0.2750 0.0000 


*RES
0 *21:s *26:3 37.941929  // $metal1_conn
1 *26:3 *26:4 0.263302  // $metal1_conn
2 *26:4 *26 0.087386  // $metal1_conn
3 *26:4 *16:s 37.731606  // $metal1_conn
4 *26:2 *26:3 7.75  // $metal1_conn

*END

*D_NET *11 2.26883e-16

*CONN
*P *11 I *C 0.3000 0.5900 
*I *16:g B *C 0.3775 0.3800 
*I *2:g B *C 0.2775 1.2850 
*N *11:2 *C 0.3050 0.6450 

*CAP
0 *2:g 5.18411e-17
1 *16:g 5.41474e-17
2 *11:2 9.21392e-17
3 *11 2.87557e-17

*RES
0 *16:g *11:2 28.189922  // $poly_conn
1 *11:2 *2:g 102.427475  // $poly_conn
2 *11 *11:2 45.033112  // $metal1_conn

*END

*D_NET *13 3.02208e-16

*CONN
*P *13 I *C 0.5000 0.4500 
*I *17:g B *C 0.4825 0.3800 
*I *4:g B *C 0.4825 1.2850 
*N *13:2 *C 0.5105 0.6600 

*CAP
0 *4:g 6.66704e-17
1 *17:g 6.28442e-17
2 *13:2 1.2851e-16
3 *13 4.41833e-17

*RES
0 *4:g *13:2 99.456581  // $poly_conn
1 *13:2 *17:g 27.661709  // $poly_conn
2 *13 *13:2 45.126423  // $metal1_conn

*END

*D_NET *15 2.88908e-16

*CONN
*P *15 I *C 0.6850 0.3100 
*I *18:g B *C 0.6625 0.3800 
*I *6:g B *C 0.6875 1.2850 
*N *15:2 *C 0.6850 0.6600 

*CAP
0 *6:g 6.50689e-17
1 *18:g 3.63296e-17
2 *15:2 1.24929e-16
3 *15 6.25802e-17

*RES
0 *6:g *15:2 99.372185  // $poly_conn
1 *15:2 *18:g 27.577312  // $poly_conn
2 *15 *15:2 45.216728  // $metal1_conn

*END

*D_NET *22 2.72573e-16

*CONN
*P *22 I *C 1.3000 1.0100 
*I *21:g B *C 1.2375 0.3800 
*I *12:g B *C 1.3375 1.2850 
*N *22:2 *C 1.2950 0.7300 

*CAP
0 *12:g 4.93999e-17
1 *21:g 6.05918e-17
2 *22:2 1.14347e-16
3 *22 4.82348e-17

*RES
0 *12:g *22:2 82.772469  // $poly_conn
1 *22:2 *21:g 51.001297  // $poly_conn
2 *22 *22:2 45.168568  // $metal1_conn

*END

*D_NET *23 2.86704e-16

*CONN
*P *23 I *C 1.1000 0.8700 
*I *20:g B *C 1.1325 0.3800 
*I *10:g B *C 1.1325 1.2850 
*N *23:2 *C 1.1150 0.7300 

*CAP
0 *10:g 6.10582e-17
1 *20:g 6.84453e-17
2 *23:2 1.0279e-16
3 *23 5.44099e-17

*RES
0 *10:g *23:2 81.423462  // $poly_conn
1 *23:2 *20:g 45.526031  // $poly_conn
2 *23 *23:2 45.080536  // $metal1_conn

*END

*D_NET *24 2.31223e-16

*CONN
*P *24 I *C 0.9000 0.7300 
*I *19:g B *C 0.9275 0.3800 
*I *8:g B *C 0.9275 1.2850 
*N *24:2 *C 0.8900 0.6600 
*N *24:4 *C 0.8900 0.6600 

*CAP
0 *8:g 6.21564e-17
1 *19:g 3.67141e-17
2 *24:4 2.35301e-17
3 *24:2 5.2714e-17
4 *24 5.61086e-17

*RES
0 *8:g *24:2 100.770599  // $poly_conn
1 *24:2 *19:g 28.975733  // $poly_conn
2 *24:4 *24 0.043683  // $metal1_conn
3 *24:2 *24:4 45  // $metal1_conn

*END

*D_NET *25 3.7646e-16

*CONN
*P *25 O *C 1.5000 1.1600 
*I *18:d B *C 0.7950 0.3800 
*I *19:d B *C 0.7950 0.3800 
*I *8:d B *C 1.0300 1.2850 
*I *10:d B *C 1.0300 1.2850 
*I *12:d B *C 1.4550 1.2850 

*CAP
0 *12:d 2.58525e-17
1 *8:d 7.41802e-17
2 *18:d 1.76882e-16
3 *25 9.95454e-17

*RES
0 *12:d *25 20.753258  // $metal1_conn
1 *25 *18:d 38.467724  // $metal1_conn
2 *25 *8:d 31.407579  // $metal1_conn

*END

*D_NET *9 0

*CONN
*I *16:d B *C 0.4300 0.3800 
*I *17:s B *C 0.4300 0.3800 


*RES
0 *17:s *16:d 0.001  // $mwires

*END

*D_NET *7 1.51532e-18

*CONN
*I *17:d B *C 0.5725 0.3800 
*I *18:s B *C 0.5725 0.3800 

*CAP
0 *17:d 1.51532e-18

*RES
0 *18:s *17:d 0.001  // $mwires

*END

*D_NET *5 6.34177e-18

*CONN
*I *19:s B *C 1.0300 0.3800 
*I *20:d B *C 1.0300 0.3800 

*CAP
0 *19:s 6.34177e-18

*RES
0 *20:d *19:s 0.001  // $mwires

*END

*D_NET *3 7.6705e-19

*CONN
*I *20:s B *C 1.1850 0.3800 
*I *21:d B *C 1.1850 0.3800 

*CAP
0 *20:s 7.6705e-19

*RES
0 *21:d *20:s 0.001  // $mwires

*END

*D_NET *1 2.44351e-16

*CONN
*I *2:d B *C 0.3800 1.2850 
*I *4:d B *C 0.3800 1.2850 
*I *6:d B *C 0.8075 1.2850 
*I *8:s B *C 0.8075 1.2850 
*I *10:s B *C 1.2350 1.2850 
*I *12:s B *C 1.2350 1.2850 
*N *1:3 *C 0.7900 1.3400 

*CAP
0 *10:s 7.26254e-17
1 *6:d 9.52764e-17
2 *2:d 7.6449e-17

*RES
0 *10:s *1:3 31.371216  // $metal1_conn
1 *1:3 *2:d 21.179213  // $metal1_conn
2 *6:d *1:3 31  // $metal1_conn

*END

