*SPEF "IEEE 1481-1999"
*DESIGN  "AOI32X1"
*DATE "Mon Sep 27 09:06:08 2010"
*VENDOR "Cadence Design Systems"
*PROGRAM "Assura RCX"
*VERSION "3.2 Red Hat Linux release 7.2 (Enigma) - (09/09/2009-10:39)"
*DESIGN_FLOW "Physical Verification"
*DIVIDER /
*DELIMITER :
*BUS_DELIMITER []
*T_UNIT 1 PS
*C_UNIT 1e15 FF
*R_UNIT 1 OHM
*L_UNIT 1 MH
// DeviceFingerDelim "@"
// MATCHED
// caps2d version: 10

*NAME_MAP
*1 mp4
*2 mp3
*3 mn0
*4 Y
*5 mn1
*6 mn2
*7 mn4
*8 mn3
*9 net122
*10 VDD
*11 net126
*12 net114
*13 net118
*14 B0
*15 B1
*16 VSS
*17 A0
*18 A1
*19 A2
*20 mp0
*21 mp1
*22 mp2

*GROUND_NETS VSS

*PORTS
*10 I
*16 I
*17 I
*18 I
*19 I
*14 I
*15 I
*4 O

*D_NET *10 2.27018e-16

*CONN
*P *10 I *C 0.1000 1.7100 
*I *20:s B *C 0.1100 1.2700 
*I *21:s B *C 0.5650 1.2700 
*I *22:s B *C 0.5650 1.2700 
*N *10:1 *C 0.7000 1.7100 
*N *10:2 *C 0.5100 1.7100 

*CAP
0 *21:s 3.70857e-17
1 *20:s 4.42586e-17
2 *10:2 1.00448e-17
3 *10:1 1.27866e-16
4 *10 7.76389e-18

*RES
0 *10:1 *10:2 10.809324  // $metal1_conn
1 *10:2 *10 0.20536  // $metal1_conn
2 *10 *20:s 31.256958  // $metal1_conn
3 *10:2 *21:s 62.193913  // $metal1_conn

*END

*D_NET *16 0

*CONN
*P *16 I *C 0.1000 0.0000 
*I *3:s B *C 0.1100 0.4950 
*I *8:s B *C 1.1100 0.4950 
*N *16:2 *C 0.7000 0.0000 
*N *16:3 *C 0.7000 0.0000 


*RES
0 *8:s *16:3 38.039124  // $metal1_conn
1 *16:3 *16 0.30079  // $metal1_conn
2 *16 *3:s 37.814728  // $metal1_conn
3 *16:2 *16:3 8.857142  // $metal1_conn

*END

*D_NET *17 2.06997e-16

*CONN
*P *17 I *C 0.1050 1.0300 
*I *3:g B *C 0.2025 0.4950 
*I *20:g B *C 0.2025 1.2700 
*N *17:2 *C 0.2025 0.7350 
*N *17:3 *C 0.1150 0.7350 

*CAP
0 *20:g 4.16105e-17
1 *3:g 3.60312e-17
2 *17:2 3.37498e-17
3 *17:3 6.07206e-17
4 *17 3.48849e-17

*RES
0 *20:g *17:2 83.868446  // $poly_conn
1 *17:2 *17:3 48.300362  // $poly_conn
2 *17:2 *3:g 24.894089  // $poly_conn
3 *17 *17:3 0.176689  // $metal1_conn

*END

*D_NET *18 2.72207e-16

*CONN
*P *18 I *C 0.3050 0.8750 
*I *5:g B *C 0.3625 0.4950 
*I *21:g B *C 0.4075 1.2700 
*N *18:2 *C 0.3350 0.7350 
*N *18:4 *C 0.3200 0.7350 
*N *18:5 *C 0.3350 0.7350 
*N *18:6 *C 0.3200 0.8750 

*CAP
0 *21:g 7.13358e-17
1 *5:g 4.20523e-17
2 *18:6 3.94003e-17
3 *18:4 5.78209e-17
4 *18:2 6.15977e-17

*RES
0 *21:g *18:2 78.37674  // $poly_conn
1 *18:2 *5:g 19.691952  // $poly_conn
2 *18:4 *18:5 0.002562  // $metal1_conn
3 *18 *18:6 0.002476  // $metal1_conn
4 *18:4 *18:6 0.076759  // $metal1_conn
5 *18:2 *18:5 45  // $metal1_conn

*END

*D_NET *19 2.43416e-16

*CONN
*P *19 I *C 0.5150 0.7150 
*I *6:g B *C 0.5625 0.4950 
*I *22:g B *C 0.6125 1.2700 
*N *19:2 *C 0.5250 0.7250 
*N *19:5 *C 0.5200 0.7250 

*CAP
0 *22:g 6.97718e-17
1 *6:g 3.18802e-17
2 *19:5 5.31841e-17
3 *19:2 4.38448e-17
4 *19 4.47351e-17

*RES
0 *22:g *19:2 88.164284  // $poly_conn
1 *19:2 *6:g 16.15522  // $poly_conn
2 *19 *19:5 0.006216  // $metal1_conn
3 *19:2 *19:5 45  // $metal1_conn

*END

*D_NET *14 1.83353e-16

*CONN
*P *14 I *C 1.0950 0.7800 
*I *8:g B *C 1.0175 0.4950 
*I *2:g B *C 1.0425 1.2700 
*N *14:2 *C 1.0850 0.7500 
*N *14:4 *C 1.0850 0.7500 
*N *14:5 *C 1.0900 0.7500 
*N *14:6 *C 1.0900 0.7800 

*CAP
0 *2:g 5.26227e-17
1 *8:g 3.42365e-17
2 *14:5 2.73018e-17
3 *14:2 4.19311e-17
4 *14 2.72609e-17

*RES
0 *2:g *14:2 73.847527  // $poly_conn
1 *14:2 *8:g 33.581043  // $poly_conn
2 *14:4 *14:5 0.001269  // $metal1_conn
3 *14:6 *14 0.001396  // $metal1_conn
4 *14:5 *14:6 0.018647  // $metal1_conn
5 *14:2 *14:4 45  // $metal1_conn

*END

*D_NET *15 2.39584e-16

*CONN
*P *15 I *C 0.8700 0.5900 
*I *7:g B *C 0.8375 0.4950 
*I *1:g B *C 0.8375 1.2700 
*N *15:2 *C 0.8750 0.8000 

*CAP
0 *1:g 5.40029e-17
1 *7:g 3.70935e-17
2 *15:2 1.04962e-16
3 *15 4.35261e-17

*RES
0 *1:g *15:2 61.027016  // $poly_conn
1 *15:2 *7:g 35.385986  // $poly_conn
2 *15 *15:2 45.11631  // $metal1_conn

*END

*D_NET *4 2.21269e-16

*CONN
*P *4 O *C 0.6950 1.0450 
*I *6:d B *C 0.7000 0.4950 
*I *7:d B *C 0.7000 0.4950 
*I *1:d B *C 0.9400 1.2700 
*I *2:d B *C 0.9400 1.2700 

*CAP
0 *1:d 6.96053e-17
1 *6:d 8.77521e-17
2 *4 6.39119e-17

*RES
0 *1:d *4 31.264072  // $metal1_conn
1 *4 *6:d 37.903481  // $metal1_conn

*END

*D_NET *13 2.74289e-18

*CONN
*I *7:s B *C 0.9275 0.4950 
*I *8:d B *C 0.9275 0.4950 

*CAP
0 *7:s 2.74289e-18

*RES
0 *8:d *7:s 0.001  // $mwires

*END

*D_NET *11 2.41094e-18

*CONN
*I *5:d B *C 0.4625 0.4950 
*I *6:s B *C 0.4625 0.4950 

*CAP
0 *5:d 2.41094e-18

*RES
0 *6:s *5:d 0.001  // $mwires

*END

*D_NET *9 3.28794e-18

*CONN
*I *3:d B *C 0.2825 0.4950 
*I *5:s B *C 0.2825 0.4950 

*CAP
0 *3:d 3.28794e-18

*RES
0 *5:s *3:d 0.001  // $mwires

*END

*D_NET *12 2.10081e-16

*CONN
*I *20:d B *C 0.3050 1.2700 
*I *21:d B *C 0.3050 1.2700 
*I *22:d B *C 0.7250 1.2700 
*I *1:s B *C 0.7250 1.2700 
*I *2:s B *C 1.1350 1.2700 
*N *12:3 *C 0.7150 1.3250 

*CAP
0 *2:s 5.5105e-17
1 *22:d 8.8743e-17
2 *20:d 6.62331e-17

*RES
0 *2:s *12:3 21.147026  // $metal1_conn
1 *12:3 *20:d 31.430742  // $metal1_conn
2 *22:d *12:3 31  // $metal1_conn

*END

