*SPEF "IEEE 1481-1999"
*DESIGN  "AOI31X2"
*DATE "Mon Sep 27 09:04:58 2010"
*VENDOR "Cadence Design Systems"
*PROGRAM "Assura RCX"
*VERSION "3.2 Red Hat Linux release 7.2 (Enigma) - (09/09/2009-10:39)"
*DESIGN_FLOW "Physical Verification"
*DIVIDER /
*DELIMITER :
*BUS_DELIMITER []
*T_UNIT 1 PS
*C_UNIT 1e15 FF
*R_UNIT 1 OHM
*L_UNIT 1 MH
// DeviceFingerDelim "@"
// MATCHED
// caps2d version: 10

*NAME_MAP
*1 mp1
*2 mn3\@1
*3 mp2
*4 mp2\@1
*5 VDD
*6 mp1\@1
*7 net104\@1
*8 mp0\@1
*9 net104\@2
*10 mp3
*11 net104\@3
*12 A0
*13 mp3\@1
*14 A1
*15 Y
*16 A2
*17 net81
*18 net104
*19 B0
*20 VSS
*21 mn0
*22 mn1
*23 mn2
*24 mn2\@1
*25 mn1\@1
*26 mn0\@1
*27 mp0
*28 mn3

*GROUND_NETS VSS

*PORTS
*5 I
*20 I
*12 I
*14 I
*16 I
*19 I
*15 O

*D_NET *5 2.61515e-16

*CONN
*P *5 I *C 0.1000 1.7100 
*I *27:s B *C 0.3050 1.1400 
*I *1:s B *C 0.3050 1.1400 
*I *3:s B *C 0.7150 1.1400 
*I *4:s B *C 0.7150 1.1400 
*I *6:s B *C 1.1250 1.1400 
*I *8:s B *C 1.1250 1.1400 
*N *5:2 *C 1.0000 1.7100 

*CAP
0 *6:s 9.88731e-17
1 *3:s 3.97546e-17
2 *5:2 1.15441e-16
3 *5 7.44556e-18

*RES
0 *6:s *5 0.102323  // $metal1_conn
1 *5:2 *6:s 7.5  // $metal1_conn
2 *6:s *3:s 62.280689  // $metal1_conn

*END

*D_NET *20 0

*CONN
*P *20 I *C 0.1000 0.0000 
*I *21:s B *C 0.2100 0.4050 
*I *26:s B *C 1.3600 0.4050 
*I *28:s B *C 1.3600 0.4050 
*I *2:s B *C 1.7050 0.4050 
*N *20:3 *C 1.0000 0.0000 
*N *20:4 *C 1.0000 0.0000 
*N *20:5 *C 0.1700 0.0000 


*RES
0 *20:5 *20 0.034639  // $metal1_conn
1 *20:3 *20:4 6.2  // $metal1_conn
2 *20:5 *21:s 75.2005  // $metal1_conn
3 *2:s *20:4 0.136716  // $metal1_conn
4 *20:4 *20:5 0.415896  // $metal1_conn

*END

*D_NET *12 5.83479e-16

*CONN
*P *12 I *C 1.3000 0.6650 
*I *21:g B *C 0.3025 0.4050 
*I *26:g B *C 1.1425 0.4050 
*I *27:g B *C 0.2025 1.1400 
*I *8:g B *C 1.2275 1.1400 

*CAP
0 *8:g 4.40695e-16
1 *26:g 5.96818e-17
2 *21:g 4.99191e-17
3 *12 3.31834e-17

*RES
0 *8:g *26:g 20.977684  // $poly_conn
1 *21:g *8:g 20.156593  // $poly_conn
2 *12 *8:g 0.05589  // $metal1_conn

*END

*D_NET *14 5.22333e-16

*CONN
*P *14 I *C 0.5000 0.8550 
*I *22:g B *C 0.4075 0.4050 
*I *25:g B *C 1.0225 0.4050 
*I *1:g B *C 0.4075 1.1400 
*I *6:g B *C 1.0225 1.1400 

*CAP
0 *6:g 3.65319e-16
1 *25:g 6.34318e-17
2 *22:g 6.16323e-17
3 *14 3.19498e-17

*RES
0 *6:g *25:g 29.94836  // $poly_conn
1 *6:g *22:g 29.94836  // $poly_conn
2 *6:g *14 0.094803  // $metal1_conn

*END

*D_NET *16 2.89158e-16

*CONN
*P *16 I *C 0.9000 0.8550 
*I *23:g B *C 0.6575 0.4050 
*I *24:g B *C 0.8625 0.4050 
*I *3:g B *C 0.6125 1.1400 
*I *4:g B *C 0.8175 1.1400 
*N *16:2 *C 0.7800 0.7425 

*CAP
0 *4:g 1.22094e-16
1 *24:g 3.68101e-17
2 *23:g 3.05038e-17
3 *16:2 4.19252e-17
4 *16 5.78252e-17

*RES
0 *24:g *16:2 65.133919  // $poly_conn
1 *16:2 *23:g 75.390335  // $poly_conn
2 *16:2 *4:g 4.616152  // $poly_conn
3 *16 *4:g 45.06041  // $metal1_conn

*END

*D_NET *19 2.08346e-16

*CONN
*P *19 I *C 1.9000 0.6650 
*I *28:g B *C 1.4075 0.4050 
*I *2:g B *C 1.6125 0.4050 
*I *10:g B *C 1.4325 1.1400 
*I *13:g B *C 1.6375 1.1400 
*N *19:3 *C 1.6375 0.6700 
*N *19:7 *C 1.8900 0.6700 

*CAP
0 *13:g 7.18757e-17
1 *28:g 7.18183e-17
2 *19:7 1.333e-17
3 *19 5.1322e-17

*RES
0 *19:3 *19:7 64.965546  // $poly_conn
1 *13:g *19:3 32.492058  // $poly_conn
2 *19:3 *28:g 4.969278  // $poly_conn
3 *19 *19:7 0.003109  // $metal1_conn

*END

*D_NET *15 2.52135e-16

*CONN
*P *15 O *C 1.5000 0.6650 
*I *23:d B *C 0.7600 0.4050 
*I *24:d B *C 0.7600 0.4050 
*I *28:d B *C 1.5100 0.4050 
*I *2:d B *C 1.5100 0.4050 
*I *10:d B *C 1.5350 1.1400 
*I *13:d B *C 1.5350 1.1400 
*N *15:3 *C 1.5100 0.3350 
*N *15:5 *C 1.5355 1.0050 

*CAP
0 *10:d 4.28947e-17
1 *28:d 8.12196e-17
2 *23:d 8.97246e-17
3 *15 3.8296e-17

*RES
0 *15:3 *15 0.236697  // $metal1_conn
1 *15 *15:5 0.228463  // $metal1_conn
2 *10:d *15:5 62  // $metal1_conn
3 *28:d *15:3 75  // $metal1_conn
4 *23:d *15:3 75.536789  // $metal1_conn

*END

*D_NET *11 2.8113e-18

*CONN
*I *25:s B *C 1.0825 0.4050 
*I *26:d B *C 1.0825 0.4050 

*CAP
0 *25:s 2.8113e-18

*RES
0 *26:d *25:s 0.001  // $mwires

*END

*D_NET *9 4.21889e-18

*CONN
*I *24:s B *C 0.9425 0.4050 
*I *25:d B *C 0.9425 0.4050 

*CAP
0 *24:s 4.21889e-18

*RES
0 *25:d *24:s 0.001  // $mwires

*END

*D_NET *7 5.0888e-18

*CONN
*I *22:s B *C 0.5325 0.4050 
*I *23:s B *C 0.5325 0.4050 

*CAP
0 *22:s 5.0888e-18

*RES
0 *23:s *22:s 0.001  // $mwires

*END

*D_NET *18 1.36221e-18

*CONN
*I *21:d B *C 0.3550 0.4050 
*I *22:d B *C 0.3550 0.4050 

*CAP
0 *21:d 1.36221e-18

*RES
0 *22:d *21:d 0.001  // $mwires

*END

*D_NET *17 3.24128e-16

*CONN
*I *27:d B *C 0.1100 1.1400 
*I *1:d B *C 0.5100 1.1400 
*I *3:d B *C 0.5100 1.1400 
*I *4:d B *C 0.9200 1.1400 
*I *6:d B *C 0.9200 1.1400 
*I *8:d B *C 1.3300 1.1400 
*I *10:s B *C 1.3300 1.1400 
*I *13:s B *C 1.7300 1.1400 

*CAP
0 *13:s 3.24128e-16


*END

