*SPEF "IEEE 1481-1999"
*DESIGN  "AOI31XL"
*DATE "Mon Sep 27 09:05:46 2010"
*VENDOR "Cadence Design Systems"
*PROGRAM "Assura RCX"
*VERSION "3.2 Red Hat Linux release 7.2 (Enigma) - (09/09/2009-10:39)"
*DESIGN_FLOW "Physical Verification"
*DIVIDER /
*DELIMITER :
*BUS_DELIMITER []
*T_UNIT 1 PS
*C_UNIT 1e15 FF
*R_UNIT 1 OHM
*L_UNIT 1 MH
// DeviceFingerDelim "@"
// MATCHED
// caps2d version: 10

*NAME_MAP
*1 A0
*2 A1
*3 A2
*4 mp0
*5 mp1
*6 mp2
*7 mp3
*8 VSS
*9 net89
*10 net97
*11 net101
*12 mn0
*13 mn1
*14 VDD
*15 mn2
*16 Y
*17 B0
*18 mn3

*GROUND_NETS VSS

*PORTS
*14 I
*8 I
*1 I
*2 I
*3 I
*17 I
*16 O

*D_NET *14 1.75406e-16

*CONN
*P *14 I *C 0.1000 1.7100 
*I *4:s B *C 0.2900 1.1975 
*I *5:s B *C 0.7600 1.1975 
*I *6:s B *C 0.7600 1.1975 
*N *14:1 *C 0.8000 1.7100 
*N *14:2 *C 0.6750 1.7100 
*N *14:3 *C 0.2050 1.7100 

*CAP
0 *5:s 1.03099e-17
1 *4:s 3.48636e-18
2 *14:3 8.00442e-18
3 *14:2 6.75699e-18
4 *14:1 1.43918e-16
5 *14 2.93098e-18

*RES
0 *14:1 *14:2 9.437054  // $metal1_conn
1 *14:2 *14:3 0.233666  // $metal1_conn
2 *14:3 *14 0.051845  // $metal1_conn
3 *14:2 *5:s 62.073372  // $metal1_conn
4 *14:3 *4:s 62.073372  // $metal1_conn

*END

*D_NET *8 0

*CONN
*P *8 I *C 0.1000 0.0000 
*I *12:s B *C 0.2450 0.5875 
*I *18:s B *C 1.1250 0.5875 
*N *8:2 *C 0.8000 0.0000 
*N *8:3 *C 0.8000 0.0000 
*N *8:4 *C 0.2350 0.0000 


*RES
0 *18:s *8:3 75.558685  // $metal1_conn
1 *8:3 *8:4 0.28117  // $metal1_conn
2 *8:4 *8 0.066785  // $metal1_conn
3 *8:4 *12:s 75.35878  // $metal1_conn
4 *8:2 *8:3 7.75  // $metal1_conn

*END

*D_NET *1 1.56814e-16

*CONN
*P *1 I *C 0.3000 0.8550 
*I *12:g B *C 0.3375 0.5875 
*I *4:g B *C 0.3375 1.1975 
*N *1:2 *C 0.3100 0.9800 

*CAP
0 *4:g 2.68305e-17
1 *12:g 3.45017e-17
2 *1:2 4.60566e-17
3 *1 4.94256e-17

*RES
0 *4:g *1:2 19.691952  // $poly_conn
1 *1:2 *12:g 73.538109  // $poly_conn
2 *1:2 *1 45.071697  // $metal1_conn

*END

*D_NET *2 2.0208e-16

*CONN
*P *2 I *C 0.5000 0.8550 
*I *13:g B *C 0.5425 0.5875 
*I *5:g B *C 0.5425 1.1975 
*N *2:2 *C 0.5150 0.8500 
*N *2:4 *C 0.5150 0.8500 

*CAP
0 *5:g 4.6898e-17
1 *13:g 3.03208e-17
2 *2:2 3.82148e-17
3 *2 8.66467e-17

*RES
0 *5:g *2:2 53.025284  // $poly_conn
1 *2:2 *13:g 40.204773  // $poly_conn
2 *2:4 *2 0.002939  // $metal1_conn
3 *2:2 *2:4 45  // $metal1_conn

*END

*D_NET *3 2.10805e-16

*CONN
*P *3 I *C 0.7000 0.8550 
*I *15:g B *C 0.8075 0.5875 
*I *6:g B *C 0.8075 1.1975 
*N *3:2 *C 0.7700 0.7600 

*CAP
0 *6:g 5.06743e-17
1 *15:g 2.59744e-17
2 *3:2 9.27744e-17
3 *3 4.13818e-17

*RES
0 *6:g *3:2 75.129578  // $poly_conn
1 *3:2 *15:g 16.15522  // $poly_conn
2 *3 *3:2 45.013271  // $metal1_conn

*END

*D_NET *17 1.85871e-16

*CONN
*P *17 I *C 1.1000 1.0450 
*I *18:g B *C 1.0325 0.5875 
*I *7:g B *C 1.0325 1.1975 
*N *17:2 *C 1.0700 0.9900 

*CAP
0 *7:g 2.20112e-17
1 *18:g 3.30206e-17
2 *17:2 6.1136e-17
3 *17 6.97029e-17

*RES
0 *7:g *17:2 16.15522  // $poly_conn
1 *17:2 *18:g 75.129578  // $poly_conn
2 *17:2 *17 45.026482  // $metal1_conn

*END

*D_NET *16 1.86007e-16

*CONN
*P *16 O *C 1.5000 0.8550 
*I *15:d B *C 0.9200 0.5875 
*I *18:d B *C 0.9200 0.5875 
*I *7:d B *C 1.2050 1.1975 
*N *16:2 *C 1.2950 0.8550 

*CAP
0 *7:d 4.22359e-17
1 *15:d 5.98242e-17
2 *16:2 5.97903e-17
3 *16 2.41568e-17

*RES
0 *7:d *16:2 62.215309  // $metal1_conn
1 *16:2 *15:d 75.451859  // $metal1_conn
2 *16:2 *16 0.084498  // $metal1_conn

*END

*D_NET *11 4.09452e-18

*CONN
*I *13:d B *C 0.6750 0.5875 
*I *15:s B *C 0.6750 0.5875 

*CAP
0 *13:d 4.09452e-18

*RES
0 *15:s *13:d 0.001  // $mwires

*END

*D_NET *10 1.63491e-18

*CONN
*I *12:d B *C 0.4400 0.5875 
*I *13:s B *C 0.4400 0.5875 

*CAP
0 *12:d 1.63491e-18

*RES
0 *13:s *12:d 0.001  // $mwires

*END

*D_NET *9 8.80576e-17

*CONN
*I *4:d B *C 0.4400 1.1975 
*I *5:d B *C 0.4400 1.1975 
*I *6:d B *C 0.9200 1.1975 
*I *7:s B *C 0.9200 1.1975 

*CAP
0 *6:d 5.64294e-17
1 *4:d 3.16282e-17

*RES
0 *4:d *6:d 124.274429  // $metal1_conn

*END

