*SPEF "IEEE 1481-1999"
*DESIGN  "AOI33X2"
*DATE "Mon Sep 27 09:08:01 2010"
*VENDOR "Cadence Design Systems"
*PROGRAM "Assura RCX"
*VERSION "3.2 Red Hat Linux release 7.2 (Enigma) - (09/09/2009-10:39)"
*DESIGN_FLOW "Physical Verification"
*DIVIDER /
*DELIMITER :
*BUS_DELIMITER []
*T_UNIT 1 PS
*C_UNIT 1e15 FF
*R_UNIT 1 OHM
*L_UNIT 1 MH
// DeviceFingerDelim "@"
// MATCHED
// caps2d version: 10

*NAME_MAP
*1 VDD
*2 mp2\@1
*3 mp1\@1
*4 mp0\@1
*5 net124
*6 net149
*7 net149\@1
*8 net149\@2
*9 net149\@3
*10 net137
*11 net137\@1
*12 net137\@2
*13 net137\@3
*14 Y
*15 A0
*16 A1
*17 A2
*18 VSS
*19 mp3
*20 mp4
*21 mp5
*22 mp5\@1
*23 mp4\@1
*24 mp3\@1
*25 mp0
*26 mn3
*27 B0
*28 mp1
*29 mn4
*30 B1
*31 mp2
*32 mn5
*33 B2
*34 mn5\@1
*35 mn4\@1
*36 mn3\@1
*37 mn0
*38 mn2\@1
*39 mn1
*40 mn1\@1
*41 mn2
*42 mn0\@1

*GROUND_NETS VSS

*PORTS
*1 I
*18 I
*15 I
*16 I
*17 I
*27 I
*30 I
*33 I
*14 O

*D_NET *1 3.86686e-16

*CONN
*P *1 I *C 0.1000 1.7100 
*I *25:s B *C 0.3500 1.2400 
*I *28:s B *C 0.3500 1.2400 
*I *31:s B *C 0.7600 1.2400 
*I *2:s B *C 0.7600 1.2400 
*I *3:s B *C 1.1925 1.2400 
*I *4:s B *C 1.1925 1.2400 
*N *1:1 *C 2.3000 1.7100 

*CAP
0 *3:s 1.24119e-16
1 *31:s 4.36894e-17
2 *1:1 2.1237e-16
3 *1 6.50763e-18

*RES
0 *3:s *1 0.110244  // $metal1_conn
1 *1:1 *3:s 11.295519  // $metal1_conn
2 *1:1 *3:s 9.375  // $metal1_conn
3 *3:s *31:s 62.203873  // $metal1_conn

*END

*D_NET *18 0

*CONN
*P *18 I *C 0.1000 0.0000 
*I *26:s B *C 1.5750 0.4350 
*I *36:s B *C 2.7350 0.4350 
*I *37:s B *C 0.2550 0.4350 
*I *42:s B *C 1.5750 0.4350 
*N *18:2 *C 1.4500 0.0000 
*N *18:3 *C 0.8000 0.0000 
*N *18:4 *C 0.8000 0.0000 
*N *18:5 *C 0.2150 0.0000 
*N *18:6 *C 2.3000 0.0000 


*RES
0 *26:s *18:2 75.046997  // $metal1_conn
1 *18:2 *18:4 0.322257  // $metal1_conn
2 *18:4 *18:5 0.293025  // $metal1_conn
3 *18:5 *18 0.057195  // $metal1_conn
4 *18:2 *18:6 0.422504  // $metal1_conn
5 *18:6 *36:s 75.451439  // $metal1_conn
6 *18:5 *37:s 75.220154  // $metal1_conn
7 *18:3 *18:4 7.75  // $metal1_conn
8 *18:3 *18:6 8.857142  // $metal1_conn

*END

*D_NET *15 5.11951e-16

*CONN
*P *15 I *C 1.3000 0.6650 
*I *37:g B *C 0.3475 0.4350 
*I *42:g B *C 1.3175 0.4350 
*I *25:g B *C 0.2475 1.2400 
*I *4:g B *C 1.3175 1.2400 

*CAP
0 *42:g 3.05702e-17
1 *37:g 4.58783e-17
2 *15 4.35502e-16

*RES
0 *15 *42:g 19.691952  // $poly_conn
1 *37:g *15 20.156593  // $poly_conn

*END

*D_NET *16 5.20217e-16

*CONN
*P *16 I *C 0.5000 0.8550 
*I *39:g B *C 0.4525 0.4350 
*I *40:g B *C 1.0225 0.4350 
*I *28:g B *C 0.4525 1.2400 
*I *3:g B *C 1.0675 1.2400 

*CAP
0 *3:g 3.82747e-16
1 *40:g 5.49405e-17
2 *39:g 5.79995e-17
3 *16 2.45297e-17

*RES
0 *3:g *40:g 19.962778  // $poly_conn
1 *3:g *39:g 22.256054  // $poly_conn
2 *3:g *16 0.098826  // $metal1_conn

*END

*D_NET *17 3.35795e-16

*CONN
*P *17 I *C 0.9000 0.8550 
*I *41:g B *C 0.7125 0.4350 
*I *38:g B *C 0.9175 0.4350 
*I *31:g B *C 0.6575 1.2400 
*I *2:g B *C 0.8625 1.2400 
*N *17:2 *C 0.8900 0.6625 
*N *17:7 *C 0.8900 0.8450 

*CAP
0 *2:g 1.16633e-16
1 *38:g 4.69221e-17
2 *41:g 3.22353e-17
3 *17:7 4.75784e-17
4 *17:2 2.79765e-17
5 *17 6.44496e-17

*RES
0 *38:g *17:2 21.83713  // $poly_conn
1 *17:2 *41:g 54.784554  // $poly_conn
2 *17:2 *2:g 16.602861  // $poly_conn
3 *2:g *17:7 45  // $metal1_conn
4 *17:7 *17 0.005615  // $metal1_conn

*END

*D_NET *27 5.20268e-16

*CONN
*P *27 I *C 1.7000 0.6650 
*I *26:g B *C 1.6625 0.4350 
*I *36:g B *C 2.6425 0.4350 
*I *19:g B *C 1.6625 1.2400 
*I *24:g B *C 2.7225 1.2400 

*CAP
0 *36:g 3.7111e-17
1 *26:g 3.54972e-17
2 *27 4.4766e-16

*RES
0 *27 *36:g 16.530039  // $poly_conn
1 *27 *26:g 19.691952  // $poly_conn

*END

*D_NET *30 5.25376e-16

*CONN
*P *30 I *C 2.5000 0.8550 
*I *29:g B *C 1.8725 0.4350 
*I *35:g B *C 2.5175 0.4350 
*I *20:g B *C 1.8725 1.2400 
*I *23:g B *C 2.5175 1.2400 

*CAP
0 *23:g 3.97504e-16
1 *35:g 5.15673e-17
2 *29:g 4.3939e-17
3 *30 3.23648e-17

*RES
0 *23:g *35:g 29.94836  // $poly_conn
1 *23:g *29:g 22.256054  // $poly_conn
2 *30 *23:g 0.087331  // $metal1_conn

*END

*D_NET *33 3.22111e-16

*CONN
*P *33 I *C 2.1000 0.8550 
*I *32:g B *C 2.0325 0.4350 
*I *34:g B *C 2.2375 0.4350 
*I *21:g B *C 2.0875 1.2400 
*I *22:g B *C 2.2925 1.2400 
*N *33:3 *C 2.0600 0.6625 

*CAP
0 *22:g 1.66011e-16
1 *34:g 3.13277e-17
2 *32:g 3.0955e-17
3 *33:3 2.5523e-17
4 *33 6.82942e-17

*RES
0 *33:3 *34:g 54.784554  // $poly_conn
1 *33:3 *32:g 21.83713  // $poly_conn
2 *22:g *33:3 16.602861  // $poly_conn
3 *22:g *33 45.020817  // $metal1_conn

*END

*D_NET *14 5.87199e-16

*CONN
*P *14 O *C 1.5000 1.0450 
*I *32:d B *C 2.1350 0.4350 
*I *34:d B *C 2.1350 0.4350 
*I *41:d B *C 0.8150 0.4350 
*I *38:d B *C 0.8150 0.4350 
*I *19:d B *C 1.7675 1.2400 
*I *20:d B *C 1.7675 1.2400 
*I *21:d B *C 2.1900 1.2400 
*I *22:d B *C 2.1900 1.2400 
*I *23:d B *C 2.6200 1.2400 
*I *24:d B *C 2.6200 1.2400 
*N *14:2 *C 1.5300 0.3650 
*N *14:4 *C 1.5300 1.0450 

*CAP
0 *23:d 1.32303e-16
1 *21:d 9.38758e-17
2 *41:d 8.52239e-17
3 *32:d 7.66182e-17
4 *14:2 1.28716e-16
5 *14 7.0462e-17

*RES
0 *14:4 *14 0.020188  // $metal1_conn
1 *21:d *23:d 62  // $metal1_conn
2 *32:d *14:2 75.446342  // $metal1_conn
3 *14:2 *41:d 75.529915  // $metal1_conn
4 *14:2 *14:4 0.457734  // $metal1_conn
5 *14:4 *23:d 0.156598  // $metal1_conn

*END

*D_NET *13 3.44348e-18

*CONN
*I *35:s B *C 2.5800 0.4350 
*I *36:d B *C 2.5800 0.4350 

*CAP
0 *35:s 3.44348e-18

*RES
0 *36:d *35:s 0.001  // $mwires

*END

*D_NET *12 6.73317e-18

*CONN
*I *34:s B *C 2.3775 0.4350 
*I *35:d B *C 2.3775 0.4350 

*CAP
0 *34:s 6.73317e-18

*RES
0 *35:d *34:s 0.001  // $mwires

*END

*D_NET *11 4.81332e-18

*CONN
*I *29:s B *C 1.9525 0.4350 
*I *32:s B *C 1.9525 0.4350 

*CAP
0 *29:s 4.81332e-18

*RES
0 *32:s *29:s 0.001  // $mwires

*END

*D_NET *10 7.20503e-18

*CONN
*I *26:d B *C 1.7675 0.4350 
*I *29:d B *C 1.7675 0.4350 

*CAP
0 *26:d 7.20503e-18

*RES
0 *29:d *26:d 0.001  // $mwires

*END

*D_NET *9 1.19926e-17

*CONN
*I *40:s B *C 1.1700 0.4350 
*I *42:d B *C 1.1700 0.4350 

*CAP
0 *40:s 1.19926e-17

*RES
0 *42:d *40:s 0.001  // $mwires

*END

*D_NET *8 2.64226e-18

*CONN
*I *38:s B *C 0.9700 0.4350 
*I *40:d B *C 0.9700 0.4350 

*CAP
0 *38:s 2.64226e-18

*RES
0 *40:d *38:s 0.001  // $mwires

*END

*D_NET *7 6.42057e-18

*CONN
*I *39:s B *C 0.5825 0.4350 
*I *41:s B *C 0.5825 0.4350 

*CAP
0 *39:s 6.42057e-18

*RES
0 *41:s *39:s 0.001  // $mwires

*END

*D_NET *6 2.6935e-18

*CONN
*I *37:d B *C 0.4000 0.4350 
*I *39:d B *C 0.4000 0.4350 

*CAP
0 *37:d 2.6935e-18

*RES
0 *39:d *37:d 0.001  // $mwires

*END

*D_NET *5 4.84058e-16

*CONN
*I *19:s B *C 1.4900 1.2400 
*I *20:s B *C 1.9800 1.2400 
*I *21:s B *C 1.9800 1.2400 
*I *22:s B *C 2.4050 1.2400 
*I *23:s B *C 2.4050 1.2400 
*I *24:s B *C 2.8150 1.2400 
*I *25:d B *C 0.1550 1.2400 
*I *28:d B *C 0.5550 1.2400 
*I *31:d B *C 0.5550 1.2400 
*I *2:d B *C 0.9650 1.2400 
*I *3:d B *C 0.9650 1.2400 
*I *4:d B *C 1.4900 1.2400 

*CAP
0 *24:s 4.84058e-16


*END

