*SPEF "IEEE 1481-1999"
*DESIGN  "AOI33X4"
*DATE "Mon Sep 27 09:08:23 2010"
*VENDOR "Cadence Design Systems"
*PROGRAM "Assura RCX"
*VERSION "3.2 Red Hat Linux release 7.2 (Enigma) - (09/09/2009-10:39)"
*DESIGN_FLOW "Physical Verification"
*DIVIDER /
*DELIMITER :
*BUS_DELIMITER []
*T_UNIT 1 PS
*C_UNIT 1e15 FF
*R_UNIT 1 OHM
*L_UNIT 1 MH
// DeviceFingerDelim "@"
// MATCHED
// caps2d version: 10

*NAME_MAP
*1 mn0\@3
*2 mn3
*3 mn4
*4 mn5
*5 mn5\@1
*6 mp3
*7 mn4\@1
*8 mp4
*9 mn3\@1
*10 mp5
*11 mn3\@2
*12 mp5\@1
*13 mn4\@2
*14 mp4\@1
*15 mn5\@2
*16 mp3\@1
*17 mp3\@2
*18 mp4\@2
*19 mp5\@2
*20 VSS
*21 A0
*22 A1
*23 A2
*24 B0
*25 B1
*26 B2
*27 mp5\@3
*28 mp4\@3
*29 mp3\@3
*30 mp0
*31 mp1
*32 mp2
*33 mp2\@1
*34 mp1\@1
*35 mp0\@1
*36 mp0\@2
*37 net124
*38 mp1\@2
*39 net149\@4
*40 mp2\@2
*41 net149\@5
*42 mp2\@3
*43 net149\@6
*44 mp1\@3
*45 net149\@7
*46 mp0\@3
*47 net149
*48 net149\@1
*49 net149\@2
*50 net149\@3
*51 net137\@4
*52 net137\@5
*53 net137\@6
*54 net137\@7
*55 net137
*56 net137\@1
*57 net137\@2
*58 net137\@3
*59 VDD
*60 Y
*61 mn5\@3
*62 mn4\@3
*63 mn3\@3
*64 mn0
*65 mn1
*66 mn2
*67 mn2\@1
*68 mn1\@1
*69 mn0\@1
*70 mn0\@2
*71 mn1\@2
*72 mn2\@2
*73 mn2\@3
*74 mn1\@3

*GROUND_NETS VSS

*PORTS
*59 I
*20 I
*21 I
*22 I
*23 I
*24 I
*25 I
*26 I
*60 O

*D_NET *59 6.36892e-16

*CONN
*P *59 I *C 0.1000 1.7100 
*I *30:s B *C 1.7500 1.1700 
*I *31:s B *C 1.7500 1.1700 
*I *32:s B *C 2.1600 1.1700 
*I *33:s B *C 2.1600 1.1700 
*I *34:s B *C 2.5700 1.1700 
*I *35:s B *C 2.5700 1.1700 
*I *36:s B *C 0.4850 1.1700 
*I *38:s B *C 0.4850 1.1700 
*I *40:s B *C 0.8950 1.1700 
*I *42:s B *C 0.8950 1.1700 
*I *44:s B *C 1.3325 1.1700 
*I *46:s B *C 1.3325 1.1700 
*N *59:1 *C 4.5000 1.7100 
*N *59:2 *C 2.7000 1.7100 

*CAP
0 *34:s 3.03628e-16
1 *59:1 3.29185e-16
2 *59 4.07865e-18

*RES
0 *34:s *59 0.192656  // $metal1_conn
1 *59:1 *59:2 9.236154  // $metal1_conn
2 *59:1 *59:2 8.333333  // $metal1_conn
3 *59:1 *34:s 8.333333  // $metal1_conn
4 *59:2 *34:s 0.065008  // $metal1_conn

*END

*D_NET *20 0

*CONN
*P *20 I *C 0.1000 0.0000 
*I *2:s B *C 4.1250 0.4050 
*I *9:s B *C 5.1450 0.4050 
*I *11:s B *C 2.8200 0.4050 
*I *63:s B *C 4.1250 0.4050 
*I *64:s B *C 1.6000 0.4050 
*I *69:s B *C 2.8200 0.4050 
*I *70:s B *C 0.4350 0.4050 
*I *1:s B *C 1.6000 0.4050 
*N *20:2 *C 4.0400 0.0000 
*N *20:3 *C 2.7000 0.0000 
*N *20:4 *C 2.7000 0.0000 
*N *20:5 *C 1.5150 0.0000 
*N *20:6 *C 0.9000 0.0000 
*N *20:7 *C 0.3950 0.0000 
*N *20:8 *C 4.5000 0.0000 


*RES
0 *2:s *20:2 75.047028  // $metal1_conn
1 *20:2 *20:4 0.669219  // $metal1_conn
2 *20:4 *20:5 0.593774  // $metal1_conn
3 *20:5 *20:6 0.307318  // $metal1_conn
4 *20:6 *20:7 0.253095  // $metal1_conn
5 *20:7 *20 0.147515  // $metal1_conn
6 *20:2 *20:8 0.227175  // $metal1_conn
7 *20:8 *9:s 75.545563  // $metal1_conn
8 *20:4 *11:s 75.071472  // $metal1_conn
9 *20:5 *64:s 75.045822  // $metal1_conn
10 *20:7 *70:s 75.201355  // $metal1_conn
11 *20:3 *20:4 6.888889  // $metal1_conn
12 *20:3 *20:6 6.888889  // $metal1_conn
13 *20:3 *20:8 6.888889  // $metal1_conn

*END

*D_NET *21 9.85231e-16

*CONN
*P *21 I *C 2.5000 0.6650 
*I *64:g B *C 1.6475 0.4050 
*I *69:g B *C 2.5725 0.4050 
*I *70:g B *C 0.5275 0.4050 
*I *1:g B *C 1.3825 0.4050 
*I *30:g B *C 1.6475 1.1700 
*I *35:g B *C 2.6725 1.1700 
*I *36:g B *C 0.3825 1.1700 
*I *46:g B *C 1.4425 1.1700 

*CAP
0 *35:g 6.82272e-16
1 *1:g 4.57271e-17
2 *70:g 4.69171e-17
3 *69:g 3.78348e-17
4 *64:g 3.32187e-17
5 *21 1.39261e-16

*RES
0 *35:g *69:g 15.826773  // $poly_conn
1 *35:g *64:g 16.15522  // $poly_conn
2 *35:g *1:g 65.568573  // $poly_conn
3 *70:g *35:g 20.156593  // $poly_conn
4 *21 *35:g 0.018684  // $metal1_conn

*END

*D_NET *22 1.0529e-15

*CONN
*P *22 I *C 0.7000 0.8550 
*I *65:g B *C 1.7975 0.4050 
*I *68:g B *C 2.3675 0.4050 
*I *71:g B *C 0.6325 0.4050 
*I *74:g B *C 1.2225 0.4050 
*I *31:g B *C 1.8525 1.1700 
*I *34:g B *C 2.4675 1.1700 
*I *38:g B *C 0.5875 1.1700 
*I *44:g B *C 1.2225 1.1700 

*CAP
0 *34:g 7.81231e-16
1 *74:g 7.21008e-17
2 *71:g 7.27082e-17
3 *68:g 3.96682e-17
4 *65:g 6.33393e-17
5 *22 2.38481e-17

*RES
0 *34:g *68:g 35.150497  // $poly_conn
1 *34:g *65:g 58.153492  // $poly_conn
2 *34:g *74:g 37.640671  // $poly_conn
3 *71:g *34:g 61.401833  // $poly_conn
4 *34:g *22 0.0156  // $metal1_conn

*END

*D_NET *23 7.11193e-16

*CONN
*P *23 I *C 2.1000 0.8550 
*I *66:g B *C 1.9575 0.4050 
*I *67:g B *C 2.1625 0.4050 
*I *72:g B *C 0.9125 0.4050 
*I *73:g B *C 1.1175 0.4050 
*I *32:g B *C 2.0575 1.1700 
*I *33:g B *C 2.2625 1.1700 
*I *40:g B *C 0.7925 1.1700 
*I *42:g B *C 0.9975 1.1700 
*N *23:2 *C 0.9975 0.6325 
*N *23:9 *C 2.1325 0.6325 

*CAP
0 *33:g 4.91387e-16
1 *73:g 5.58355e-17
2 *72:g 2.41534e-17
3 *67:g 2.49244e-17
4 *66:g 4.36009e-17
5 *23:9 3.47424e-17
6 *23:2 3.65502e-17

*RES
0 *23:9 *67:g 31.223095  // $poly_conn
1 *23:9 *66:g 62.423  // $poly_conn
2 *73:g *23:2 48.703209  // $poly_conn
3 *23:2 *72:g 39.728855  // $poly_conn
4 *33:g *23:9 46.641758  // $poly_conn
5 *23:2 *33:g 47.994167  // $poly_conn
6 *33:g *23 0.010281  // $metal1_conn

*END

*D_NET *24 9.82438e-16

*CONN
*P *24 I *C 2.9000 0.6250 
*I *2:g B *C 4.1725 0.4050 
*I *9:g B *C 5.0525 0.4050 
*I *11:g B *C 2.8975 0.4050 
*I *63:g B *C 3.9075 0.4050 
*I *6:g B *C 4.1275 1.1700 
*I *16:g B *C 5.1525 1.1700 
*I *17:g B *C 2.8975 1.1700 
*I *29:g B *C 3.9225 1.1700 

*CAP
0 *63:g 2.59702e-17
1 *11:g 3.6398e-17
2 *9:g 4.68849e-17
3 *2:g 4.88598e-17
4 *24 8.24325e-16

*RES
0 *24 *9:g 16.530039  // $poly_conn
1 *2:g *24 63.15733  // $poly_conn
2 *24 *63:g 14.578415  // $poly_conn
3 *24 *11:g 16.15522  // $poly_conn

*END

*D_NET *25 1.03599e-15

*CONN
*P *25 I *C 4.9000 0.8550 
*I *3:g B *C 4.3325 0.4050 
*I *7:g B *C 4.9475 0.4050 
*I *13:g B *C 3.1025 0.4050 
*I *62:g B *C 3.7025 0.4050 
*I *8:g B *C 4.3325 1.1700 
*I *14:g B *C 4.9475 1.1700 
*I *18:g B *C 3.1025 1.1700 
*I *28:g B *C 3.7175 1.1700 

*CAP
0 *62:g 4.33647e-17
1 *13:g 4.03517e-17
2 *7:g 7.31614e-17
3 *3:g 7.11349e-17
4 *25 8.07978e-16

*RES
0 *25 *7:g 68.409897  // $poly_conn
1 *25 *3:g 35.076569  // $poly_conn
2 *25 *62:g 35.347393  // $poly_conn
3 *25 *13:g 29.94836  // $poly_conn

*END

*D_NET *26 6.8743e-16

*CONN
*P *26 I *C 3.5000 0.8550 
*I *4:g B *C 4.4375 0.4050 
*I *5:g B *C 4.6425 0.4050 
*I *15:g B *C 3.3075 0.4050 
*I *61:g B *C 3.5125 0.4050 
*I *10:g B *C 4.5375 1.1700 
*I *12:g B *C 4.7425 1.1700 
*I *19:g B *C 3.3075 1.1700 
*I *27:g B *C 3.5125 1.1700 
*N *26:3 *C 3.5125 0.6325 
*N *26:9 *C 4.5100 0.7725 

*CAP
0 *12:g 4.45772e-16
1 *61:g 2.67458e-17
2 *15:g 3.85755e-17
3 *5:g 2.90545e-17
4 *4:g 5.67346e-17
5 *26:9 4.26962e-17
6 *26:3 2.06692e-17
7 *26 2.71822e-17

*RES
0 *26:9 *5:g 83.880234  // $poly_conn
1 *26:9 *4:g 68.495628  // $poly_conn
2 *26:3 *61:g 23.847994  // $poly_conn
3 *26:3 *15:g 66.950577  // $poly_conn
4 *12:g *26:9 4.422033  // $poly_conn
5 *12:g *26:3 46.788292  // $poly_conn
6 *12:g *26 0.023719  // $metal1_conn

*END

*D_NET *60 1.26579e-15

*CONN
*P *60 O *C 2.7000 0.8550 
*I *4:d B *C 4.5400 0.4050 
*I *5:d B *C 4.5400 0.4050 
*I *15:d B *C 3.4100 0.4050 
*I *61:d B *C 3.4100 0.4050 
*I *66:d B *C 2.0600 0.4050 
*I *67:d B *C 2.0600 0.4050 
*I *72:d B *C 1.0150 0.4050 
*I *73:d B *C 1.0150 0.4050 
*I *6:d B *C 4.2300 1.1700 
*I *8:d B *C 4.2300 1.1700 
*I *10:d B *C 4.6400 1.1700 
*I *12:d B *C 4.6400 1.1700 
*I *14:d B *C 5.0500 1.1700 
*I *16:d B *C 5.0500 1.1700 
*I *17:d B *C 3.0000 1.1700 
*I *18:d B *C 3.0000 1.1700 
*I *19:d B *C 3.4100 1.1700 
*I *27:d B *C 3.4100 1.1700 
*I *28:d B *C 3.8200 1.1700 
*I *29:d B *C 3.8200 1.1700 
*N *60:3 *C 3.4100 0.3650 
*N *60:4 *C 2.6700 0.3650 
*N *60:6 *C 2.0600 0.3650 

*CAP
0 *14:d 4.97421e-16
1 *72:d 1.19932e-16
2 *66:d 1.51279e-16
3 *15:d 1.69101e-16
4 *4:d 1.30316e-16
5 *60:4 1.20939e-16
6 *60 7.67986e-17

*RES
0 *60:4 *60 0.330272  // $metal1_conn
1 *60 *14:d 0.288701  // $metal1_conn
2 *4:d *60:3 75.848328  // $metal1_conn
3 *15:d *60:3 75  // $metal1_conn
4 *66:d *60:6 75  // $metal1_conn
5 *60:6 *72:d 75.785217  // $metal1_conn
6 *60:3 *60:4 0.546849  // $metal1_conn
7 *60:4 *60:6 0.454084  // $metal1_conn

*END

*D_NET *58 1.36221e-18

*CONN
*I *7:s B *C 5.0000 0.4050 
*I *9:d B *C 5.0000 0.4050 

*CAP
0 *7:s 1.36221e-18

*RES
0 *9:d *7:s 0.001  // $mwires

*END

*D_NET *57 5.90293e-18

*CONN
*I *5:s B *C 4.7950 0.4050 
*I *7:d B *C 4.7950 0.4050 

*CAP
0 *5:s 5.90293e-18

*RES
0 *7:d *5:s 0.001  // $mwires

*END

*D_NET *56 2.24904e-18

*CONN
*I *3:s B *C 4.3850 0.4050 
*I *4:s B *C 4.3850 0.4050 

*CAP
0 *3:s 2.24904e-18

*RES
0 *4:s *3:s 0.001  // $mwires

*END

*D_NET *55 4.20397e-18

*CONN
*I *2:d B *C 4.2525 0.4050 
*I *3:d B *C 4.2525 0.4050 

*CAP
0 *2:d 4.20397e-18

*RES
0 *3:d *2:d 0.001  // $mwires

*END

*D_NET *54 5.91194e-18

*CONN
*I *62:s B *C 3.8050 0.4050 
*I *63:d B *C 3.8050 0.4050 

*CAP
0 *62:s 5.91194e-18

*RES
0 *63:d *62:s 0.001  // $mwires

*END

*D_NET *53 5.69995e-18

*CONN
*I *61:s B *C 3.6075 0.4050 
*I *62:d B *C 3.6075 0.4050 

*CAP
0 *61:s 5.69995e-18

*RES
0 *62:d *61:s 0.001  // $mwires

*END

*D_NET *52 5.90567e-18

*CONN
*I *13:s B *C 3.2050 0.4050 
*I *15:s B *C 3.2050 0.4050 

*CAP
0 *13:s 5.90567e-18

*RES
0 *15:s *13:s 0.001  // $mwires

*END

*D_NET *51 5.88913e-18

*CONN
*I *11:d B *C 3.0000 0.4050 
*I *13:d B *C 3.0000 0.4050 

*CAP
0 *11:d 5.88913e-18

*RES
0 *13:d *11:d 0.001  // $mwires

*END

*D_NET *50 4.6862e-18

*CONN
*I *68:s B *C 2.4700 0.4050 
*I *69:d B *C 2.4700 0.4050 

*CAP
0 *68:s 4.6862e-18

*RES
0 *69:d *68:s 0.001  // $mwires

*END

*D_NET *49 5.85691e-18

*CONN
*I *67:s B *C 2.2650 0.4050 
*I *68:d B *C 2.2650 0.4050 

*CAP
0 *67:s 5.85691e-18

*RES
0 *68:d *67:s 0.001  // $mwires

*END

*D_NET *48 4.20207e-18

*CONN
*I *65:s B *C 1.8775 0.4050 
*I *66:s B *C 1.8775 0.4050 

*CAP
0 *65:s 4.20207e-18

*RES
0 *66:s *65:s 0.001  // $mwires

*END

*D_NET *47 4.12494e-18

*CONN
*I *64:d B *C 1.7225 0.4050 
*I *65:d B *C 1.7225 0.4050 

*CAP
0 *64:d 4.12494e-18

*RES
0 *65:d *64:d 0.001  // $mwires

*END

*D_NET *45 4.22103e-18

*CONN
*I *74:s B *C 1.3025 0.4050 
*I *1:d B *C 1.3025 0.4050 

*CAP
0 *74:s 4.22103e-18

*RES
0 *1:d *74:s 0.001  // $mwires

*END

*D_NET *43 2.24904e-18

*CONN
*I *73:s B *C 1.1700 0.4050 
*I *74:d B *C 1.1700 0.4050 

*CAP
0 *73:s 2.24904e-18

*RES
0 *74:d *73:s 0.001  // $mwires

*END

*D_NET *41 5.33534e-18

*CONN
*I *71:s B *C 0.7725 0.4050 
*I *72:s B *C 0.7725 0.4050 

*CAP
0 *71:s 5.33534e-18

*RES
0 *72:s *71:s 0.001  // $mwires

*END

*D_NET *39 1.36221e-18

*CONN
*I *70:d B *C 0.5800 0.4050 
*I *71:d B *C 0.5800 0.4050 

*CAP
0 *70:d 1.36221e-18

*RES
0 *71:d *70:d 0.001  // $mwires

*END

*D_NET *37 9.73674e-16

*CONN
*I *6:s B *C 4.0250 1.1700 
*I *8:s B *C 4.4350 1.1700 
*I *10:s B *C 4.4350 1.1700 
*I *12:s B *C 4.8450 1.1700 
*I *14:s B *C 4.8450 1.1700 
*I *16:s B *C 5.2450 1.1700 
*I *17:s B *C 2.7850 1.1700 
*I *18:s B *C 3.2050 1.1700 
*I *19:s B *C 3.2050 1.1700 
*I *27:s B *C 3.6150 1.1700 
*I *28:s B *C 3.6150 1.1700 
*I *29:s B *C 4.0250 1.1700 
*I *30:d B *C 1.5450 1.1700 
*I *31:d B *C 1.9550 1.1700 
*I *32:d B *C 1.9550 1.1700 
*I *33:d B *C 2.3650 1.1700 
*I *34:d B *C 2.3650 1.1700 
*I *35:d B *C 2.7850 1.1700 
*I *36:d B *C 0.2900 1.1700 
*I *38:d B *C 0.6900 1.1700 
*I *40:d B *C 0.6900 1.1700 
*I *42:d B *C 1.1100 1.1700 
*I *44:d B *C 1.1100 1.1700 
*I *46:d B *C 1.5450 1.1700 

*CAP
0 *16:s 9.73674e-16


*END

