*SPEF "IEEE 1481-1999"
*DESIGN  "BUFX4"
*DATE "Mon Sep 27 09:11:45 2010"
*VENDOR "Cadence Design Systems"
*PROGRAM "Assura RCX"
*VERSION "3.2 Red Hat Linux release 7.2 (Enigma) - (09/09/2009-10:39)"
*DESIGN_FLOW "Physical Verification"
*DIVIDER /
*DELIMITER :
*BUS_DELIMITER []
*T_UNIT 1 PS
*C_UNIT 1e15 FF
*R_UNIT 1 OHM
*L_UNIT 1 MH
// DeviceFingerDelim "@"
// MATCHED
// caps2d version: 10

*NAME_MAP
*1 mp1
*2 mp1\@1
*3 mp1\@2
*4 mp1\@3
*5 mp0
*6 n0
*7 VSS
*8 mn1
*9 mn1\@1
*10 A
*11 VDD
*12 mn1\@2
*13 Y
*14 mn1\@3
*15 mn0

*GROUND_NETS VSS

*PORTS
*11 I
*7 I
*10 I
*13 O

*D_NET *11 2.76995e-16

*CONN
*P *11 I *C 0.1000 1.7100 
*I *1:s B *C 0.1100 1.1750 
*I *2:s B *C 0.5175 1.1750 
*I *3:s B *C 0.5175 1.1750 
*I *4:s B *C 0.9350 1.1750 
*I *5:s B *C 0.9350 1.1750 
*N *11:2 *C 0.7000 1.7100 

*CAP
0 *11:2 7.95068e-17
1 *11 1.97488e-16

*RES
0 *11:2 *11 10.714286  // $metal1_conn

*END

*D_NET *7 0

*CONN
*P *7 I *C 0.1000 0.0000 
*I *8:d B *C 0.1100 0.3600 
*I *9:d B *C 0.5175 0.3600 
*I *12:d B *C 0.5175 0.3600 
*I *14:d B *C 0.9350 0.3600 
*I *15:d B *C 0.9350 0.3600 
*N *7:2 *C 0.7000 0.0000 


*RES
0 *7:2 *7 8.857142  // $metal1_conn

*END

*D_NET *10 2.08188e-16

*CONN
*P *10 I *C 1.1300 0.8200 
*I *15:g B *C 1.0375 0.3600 
*I *5:g B *C 1.0375 1.1750 
*N *10:2 *C 1.0800 0.8000 

*CAP
0 *5:g 4.11427e-17
1 *15:g 4.40447e-17
2 *10:2 9.20152e-17
3 *10 3.09853e-17

*RES
0 *5:g *10:2 36.668037  // $poly_conn
1 *10:2 *15:g 70.001373  // $poly_conn
2 *10:2 *10 45.016792  // $metal1_conn

*END

*D_NET *13 3.67559e-16

*CONN
*P *13 O *C 0.1100 0.8200 
*I *8:s B *C 0.3050 0.3600 
*I *9:s B *C 0.3050 0.3600 
*I *12:s B *C 0.7300 0.3600 
*I *14:s B *C 0.7300 0.3600 
*I *1:d B *C 0.3050 1.1750 
*I *2:d B *C 0.3050 1.1750 
*I *3:d B *C 0.7300 1.1750 
*I *4:d B *C 0.7300 1.1750 

*CAP
0 *3:d 3.42933e-16
1 *13 2.46267e-17

*RES
0 *3:d *13 0.118539  // $metal1_conn

*END

*D_NET *6 4.80354e-16

*CONN
*I *8:g B *C 0.2025 0.3600 
*I *9:g B *C 0.4075 0.3600 
*I *12:g B *C 0.6275 0.3600 
*I *14:g B *C 0.8325 0.3600 
*I *15:s B *C 1.1300 0.3600 
*I *1:g B *C 0.2025 1.1750 
*I *2:g B *C 0.4075 1.1750 
*I *3:g B *C 0.6275 1.1750 
*I *4:g B *C 0.8325 1.1750 
*I *5:d B *C 1.1300 1.1750 
*N *6:8 *C 0.8850 0.6300 

*CAP
0 *5:d 8.48676e-17
1 *4:g 2.52888e-16
2 *15:s 5.4637e-17
3 *6:8 8.7961e-17

*RES
0 *4:g *6:8 47.539192  // $poly_conn
1 *5:d *6:8 21.246237  // $metal1_conn
2 *6:8 *15:s 37.889694  // $metal1_conn

*END

