*SPEF "IEEE 1481-1999"
*DESIGN  "BUFX6"
*DATE "Mon Sep 27 09:12:07 2010"
*VENDOR "Cadence Design Systems"
*PROGRAM "Assura RCX"
*VERSION "3.2 Red Hat Linux release 7.2 (Enigma) - (09/09/2009-10:39)"
*DESIGN_FLOW "Physical Verification"
*DIVIDER /
*DELIMITER :
*BUS_DELIMITER []
*T_UNIT 1 PS
*C_UNIT 1e15 FF
*R_UNIT 1 OHM
*L_UNIT 1 MH
// DeviceFingerDelim "@"
// MATCHED
// caps2d version: 10

*NAME_MAP
*1 mp1
*2 mp1\@1
*3 mp1\@2
*4 mn1
*5 mp1\@3
*6 mn1\@1
*7 VSS
*8 mp1\@4
*9 mn1\@2
*10 mp0
*11 mn1\@3
*12 mp0\@1
*13 mn1\@4
*14 mn0
*15 mn0\@1
*16 Y
*17 A
*18 VDD
*19 n0

*GROUND_NETS VSS

*PORTS
*18 I
*7 I
*17 I
*16 O

*D_NET *18 3.93024e-16

*CONN
*P *18 I *C 0.1000 1.7100 
*I *1:s B *C 0.3050 1.1350 
*I *2:s B *C 0.3050 1.1350 
*I *3:s B *C 0.7150 1.1350 
*I *5:s B *C 0.7150 1.1350 
*I *8:s B *C 1.1750 1.0950 
*I *10:s B *C 1.1750 1.0950 
*I *12:s B *C 1.5250 1.0950 
*N *18:3 *C 0.9000 1.7100 

*CAP
0 *12:s 3.23779e-16
1 *18:3 6.05518e-17
2 *18 8.6933e-18

*RES
0 *12:s *18 0.102391  // $metal1_conn
1 *18:3 *12:s 8.333333  // $metal1_conn

*END

*D_NET *7 0

*CONN
*P *7 I *C 0.1000 0.0000 
*I *4:d B *C 0.3050 0.5050 
*I *6:d B *C 0.3050 0.5050 
*I *9:d B *C 0.7150 0.5050 
*I *11:d B *C 0.7150 0.5050 
*I *13:d B *C 1.1750 0.4800 
*I *14:d B *C 1.1750 0.4800 
*I *15:d B *C 1.5250 0.4800 
*N *7:3 *C 0.9000 0.0000 


*RES
0 *15:d *7 0.102391  // $metal1_conn
1 *7:3 *15:d 6.888889  // $metal1_conn

*END

*D_NET *17 2.13082e-16

*CONN
*P *17 I *C 1.5250 0.8000 
*I *14:g B *C 1.2275 0.4800 
*I *15:g B *C 1.4325 0.4800 
*I *10:g B *C 1.2275 1.0950 
*I *12:g B *C 1.4325 1.0950 
*N *17:6 *C 1.4900 0.7150 
*N *17:8 *C 1.5075 0.7150 
*N *17:9 *C 1.5075 0.8000 

*CAP
0 *12:g 1.43777e-16
1 *17:6 3.69741e-17
2 *17 3.23311e-17

*RES
0 *12:g *17:6 48.256718  // $poly_conn
1 *17:9 *17 0.006371  // $metal1_conn
2 *17:6 *17:8 0.006008  // $metal1_conn
3 *17:8 *17:9 0.037335  // $metal1_conn

*END

*D_NET *16 4.43151e-16

*CONN
*P *16 O *C 0.1000 0.8000 
*I *4:s B *C 0.1100 0.5050 
*I *6:s B *C 0.5100 0.5050 
*I *9:s B *C 0.5100 0.5050 
*I *11:s B *C 0.9200 0.5050 
*I *13:s B *C 0.9200 0.5050 
*I *1:d B *C 0.1100 1.1350 
*I *2:d B *C 0.5100 1.1350 
*I *3:d B *C 0.5100 1.1350 
*I *5:d B *C 0.9200 1.1350 
*I *8:d B *C 0.9200 1.1350 

*CAP
0 *16 4.43151e-16


*END

*D_NET *19 4.67885e-16

*CONN
*I *4:g B *C 0.2025 0.5050 
*I *6:g B *C 0.4075 0.5050 
*I *9:g B *C 0.6125 0.5050 
*I *11:g B *C 0.8175 0.5050 
*I *13:g B *C 1.0225 0.5050 
*I *14:s B *C 1.3300 0.4800 
*I *15:s B *C 1.3300 0.4800 
*I *1:g B *C 0.2025 1.1350 
*I *2:g B *C 0.4075 1.1350 
*I *3:g B *C 0.6125 1.1350 
*I *5:g B *C 0.8175 1.1350 
*I *8:g B *C 1.0225 1.1350 
*I *10:d B *C 1.3300 1.0950 
*I *12:d B *C 1.3300 1.0950 
*N *19:9 *C 1.0750 0.7750 
*N *19:18 *C 1.3300 0.7750 

*CAP
0 *10:d 7.34074e-17
1 *8:g 2.69998e-16
2 *14:s 5.45023e-17
3 *19:18 3.88657e-17
4 *19:9 3.11117e-17

*RES
0 *8:g *19:9 47.539192  // $poly_conn
1 *19:18 *19:9 0.166694  // $metal1_conn
2 *10:d *19:18 20.927835  // $metal1_conn
3 *19:18 *14:s 37.747295  // $metal1_conn

*END

