*SPEF "IEEE 1481-1999"
*DESIGN  "BUFX2"
*DATE "Mon Sep 27 09:10:38 2010"
*VENDOR "Cadence Design Systems"
*PROGRAM "Assura RCX"
*VERSION "3.2 Red Hat Linux release 7.2 (Enigma) - (09/09/2009-10:39)"
*DESIGN_FLOW "Physical Verification"
*DIVIDER /
*DELIMITER :
*BUS_DELIMITER []
*T_UNIT 1 PS
*C_UNIT 1e15 FF
*R_UNIT 1 OHM
*L_UNIT 1 MH
// DeviceFingerDelim "@"
// MATCHED
// caps2d version: 10

*NAME_MAP
*1 mp1\@1
*2 mn0
*3 VDD
*4 mp0
*5 n0
*6 Y
*7 A
*8 mn1
*9 VSS
*10 mp1
*11 mn1\@1

*GROUND_NETS VSS

*PORTS
*3 I
*9 I
*7 I
*6 O

*D_NET *3 1.46195e-16

*CONN
*P *3 I *C 0.1000 1.7100 
*I *10:s B *C 0.1100 1.1250 
*I *1:s B *C 0.5600 1.2125 
*I *4:s B *C 0.5600 1.2125 
*N *3:2 *C 0.5000 1.7100 

*CAP
0 *3:2 6.31675e-17
1 *3 8.30271e-17

*RES
0 *3:2 *3 15  // $metal1_conn

*END

*D_NET *9 0

*CONN
*P *9 I *C 0.1000 0.0000 
*I *8:d B *C 0.1100 0.5100 
*I *11:d B *C 0.5600 0.4525 
*I *2:d B *C 0.5600 0.4525 
*N *9:2 *C 0.5000 0.0000 


*RES
0 *9:2 *9 12.4  // $metal1_conn

*END

*D_NET *7 2.02424e-16

*CONN
*P *7 I *C 0.7050 0.8150 
*I *2:g B *C 0.6125 0.4525 
*I *4:g B *C 0.6125 1.2125 
*N *7:2 *C 0.6400 0.8200 

*CAP
0 *4:g 4.01826e-17
1 *2:g 3.65648e-17
2 *7:2 1.04989e-16
3 *7 2.06877e-17

*RES
0 *4:g *7:2 64.563744  // $poly_conn
1 *7:2 *2:g 67.127846  // $poly_conn
2 *7 *7:2 45.034176  // $metal1_conn

*END

*D_NET *6 1.84311e-16

*CONN
*P *6 O *C 0.2250 0.8100 
*I *8:s B *C 0.3050 0.5100 
*I *11:s B *C 0.3050 0.5100 
*I *10:d B *C 0.3050 1.1250 
*I *1:d B *C 0.3050 1.1250 
*N *6:2 *C 0.3050 0.8200 

*CAP
0 *10:d 7.62483e-17
1 *8:s 5.95089e-17
2 *6:2 3.36086e-17
3 *6 1.49455e-17

*RES
0 *6:2 *6 0.024794  // $metal1_conn
1 *10:d *6:2 20.889568  // $metal1_conn
2 *6:2 *8:s 37.747826  // $metal1_conn

*END

*D_NET *5 3.63138e-16

*CONN
*I *8:g B *C 0.2025 0.5100 
*I *11:g B *C 0.4075 0.5100 
*I *2:s B *C 0.7050 0.4525 
*I *10:g B *C 0.2025 1.1250 
*I *1:g B *C 0.4075 1.1250 
*I *4:d B *C 0.7050 1.2125 
*N *5:8 *C 0.4500 0.7400 

*CAP
0 *4:d 5.92e-17
1 *1:g 2.59261e-16
2 *2:s 4.46771e-17

*RES
0 *1:g *5:8 45  // $metal1_conn
1 *4:d *5:8 62.501492  // $metal1_conn
2 *5:8 *2:s 75.382149  // $metal1_conn

*END

