*SPEF "IEEE 1481-1999"
*DESIGN  "BUFX16"
*DATE "Mon Sep 27 09:10:15 2010"
*VENDOR "Cadence Design Systems"
*PROGRAM "Assura RCX"
*VERSION "3.2 Red Hat Linux release 7.2 (Enigma) - (09/09/2009-10:39)"
*DESIGN_FLOW "Physical Verification"
*DIVIDER /
*DELIMITER :
*BUS_DELIMITER []
*T_UNIT 1 PS
*C_UNIT 1e15 FF
*R_UNIT 1 OHM
*L_UNIT 1 MH
// DeviceFingerDelim "@"
// MATCHED
// caps2d version: 10

*NAME_MAP
*1 Y
*2 mp1\@5
*3 mp1\@6
*4 mp1\@7
*5 mp1\@8
*6 mp1\@9
*7 mp1\@10
*8 mp1\@11
*9 mp1\@12
*10 VDD
*11 mp1\@13
*12 mn1
*13 mn1\@1
*14 mn1\@2
*15 mn1\@3
*16 mn1\@4
*17 VSS
*18 mn0
*19 mp1
*20 mn0\@1
*21 mp1\@1
*22 mn0\@2
*23 mp1\@2
*24 mn0\@3
*25 mp1\@3
*26 mp1\@4
*27 mp0
*28 mp0\@1
*29 mp0\@2
*30 mp0\@3
*31 A
*32 mn1\@5
*33 mn1\@6
*34 mn1\@7
*35 mn1\@8
*36 mn1\@9
*37 n0
*38 mn1\@10
*39 mn1\@11
*40 mn1\@12
*41 mn1\@13

*GROUND_NETS VSS

*PORTS
*10 I
*17 I
*31 I
*1 O

*D_NET *10 8.53488e-16

*CONN
*P *10 I *C 0.1000 1.7100 
*I *19:s B *C 2.1500 1.1225 
*I *21:s B *C 2.1500 1.1225 
*I *23:s B *C 2.5600 1.1225 
*I *25:s B *C 2.5600 1.1225 
*I *26:s B *C 3.0200 1.1500 
*I *27:s B *C 3.0200 1.1500 
*I *28:s B *C 3.3800 1.1500 
*I *29:s B *C 3.3800 1.1500 
*I *30:s B *C 3.7800 1.1500 
*I *2:s B *C 0.1100 1.1225 
*I *3:s B *C 0.5100 1.1225 
*I *4:s B *C 0.5100 1.1225 
*I *5:s B *C 0.9200 1.1225 
*I *6:s B *C 0.9200 1.1225 
*I *7:s B *C 1.3300 1.1225 
*I *8:s B *C 1.3300 1.1225 
*I *9:s B *C 1.7400 1.1225 
*I *11:s B *C 1.7400 1.1225 

*CAP
0 *10 8.53488e-16


*END

*D_NET *31 3.76389e-16

*CONN
*P *31 I *C 3.7800 0.7950 
*I *18:g B *C 3.0725 0.5300 
*I *20:g B *C 3.2775 0.5300 
*I *22:g B *C 3.4825 0.5300 
*I *24:g B *C 3.6875 0.5300 
*I *27:g B *C 3.0725 1.1500 
*I *28:g B *C 3.2775 1.1500 
*I *29:g B *C 3.4825 1.1500 
*I *30:g B *C 3.6875 1.1500 
*N *31:13 *C 3.5080 0.7850 

*CAP
0 *30:g 3.40924e-16
1 *31 3.54642e-17

*RES
0 *31 *31:13 0.174235  // $metal1_conn
1 *30:g *31:13 45  // $metal1_conn
2 *31:13 *30:g 45.116627  // $metal1_conn

*END

*D_NET *1 1.58156e-15

*CONN
*P *1 O *C 0.2750 0.8000 
*I *12:s B *C 1.9450 0.5125 
*I *13:s B *C 2.3550 0.5125 
*I *14:s B *C 2.3550 0.5125 
*I *15:s B *C 2.7650 0.5125 
*I *16:s B *C 2.7650 0.5125 
*I *32:s B *C 0.3050 0.5125 
*I *33:s B *C 0.3050 0.5125 
*I *34:s B *C 0.7150 0.5125 
*I *35:s B *C 0.7150 0.5125 
*I *36:s B *C 1.1250 0.5125 
*I *38:s B *C 1.1250 0.5125 
*I *39:s B *C 1.5350 0.5125 
*I *40:s B *C 1.5350 0.5125 
*I *41:s B *C 1.9450 0.5125 
*I *19:d B *C 1.9450 1.1225 
*I *21:d B *C 2.3550 1.1225 
*I *23:d B *C 2.3550 1.1225 
*I *25:d B *C 2.7650 1.1225 
*I *26:d B *C 2.7650 1.1225 
*I *2:d B *C 0.3050 1.1225 
*I *3:d B *C 0.3050 1.1225 
*I *4:d B *C 0.7150 1.1225 
*I *5:d B *C 0.7150 1.1225 
*I *6:d B *C 1.1250 1.1225 
*I *7:d B *C 1.1250 1.1225 
*I *8:d B *C 1.5350 1.1225 
*I *9:d B *C 1.5350 1.1225 
*I *11:d B *C 1.9450 1.1225 

*CAP
0 *25:d 8.2931e-16
1 *12:s 7.37661e-16
2 *1 1.45868e-17

*RES
0 *25:d *1 0.083991  // $metal1_conn
1 *1 *12:s 0.093919  // $metal1_conn

*END

*D_NET *37 1.60945e-15

*CONN
*I *12:g B *C 2.0475 0.5125 
*I *13:g B *C 2.2525 0.5125 
*I *14:g B *C 2.4575 0.5125 
*I *15:g B *C 2.6625 0.5125 
*I *16:g B *C 2.8675 0.5125 
*I *18:s B *C 3.1750 0.5300 
*I *20:s B *C 3.1750 0.5300 
*I *22:s B *C 3.5850 0.5300 
*I *24:s B *C 3.5850 0.5300 
*I *32:g B *C 0.2025 0.5125 
*I *33:g B *C 0.4075 0.5125 
*I *34:g B *C 0.6125 0.5125 
*I *35:g B *C 0.8175 0.5125 
*I *36:g B *C 1.0225 0.5125 
*I *38:g B *C 1.2275 0.5125 
*I *39:g B *C 1.4325 0.5125 
*I *40:g B *C 1.6375 0.5125 
*I *41:g B *C 1.8425 0.5125 
*I *19:g B *C 2.0475 1.1225 
*I *21:g B *C 2.2525 1.1225 
*I *23:g B *C 2.4575 1.1225 
*I *25:g B *C 2.6625 1.1225 
*I *26:g B *C 2.8675 1.1225 
*I *27:d B *C 3.1750 1.1500 
*I *28:d B *C 3.1750 1.1500 
*I *29:d B *C 3.5850 1.1500 
*I *30:d B *C 3.5850 1.1500 
*I *2:g B *C 0.2025 1.1225 
*I *3:g B *C 0.4075 1.1225 
*I *4:g B *C 0.6125 1.1225 
*I *5:g B *C 0.8175 1.1225 
*I *6:g B *C 1.0225 1.1225 
*I *7:g B *C 1.2275 1.1225 
*I *8:g B *C 1.4325 1.1225 
*I *9:g B *C 1.6375 1.1225 
*I *11:g B *C 1.8425 1.1225 
*N *37:45 *C 3.1475 0.7750 

*CAP
0 *29:d 2.22443e-16
1 *26:g 1.19637e-15
2 *18:s 1.65607e-16
3 *37:45 2.50317e-17

*RES
0 *37:45 *26:g 0.204148  // $metal1_conn
1 *29:d *37:45 0.098111  // $metal1_conn
2 *37:45 *18:s 0.102066  // $metal1_conn

*END

