*SPEF "IEEE 1481-1999"
*DESIGN  "CLKAND2X2"
*DATE "Mon Sep 27 09:13:13 2010"
*VENDOR "Cadence Design Systems"
*PROGRAM "Assura RCX"
*VERSION "3.2 Red Hat Linux release 7.2 (Enigma) - (09/09/2009-10:39)"
*DESIGN_FLOW "Physical Verification"
*DIVIDER /
*DELIMITER :
*BUS_DELIMITER []
*T_UNIT 1 PS
*C_UNIT 1e15 FF
*R_UNIT 1 OHM
*L_UNIT 1 MH
// DeviceFingerDelim "@"
// MATCHED
// caps2d version: 10

*NAME_MAP
*1 mp1
*2 mp0
*3 mp2
*4 mp2\@1
*5 VSS
*6 net61
*7 net69
*8 mn1
*9 mn0
*10 A
*11 VDD
*12 mn2
*13 Y
*14 B
*15 mn2\@1

*GROUND_NETS VSS

*PORTS
*11 I
*5 I
*10 I
*14 I
*13 O

*D_NET *11 1.71412e-16

*CONN
*P *11 I *C 0.1000 1.7100 
*I *1:s B *C 0.1300 1.5700 
*I *2:s B *C 0.5600 1.1450 
*I *3:s B *C 0.5600 1.1450 
*I *4:s B *C 0.9550 1.1450 
*N *11:2 *C 0.6000 1.7100 

*CAP
0 *4:s 8.42816e-17
1 *1:s 1.77927e-17
2 *11:2 6.24918e-17
3 *11 6.84622e-18

*RES
0 *11 *1:s 62.082134  // $metal1_conn
1 *4:s *11 0.215292  // $metal1_conn
2 *11:2 *4:s 12.5  // $metal1_conn

*END

*D_NET *5 0

*CONN
*P *5 I *C 0.1000 0.0000 
*I *9:s B *C 0.5800 0.4300 
*I *12:s B *C 0.5800 0.4300 
*I *15:s B *C 0.9550 0.4300 
*N *5:2 *C 0.6000 0.0000 


*RES
0 *15:s *5 0.21494  // $metal1_conn
1 *5:2 *15:s 10.333333  // $metal1_conn

*END

*D_NET *10 2.90829e-16

*CONN
*P *10 I *C 0.5000 1.0450 
*I *9:g B *C 0.4275 0.4450 
*I *2:g B *C 0.4275 1.2325 
*N *10:2 *C 0.4550 0.7400 

*CAP
0 *2:g 5.08757e-17
1 *9:g 7.41246e-17
2 *10:2 1.04851e-16
3 *10 6.09773e-17

*RES
0 *2:g *10:2 90.204765  // $poly_conn
1 *10:2 *9:g 29.94836  // $poly_conn
2 *10 *10:2 45.182098  // $metal1_conn

*END

*D_NET *14 2.40546e-16

*CONN
*P *14 I *C 0.1000 0.8550 
*I *8:g B *C 0.3225 0.4450 
*I *1:g B *C 0.1675 1.2325 
*N *14:2 *C 0.1675 0.8600 
*N *14:3 *C 0.1100 0.8600 

*CAP
0 *1:g 2.84956e-17
1 *8:g 7.27771e-17
2 *14:2 3.42292e-17
3 *14:3 8.75108e-18
4 *14 9.62928e-17

*RES
0 *8:g *14:2 96.359421  // $poly_conn
1 *14:2 *14:3 48.400734  // $poly_conn
2 *14:2 *1:g 58.134468  // $poly_conn
3 *14 *14:3 0.003104  // $metal1_conn

*END

*D_NET *13 1.86666e-16

*CONN
*P *13 O *C 0.9000 0.6650 
*I *12:d B *C 0.7350 0.4300 
*I *15:d B *C 0.7350 0.4300 
*I *3:d B *C 0.7350 1.1450 
*I *4:d B *C 0.7350 1.1450 
*N *13:1 *C 0.8300 0.6650 

*CAP
0 *3:d 6.3315e-17
1 *12:d 4.70054e-17
2 *13:1 7.6346e-17

*RES
0 *13 *13:1 0.019587  // $metal1_conn
1 *13:1 *3:d 21.049559  // $metal1_conn
2 *13:1 *12:d 75.252037  // $metal1_conn

*END

*D_NET *7 3.54779e-18

*CONN
*I *8:s B *C 0.3750 0.4450 
*I *9:d B *C 0.3750 0.4450 

*CAP
0 *8:s 3.54779e-18

*RES
0 *9:d *8:s 0.001  // $mwires

*END

*D_NET *6 3.84327e-16

*CONN
*I *8:d B *C 0.2300 0.4450 
*I *12:g B *C 0.6325 0.4300 
*I *15:g B *C 0.8375 0.4300 
*I *1:d B *C 0.2975 1.2325 
*I *2:d B *C 0.2975 1.2325 
*I *3:g B *C 0.6325 1.1450 
*I *4:g B *C 0.8375 1.1450 
*N *6:8 *C 0.2200 0.5300 

*CAP
0 *4:g 2.17018e-16
1 *1:d 8.82744e-17
2 *8:d 7.9035e-17

*RES
0 *6:8 *1:d 62.464027  // $metal1_conn
1 *8:d *6:8 75  // $metal1_conn
2 *4:g *6:8 45.42495  // $metal1_conn

*END

