*SPEF "IEEE 1481-1999"
*DESIGN  "CLKAND2X3"
*DATE "Mon Sep 27 09:13:36 2010"
*VENDOR "Cadence Design Systems"
*PROGRAM "Assura RCX"
*VERSION "3.2 Red Hat Linux release 7.2 (Enigma) - (09/09/2009-10:39)"
*DESIGN_FLOW "Physical Verification"
*DIVIDER /
*DELIMITER :
*BUS_DELIMITER []
*T_UNIT 1 PS
*C_UNIT 1e15 FF
*R_UNIT 1 OHM
*L_UNIT 1 MH
// DeviceFingerDelim "@"
// MATCHED
// caps2d version: 10

*NAME_MAP
*1 net69\@1
*2 mp0
*3 mp1
*4 mp1\@1
*5 mn0
*6 mp0\@1
*7 mn1
*8 VSS
*9 mp2
*10 mn1\@1
*11 mp2\@1
*12 mn0\@1
*13 mp2\@2
*14 mn2
*15 mn2\@1
*16 mn2\@2
*17 Y
*18 A
*19 B
*20 VDD
*21 net61
*22 net69

*GROUND_NETS VSS

*PORTS
*20 I
*8 I
*18 I
*19 I
*17 O

*D_NET *20 2.02857e-16

*CONN
*P *20 I *C 0.1000 1.7100 
*I *2:s B *C 0.1100 1.0425 
*I *3:s B *C 0.5650 1.5700 
*I *4:s B *C 0.5650 1.5700 
*I *6:s B *C 1.0350 1.1400 
*I *9:s B *C 1.0350 1.1400 
*I *11:s B *C 1.3900 1.1400 
*I *13:s B *C 1.3900 1.1400 
*N *20:2 *C 0.9000 1.7100 

*CAP
0 *3:s 6.12608e-18
1 *20:2 9.13227e-17
2 *20 1.05408e-16

*RES
0 *20:2 *20 8.333333  // $metal1_conn
1 *20 *3:s 62.073681  // $metal1_conn

*END

*D_NET *8 0

*CONN
*P *8 I *C 0.1000 0.0000 
*I *5:s B *C 0.2100 0.4050 
*I *12:s B *C 0.8700 0.4050 
*I *14:s B *C 0.8700 0.4050 
*I *15:s B *C 1.3300 0.4050 
*I *16:s B *C 1.3300 0.4050 
*N *8:2 *C 0.9000 0.0000 
*N *8:5 *C 0.2000 0.0000 


*RES
0 *8:5 *8 0.049478  // $metal1_conn
1 *8:2 *15:s 6.888889  // $metal1_conn
2 *8:5 *5:s 75.202164  // $metal1_conn
3 *15:s *8:5 0.294156  // $metal1_conn

*END

*D_NET *18 4.17795e-16

*CONN
*P *18 I *C 0.3000 0.6650 
*I *5:g B *C 0.3025 0.4050 
*I *12:g B *C 0.7175 0.4050 
*I *2:g B *C 0.2025 1.0425 
*I *6:g B *C 0.8175 1.0425 

*CAP
0 *12:g 5.35001e-17
1 *5:g 4.98666e-17
2 *18 3.14429e-16

*RES
0 *18 *12:g 19.094141  // $poly_conn
1 *5:g *18 19.094143  // $poly_conn

*END

*D_NET *19 3.21723e-16

*CONN
*P *19 I *C 0.5000 0.8550 
*I *7:g B *C 0.4075 0.4050 
*I *10:g B *C 0.6125 0.4050 
*I *3:g B *C 0.4075 1.0425 
*I *4:g B *C 0.6125 1.0425 
*N *19:7 *C 0.4350 0.8350 
*N *19:8 *C 0.4350 0.8450 
*N *19:9 *C 0.5005 0.8450 

*CAP
0 *4:g 1.049e-16
1 *10:g 5.71724e-17
2 *7:g 5.86019e-17
3 *19:9 3.65564e-17
4 *19:8 6.44928e-17

*RES
0 *4:g *10:g 66.155685  // $poly_conn
1 *4:g *7:g 65.873169  // $poly_conn
2 *19:9 *19 0.001871  // $metal1_conn
3 *4:g *19:7 45  // $metal1_conn
4 *19:7 *19:8 0.001871  // $metal1_conn
5 *19:8 *19:9 0.032781  // $metal1_conn

*END

*D_NET *17 2.12587e-16

*CONN
*P *17 O *C 1.5000 0.6650 
*I *14:d B *C 1.1250 0.4050 
*I *15:d B *C 1.1250 0.4050 
*I *16:d B *C 1.5250 0.4050 
*I *9:d B *C 1.1850 1.1400 
*I *11:d B *C 1.1850 1.1400 
*I *13:d B *C 1.5850 1.1400 

*CAP
0 *13:d 1.15849e-16
1 *14:d 7.7964e-17
2 *17 1.87741e-17

*RES
0 *17 *14:d 0.116097  // $metal1_conn
1 *13:d *17 0.167065  // $metal1_conn

*END

*D_NET *1 1.71309e-18

*CONN
*I *10:s B *C 0.6650 0.4050 
*I *12:d B *C 0.6650 0.4050 

*CAP
0 *10:s 1.71309e-18

*RES
0 *12:d *10:s 0.001  // $mwires

*END

*D_NET *22 7.13354e-20

*CONN
*I *5:d B *C 0.3550 0.4050 
*I *7:s B *C 0.3550 0.4050 

*CAP
0 *5:d 7.13354e-20

*RES
0 *7:s *5:d 0.001  // $mwires

*END

*D_NET *21 4.5384e-16

*CONN
*I *7:d B *C 0.5100 0.4050 
*I *10:d B *C 0.5100 0.4050 
*I *14:g B *C 1.0225 0.4050 
*I *15:g B *C 1.2275 0.4050 
*I *16:g B *C 1.4325 0.4050 
*I *2:d B *C 0.3050 1.0425 
*I *3:d B *C 0.3050 1.0425 
*I *4:d B *C 0.7150 1.0425 
*I *6:d B *C 0.7150 1.0425 
*I *9:g B *C 1.0825 1.1400 
*I *11:g B *C 1.2875 1.1400 
*I *13:g B *C 1.4925 1.1400 
*N *21:11 *C 0.9350 0.6850 

*CAP
0 *13:g 2.00745e-16
1 *4:d 1.0656e-16
2 *7:d 7.79272e-17
3 *21:11 6.86073e-17

*RES
0 *21:11 *7:d 75.486061  // $metal1_conn
1 *13:g *21:11 45.113403  // $metal1_conn
2 *21:11 *4:d 0.394149  // $metal1_conn

*END

