*SPEF "IEEE 1481-1999"
*DESIGN  "CLKAND2X8"
*DATE "Mon Sep 27 09:14:46 2010"
*VENDOR "Cadence Design Systems"
*PROGRAM "Assura RCX"
*VERSION "3.2 Red Hat Linux release 7.2 (Enigma) - (09/09/2009-10:39)"
*DESIGN_FLOW "Physical Verification"
*DIVIDER /
*DELIMITER :
*BUS_DELIMITER []
*T_UNIT 1 PS
*C_UNIT 1e15 FF
*R_UNIT 1 OHM
*L_UNIT 1 MH
// DeviceFingerDelim "@"
// MATCHED
// caps2d version: 10

*NAME_MAP
*1 VSS
*2 mn2
*3 mn2\@1
*4 mn1\@1
*5 mn2\@2
*6 mn0\@1
*7 mn2\@3
*8 mn0\@2
*9 mn2\@4
*10 mn1\@2
*11 mn2\@5
*12 mn1\@3
*13 mn2\@6
*14 mn0\@3
*15 mn0
*16 mn1
*17 net61
*18 net69
*19 Y
*20 net69\@1
*21 net69\@2
*22 VDD
*23 mp1
*24 mp1\@1
*25 mp0\@2
*26 mp0\@3
*27 mp1\@2
*28 mp1\@3
*29 net69\@3
*30 mp2
*31 mp2\@1
*32 mp2\@2
*33 mp2\@3
*34 mp2\@4
*35 mp2\@5
*36 mp2\@6
*37 mp0
*38 mp0\@1
*39 A
*40 B

*GROUND_NETS VSS

*PORTS
*22 I
*1 I
*39 I
*40 I
*19 O

*D_NET *22 4.48092e-16

*CONN
*P *22 I *C 0.1000 1.7100 
*I *30:s B *C 1.8300 1.1675 
*I *31:s B *C 2.1850 1.1675 
*I *32:s B *C 2.1850 1.1675 
*I *33:s B *C 2.5950 1.1675 
*I *34:s B *C 2.5950 1.1675 
*I *35:s B *C 3.0050 1.1675 
*I *36:s B *C 3.0050 1.1675 
*I *37:s B *C 1.8300 1.1675 
*I *38:s B *C 0.1950 1.5700 
*I *23:s B *C 0.5950 1.5700 
*I *24:s B *C 0.5950 1.5700 
*I *25:s B *C 0.9950 1.5700 
*I *26:s B *C 0.9950 1.5700 
*I *27:s B *C 1.4050 1.5700 
*I *28:s B *C 1.4050 1.5700 
*N *22:2 *C 2.6000 1.7100 

*CAP
0 *35:s 2.88126e-16
1 *22:2 1.59966e-16

*RES
0 *35:s *22 0.034522  // $metal1_conn
1 *22:2 *35:s 9.375  // $metal1_conn
2 *22:2 *35:s 8.333333  // $metal1_conn

*END

*D_NET *1 0

*CONN
*P *1 I *C 0.1000 0.0000 
*I *2:s B *C 1.7500 0.4525 
*I *3:s B *C 2.1300 0.4525 
*I *5:s B *C 2.1300 0.4525 
*I *7:s B *C 2.5400 0.4525 
*I *9:s B *C 2.5400 0.4525 
*I *11:s B *C 2.9500 0.4525 
*I *13:s B *C 2.9500 0.4525 
*I *15:s B *C 0.2400 0.4350 
*I *6:s B *C 0.9400 0.4350 
*I *8:s B *C 0.9400 0.4350 
*I *14:s B *C 1.7500 0.4525 
*N *1:2 *C 2.6000 0.0000 
*N *1:7 *C 0.9000 0.0000 
*N *1:8 *C 0.2300 0.0000 


*RES
0 *1:8 *1 0.064509  // $metal1_conn
1 *1:2 *11:s 7.75  // $metal1_conn
2 *1:2 *1:7 6.888889  // $metal1_conn
3 *1:7 *6:s 75.234604  // $metal1_conn
4 *1:8 *15:s 75.222237  // $metal1_conn
5 *11:s *1:7 0.359959  // $metal1_conn
6 *1:7 *1:8 0.334772  // $metal1_conn

*END

*D_NET *39 7.34412e-16

*CONN
*P *39 I *C 0.3000 0.6650 
*I *15:g B *C 0.3325 0.4350 
*I *6:g B *C 0.8375 0.4350 
*I *8:g B *C 1.0425 0.4350 
*I *14:g B *C 1.5475 0.4350 
*I *37:g B *C 1.6475 1.0425 
*I *38:g B *C 0.2325 1.0425 
*I *25:g B *C 0.8375 1.0425 
*I *26:g B *C 1.0425 1.0425 

*CAP
0 *37:g 5.16412e-16
1 *14:g 6.35157e-17
2 *8:g 2.80923e-17
3 *6:g 4.61463e-17
4 *15:g 2.80951e-17
5 *39 5.21506e-17

*RES
0 *37:g *14:g 26.786449  // $poly_conn
1 *37:g *8:g 36.668507  // $poly_conn
2 *37:g *6:g 21.283424  // $poly_conn
3 *15:g *37:g 19.094143  // $poly_conn
4 *37:g *39 0.002699  // $metal1_conn

*END

*D_NET *40 5.88748e-16

*CONN
*P *40 I *C 1.3000 0.8550 
*I *16:g B *C 0.5275 0.4350 
*I *4:g B *C 0.7325 0.4350 
*I *10:g B *C 1.2375 0.4350 
*I *12:g B *C 1.4425 0.4350 
*I *23:g B *C 0.4375 1.0425 
*I *24:g B *C 0.6325 1.0425 
*I *27:g B *C 1.2475 1.0425 
*I *28:g B *C 1.4425 1.0425 

*CAP
0 *28:g 3.86881e-16
1 *12:g 4.41396e-17
2 *10:g 2.4998e-17
3 *4:g 5.73745e-17
4 *16:g 3.32582e-17
5 *40 4.20961e-17

*RES
0 *28:g *12:g 18.71979  // $poly_conn
1 *28:g *10:g 17.881908  // $poly_conn
2 *4:g *28:g 74.169441  // $poly_conn
3 *28:g *16:g 60.044071  // $poly_conn
4 *40 *28:g 0.054032  // $metal1_conn

*END

*D_NET *19 5.76808e-16

*CONN
*P *19 O *C 3.1000 0.8550 
*I *2:d B *C 1.9250 0.4525 
*I *3:d B *C 1.9250 0.4525 
*I *5:d B *C 2.3350 0.4525 
*I *7:d B *C 2.3350 0.4525 
*I *9:d B *C 2.7450 0.4525 
*I *11:d B *C 2.7450 0.4525 
*I *13:d B *C 3.1450 0.4525 
*I *30:d B *C 1.9800 1.1675 
*I *31:d B *C 1.9800 1.1675 
*I *32:d B *C 2.3900 1.1675 
*I *33:d B *C 2.3900 1.1675 
*I *34:d B *C 2.8000 1.1675 
*I *35:d B *C 2.8000 1.1675 
*I *36:d B *C 3.2000 1.1675 

*CAP
0 *36:d 3.32297e-16
1 *2:d 2.25103e-16
2 *19 1.94075e-17

*RES
0 *36:d *19 0.055236  // $metal1_conn
1 *19 *2:d 0.17438  // $metal1_conn

*END

*D_NET *29 1.75543e-18

*CONN
*I *12:s B *C 1.4950 0.4350 
*I *14:d B *C 1.4950 0.4350 

*CAP
0 *12:s 1.75543e-18

*RES
0 *14:d *12:s 0.001  // $mwires

*END

*D_NET *21 4.93072e-18

*CONN
*I *8:d B *C 1.1400 0.4350 
*I *10:s B *C 1.1400 0.4350 

*CAP
0 *8:d 4.93072e-18

*RES
0 *10:s *8:d 0.001  // $mwires

*END

*D_NET *20 1.75543e-18

*CONN
*I *4:s B *C 0.7850 0.4350 
*I *6:d B *C 0.7850 0.4350 

*CAP
0 *4:s 1.75543e-18

*RES
0 *6:d *4:s 0.001  // $mwires

*END

*D_NET *18 0

*CONN
*I *15:d B *C 0.4300 0.4350 
*I *16:s B *C 0.4300 0.4350 


*RES
0 *16:s *15:d 0.001  // $mwires

*END

*D_NET *17 9.44491e-16

*CONN
*I *2:g B *C 1.8225 0.4525 
*I *3:g B *C 2.0275 0.4525 
*I *5:g B *C 2.2325 0.4525 
*I *7:g B *C 2.4375 0.4525 
*I *9:g B *C 2.6425 0.4525 
*I *11:g B *C 2.8475 0.4525 
*I *13:g B *C 3.0525 0.4525 
*I *16:d B *C 0.6300 0.4350 
*I *4:d B *C 0.6300 0.4350 
*I *10:d B *C 1.3400 0.4350 
*I *12:d B *C 1.3400 0.4350 
*I *30:g B *C 1.8775 1.1675 
*I *31:g B *C 2.0825 1.1675 
*I *32:g B *C 2.2875 1.1675 
*I *33:g B *C 2.4925 1.1675 
*I *34:g B *C 2.6975 1.1675 
*I *35:g B *C 2.9025 1.1675 
*I *36:g B *C 3.1075 1.1675 
*I *37:d B *C 1.5450 1.0425 
*I *38:d B *C 0.3350 1.0425 
*I *23:d B *C 0.3350 1.0425 
*I *24:d B *C 0.7350 1.0425 
*I *25:d B *C 0.7350 1.0425 
*I *26:d B *C 1.1450 1.0425 
*I *27:d B *C 1.1450 1.0425 
*I *28:d B *C 1.5450 1.0425 
*N *17:25 *C 1.7350 0.7150 
*N *17:34 *C 1.3400 0.5050 

*CAP
0 *37:d 2.04628e-16
1 *36:g 4.71903e-16
2 *10:d 1.16044e-16
3 *16:d 8.73749e-17
4 *17:25 6.45405e-17

*RES
0 *36:g *17:25 0.212532  // $metal1_conn
1 *10:d *17:34 75  // $metal1_conn
2 *17:34 *16:d 75.538124  // $metal1_conn
3 *17:25 *37:d 0.338194  // $metal1_conn
4 *17:25 *17:34 0.458593  // $metal1_conn

*END

