*SPEF "IEEE 1481-1999"
*DESIGN  "CLKBUFX8"
*DATE "Mon Sep 27 09:17:50 2010"
*VENDOR "Cadence Design Systems"
*PROGRAM "Assura RCX"
*VERSION "3.2 Red Hat Linux release 7.2 (Enigma) - (09/09/2009-10:39)"
*DESIGN_FLOW "Physical Verification"
*DIVIDER /
*DELIMITER :
*BUS_DELIMITER []
*T_UNIT 1 PS
*C_UNIT 1e15 FF
*R_UNIT 1 OHM
*L_UNIT 1 MH
// DeviceFingerDelim "@"
// MATCHED
// caps2d version: 10

*NAME_MAP
*1 mp1\@2
*2 mp1\@3
*3 mp1\@4
*4 mp1\@5
*5 Y
*6 mp1\@6
*7 mp0
*8 mp0\@1
*9 mn1
*10 mn1\@1
*11 mn1\@2
*12 mn1\@3
*13 mn1\@4
*14 mn1\@5
*15 mn1\@6
*16 mn0
*17 mn0\@1
*18 VDD
*19 A
*20 net44
*21 VSS
*22 mp1
*23 mp1\@1

*GROUND_NETS VSS

*PORTS
*18 I
*21 I
*19 I
*5 O

*D_NET *18 4.40218e-16

*CONN
*P *18 I *C 0.1000 1.7100 
*I *22:s B *C 0.4600 1.1525 
*I *23:s B *C 0.4600 1.1525 
*I *1:s B *C 0.8700 1.1525 
*I *2:s B *C 0.8700 1.1525 
*I *3:s B *C 1.2800 1.1525 
*I *4:s B *C 1.2800 1.1525 
*I *6:s B *C 1.7400 1.1250 
*I *7:s B *C 1.7400 1.1250 
*I *8:s B *C 2.0900 1.1250 
*N *18:4 *C 1.1000 1.7100 

*CAP
0 *8:s 3.62367e-16
1 *18:4 7.17806e-17
2 *18 6.07077e-18

*RES
0 *8:s *18 0.180268  // $metal1_conn
1 *18:4 *8:s 6.818182  // $metal1_conn

*END

*D_NET *21 0

*CONN
*P *21 I *C 0.1000 0.0000 
*I *9:s B *C 0.4600 0.4925 
*I *10:s B *C 0.4600 0.4925 
*I *11:s B *C 0.8700 0.4925 
*I *12:s B *C 0.8700 0.4925 
*I *13:s B *C 1.2800 0.4925 
*I *14:s B *C 1.2800 0.4925 
*I *15:s B *C 1.7400 0.5100 
*I *16:s B *C 1.7400 0.5100 
*I *17:s B *C 2.0900 0.5100 
*N *21:4 *C 1.1000 0.0000 


*RES
0 *17:s *21 0.180268  // $metal1_conn
1 *21:4 *17:s 5.636364  // $metal1_conn

*END

*D_NET *19 2.12711e-16

*CONN
*P *19 I *C 2.0900 0.8100 
*I *16:g B *C 1.7925 0.5100 
*I *17:g B *C 1.9975 0.5100 
*I *7:g B *C 1.7925 1.1250 
*I *8:g B *C 1.9975 1.1250 
*N *19:8 *C 2.0350 0.7400 
*N *19:9 *C 2.0625 0.7400 
*N *19:10 *C 2.0625 0.8100 

*CAP
0 *8:g 1.47393e-16
1 *19:9 3.40477e-17
2 *19 3.12708e-17

*RES
0 *19:10 *19 0.008467  // $metal1_conn
1 *8:g *19:8 45  // $metal1_conn
2 *19:8 *19:9 0.008316  // $metal1_conn
3 *19:9 *19:10 0.033868  // $metal1_conn

*END

*D_NET *5 8.24558e-16

*CONN
*P *5 O *C 0.2650 0.8100 
*I *9:d B *C 0.2650 0.4925 
*I *10:d B *C 0.6650 0.4925 
*I *11:d B *C 0.6650 0.4925 
*I *12:d B *C 1.0750 0.4925 
*I *13:d B *C 1.0750 0.4925 
*I *14:d B *C 1.4850 0.4925 
*I *15:d B *C 1.4850 0.4925 
*I *22:d B *C 0.2650 1.1525 
*I *23:d B *C 0.6650 1.1525 
*I *1:d B *C 0.6650 1.1525 
*I *2:d B *C 1.0750 1.1525 
*I *3:d B *C 1.0750 1.1525 
*I *4:d B *C 1.4850 1.1525 
*I *6:d B *C 1.4850 1.1525 

*CAP
0 *4:d 3.91246e-16
1 *9:d 4.23489e-16
2 *5 9.8227e-18

*RES
0 *4:d *5 0.097776  // $metal1_conn
1 *5 *9:d 0.089511  // $metal1_conn

*END

*D_NET *20 7.89033e-16

*CONN
*I *9:g B *C 0.3575 0.4925 
*I *10:g B *C 0.5625 0.4925 
*I *11:g B *C 0.7675 0.4925 
*I *12:g B *C 0.9725 0.4925 
*I *13:g B *C 1.1775 0.4925 
*I *14:g B *C 1.3825 0.4925 
*I *15:g B *C 1.5875 0.4925 
*I *16:d B *C 1.8950 0.5100 
*I *17:d B *C 1.8950 0.5100 
*I *22:g B *C 0.3575 1.1525 
*I *23:g B *C 0.5625 1.1525 
*I *1:g B *C 0.7675 1.1525 
*I *2:g B *C 0.9725 1.1525 
*I *3:g B *C 1.1775 1.1525 
*I *4:g B *C 1.3825 1.1525 
*I *6:g B *C 1.5875 1.1525 
*I *7:d B *C 1.8950 1.1250 
*I *8:d B *C 1.8950 1.1250 
*N *20:23 *C 1.8950 0.7950 

*CAP
0 *7:d 6.46953e-17
1 *6:g 6.22572e-16
2 *16:d 5.99741e-17
3 *20:23 4.17921e-17

*RES
0 *20:23 *6:g 0.184477  // $metal1_conn
1 *7:d *20:23 20.926853  // $metal1_conn
2 *20:23 *16:d 37.735279  // $metal1_conn

*END

