*SPEF "IEEE 1481-1999"
*DESIGN  "CLKBUFX4"
*DATE "Mon Sep 27 09:17:04 2010"
*VENDOR "Cadence Design Systems"
*PROGRAM "Assura RCX"
*VERSION "3.2 Red Hat Linux release 7.2 (Enigma) - (09/09/2009-10:39)"
*DESIGN_FLOW "Physical Verification"
*DIVIDER /
*DELIMITER :
*BUS_DELIMITER []
*T_UNIT 1 PS
*C_UNIT 1e15 FF
*R_UNIT 1 OHM
*L_UNIT 1 MH
// DeviceFingerDelim "@"
// MATCHED
// caps2d version: 10

*NAME_MAP
*1 mp1\@3
*2 mp0
*3 mn1
*4 Y
*5 mn1\@1
*6 mn1\@2
*7 mn1\@3
*8 net44
*9 mn0
*10 A
*11 VDD
*12 VSS
*13 mp1
*14 mp1\@1
*15 mp1\@2

*GROUND_NETS VSS

*PORTS
*11 I
*12 I
*10 I
*4 O

*D_NET *11 2.53327e-16

*CONN
*P *11 I *C 0.1000 1.7100 
*I *13:s B *C 0.1100 1.1750 
*I *14:s B *C 0.5175 1.1750 
*I *15:s B *C 0.5175 1.1750 
*I *1:s B *C 0.9350 1.1750 
*I *2:s B *C 0.9350 1.1750 
*N *11:2 *C 0.7000 1.7100 

*CAP
0 *11:2 7.70501e-17
1 *11 1.76277e-16

*RES
0 *11:2 *11 10.714286  // $metal1_conn

*END

*D_NET *12 0

*CONN
*P *12 I *C 0.1000 0.0000 
*I *3:s B *C 0.1100 0.3600 
*I *5:s B *C 0.5175 0.3600 
*I *6:s B *C 0.5175 0.3600 
*I *7:s B *C 0.9350 0.3600 
*I *9:s B *C 0.9350 0.3600 
*N *12:2 *C 0.7000 0.0000 


*RES
0 *12:2 *12 8.857142  // $metal1_conn

*END

*D_NET *10 1.88774e-16

*CONN
*P *10 I *C 0.9000 0.8000 
*I *9:g B *C 1.0375 0.3600 
*I *2:g B *C 1.0375 1.1750 
*N *10:2 *C 1.0000 0.8000 

*CAP
0 *2:g 4.01779e-17
1 *9:g 4.22787e-17
2 *10:2 6.70115e-17
3 *10 3.93057e-17

*RES
0 *2:g *10:2 36.668037  // $poly_conn
1 *10:2 *9:g 70.001373  // $poly_conn
2 *10:2 *10 45.041168  // $metal1_conn

*END

*D_NET *4 3.75626e-16

*CONN
*P *4 O *C 0.2650 0.8000 
*I *3:d B *C 0.3050 0.3600 
*I *5:d B *C 0.3050 0.3600 
*I *6:d B *C 0.7300 0.3600 
*I *7:d B *C 0.7300 0.3600 
*I *13:d B *C 0.3050 1.1750 
*I *14:d B *C 0.3050 1.1750 
*I *15:d B *C 0.7300 1.1750 
*I *1:d B *C 0.7300 1.1750 

*CAP
0 *15:d 1.84783e-16
1 *3:d 1.6518e-16
2 *4 2.56631e-17

*RES
0 *15:d *4 0.090779  // $metal1_conn
1 *4 *3:d 0.224784  // $metal1_conn

*END

*D_NET *8 4.94549e-16

*CONN
*I *3:g B *C 0.2025 0.3600 
*I *5:g B *C 0.4075 0.3600 
*I *6:g B *C 0.6275 0.3600 
*I *7:g B *C 0.8325 0.3600 
*I *9:d B *C 1.1300 0.3600 
*I *13:g B *C 0.2025 1.1750 
*I *14:g B *C 0.4075 1.1750 
*I *15:g B *C 0.6275 1.1750 
*I *1:g B *C 0.8325 1.1750 
*I *2:d B *C 1.1300 1.1750 
*N *8:14 *C 1.1425 0.6100 

*CAP
0 *2:d 6.1536e-17
1 *1:g 3.44763e-16
2 *9:d 3.04244e-17
3 *8:14 5.78262e-17

*RES
0 *8:14 *1:g 0.326796  // $metal1_conn
1 *2:d *8:14 21.058937  // $metal1_conn
2 *8:14 *9:d 37.6782  // $metal1_conn

*END

