*SPEF "IEEE 1481-1999"
*DESIGN  "CLKINVX4"
*DATE "Mon Sep 27 09:20:28 2010"
*VENDOR "Cadence Design Systems"
*PROGRAM "Assura RCX"
*VERSION "3.2 Red Hat Linux release 7.2 (Enigma) - (09/09/2009-10:39)"
*DESIGN_FLOW "Physical Verification"
*DIVIDER /
*DELIMITER :
*BUS_DELIMITER []
*T_UNIT 1 PS
*C_UNIT 1e15 FF
*R_UNIT 1 OHM
*L_UNIT 1 MH
// DeviceFingerDelim "@"
// MATCHED
// caps2d version: 10

*NAME_MAP
*1 mn0\@3
*2 mp0
*3 mp0\@1
*4 mp0\@2
*5 mp0\@3
*6 A
*7 VDD
*8 Y
*9 VSS
*10 mn0
*11 mn0\@1
*12 mn0\@2

*GROUND_NETS VSS

*PORTS
*7 I
*9 I
*6 I
*8 O

*D_NET *7 1.8196e-16

*CONN
*P *7 I *C 0.1000 1.7100 
*I *2:s B *C 0.1100 1.1400 
*I *3:s B *C 0.5100 1.1400 
*I *4:s B *C 0.5100 1.1400 
*I *5:s B *C 0.9150 1.2875 
*N *7:2 *C 0.5000 1.7100 

*CAP
0 *7:2 6.52824e-17
1 *7 1.16677e-16

*RES
0 *7:2 *7 15  // $metal1_conn

*END

*D_NET *9 0

*CONN
*P *9 I *C 0.1000 0.0000 
*I *10:s B *C 0.1100 0.5250 
*I *11:s B *C 0.5100 0.5250 
*I *12:s B *C 0.5100 0.5250 
*I *1:s B *C 0.9150 0.3675 
*N *9:2 *C 0.5000 0.0000 


*RES
0 *9:2 *9 12.4  // $metal1_conn

*END

*D_NET *6 3.14848e-16

*CONN
*P *6 I *C 0.3750 0.8550 
*I *10:g B *C 0.2025 0.5250 
*I *11:g B *C 0.4075 0.5250 
*I *12:g B *C 0.6125 0.5250 
*I *1:g B *C 0.8175 0.5250 
*I *2:g B *C 0.2025 1.1400 
*I *3:g B *C 0.4075 1.1400 
*I *4:g B *C 0.6125 1.1400 
*I *5:g B *C 0.8175 1.1400 

*CAP
0 *5:g 3.14848e-16

*RES
0 *5:g *6 0.007144  // $metal1_conn

*END

*D_NET *8 3.79042e-16

*CONN
*P *8 O *C 0.7750 1.0450 
*I *10:d B *C 0.3050 0.5250 
*I *11:d B *C 0.3050 0.5250 
*I *12:d B *C 0.7150 0.5250 
*I *1:d B *C 0.7150 0.5250 
*I *2:d B *C 0.3050 1.1400 
*I *3:d B *C 0.3050 1.1400 
*I *4:d B *C 0.7150 1.1400 
*I *5:d B *C 0.7150 1.1400 

*CAP
0 *10:d 1.83731e-16
1 *8 1.95311e-16

*RES
0 *8 *10:d 0.21131  // $metal1_conn

*END

