*SPEF "IEEE 1481-1999"
*DESIGN  "CLKINVX3"
*DATE "Mon Sep 27 09:20:05 2010"
*VENDOR "Cadence Design Systems"
*PROGRAM "Assura RCX"
*VERSION "3.2 Red Hat Linux release 7.2 (Enigma) - (09/09/2009-10:39)"
*DESIGN_FLOW "Physical Verification"
*DIVIDER /
*DELIMITER :
*BUS_DELIMITER []
*T_UNIT 1 PS
*C_UNIT 1e15 FF
*R_UNIT 1 OHM
*L_UNIT 1 MH
// DeviceFingerDelim "@"
// MATCHED
// caps2d version: 10

*NAME_MAP
*1 mp0\@1
*2 mn0\@2
*3 VDD
*4 mp0\@2
*5 Y
*6 A
*7 mn0
*8 VSS
*9 mp0
*10 mn0\@1

*GROUND_NETS VSS

*PORTS
*3 I
*8 I
*6 I
*5 O

*D_NET *3 1.55596e-16

*CONN
*P *3 I *C 0.1000 1.7100 
*I *9:s B *C 0.2500 1.0950 
*I *1:s B *C 0.6500 1.0950 
*I *4:s B *C 0.6500 1.0950 
*N *3:2 *C 0.5000 1.7100 

*CAP
0 *1:s 1.02596e-16
1 *3:2 4.95531e-17
2 *3 3.44664e-18

*RES
0 *1:s *3 0.069714  // $metal1_conn
1 *3:2 *1:s 15  // $metal1_conn

*END

*D_NET *8 0

*CONN
*P *8 I *C 0.1000 0.0000 
*I *7:s B *C 0.2500 0.5300 
*I *10:s B *C 0.6500 0.5300 
*I *2:s B *C 0.6500 0.5300 
*N *8:2 *C 0.5000 0.0000 


*RES
0 *10:s *8 0.069714  // $metal1_conn
1 *8:2 *10:s 12.4  // $metal1_conn

*END

*D_NET *6 2.23649e-16

*CONN
*P *6 I *C 0.1000 0.8550 
*I *7:g B *C 0.3425 0.5300 
*I *10:g B *C 0.5475 0.5300 
*I *2:g B *C 0.7525 0.5300 
*I *9:g B *C 0.3425 1.0950 
*I *1:g B *C 0.5475 1.0950 
*I *4:g B *C 0.7525 1.0950 
*N *6:6 *C 0.2850 0.7850 

*CAP
0 *4:g 1.30224e-16
1 *6:6 7.01012e-17
2 *6 2.33239e-17

*RES
0 *4:g *6:6 47.912865  // $poly_conn
1 *6 *6:6 0.049961  // $metal1_conn

*END

*D_NET *5 1.80176e-16

*CONN
*P *5 O *C 0.5000 0.8550 
*I *7:d B *C 0.4450 0.5300 
*I *10:d B *C 0.4450 0.5300 
*I *2:d B *C 0.8450 0.5300 
*I *9:d B *C 0.4450 1.0950 
*I *1:d B *C 0.4450 1.0950 
*I *4:d B *C 0.8450 1.0950 

*CAP
0 *4:d 1.07345e-16
1 *7:d 6.03337e-17
2 *5 1.24972e-17

*RES
0 *5 *7:d 0.15041  // $metal1_conn
1 *4:d *5 0.026935  // $metal1_conn

*END

