*SPEF "IEEE 1481-1999"
*DESIGN  "CLKINVX16"
*DATE "Mon Sep 27 09:18:58 2010"
*VENDOR "Cadence Design Systems"
*PROGRAM "Assura RCX"
*VERSION "3.2 Red Hat Linux release 7.2 (Enigma) - (09/09/2009-10:39)"
*DESIGN_FLOW "Physical Verification"
*DIVIDER /
*DELIMITER :
*BUS_DELIMITER []
*T_UNIT 1 PS
*C_UNIT 1e15 FF
*R_UNIT 1 OHM
*L_UNIT 1 MH
// DeviceFingerDelim "@"
// MATCHED
// caps2d version: 10

*NAME_MAP
*1 VSS
*2 mn0
*3 mn0\@1
*4 mn0\@9
*5 mn0\@2
*6 mn0\@10
*7 mn0\@3
*8 mn0\@11
*9 mn0\@4
*10 mn0\@12
*11 mn0\@5
*12 mn0\@13
*13 mn0\@6
*14 mn0\@7
*15 mn0\@8
*16 Y
*17 VDD
*18 mp0\@9
*19 mp0\@10
*20 mp0\@11
*21 mp0\@12
*22 mp0\@13
*23 mp0
*24 mp0\@1
*25 mp0\@2
*26 mp0\@3
*27 mp0\@4
*28 mp0\@5
*29 mp0\@6
*30 mp0\@7
*31 mp0\@8
*32 A

*GROUND_NETS VSS

*PORTS
*17 I
*1 I
*32 I
*16 O

*D_NET *17 4.98973e-16

*CONN
*P *17 I *C 0.1000 1.7100 
*I *23:s B *C 1.8700 1.1225 
*I *24:s B *C 1.8700 1.1225 
*I *25:s B *C 2.2800 1.1225 
*I *26:s B *C 2.2800 1.1225 
*I *27:s B *C 2.6900 1.1225 
*I *28:s B *C 2.6900 1.1225 
*I *29:s B *C 3.0900 1.1225 
*I *30:s B *C 0.2400 1.1225 
*I *31:s B *C 0.6400 1.1225 
*I *18:s B *C 0.6400 1.1225 
*I *19:s B *C 1.0500 1.1225 
*I *20:s B *C 1.0500 1.1225 
*I *21:s B *C 1.4600 1.1225 
*I *22:s B *C 1.4600 1.1225 
*N *17:3 *C 2.4000 1.7100 

*CAP
0 *29:s 4.0613e-16
1 *17:3 9.28427e-17

*RES
0 *29:s *17 0.064735  // $metal1_conn
1 *17:3 *29:s 9.375  // $metal1_conn
2 *17:3 *29:s 9.375  // $metal1_conn

*END

*D_NET *1 0

*CONN
*P *1 I *C 0.1000 0.0000 
*I *2:s B *C 1.8700 0.5125 
*I *3:s B *C 1.8700 0.5125 
*I *5:s B *C 2.2800 0.5125 
*I *7:s B *C 2.2800 0.5125 
*I *9:s B *C 2.6900 0.5125 
*I *11:s B *C 2.6900 0.5125 
*I *13:s B *C 3.0900 0.5125 
*I *14:s B *C 0.2400 0.5125 
*I *15:s B *C 0.6400 0.5125 
*I *4:s B *C 0.6400 0.5125 
*I *6:s B *C 1.0500 0.5125 
*I *8:s B *C 1.0500 0.5125 
*I *10:s B *C 1.4600 0.5125 
*I *12:s B *C 1.4600 0.5125 
*N *1:3 *C 2.4000 0.0000 


*RES
0 *13:s *1 0.064735  // $metal1_conn
1 *1:3 *13:s 7.75  // $metal1_conn
2 *1:3 *13:s 7.75  // $metal1_conn

*END

*D_NET *32 8.97736e-16

*CONN
*P *32 I *C 0.7000 0.8550 
*I *2:g B *C 1.7675 0.5125 
*I *3:g B *C 1.9725 0.5125 
*I *5:g B *C 2.1775 0.5125 
*I *7:g B *C 2.3825 0.5125 
*I *9:g B *C 2.5875 0.5125 
*I *11:g B *C 2.7925 0.5125 
*I *13:g B *C 2.9975 0.5125 
*I *14:g B *C 0.3325 0.5125 
*I *15:g B *C 0.5375 0.5125 
*I *4:g B *C 0.7425 0.5125 
*I *6:g B *C 0.9475 0.5125 
*I *8:g B *C 1.1525 0.5125 
*I *10:g B *C 1.3575 0.5125 
*I *12:g B *C 1.5625 0.5125 
*I *23:g B *C 1.7675 1.1225 
*I *24:g B *C 1.9725 1.1225 
*I *25:g B *C 2.1775 1.1225 
*I *26:g B *C 2.3825 1.1225 
*I *27:g B *C 2.5875 1.1225 
*I *28:g B *C 2.7925 1.1225 
*I *29:g B *C 2.9975 1.1225 
*I *30:g B *C 0.3325 1.1225 
*I *31:g B *C 0.5375 1.1225 
*I *18:g B *C 0.7425 1.1225 
*I *19:g B *C 0.9475 1.1225 
*I *20:g B *C 1.1525 1.1225 
*I *21:g B *C 1.3575 1.1225 
*I *22:g B *C 1.5625 1.1225 

*CAP
0 *29:g 8.7745e-16
1 *32 2.02855e-17

*RES
0 *29:g *32 0.012097  // $metal1_conn

*END

*D_NET *16 1.06843e-15

*CONN
*P *16 O *C 2.9000 1.0450 
*I *2:d B *C 1.6650 0.5125 
*I *3:d B *C 2.0750 0.5125 
*I *5:d B *C 2.0750 0.5125 
*I *7:d B *C 2.4850 0.5125 
*I *9:d B *C 2.4850 0.5125 
*I *11:d B *C 2.8950 0.5125 
*I *13:d B *C 2.8950 0.5125 
*I *14:d B *C 0.4350 0.5125 
*I *15:d B *C 0.4350 0.5125 
*I *4:d B *C 0.8450 0.5125 
*I *6:d B *C 0.8450 0.5125 
*I *8:d B *C 1.2550 0.5125 
*I *10:d B *C 1.2550 0.5125 
*I *12:d B *C 1.6650 0.5125 
*I *23:d B *C 1.6650 1.1225 
*I *24:d B *C 2.0750 1.1225 
*I *25:d B *C 2.0750 1.1225 
*I *26:d B *C 2.4850 1.1225 
*I *27:d B *C 2.4850 1.1225 
*I *28:d B *C 2.8950 1.1225 
*I *29:d B *C 2.8950 1.1225 
*I *30:d B *C 0.4350 1.1225 
*I *31:d B *C 0.4350 1.1225 
*I *18:d B *C 0.8450 1.1225 
*I *19:d B *C 0.8450 1.1225 
*I *20:d B *C 1.2550 1.1225 
*I *21:d B *C 1.2550 1.1225 
*I *22:d B *C 1.6650 1.1225 

*CAP
0 *2:d 4.09724e-16
1 *16 6.58706e-16

*RES
0 *16 *2:d 0.266437  // $metal1_conn

*END

