*SPEF "IEEE 1481-1999"
*DESIGN  "CLKINVX12"
*DATE "Mon Sep 27 09:18:35 2010"
*VENDOR "Cadence Design Systems"
*PROGRAM "Assura RCX"
*VERSION "3.2 Red Hat Linux release 7.2 (Enigma) - (09/09/2009-10:39)"
*DESIGN_FLOW "Physical Verification"
*DIVIDER /
*DELIMITER :
*BUS_DELIMITER []
*T_UNIT 1 PS
*C_UNIT 1e15 FF
*R_UNIT 1 OHM
*L_UNIT 1 MH
// DeviceFingerDelim "@"
// MATCHED
// caps2d version: 10

*NAME_MAP
*1 mp0\@1
*2 mp0\@2
*3 mp0\@3
*4 mp0\@4
*5 mp0\@5
*6 mp0\@6
*7 mp0\@7
*8 mp0\@8
*9 mn0
*10 mn0\@1
*11 mn0\@2
*12 mn0\@3
*13 mn0\@4
*14 mn0\@5
*15 mn0\@6
*16 mn0\@7
*17 mn0\@8
*18 A
*19 VSS
*20 mn0\@9
*21 VDD
*22 Y
*23 mp0\@9
*24 mp0

*GROUND_NETS VSS

*PORTS
*21 I
*19 I
*18 I
*22 O

*D_NET *21 3.85178e-16

*CONN
*P *21 I *C 0.1000 1.7100 
*I *24:s B *C 0.1100 1.1350 
*I *1:s B *C 0.5375 1.1350 
*I *2:s B *C 0.5375 1.1350 
*I *3:s B *C 0.9750 1.1350 
*I *4:s B *C 0.9750 1.1350 
*I *5:s B *C 1.3850 1.1350 
*I *6:s B *C 1.3850 1.1350 
*I *7:s B *C 1.8325 1.1350 
*I *8:s B *C 1.8325 1.1350 
*I *23:s B *C 2.2850 1.1350 
*N *21:4 *C 1.2000 1.7100 

*CAP
0 *21:4 6.31097e-17
1 *21 3.22068e-16

*RES
0 *21:4 *21 6.25  // $metal1_conn

*END

*D_NET *19 0

*CONN
*P *19 I *C 0.1000 0.0000 
*I *9:s B *C 0.1100 0.3850 
*I *10:s B *C 0.5650 0.3850 
*I *11:s B *C 0.5650 0.3850 
*I *12:s B *C 0.9750 0.3850 
*I *13:s B *C 0.9750 0.3850 
*I *14:s B *C 1.3850 0.3850 
*I *15:s B *C 1.3850 0.3850 
*I *16:s B *C 1.8150 0.3850 
*I *17:s B *C 1.8150 0.3850 
*I *20:s B *C 2.2850 0.3850 
*N *19:4 *C 1.2000 0.0000 


*RES
0 *19:4 *19 5.166667  // $metal1_conn

*END

*D_NET *18 7.25e-16

*CONN
*P *18 I *C 0.5000 0.6650 
*I *9:g B *C 0.2025 0.3850 
*I *10:g B *C 0.4625 0.3850 
*I *11:g B *C 0.6675 0.3850 
*I *12:g B *C 0.8725 0.3850 
*I *13:g B *C 1.0775 0.3850 
*I *14:g B *C 1.2825 0.3850 
*I *15:g B *C 1.4875 0.3850 
*I *16:g B *C 1.7125 0.3850 
*I *17:g B *C 1.9175 0.3850 
*I *20:g B *C 2.1925 0.3850 
*I *24:g B *C 0.2025 1.1350 
*I *1:g B *C 0.4075 1.1350 
*I *2:g B *C 0.6675 1.1350 
*I *3:g B *C 0.8725 1.1350 
*I *4:g B *C 1.0775 1.1350 
*I *5:g B *C 1.2825 1.1350 
*I *6:g B *C 1.4875 1.1350 
*I *7:g B *C 1.6925 1.1350 
*I *8:g B *C 1.9725 1.1350 
*I *23:g B *C 2.1925 1.1350 

*CAP
0 *18 7.25e-16


*END

*D_NET *22 8.95395e-16

*CONN
*P *22 O *C 2.1000 1.0450 
*I *9:d B *C 0.3325 0.3850 
*I *10:d B *C 0.3325 0.3850 
*I *11:d B *C 0.7700 0.3850 
*I *12:d B *C 0.7700 0.3850 
*I *13:d B *C 1.1800 0.3850 
*I *14:d B *C 1.1800 0.3850 
*I *15:d B *C 1.6000 0.3850 
*I *16:d B *C 1.6000 0.3850 
*I *17:d B *C 2.0550 0.3850 
*I *20:d B *C 2.0550 0.3850 
*I *24:d B *C 0.3050 1.1350 
*I *1:d B *C 0.3050 1.1350 
*I *2:d B *C 0.7700 1.1350 
*I *3:d B *C 0.7700 1.1350 
*I *4:d B *C 1.1800 1.1350 
*I *5:d B *C 1.1800 1.1350 
*I *6:d B *C 1.5900 1.1350 
*I *7:d B *C 1.5900 1.1350 
*I *8:d B *C 2.0825 1.1350 
*I *23:d B *C 2.0825 1.1350 

*CAP
0 *9:d 4.43302e-16
1 *22 4.52093e-16

*RES
0 *22 *9:d 0.434764  // $metal1_conn

*END

