*SPEF "IEEE 1481-1999"
*DESIGN  "CLKMX2X6"
*DATE "Mon Sep 27 09:23:09 2010"
*VENDOR "Cadence Design Systems"
*PROGRAM "Assura RCX"
*VERSION "3.2 Red Hat Linux release 7.2 (Enigma) - (09/09/2009-10:39)"
*DESIGN_FLOW "Physical Verification"
*DIVIDER /
*DELIMITER :
*BUS_DELIMITER []
*T_UNIT 1 PS
*C_UNIT 1e15 FF
*R_UNIT 1 OHM
*L_UNIT 1 MH
// DeviceFingerDelim "@"
// MATCHED
// caps2d version: 10

*NAME_MAP
*1 VDD
*2 mn0
*3 mn1
*4 mn2
*5 mn4
*6 mn3
*7 VSS
*8 mp5\@4
*9 mn5
*10 mn5\@1
*11 mn5\@2
*12 mn5\@3
*13 A
*14 B
*15 net115
*16 S0
*17 net148
*18 net140
*19 S0b
*20 Y
*21 n0
*22 mp0
*23 net123
*24 mp1
*25 mp2
*26 mp4
*27 mp3
*28 mp5
*29 mp5\@1
*30 mp5\@2
*31 mp5\@3
*32 mn5\@4

*GROUND_NETS VSS

*PORTS
*1 I
*7 I
*13 I
*14 I
*16 I
*20 O

*D_NET *1 4.42522e-16

*CONN
*P *1 I *C 0.1000 1.7100 
*I *22:s B *C 0.5850 1.2400 
*I *24:s B *C 0.5850 1.2400 
*I *27:s B *C 1.4900 1.1600 
*I *28:s B *C 1.4900 1.1600 
*I *29:s B *C 1.8700 1.1600 
*I *30:s B *C 1.8700 1.1600 
*I *31:s B *C 2.2800 1.1600 
*I *8:s B *C 2.2800 1.1600 
*N *1:2 *C 2.0000 1.7100 
*N *1:6 *C 0.7000 1.7100 
*N *1:7 *C 0.4050 1.7100 

*CAP
0 *31:s 2.34035e-16
1 *22:s 2.74013e-17
2 *1:7 7.98607e-18
3 *1:2 1.67191e-16
4 *1 5.9078e-18

*RES
0 *1:7 *1 0.152531  // $metal1_conn
1 *1:2 *31:s 12.5  // $metal1_conn
2 *1:2 *1:6 10.714286  // $metal1_conn
3 *1:7 *22:s 62.23177  // $metal1_conn
4 *31:s *1:6 0.380995  // $metal1_conn
5 *1:6 *1:7 0.147766  // $metal1_conn

*END

*D_NET *7 0

*CONN
*P *7 I *C 0.1000 0.0000 
*I *2:s B *C 0.5650 0.3375 
*I *3:s B *C 0.5650 0.3375 
*I *6:s B *C 1.4150 0.3900 
*I *9:s B *C 1.4150 0.3900 
*I *10:s B *C 1.8450 0.3900 
*I *11:s B *C 1.8450 0.3900 
*I *12:s B *C 2.2550 0.3900 
*I *32:s B *C 2.2550 0.3900 
*N *7:2 *C 2.0000 0.0000 
*N *7:6 *C 0.7000 0.0000 
*N *7:7 *C 0.5550 0.0000 


*RES
0 *7:7 *7 0.227766  // $metal1_conn
1 *7:2 *12:s 10.333333  // $metal1_conn
2 *7:2 *7:6 8.857142  // $metal1_conn
3 *7:7 *2:s 75.178307  // $metal1_conn
4 *12:s *7:6 0.333346  // $metal1_conn
5 *7:6 *7:7 0.072531  // $metal1_conn

*END

*D_NET *13 3.07398e-16

*CONN
*P *13 I *C 0.5000 0.8550 
*I *3:g B *C 0.6575 0.3375 
*I *24:g B *C 0.6575 1.2400 
*N *13:2 *C 0.6300 0.8500 

*CAP
0 *24:g 5.6004e-17
1 *3:g 8.29468e-17
2 *13:2 1.31143e-16
3 *13 3.7304e-17

*RES
0 *24:g *13:2 51.743229  // $poly_conn
1 *13:2 *3:g 96.615036  // $poly_conn
2 *13 *13:2 45.03566  // $metal1_conn

*END

*D_NET *14 2.3812e-16

*CONN
*P *14 I *C 1.3000 0.8550 
*I *6:g B *C 1.2625 0.3375 
*I *27:g B *C 1.2625 1.2400 
*N *14:2 *C 1.2900 0.8600 
*N *14:4 *C 1.2900 0.8600 

*CAP
0 *27:g 4.83894e-17
1 *6:g 5.11257e-17
2 *14:2 4.12379e-17
3 *14 9.73667e-17

*RES
0 *27:g *14:2 49.179131  // $poly_conn
1 *14:2 *6:g 99.179131  // $poly_conn
2 *14 *14:4 0.003114  // $metal1_conn
3 *14:2 *14:4 45  // $metal1_conn

*END

*D_NET *16 4.78874e-16

*CONN
*P *16 I *C 0.3000 1.0450 
*I *2:g B *C 0.3575 0.3675 
*I *5:g B *C 0.9675 0.3375 
*I *22:g B *C 0.3025 1.2875 
*I *25:g B *C 0.8275 1.2400 
*N *16:2 *C 0.3300 0.9750 
*N *16:5 *C 0.8000 0.9750 

*CAP
0 *25:g 4.1707e-17
1 *22:g 3.09392e-17
2 *5:g 6.09365e-17
3 *2:g 4.32346e-17
4 *16:2 7.51793e-17
5 *16:5 1.65916e-16
6 *16 6.09614e-17

*RES
0 *2:g *16:2 128.666306  // $poly_conn
1 *16:2 *22:g 44.050926  // $poly_conn
2 *5:g *16:5 152.735718  // $poly_conn
3 *16:5 *25:g 19.691952  // $poly_conn
4 *16:5 *16 45.431732  // $metal1_conn
5 *16 *16:2 45.038242  // $metal1_conn

*END

*D_NET *20 4.86743e-16

*CONN
*P *20 O *C 1.7000 0.6650 
*I *9:d B *C 1.6150 0.3900 
*I *10:d B *C 1.6150 0.3900 
*I *11:d B *C 2.0500 0.3900 
*I *12:d B *C 2.0500 0.3900 
*I *32:d B *C 2.4500 0.3900 
*I *28:d B *C 1.6650 1.1600 
*I *29:d B *C 1.6650 1.1600 
*I *30:d B *C 2.0750 1.1600 
*I *31:d B *C 2.0750 1.1600 
*I *8:d B *C 2.4750 1.1600 

*CAP
0 *20 4.86743e-16


*END

*D_NET *18 4.69182e-18

*CONN
*I *5:s B *C 1.1150 0.3375 
*I *6:d B *C 1.1150 0.3375 

*CAP
0 *5:s 4.69182e-18

*RES
0 *6:d *5:s 0.001  // $mwires

*END

*D_NET *17 0

*CONN
*I *3:d B *C 0.7100 0.3375 
*I *4:s B *C 0.7100 0.3375 


*RES
0 *4:s *3:d 0.001  // $mwires

*END

*D_NET *15 2.487e-18

*CONN
*I *26:s B *C 1.1675 1.2400 
*I *27:d B *C 1.1675 1.2400 

*CAP
0 *26:s 2.487e-18

*RES
0 *27:d *26:s 0.001  // $mwires

*END

*D_NET *23 4.3617e-18

*CONN
*I *24:d B *C 0.7425 1.2400 
*I *25:s B *C 0.7425 1.2400 

*CAP
0 *24:d 4.3617e-18

*RES
0 *25:s *24:d 0.001  // $mwires

*END

*D_NET *21 5.91731e-16

*CONN
*I *4:d B *C 0.8650 0.3375 
*I *5:d B *C 0.8650 0.3375 
*I *9:g B *C 1.4875 0.3900 
*I *10:g B *C 1.7425 0.3900 
*I *11:g B *C 1.9475 0.3900 
*I *12:g B *C 2.1525 0.3900 
*I *32:g B *C 2.3575 0.3900 
*I *25:d B *C 0.9500 1.2400 
*I *26:d B *C 0.9500 1.2400 
*I *28:g B *C 1.5625 1.1600 
*I *29:g B *C 1.7675 1.1600 
*I *30:g B *C 1.9725 1.1600 
*I *31:g B *C 2.1775 1.1600 
*I *8:g B *C 2.3825 1.1600 
*N *21:19 *C 1.1300 0.5450 

*CAP
0 *8:g 3.52342e-16
1 *25:d 9.21864e-17
2 *4:d 4.05348e-17
3 *21:19 1.06668e-16

*RES
0 *21:19 *25:d 62.546066  // $metal1_conn
1 *21:19 *4:d 75.325912  // $metal1_conn
2 *8:g *21:19 45.349583  // $metal1_conn

*END

*D_NET *19 5.1004e-16

*CONN
*I *2:d B *C 0.2650 0.3675 
*I *4:g B *C 0.7625 0.3375 
*I *22:d B *C 0.1850 1.2875 
*I *26:g B *C 1.0725 1.2400 
*N *19:2 *C 0.8000 0.6550 
*N *19:4 *C 0.9700 0.9600 
*N *19:5 *C 0.2550 0.4850 

*CAP
0 *26:g 4.45326e-17
1 *22:d 7.06613e-17
2 *4:g 6.65209e-17
3 *2:d 1.01506e-17
4 *19:5 7.5291e-17
5 *19:2 1.34408e-16
6 *19:4 1.08475e-16

*RES
0 *4:g *19:2 90.642395  // $poly_conn
1 *26:g *19:4 81.854858  // $poly_conn
2 *19:4 *19:2 0.335017  // $metal1_conn
3 *19:2 *19:5 0.499311  // $metal1_conn
4 *19:5 *22:d 62.622864  // $metal1_conn
5 *19:5 *2:d 75.05619  // $metal1_conn

*END

