*SPEF "IEEE 1481-1999"
*DESIGN  "CLKXOR2X1"
*DATE "Mon Sep 27 09:23:54 2010"
*VENDOR "Cadence Design Systems"
*PROGRAM "Assura RCX"
*VERSION "3.2 Red Hat Linux release 7.2 (Enigma) - (09/09/2009-10:39)"
*DESIGN_FLOW "Physical Verification"
*DIVIDER /
*DELIMITER :
*BUS_DELIMITER []
*T_UNIT 1 PS
*C_UNIT 1e15 FF
*R_UNIT 1 OHM
*L_UNIT 1 MH
// DeviceFingerDelim "@"
// MATCHED
// caps2d version: 10

*NAME_MAP
*1 mp3
*2 mp2
*3 mp1
*4 mn5
*5 Y
*6 mn0
*7 mn4
*8 mn3
*9 mn2
*10 n1
*11 mn1
*12 n2
*13 net139
*14 A
*15 VDD
*16 n0
*17 B
*18 net130
*19 VSS
*20 mp5
*21 mp0
*22 mp4

*GROUND_NETS VSS

*PORTS
*15 I
*19 I
*14 I
*17 I
*5 O

*D_NET *15 2.3138e-16

*CONN
*P *15 I *C 0.1000 1.7100 
*I *20:s B *C 0.3850 1.5450 
*I *21:s B *C 0.3850 1.5450 
*I *2:s B *C 1.1550 1.1825 
*I *3:s B *C 1.1550 1.1825 
*N *15:2 *C 0.8000 1.7100 
*N *15:3 *C 0.8000 1.7100 
*N *15:4 *C 0.3350 1.7100 

*CAP
0 *2:s 5.14209e-17
1 *20:s 2.6897e-17
2 *15:4 1.15521e-17
3 *15:2 1.35331e-16
4 *15 6.17987e-18

*RES
0 *2:s *15:3 62.528107  // $metal1_conn
1 *15:3 *15:4 0.23216  // $metal1_conn
2 *15:4 *15 0.11651  // $metal1_conn
3 *15:4 *20:s 62.070927  // $metal1_conn
4 *15:2 *15:3 9.375  // $metal1_conn

*END

*D_NET *19 0

*CONN
*P *19 I *C 0.1000 0.0000 
*I *4:s B *C 0.3950 0.5025 
*I *6:s B *C 0.3950 0.5025 
*I *9:s B *C 1.1750 0.5025 
*I *11:s B *C 1.1750 0.5025 
*N *19:2 *C 0.8000 0.0000 
*N *19:3 *C 0.8000 0.0000 
*N *19:4 *C 0.3050 0.0000 


*RES
0 *9:s *19:3 75.543617  // $metal1_conn
1 *19:3 *19:4 0.248162  // $metal1_conn
2 *19:4 *19 0.102408  // $metal1_conn
3 *19:4 *4:s 75.304955  // $metal1_conn
4 *19:2 *19:3 7.75  // $metal1_conn

*END

*D_NET *14 2.45664e-16

*CONN
*P *14 I *C 0.4100 1.0450 
*I *6:g B *C 0.4475 0.5025 
*I *21:g B *C 0.4475 1.1825 
*N *14:2 *C 0.4200 0.7900 

*CAP
0 *21:g 4.52969e-17
1 *6:g 3.76927e-17
2 *14:2 1.12187e-16
3 *14 5.04882e-17

*RES
0 *21:g *14:2 64.563744  // $poly_conn
1 *14:2 *6:g 46.615028  // $poly_conn
2 *14 *14:2 45.161388  // $metal1_conn

*END

*D_NET *17 5.04186e-16

*CONN
*P *17 I *C 1.1300 0.8550 
*I *8:g B *C 0.9675 0.5025 
*I *11:g B *C 1.2775 0.5025 
*I *22:g B *C 0.6525 1.1825 
*I *3:g B *C 1.2575 1.1825 
*N *17:2 *C 0.6900 0.8650 
*N *17:4 *C 0.9750 0.8450 
*N *17:6 *C 1.3050 0.8450 

*CAP
0 *3:g 3.49304e-17
1 *22:g 4.20665e-17
2 *11:g 3.71554e-17
3 *8:g 6.82177e-17
4 *17:2 1.0219e-16
5 *17:4 9.95237e-17
6 *17:6 7.73613e-17
7 *17 4.27419e-17

*RES
0 *22:g *17:2 89.360352  // $poly_conn
1 *8:g *17:4 104.744965  // $poly_conn
2 *11:g *17:6 57.555679  // $poly_conn
3 *17:6 *3:g 50.803272  // $poly_conn
4 *17:6 *17 45.111382  // $metal1_conn
5 *17 *17:4 0.123628  // $metal1_conn
6 *17:4 *17:2 0.206895  // $metal1_conn

*END

*D_NET *5 1.22477e-16

*CONN
*P *5 O *C 0.0900 0.6650 
*I *4:d B *C 0.1100 0.5100 
*I *20:d B *C 0.1100 1.0950 

*CAP
0 *20:d 6.17973e-17
1 *4:d 2.26568e-17
2 *5 3.80226e-17

*RES
0 *20:d *5 20.982018  // $metal1_conn
1 *5 *4:d 37.604992  // $metal1_conn

*END

*D_NET *13 0

*CONN
*I *8:s B *C 1.0200 0.5025 
*I *9:d B *C 1.0200 0.5025 


*RES
0 *9:d *8:s 0.001  // $mwires

*END

*D_NET *18 2.19606e-18

*CONN
*I *1:s B *C 0.9625 1.1825 
*I *2:d B *C 0.9625 1.1825 

*CAP
0 *1:s 2.19606e-18

*RES
0 *2:d *1:s 0.001  // $mwires

*END

*D_NET *16 5.49993e-16

*CONN
*I *4:g B *C 0.2025 0.5100 
*I *7:d B *C 0.8650 0.5025 
*I *8:d B *C 0.8650 0.5025 
*I *20:g B *C 0.2025 1.0950 
*I *22:d B *C 0.7625 1.1825 
*I *1:d B *C 0.7625 1.1825 
*N *16:1 *C 0.2600 0.7750 
*N *16:2 *C 0.2025 0.7750 
*N *16:7 *C 0.7550 1.2000 

*CAP
0 *22:d 1.20074e-16
1 *20:g 3.53079e-17
2 *7:d 8.86382e-17
3 *4:g 3.39043e-17
4 *16:2 2.81959e-17
5 *16:1 2.43872e-16

*RES
0 *16:1 *16:2 45.778431  // $poly_conn
1 *16:2 *4:g 27.944992  // $poly_conn
2 *16:2 *20:g 25.38089  // $poly_conn
3 *7:d *16:1 75.843887  // $metal1_conn
4 *16:1 *16:7 0.838799  // $metal1_conn
5 *22:d *16:7 62  // $metal1_conn

*END

*D_NET *12 4.06855e-16

*CONN
*I *7:g B *C 0.7625 0.5025 
*I *11:d B *C 1.3700 0.5025 
*I *1:g B *C 0.8725 1.1825 
*I *3:d B *C 1.3500 1.1825 
*N *12:3 *C 0.9100 1.3900 
*N *12:5 *C 1.3475 1.0400 

*CAP
0 *3:d 1.24931e-17
1 *1:g 6.75341e-17
2 *11:d 5.2744e-17
3 *7:g 6.72902e-17
4 *12:5 9.7394e-17
5 *12:3 1.09399e-16

*RES
0 *7:g *1:g 135.804855  // $poly_conn
1 *1:g *12:3 61.15522  // $poly_conn
2 *3:d *12:5 62.03846  // $metal1_conn
3 *12:5 *12:3 0.571844  // $metal1_conn
4 *12:5 *11:d 75.466049  // $metal1_conn

*END

*D_NET *10 4.79186e-16

*CONN
*I *6:d B *C 0.6050 0.5025 
*I *7:s B *C 0.6050 0.5025 
*I *9:g B *C 1.0725 0.5025 
*I *21:d B *C 0.5500 1.1825 
*I *22:s B *C 0.5500 1.1825 
*I *2:g B *C 1.0525 1.1825 
*N *10:2 *C 1.1450 0.6850 
*N *10:4 *C 0.5500 0.6850 

*CAP
0 *2:g 7.91454e-17
1 *21:d 6.41125e-17
2 *9:g 4.64525e-17
3 *6:d 3.62697e-17
4 *10:4 1.07019e-16
5 *10:2 1.46188e-16

*RES
0 *9:g *10:2 21.193991  // $poly_conn
1 *10:2 *2:g 93.163551  // $poly_conn
2 *10:2 *10:4 45.427719  // $metal1_conn
3 *10:4 *6:d 75.114021  // $metal1_conn
4 *10:4 *21:d 62.318783  // $metal1_conn

*END

