*SPEF "IEEE 1481-1999"
*DESIGN  "DFFHQX2"
*DATE "Mon Sep 27 09:25:49 2010"
*VENDOR "Cadence Design Systems"
*PROGRAM "Assura RCX"
*VERSION "3.2 Red Hat Linux release 7.2 (Enigma) - (09/09/2009-10:39)"
*DESIGN_FLOW "Physical Verification"
*DIVIDER /
*DELIMITER :
*BUS_DELIMITER []
*T_UNIT 1 PS
*C_UNIT 1e15 FF
*R_UNIT 1 OHM
*L_UNIT 1 MH
// DeviceFingerDelim "@"
// MATCHED
// caps2d version: 10

*NAME_MAP
*1 D
*2 CK
*3 mn25
*4 mn26
*5 mn36
*6 Q
*7 mp25
*8 mn35
*9 VDD
*10 mp26
*11 mp36
*12 VSS
*13 mp35
*14 CKbb
*15 CKb
*16 n22
*17 net147
*18 net123
*19 n21
*20 net192
*21 net172
*22 mn30
*23 mn40
*24 mout
*25 mn51
*26 n20
*27 mn50
*28 qbint
*29 mn55
*30 n30
*31 mn55\@1
*32 mn45
*33 mn20
*34 mn21
*35 mp30
*36 mp40
*37 mp51
*38 mp50
*39 mp55
*40 mp55\@1
*41 mp45
*42 mp20
*43 mp21

*GROUND_NETS VSS

*PORTS
*9 I
*12 I
*2 I
*1 I
*6 O

*D_NET *9 5.84611e-16

*CONN
*P *9 I *C 0.1000 1.7100 
*I *35:s B *C 2.0250 1.3100 
*I *38:s B *C 3.1150 1.2700 
*I *39:s B *C 3.1150 1.2700 
*I *40:s B *C 3.6000 1.2300 
*I *41:s B *C 3.6000 1.2300 
*I *42:s B *C 0.2200 1.0075 
*I *43:s B *C 0.9400 1.3100 
*I *7:s B *C 0.9400 1.3100 
*I *13:s B *C 2.0250 1.3100 
*N *9:3 *C 3.0000 1.7100 
*N *9:4 *C 3.0000 1.7100 
*N *9:5 *C 1.9400 1.7100 
*N *9:6 *C 1.0000 1.7100 
*N *9:7 *C 0.8400 1.7100 
*N *9:8 *C 0.2100 1.7100 

*CAP
0 *43:s 2.94741e-17
1 *42:s 3.40893e-17
2 *40:s 1.55908e-16
3 *35:s 3.48489e-17
4 *9:8 8.14616e-18
5 *9:7 1.5963e-17
6 *9:5 5.01999e-17
7 *9:3 2.53575e-16
8 *9 2.40642e-18

*RES
0 *9:8 *9 0.054725  // $metal1_conn
1 *9:3 *9:4 7.5  // $metal1_conn
2 *9:3 *9:6 7.5  // $metal1_conn
3 *9:5 *35:s 62.045826  // $metal1_conn
4 *9:7 *43:s 62.184994  // $metal1_conn
5 *9:8 *42:s 62.418884  // $metal1_conn
6 *40:s *9:4 0.052468  // $metal1_conn
7 *9:4 *9:5 0.530515  // $metal1_conn
8 *9:5 *9:6 0.470327  // $metal1_conn
9 *9:6 *9:7 0.080055  // $metal1_conn
10 *9:7 *9:8 0.315595  // $metal1_conn

*END

*D_NET *12 0

*CONN
*P *12 I *C 0.1000 0.0000 
*I *22:s B *C 1.9125 0.5575 
*I *27:s B *C 3.1700 0.5300 
*I *29:s B *C 3.1700 0.5300 
*I *31:s B *C 3.6675 0.5575 
*I *32:s B *C 3.6675 0.5575 
*I *33:s B *C 0.2650 0.5875 
*I *34:s B *C 1.0050 0.5575 
*I *3:s B *C 1.0050 0.5575 
*I *8:s B *C 1.9125 0.5575 
*N *12:2 *C 3.0000 0.0000 
*N *12:4 *C 1.8250 0.0000 
*N *12:5 *C 1.0000 0.0000 
*N *12:6 *C 0.2500 0.0000 


*RES
0 *12:6 *12 0.074788  // $metal1_conn
1 *12:2 *31:s 6.2  // $metal1_conn
2 *12:2 *12:5 6.2  // $metal1_conn
3 *12:4 *22:s 75.339188  // $metal1_conn
4 *12:5 *34:s 75.348595  // $metal1_conn
5 *12:6 *33:s 75.07473  // $metal1_conn
6 *31:s *12:4 0.589145  // $metal1_conn
7 *12:4 *12:5 0.414159  // $metal1_conn
8 *12:5 *12:6 0.37603  // $metal1_conn

*END

*D_NET *2 1.36001e-16

*CONN
*P *2 I *C 0.1000 0.6650 
*I *33:g B *C 0.3125 0.5875 
*I *42:g B *C 0.3125 1.0075 
*N *2:2 *C 0.3125 0.7600 
*N *2:3 *C 0.2550 0.7600 

*CAP
0 *42:g 2.15537e-17
1 *33:g 1.90208e-17
2 *2:2 8.99365e-18
3 *2:3 5.88794e-17
4 *2 2.75534e-17

*RES
0 *42:g *2:2 33.14275  // $poly_conn
1 *2:2 *2:3 45.794373  // $poly_conn
2 *2:2 *33:g 22.886339  // $poly_conn
3 *2:3 *2 0.111754  // $metal1_conn

*END

*D_NET *1 2.76973e-16

*CONN
*P *1 I *C 0.9000 1.0450 
*I *3:g B *C 1.0975 0.5575 
*I *7:g B *C 1.0125 1.3100 
*N *1:2 *C 0.9850 0.8350 

*CAP
0 *7:g 5.0247e-17
1 *3:g 5.09727e-17
2 *1:2 1.27208e-16
3 *1 4.85449e-17

*RES
0 *3:g *1:2 44.479622  // $poly_conn
1 *1:2 *7:g 73.538109  // $poly_conn
2 *1 *1:2 45.057884  // $metal1_conn

*END

*D_NET *6 1.71179e-16

*CONN
*P *6 O *C 3.3000 1.0450 
*I *29:d B *C 3.3550 0.5300 
*I *31:d B *C 3.3550 0.5300 
*I *39:d B *C 3.3100 1.2700 
*I *40:d B *C 3.3100 1.2700 

*CAP
0 *39:d 5.58172e-17
1 *29:d 5.7157e-17
2 *6 5.82046e-17

*RES
0 *6 *39:d 20.834473  // $metal1_conn
1 *29:d *6 75.367683  // $metal1_conn

*END

*D_NET *21 1.57933e-18

*CONN
*I *25:s B *C 2.8400 0.5575 
*I *27:d B *C 2.8400 0.5575 

*CAP
0 *25:s 1.57933e-18

*RES
0 *27:d *25:s 0.001  // $mwires

*END

*D_NET *20 4.84188e-18

*CONN
*I *5:s B *C 1.6150 0.5575 
*I *8:d B *C 1.6150 0.5575 

*CAP
0 *5:s 4.84188e-18

*RES
0 *8:d *5:s 0.001  // $mwires

*END

*D_NET *19 7.79438e-19

*CONN
*I *3:d B *C 1.1550 0.5575 
*I *4:s B *C 1.1550 0.5575 

*CAP
0 *3:d 7.79438e-19

*RES
0 *4:s *3:d 0.001  // $mwires

*END

*D_NET *18 2.18543e-18

*CONN
*I *37:s B *C 2.8400 1.3100 
*I *38:d B *C 2.8400 1.3100 

*CAP
0 *37:s 2.18543e-18

*RES
0 *38:d *37:s 0.001  // $mwires

*END

*D_NET *17 3.26821e-18

*CONN
*I *11:s B *C 1.7500 1.3100 
*I *13:d B *C 1.7500 1.3100 

*CAP
0 *11:s 3.26821e-18

*RES
0 *13:d *11:s 0.001  // $mwires

*END

*D_NET *16 8.41338e-18

*CONN
*I *7:d B *C 1.1650 1.3100 
*I *10:s B *C 1.1650 1.3100 

*CAP
0 *7:d 8.41338e-18

*RES
0 *10:s *7:d 0.001  // $mwires

*END

*D_NET *15 1.25882e-15

*CONN
*I *25:g B *C 2.7875 0.5575 
*I *33:d B *C 0.4050 0.5875 
*I *34:g B *C 0.7375 0.5875 
*I *4:g B *C 1.2125 0.5575 
*I *36:g B *C 2.4025 1.3100 
*I *42:d B *C 0.4050 1.0075 
*I *43:g B *C 0.7375 1.3575 
*I *11:g B *C 1.6925 1.3100 
*N *15:3 *C 0.7750 0.4150 
*N *15:5 *C 1.1750 0.8900 
*N *15:7 *C 1.6650 0.9950 
*N *15:9 *C 2.3650 1.0250 
*N *15:11 *C 2.7500 0.8350 
*N *15:12 *C 2.3650 0.8350 
*N *15:13 *C 1.6650 0.6750 
*N *15:14 *C 1.1800 0.6750 
*N *15:16 *C 0.4150 0.5750 

*CAP
0 *11:g 5.60851e-17
1 *43:g 5.39563e-17
2 *42:d 5.53031e-17
3 *36:g 2.69823e-17
4 *4:g 5.12573e-17
5 *34:g 3.47781e-17
6 *33:d 5.70396e-17
7 *25:g 6.85966e-17
8 *15:14 1.1229e-16
9 *15:13 2.06316e-16
10 *15:12 1.11635e-16
11 *15:3 1.02858e-16
12 *15:5 7.52488e-17
13 *15:7 8.3486e-17
14 *15:9 6.45183e-17
15 *15:11 9.84717e-17

*RES
0 *43:g *34:g 151.282059  // $poly_conn
1 *34:g *15:3 61.15522  // $poly_conn
2 *4:g *15:5 94.488556  // $poly_conn
3 *11:g *15:7 77.512466  // $poly_conn
4 *36:g *15:9 68.847527  // $poly_conn
5 *25:g *15:11 80.385986  // $poly_conn
6 *15:11 *15:12 0.261192  // $metal1_conn
7 *15:12 *15:13 0.978901  // $metal1_conn
8 *15:13 *15:14 0.684825  // $metal1_conn
9 *15:14 *15:3 0.444955  // $metal1_conn
10 *15:3 *15:16 0.339421  // $metal1_conn
11 *15:12 *15:9 0.147098  // $metal1_conn
12 *15:13 *15:7 0.249193  // $metal1_conn
13 *15:14 *15:5 0.147139  // $metal1_conn
14 *15:16 *42:d 62.285866  // $metal1_conn
15 *33:d *15:16 75  // $metal1_conn

*END

*D_NET *14 8.44423e-16

*CONN
*I *23:g B *C 2.5825 0.5575 
*I *34:d B *C 0.6350 0.5875 
*I *5:g B *C 1.4775 0.5575 
*I *37:g B *C 2.7875 1.3100 
*I *43:d B *C 0.6450 1.3575 
*I *10:g B *C 1.3175 1.3100 
*N *14:2 *C 1.3450 1.0450 
*N *14:5 *C 2.6200 1.0250 
*N *14:7 *C 1.3450 1.2150 
*N *14:8 *C 0.6100 1.2150 

*CAP
0 *10:g 2.36551e-17
1 *43:d 2.19005e-17
2 *37:g 7.70346e-17
3 *5:g 4.8491e-17
4 *34:d 8.33916e-17
5 *23:g 4.29462e-17
6 *14:8 1.00247e-16
7 *14:7 1.72632e-16
8 *14:2 6.71527e-17
9 *14:5 2.06972e-16

*RES
0 *5:g *14:2 107.677101  // $poly_conn
1 *14:2 *10:g 16.530039  // $poly_conn
2 *37:g *14:5 51.641663  // $poly_conn
3 *14:5 *23:g 84.103943  // $poly_conn
4 *14:5 *14:7 46.295269  // $metal1_conn
5 *14:7 *14:8 0.478553  // $metal1_conn
6 *14:8 *34:d 75.432991  // $metal1_conn
7 *14:7 *14:2 45.126053  // $metal1_conn
8 *14:8 *43:d 62.051968  // $metal1_conn

*END

*D_NET *30 5.28967e-16

*CONN
*I *23:s B *C 2.6850 0.5575 
*I *25:d B *C 2.6850 0.5575 
*I *32:g B *C 3.7675 0.5575 
*I *36:s B *C 2.5950 1.3100 
*I *37:d B *C 2.5950 1.3100 
*I *41:g B *C 3.6475 1.2300 
*N *30:2 *C 3.6850 0.7600 
*N *30:5 *C 2.9400 0.6750 

*CAP
0 *41:g 5.09501e-17
1 *36:s 1.09241e-16
2 *32:g 2.42129e-17
3 *23:s 3.57453e-17
4 *30:5 1.35274e-16
5 *30:2 1.73543e-16

*RES
0 *32:g *30:2 23.014584  // $poly_conn
1 *30:2 *41:g 71.283424  // $poly_conn
2 *36:s *30:5 31.596958  // $metal1_conn
3 *30:5 *23:s 75.226761  // $metal1_conn
4 *30:5 *30:2 45.908443  // $metal1_conn

*END

*D_NET *28 4.68998e-16

*CONN
*I *27:g B *C 2.8925 0.5575 
*I *29:g B *C 3.2425 0.5300 
*I *31:g B *C 3.4675 0.5300 
*I *32:d B *C 3.8600 0.5575 
*I *38:g B *C 2.8925 1.3100 
*I *39:g B *C 3.2075 1.2700 
*I *40:g B *C 3.4125 1.2700 
*I *41:d B *C 3.7400 1.2300 
*N *28:6 *C 2.8925 0.9475 
*N *28:13 *C 3.7500 0.9500 

*CAP
0 *41:d 3.31596e-17
1 *40:g 1.97035e-16
2 *38:g 6.40691e-17
3 *32:d 3.42659e-17
4 *27:g 6.02109e-17
5 *28:13 3.72108e-17
6 *28:6 4.30468e-17

*RES
0 *28:6 *38:g 51.670349  // $poly_conn
1 *28:6 *27:g 72.183167  // $poly_conn
2 *40:g *28:6 74.116425  // $poly_conn
3 *28:13 *40:g 45.177715  // $metal1_conn
4 *28:13 *41:d 31.168194  // $metal1_conn
5 *32:d *28:13 75.332893  // $metal1_conn

*END

*D_NET *26 3.98572e-16

*CONN
*I *22:g B *C 2.0725 0.5575 
*I *4:d B *C 1.3450 0.5575 
*I *5:d B *C 1.3450 0.5575 
*I *35:g B *C 2.0725 1.3100 
*I *10:d B *C 1.5050 1.3100 
*I *11:d B *C 1.5050 1.3100 
*N *26:2 *C 2.0450 1.0250 
*N *26:5 *C 1.5050 1.2150 

*CAP
0 *10:d 1.22144e-16
1 *35:g 4.09167e-17
2 *4:d 9.56637e-17
3 *22:g 3.30777e-17
4 *26:2 1.0677e-16

*RES
0 *35:g *26:2 24.820158  // $poly_conn
1 *26:2 *22:g 85.076569  // $poly_conn
2 *26:2 *26:5 45.512203  // $metal1_conn
3 *26:5 *4:d 75.547997  // $metal1_conn
4 *10:d *26:5 62  // $metal1_conn

*END

*D_NET *24 3.96531e-16

*CONN
*I *22:d B *C 2.3275 0.5575 
*I *23:d B *C 2.3275 0.5575 
*I *8:g B *C 1.7525 0.5575 
*I *35:d B *C 2.2375 1.3100 
*I *36:d B *C 2.2375 1.3100 
*I *13:g B *C 1.8075 1.3100 
*N *24:2 *C 1.8550 0.8350 
*N *24:5 *C 2.2050 0.8350 

*CAP
0 *13:g 8.51583e-17
1 *35:d 6.67362e-17
2 *8:g 2.8764e-17
3 *22:d 5.18377e-17
4 *24:5 6.45951e-17
5 *24:2 9.94395e-17

*RES
0 *13:g *24:2 72.565475  // $poly_conn
1 *24:2 *8:g 45.574535  // $poly_conn
2 *22:d *24:5 75.192818  // $metal1_conn
3 *24:5 *24:2 45.241821  // $metal1_conn
4 *24:5 *35:d 62.295959  // $metal1_conn

*END

