*SPEF "IEEE 1481-1999"
*DESIGN  "DFFHQX1"
*DATE "Mon Sep 27 09:25:27 2010"
*VENDOR "Cadence Design Systems"
*PROGRAM "Assura RCX"
*VERSION "3.2 Red Hat Linux release 7.2 (Enigma) - (09/09/2009-10:39)"
*DESIGN_FLOW "Physical Verification"
*DIVIDER /
*DELIMITER :
*BUS_DELIMITER []
*T_UNIT 1 PS
*C_UNIT 1e15 FF
*R_UNIT 1 OHM
*L_UNIT 1 MH
// DeviceFingerDelim "@"
// MATCHED
// caps2d version: 10

*NAME_MAP
*1 n30
*2 mout
*3 n20
*4 D
*5 qbint
*6 mn40
*7 mn30
*8 mn35
*9 mp55
*10 mn36
*11 mp20
*12 mn26
*13 mp45
*14 mn25
*15 mp50
*16 mn21
*17 mp51
*18 mn55
*19 mp40
*20 mn20
*21 Q
*22 mp30
*23 mp35
*24 mp36
*25 mp26
*26 mp25
*27 mp21
*28 VDD
*29 mn45
*30 mn50
*31 mn51
*32 CKbb
*33 CKb
*34 net123
*35 net147
*36 n22
*37 net172
*38 net192
*39 n21
*40 CK
*41 VSS

*GROUND_NETS VSS

*PORTS
*28 I
*41 I
*40 I
*4 I
*21 O

*D_NET *28 3.82246e-16

*CONN
*P *28 I *C 0.1000 1.7100 
*I *9:s B *C 0.3600 1.2675 
*I *11:s B *C 0.3600 1.2675 
*I *13:s B *C 1.0400 1.1200 
*I *15:s B *C 1.0400 1.1200 
*I *22:s B *C 1.9900 1.1200 
*I *23:s B *C 1.9900 1.1200 
*I *26:s B *C 2.7750 1.0725 
*I *27:s B *C 2.7750 1.0725 
*N *28:2 *C 2.4000 1.7100 
*N *28:3 *C 2.4000 1.7100 
*N *28:4 *C 1.9025 1.7100 
*N *28:5 *C 0.9550 1.7100 
*N *28:6 *C 0.8000 1.7100 
*N *28:7 *C 0.3050 1.7100 

*CAP
0 *26:s 4.19584e-17
1 *22:s 3.48852e-17
2 *13:s 4.65684e-17
3 *9:s 3.59041e-17
4 *28:7 1.08041e-17
5 *28:5 1.33411e-17
6 *28:4 2.11373e-17
7 *28:2 1.69933e-16
8 *28 7.71418e-18

*RES
0 *26:s *28:3 31.535835  // $metal1_conn
1 *28:3 *28:4 0.2485  // $metal1_conn
2 *28:4 *28:5 0.473247  // $metal1_conn
3 *28:5 *28:6 0.076661  // $metal1_conn
4 *28:6 *28:7 0.248287  // $metal1_conn
5 *28:7 *28 0.10246  // $metal1_conn
6 *28:4 *22:s 62.135929  // $metal1_conn
7 *28:5 *13:s 62.15881  // $metal1_conn
8 *28:7 *9:s 62.256989  // $metal1_conn
9 *28:2 *28:3 9.375  // $metal1_conn
10 *28:2 *28:6 9.375  // $metal1_conn

*END

*D_NET *41 0

*CONN
*P *41 I *C 0.1000 0.0000 
*I *7:s B *C 1.9900 0.3925 
*I *8:s B *C 1.9900 0.3925 
*I *14:s B *C 2.8000 0.4225 
*I *16:s B *C 2.8000 0.4225 
*I *18:s B *C 0.4075 0.5675 
*I *20:s B *C 0.4075 0.5675 
*I *29:s B *C 0.9825 0.3925 
*I *30:s B *C 0.9825 0.3925 
*N *41:2 *C 2.4000 0.0000 
*N *41:3 *C 2.4000 0.0000 
*N *41:4 *C 1.9050 0.0000 
*N *41:5 *C 0.9800 0.0000 
*N *41:6 *C 0.8000 0.0000 
*N *41:7 *C 0.3050 0.0000 


*RES
0 *14:s *41:3 75.299149  // $metal1_conn
1 *41:3 *41:4 0.248287  // $metal1_conn
2 *41:4 *41:5 0.463944  // $metal1_conn
3 *41:5 *41:6 0.090161  // $metal1_conn
4 *41:6 *41:7 0.248287  // $metal1_conn
5 *41:7 *41 0.10246  // $metal1_conn
6 *41:4 *7:s 75.132477  // $metal1_conn
7 *41:5 *29:s 75.216606  // $metal1_conn
8 *41:7 *18:s 75.290642  // $metal1_conn
9 *41:2 *41:3 7.75  // $metal1_conn
10 *41:2 *41:6 7.75  // $metal1_conn

*END

*D_NET *40 2.14025e-16

*CONN
*P *40 I *C 0.4350 0.9450 
*I *20:g B *C 0.4725 0.5675 
*I *11:g B *C 0.4175 1.2675 
*N *40:2 *C 0.4450 0.9500 
*N *40:4 *C 0.4450 0.9500 

*CAP
0 *11:g 4.08887e-17
1 *20:g 4.41387e-17
2 *40:2 3.41978e-17
3 *40 9.47998e-17

*RES
0 *20:g *40:2 70.973999  // $poly_conn
1 *40:2 *11:g 45.332973  // $poly_conn
2 *40 *40:4 0.003282  // $metal1_conn
3 *40:2 *40:4 45  // $metal1_conn

*END

*D_NET *4 2.46778e-16

*CONN
*P *4 I *C 2.7600 0.8550 
*I *14:g B *C 2.5825 0.3925 
*I *26:g B *C 2.5825 1.1200 
*N *4:2 *C 2.6300 0.7650 
*N *4:4 *C 2.6300 0.7650 
*N *4:5 *C 2.6300 0.8100 
*N *4:6 *C 2.7605 0.8100 

*CAP
0 *26:g 4.46602e-17
1 *14:g 7.03781e-17
2 *4:6 4.07319e-17
3 *4:5 3.86854e-17
4 *4:2 5.23224e-17

*RES
0 *26:g *4:2 41.796242  // $poly_conn
1 *4:2 *14:g 59.744961  // $poly_conn
2 *4:4 *4:5 0.012456  // $metal1_conn
3 *4:6 *4 0.012456  // $metal1_conn
4 *4:5 *4:6 0.04593  // $metal1_conn
5 *4:2 *4:4 45  // $metal1_conn

*END

*D_NET *21 9.28318e-17

*CONN
*P *21 O *C 0.0900 0.6650 
*I *18:d B *C 0.1100 0.5100 
*I *9:d B *C 0.1100 1.1800 

*CAP
0 *9:d 4.84359e-17
1 *18:d 9.37099e-18
2 *21 3.50249e-17

*RES
0 *9:d *21 21.020391  // $metal1_conn
1 *21 *18:d 75.059082  // $metal1_conn

*END

*D_NET *39 2.13355e-18

*CONN
*I *12:s B *C 2.5300 0.3925 
*I *14:d B *C 2.5300 0.3925 

*CAP
0 *12:s 2.13355e-18

*RES
0 *14:d *12:s 0.001  // $mwires

*END

*D_NET *38 3.19052e-18

*CONN
*I *8:d B *C 2.1275 0.3925 
*I *10:s B *C 2.1275 0.3925 

*CAP
0 *8:d 3.19052e-18

*RES
0 *10:s *8:d 0.001  // $mwires

*END

*D_NET *37 3.20812e-18

*CONN
*I *30:d B *C 1.1600 0.3925 
*I *31:s B *C 1.1600 0.3925 

*CAP
0 *30:d 3.20812e-18

*RES
0 *31:s *30:d 0.001  // $mwires

*END

*D_NET *36 5.99301e-18

*CONN
*I *25:s B *C 2.4650 1.1200 
*I *26:d B *C 2.4650 1.1200 

*CAP
0 *25:s 5.99301e-18

*RES
0 *26:d *25:s 0.001  // $mwires

*END

*D_NET *35 1.69422e-18

*CONN
*I *23:d B *C 2.0900 1.1200 
*I *24:s B *C 2.0900 1.1200 

*CAP
0 *23:d 1.69422e-18

*RES
0 *24:s *23:d 0.001  // $mwires

*END

*D_NET *34 5.05571e-18

*CONN
*I *15:d B *C 1.1600 1.1200 
*I *17:s B *C 1.1600 1.1200 

*CAP
0 *15:d 5.05571e-18

*RES
0 *17:s *15:d 0.001  // $mwires

*END

*D_NET *33 1.22023e-15

*CONN
*I *12:g B *C 2.4775 0.3925 
*I *16:g B *C 2.8475 0.4225 
*I *20:d B *C 0.5650 0.5675 
*I *31:g B *C 1.2325 0.3925 
*I *11:d B *C 0.5600 1.3150 
*I *19:g B *C 1.5025 1.1200 
*I *24:g B *C 2.1425 1.1200 
*I *27:g B *C 2.8275 1.0725 
*N *33:2 *C 1.5300 0.8450 
*N *33:5 *C 2.1800 1.3750 
*N *33:7 *C 2.4400 0.6550 
*N *33:9 *C 2.8000 0.6050 
*N *33:11 *C 2.1500 1.2150 
*N *33:12 *C 1.5300 1.2150 
*N *33:13 *C 0.5750 1.2150 

*CAP
0 *27:g 4.14032e-17
1 *24:g 6.94422e-17
2 *19:g 2.89044e-17
3 *11:d 2.79535e-17
4 *31:g 6.95777e-17
5 *20:d 1.08863e-16
6 *16:g 2.84295e-17
7 *12:g 5.47448e-17
8 *33:13 1.43575e-16
9 *33:12 1.08974e-16
10 *33:11 9.67075e-17
11 *33:2 1.26869e-16
12 *33:5 5.45432e-17
13 *33:7 1.54733e-16
14 *33:9 1.05513e-16

*RES
0 *19:g *33:2 19.094143  // $poly_conn
1 *33:2 *31:g 129.182404  // $poly_conn
2 *24:g *33:5 61.15522  // $poly_conn
3 *12:g *33:7 76.539833  // $poly_conn
4 *16:g *33:9 20.034042  // $poly_conn
5 *33:9 *27:g 80.632607  // $poly_conn
6 *33:9 *33:7 45.283974  // $metal1_conn
7 *33:7 *33:11 0.642836  // $metal1_conn
8 *33:11 *33:12 0.452895  // $metal1_conn
9 *33:12 *33:13 0.705176  // $metal1_conn
10 *33:13 *11:d 62.069309  // $metal1_conn
11 *33:11 *33:5 0.084789  // $metal1_conn
12 *33:12 *33:2 45.271149  // $metal1_conn
13 *33:13 *20:d 75.473457  // $metal1_conn

*END

*D_NET *32 8.87543e-16

*CONN
*I *6:g B *C 1.5625 0.3925 
*I *10:g B *C 2.2175 0.3925 
*I *16:d B *C 2.9400 0.4225 
*I *17:g B *C 1.2325 1.1200 
*I *25:g B *C 2.3475 1.1200 
*I *27:d B *C 2.9300 1.0725 
*N *32:2 *C 1.2600 0.8050 
*N *32:4 *C 1.5350 0.6350 
*N *32:6 *C 2.1800 0.5950 
*N *32:10 *C 2.9500 0.4150 
*N *32:11 *C 2.1800 0.4250 

*CAP
0 *27:d 4.11007e-17
1 *25:g 6.37846e-17
2 *17:g 5.17094e-17
3 *16:d 1.21006e-16
4 *10:g 2.90459e-17
5 *6:g 2.66378e-17
6 *32:11 1.86013e-16
7 *32:2 1.09687e-16
8 *32:4 1.60673e-16
9 *32:6 9.78853e-17

*RES
0 *17:g *32:2 77.512466  // $poly_conn
1 *6:g *32:4 71.634125  // $poly_conn
2 *25:g *32:6 104.200363  // $poly_conn
3 *32:6 *10:g 17.624828  // $poly_conn
4 *27:d *32:10 62.442719  // $metal1_conn
5 *32:10 *32:11 0.791787  // $metal1_conn
6 *32:11 *32:4 0.841939  // $metal1_conn
7 *32:4 *32:2 0.291082  // $metal1_conn
8 *32:11 *32:6 45.140446  // $metal1_conn
9 *16:d *32:10 75  // $metal1_conn

*END

*D_NET *5 7.07872e-16

*CONN
*I *18:g B *C 0.2025 0.5100 
*I *29:d B *C 0.7850 0.3925 
*I *30:g B *C 1.0875 0.3925 
*I *9:g B *C 0.2025 1.1800 
*I *13:d B *C 0.7500 1.1200 
*I *15:g B *C 1.0875 1.1200 
*N *5:1 *C 0.2600 0.7400 
*N *5:2 *C 0.2025 0.7400 
*N *5:6 *C 1.0875 0.8050 
*N *5:7 *C 1.0200 0.8050 
*N *5:9 *C 0.7450 0.5400 
*N *5:11 *C 0.7750 0.4200 

*CAP
0 *15:g 6.09566e-17
1 *13:d 9.13239e-17
2 *9:g 5.38869e-17
3 *30:g 5.29837e-17
4 *29:d 7.31759e-17
5 *18:g 2.76987e-17
6 *5:9 1.00133e-16
7 *5:6 3.45234e-17
8 *5:2 2.69617e-17
9 *5:1 9.74932e-17
10 *5:7 8.8735e-17

*RES
0 *5:1 *5:2 45.794373  // $poly_conn
1 *5:2 *18:g 20.563484  // $poly_conn
2 *5:2 *9:g 57.74297  // $poly_conn
3 *15:g *5:6 38.270954  // $poly_conn
4 *5:6 *5:7 46.794373  // $poly_conn
5 *5:6 *30:g 76.732491  // $poly_conn
6 *5:7 *5:9 0.401362  // $metal1_conn
7 *5:9 *5:11 0.062232  // $metal1_conn
8 *5:11 *5:1 0.609123  // $metal1_conn
9 *5:9 *13:d 62.420193  // $metal1_conn
10 *29:d *5:11 75  // $metal1_conn

*END

*D_NET *3 3.75149e-16

*CONN
*I *7:g B *C 1.7675 0.3925 
*I *10:d B *C 2.3475 0.3925 
*I *12:d B *C 2.3475 0.3925 
*I *22:g B *C 1.7675 1.1200 
*I *24:d B *C 2.2450 1.1200 
*I *25:d B *C 2.2450 1.1200 
*N *3:2 *C 1.8100 0.7950 
*N *3:5 *C 2.2450 0.8250 

*CAP
0 *24:d 3.40225e-17
1 *22:g 4.52972e-17
2 *10:d 7.31205e-17
3 *7:g 4.94078e-17
4 *3:5 7.97146e-17
5 *3:2 9.35859e-17

*RES
0 *22:g *3:2 32.783291  // $poly_conn
1 *3:2 *7:g 66.116623  // $poly_conn
2 *10:d *3:5 75.38192  // $metal1_conn
3 *3:5 *3:2 45.308926  // $metal1_conn
4 *3:5 *24:d 62.133251  // $metal1_conn

*END

*D_NET *2 4.3378e-16

*CONN
*I *6:d B *C 1.6650 0.3925 
*I *7:d B *C 1.6650 0.3925 
*I *8:g B *C 2.0375 0.3925 
*I *19:d B *C 1.6350 1.1200 
*I *22:d B *C 1.6350 1.1200 
*I *23:g B *C 2.0375 1.1200 
*N *2:2 *C 2.0100 0.6050 
*N *2:5 *C 1.6650 0.5750 

*CAP
0 *23:g 9.83809e-17
1 *19:d 7.91228e-17
2 *8:g 3.63539e-17
3 *6:d 4.22767e-17
4 *2:5 6.95311e-17
5 *2:2 1.08115e-16

*RES
0 *23:g *2:2 83.79451  // $poly_conn
1 *2:2 *8:g 19.691952  // $poly_conn
2 *19:d *2:5 62.33342  // $metal1_conn
3 *2:5 *6:d 75.123047  // $metal1_conn
4 *2:5 *2:2 45.236855  // $metal1_conn

*END

*D_NET *1 4.43431e-16

*CONN
*I *6:s B *C 1.3975 0.3925 
*I *29:g B *C 0.8775 0.3925 
*I *31:d B *C 1.3975 0.3925 
*I *13:g B *C 0.8225 1.1200 
*I *17:d B *C 1.3675 1.1200 
*I *19:s B *C 1.3675 1.1200 
*N *1:2 *C 0.8500 0.7300 
*N *1:5 *C 1.1400 0.9950 

*CAP
0 *17:d 4.72782e-17
1 *13:g 4.6299e-17
2 *29:g 3.48801e-17
3 *6:s 8.11319e-17
4 *1:5 1.12097e-16
5 *1:2 1.21745e-16

*RES
0 *29:g *1:2 51.743229  // $poly_conn
1 *1:2 *13:g 51.743237  // $poly_conn
2 *6:s *1:5 75.538696  // $metal1_conn
3 *1:5 *1:2 45.439079  // $metal1_conn
4 *1:5 *17:d 62.162766  // $metal1_conn

*END

