*SPEF "IEEE 1481-1999"
*DESIGN  "DFFHQX4"
*DATE "Mon Sep 27 09:26:13 2010"
*VENDOR "Cadence Design Systems"
*PROGRAM "Assura RCX"
*VERSION "3.2 Red Hat Linux release 7.2 (Enigma) - (09/09/2009-10:39)"
*DESIGN_FLOW "Physical Verification"
*DIVIDER /
*DELIMITER :
*BUS_DELIMITER []
*T_UNIT 1 PS
*C_UNIT 1e15 FF
*R_UNIT 1 OHM
*L_UNIT 1 MH
// DeviceFingerDelim "@"
// MATCHED
// caps2d version: 10

*NAME_MAP
*1 Q
*2 VDD
*3 mout
*4 mp40
*5 n30
*6 mp30
*7 n20
*8 mp35
*9 qbint
*10 mp36
*11 mp26
*12 mp25
*13 mp21
*14 mp20
*15 mp55\@1
*16 mp55
*17 mp55\@2
*18 mp55\@3
*19 mp45
*20 mp45\@1
*21 mp50
*22 CK
*23 mp51
*24 mn55
*25 mn55\@1
*26 mn55\@2
*27 mn55\@3
*28 mn45
*29 mn45\@1
*30 mn50
*31 VSS
*32 CKbb
*33 CKb
*34 net123
*35 mn51
*36 net147
*37 mn40
*38 n22
*39 mn30
*40 net172
*41 mn35
*42 net192
*43 mn36
*44 n21
*45 mn26
*46 D
*47 mn25
*48 mn21
*49 mn20

*GROUND_NETS VSS

*PORTS
*2 I
*31 I
*22 I
*46 I
*1 O

*D_NET *2 6.21908e-16

*CONN
*P *2 I *C 0.1000 1.7100 
*I *6:s B *C 3.3700 1.1200 
*I *8:s B *C 3.3700 1.1200 
*I *12:s B *C 4.3700 1.0725 
*I *13:s B *C 4.3700 1.0725 
*I *14:s B *C 0.5150 1.0950 
*I *16:s B *C 0.5150 1.0950 
*I *15:s B *C 0.9150 1.0950 
*I *17:s B *C 0.9150 1.0950 
*I *18:s B *C 1.5525 1.1200 
*I *19:s B *C 1.5525 1.1200 
*I *20:s B *C 2.1225 1.1200 
*I *21:s B *C 2.1225 1.1200 
*N *2:2 *C 3.6000 1.7100 
*N *2:3 *C 3.6000 1.7100 
*N *2:4 *C 3.2850 1.7100 

*CAP
0 *20:s 3.05542e-16
1 *12:s 4.48889e-17
2 *6:s 2.89809e-17
3 *2:4 2.50985e-17
4 *2:2 2.09121e-16
5 *2 8.27714e-18

*RES
0 *20:s *2 0.202654  // $metal1_conn
1 *2:2 *2:3 6.25  // $metal1_conn
2 *2:2 *20:s 6.25  // $metal1_conn
3 *12:s *2:3 62.689808  // $metal1_conn
4 *2:4 *6:s 62.20475  // $metal1_conn
5 *2:3 *2:4 0.157771  // $metal1_conn
6 *2:4 *20:s 0.60891  // $metal1_conn

*END

*D_NET *31 0

*CONN
*P *31 I *C 0.1000 0.0000 
*I *39:s B *C 3.4650 0.4775 
*I *41:s B *C 3.4650 0.4775 
*I *47:s B *C 4.4150 0.5075 
*I *48:s B *C 4.4150 0.5075 
*I *49:s B *C 0.4550 0.5300 
*I *24:s B *C 0.4550 0.5300 
*I *25:s B *C 0.9250 0.5300 
*I *26:s B *C 0.9250 0.5300 
*I *27:s B *C 1.5825 0.4775 
*I *28:s B *C 1.5825 0.4775 
*I *29:s B *C 2.2700 0.4775 
*I *30:s B *C 2.2700 0.4775 
*N *31:2 *C 3.6000 0.0000 
*N *31:3 *C 3.6000 0.0000 
*N *31:4 *C 3.4100 0.0000 


*RES
0 *29:s *31 0.134004  // $metal1_conn
1 *31:2 *31:3 5.166667  // $metal1_conn
2 *31:2 *29:s 5.166667  // $metal1_conn
3 *47:s *31:3 75.767601  // $metal1_conn
4 *31:4 *39:s 75.226097  // $metal1_conn
5 *31:3 *31:4 0.095086  // $metal1_conn
6 *31:4 *29:s 0.59888  // $metal1_conn

*END

*D_NET *22 1.91018e-16

*CONN
*P *22 I *C 0.3000 0.8550 
*I *49:g B *C 0.2825 0.5875 
*I *14:g B *C 0.3725 1.0425 
*N *22:2 *C 0.3100 0.8000 
*N *22:4 *C 0.3050 0.8000 

*CAP
0 *14:g 3.29653e-17
1 *49:g 2.99747e-17
2 *22:4 6.87852e-17
3 *22:2 3.21103e-17
4 *22 2.71824e-17

*RES
0 *14:g *22:2 28.86861  // $poly_conn
1 *22:2 *49:g 24.222347  // $poly_conn
2 *22:4 *22 0.034237  // $metal1_conn
3 *22:2 *22:4 45  // $metal1_conn

*END

*D_NET *46 3.31363e-16

*CONN
*P *46 I *C 4.3000 0.8550 
*I *47:g B *C 4.2625 0.4775 
*I *12:g B *C 4.1575 1.1200 
*N *46:2 *C 4.3000 0.8450 

*CAP
0 *12:g 4.55134e-17
1 *47:g 7.60212e-17
2 *46:2 5.80007e-17
3 *46 1.51828e-16

*RES
0 *47:g *46:2 58.873035  // $poly_conn
1 *46:2 *12:g 44.817993  // $poly_conn
2 *46:2 *46 45.000313  // $metal1_conn

*END

*D_NET *1 2.56607e-16

*CONN
*P *1 O *C 0.7000 0.6650 
*I *24:d B *C 0.6050 0.5300 
*I *25:d B *C 0.6050 0.5300 
*I *26:d B *C 1.0900 0.5300 
*I *27:d B *C 1.0900 0.5300 
*I *16:d B *C 0.7100 1.0950 
*I *15:d B *C 0.7100 1.0950 
*I *17:d B *C 1.1400 1.0950 
*I *18:d B *C 1.1400 1.0950 

*CAP
0 *1 2.56607e-16


*END

*D_NET *44 3.64709e-19

*CONN
*I *45:s B *C 4.2100 0.4775 
*I *47:d B *C 4.2100 0.4775 

*CAP
0 *45:s 3.64709e-19

*RES
0 *47:d *45:s 0.001  // $mwires

*END

*D_NET *42 9.65474e-18

*CONN
*I *41:d B *C 3.7075 0.4775 
*I *43:s B *C 3.7075 0.4775 

*CAP
0 *41:d 9.65474e-18

*RES
0 *43:s *41:d 0.001  // $mwires

*END

*D_NET *40 2.82166e-18

*CONN
*I *35:s B *C 2.4075 0.4775 
*I *30:d B *C 2.4075 0.4775 

*CAP
0 *35:s 2.82166e-18

*RES
0 *30:d *35:s 0.001  // $mwires

*END

*D_NET *38 9.7581e-18

*CONN
*I *11:s B *C 4.0300 1.1200 
*I *12:d B *C 4.0300 1.1200 

*CAP
0 *11:s 9.7581e-18

*RES
0 *12:d *11:s 0.001  // $mwires

*END

*D_NET *36 6.47159e-18

*CONN
*I *8:d B *C 3.5075 1.1200 
*I *10:s B *C 3.5075 1.1200 

*CAP
0 *8:d 6.47159e-18

*RES
0 *10:s *8:d 0.001  // $mwires

*END

*D_NET *34 0

*CONN
*I *21:d B *C 2.3300 1.1200 
*I *23:s B *C 2.3300 1.1200 


*RES
0 *23:s *21:d 0.001  // $mwires

*END

*D_NET *33 1.5681e-15

*CONN
*I *35:g B *C 2.4975 0.4775 
*I *45:g B *C 4.1575 0.4775 
*I *48:g B *C 4.4675 0.5075 
*I *49:d B *C 0.1650 0.5875 
*I *4:g B *C 2.5875 1.1200 
*I *10:g B *C 3.5975 1.1200 
*I *13:g B *C 4.4425 1.0725 
*I *14:d B *C 0.2800 1.0425 
*N *33:2 *C 2.4600 0.6800 
*N *33:5 *C 3.5600 0.8500 
*N *33:7 *C 4.1200 0.6850 
*N *33:9 *C 4.4800 0.6850 
*N *33:11 *C 4.1950 0.6850 
*N *33:12 *C 3.5800 0.5300 
*N *33:13 *C 2.4300 0.5350 
*N *33:15 *C 0.1300 0.5750 

*CAP
0 *14:d 5.49431e-17
1 *13:g 4.43386e-17
2 *10:g 3.87985e-17
3 *4:g 5.01039e-17
4 *49:d 2.71176e-16
5 *48:g 3.00608e-17
6 *45:g 6.20156e-17
7 *35:g 2.60556e-17
8 *33:13 3.77047e-16
9 *33:12 2.20611e-16
10 *33:11 9.40237e-17
11 *33:2 7.52433e-17
12 *33:5 8.39069e-17
13 *33:7 6.05962e-17
14 *33:9 7.91811e-17

*RES
0 *4:g *33:2 81.754028  // $poly_conn
1 *33:2 *35:g 16.15522  // $poly_conn
2 *10:g *33:5 65.001373  // $poly_conn
3 *45:g *33:7 62.437271  // $poly_conn
4 *48:g *33:9 17.437269  // $poly_conn
5 *33:9 *13:g 72.34108  // $poly_conn
6 *33:9 *33:11 45.225441  // $metal1_conn
7 *33:11 *33:12 0.776899  // $metal1_conn
8 *33:12 *33:13 1.042551  // $metal1_conn
9 *33:13 *33:15 2.275094  // $metal1_conn
10 *33:11 *33:7 0.064176  // $metal1_conn
11 *33:12 *33:5 0.245492  // $metal1_conn
12 *33:13 *33:2 45.100723  // $metal1_conn
13 *33:15 *14:d 62.436958  // $metal1_conn
14 *49:d *33:15 75  // $metal1_conn

*END

*D_NET *32 8.23856e-16

*CONN
*I *37:g B *C 2.8775 0.4775 
*I *43:g B *C 3.9025 0.4775 
*I *48:d B *C 4.5600 0.5075 
*I *11:g B *C 3.9025 1.1200 
*I *13:d B *C 4.5350 1.0725 
*I *23:g B *C 2.3825 1.1200 
*N *32:2 *C 2.4200 1.3750 
*N *32:4 *C 2.8400 0.8000 
*N *32:6 *C 3.9400 0.8650 
*N *32:10 *C 4.5450 1.0250 
*N *32:11 *C 3.9700 1.0250 
*N *32:12 *C 2.8100 1.1775 

*CAP
0 *23:g 7.8059e-17
1 *13:d 9.87065e-17
2 *11:g 2.61406e-17
3 *48:d 5.87212e-17
4 *43:g 3.88618e-17
5 *37:g 2.94584e-17
6 *32:12 1.40697e-16
7 *32:11 1.3138e-16
8 *32:2 8.31324e-17
9 *32:4 7.6685e-17
10 *32:6 6.20143e-17

*RES
0 *23:g *32:2 61.15522  // $poly_conn
1 *37:g *32:4 91.924454  // $poly_conn
2 *11:g *32:6 16.15522  // $poly_conn
3 *32:6 *43:g 63.591114  // $poly_conn
4 *48:d *32:10 75.569145  // $metal1_conn
5 *32:10 *32:11 0.409581  // $metal1_conn
6 *32:11 *32:12 1.031542  // $metal1_conn
7 *32:12 *32:2 0.409482  // $metal1_conn
8 *32:11 *32:6 45.110767  // $metal1_conn
9 *32:12 *32:4 0.278156  // $metal1_conn
10 *13:d *32:10 62  // $metal1_conn

*END

*D_NET *9 6.94534e-16

*CONN
*I *24:g B *C 0.5025 0.5300 
*I *25:g B *C 0.7075 0.5300 
*I *26:g B *C 0.9725 0.5300 
*I *27:g B *C 1.2075 0.5300 
*I *28:d B *C 1.8350 0.4775 
*I *29:d B *C 1.8350 0.4775 
*I *30:g B *C 2.3175 0.4775 
*I *16:g B *C 0.6075 1.0950 
*I *15:g B *C 0.8125 1.0950 
*I *17:g B *C 1.0175 1.0950 
*I *18:g B *C 1.2625 1.0950 
*I *19:d B *C 1.8350 1.1200 
*I *20:d B *C 1.8350 1.1200 
*I *21:g B *C 2.2775 1.1200 
*N *9:16 *C 2.2400 0.6950 
*N *9:18 *C 1.7900 0.6875 
*N *9:19 *C 1.7900 0.7475 

*CAP
0 *21:g 7.62166e-17
1 *19:d 3.55662e-17
2 *18:g 3.07398e-16
3 *30:g 3.53714e-17
4 *28:d 3.83516e-17
5 *9:19 8.10487e-17
6 *9:16 1.20581e-16

*RES
0 *9:16 *21:g 59.935795  // $poly_conn
1 *30:g *9:16 28.066105  // $poly_conn
2 *9:16 *9:18 45.338013  // $metal1_conn
3 *9:19 *18:g 45.389683  // $metal1_conn
4 *9:19 *19:d 31.263144  // $metal1_conn
5 *9:18 *28:d 75.109055  // $metal1_conn
6 *9:18 *9:19 0.047346  // $metal1_conn

*END

*D_NET *7 4.07024e-16

*CONN
*I *39:g B *C 3.1525 0.4775 
*I *43:d B *C 4.0300 0.4775 
*I *45:d B *C 4.0300 0.4775 
*I *6:g B *C 3.1525 1.1200 
*I *10:d B *C 3.7500 1.1200 
*I *11:d B *C 3.7500 1.1200 
*N *7:1 *C 3.2200 0.8650 
*N *7:2 *C 3.1525 0.8650 
*N *7:7 *C 3.7500 1.0400 

*CAP
0 *10:d 1.22204e-16
1 *6:g 3.22664e-17
2 *43:d 9.48523e-17
3 *39:g 4.54763e-17
4 *7:2 3.5511e-17
5 *7:1 7.67136e-17

*RES
0 *7:1 *7:2 46.794373  // $poly_conn
1 *7:2 *39:g 67.999382  // $poly_conn
2 *7:2 *6:g 20.563484  // $poly_conn
3 *43:d *7:7 75.561859  // $metal1_conn
4 *7:7 *7:1 0.484993  // $metal1_conn
5 *10:d *7:7 62  // $metal1_conn

*END

*D_NET *5 3.84271e-16

*CONN
*I *35:d B *C 2.6875 0.4775 
*I *37:s B *C 2.6875 0.4775 
*I *28:g B *C 1.7025 0.4775 
*I *29:g B *C 1.9675 0.4775 
*I *4:s B *C 2.4850 1.1200 
*I *19:g B *C 1.7025 1.1200 
*I *20:g B *C 1.9675 1.1200 
*I *23:d B *C 2.4850 1.1200 
*N *5:9 *C 2.4850 0.8550 

*CAP
0 *20:g 2.04409e-16
1 *4:s 4.48735e-17
2 *35:d 6.16552e-17
3 *5:9 7.33333e-17

*RES
0 *5:9 *20:g 45.370026  // $metal1_conn
1 *5:9 *4:s 31.143105  // $metal1_conn
2 *35:d *5:9 75.354324  // $metal1_conn

*END

*D_NET *3 3.4808e-16

*CONN
*I *37:d B *C 3.0150 0.4775 
*I *39:d B *C 3.0150 0.4775 
*I *41:g B *C 3.5125 0.4775 
*I *4:d B *C 2.8700 1.1200 
*I *6:d B *C 2.8700 1.1200 
*I *8:g B *C 3.4175 1.1200 
*N *3:2 *C 3.3900 0.6900 
*N *3:4 *C 3.0300 0.6900 

*CAP
0 *8:g 6.73875e-17
1 *4:d 6.4922e-17
2 *41:g 2.90976e-17
3 *37:d 3.50845e-17
4 *3:4 4.80494e-17
5 *3:2 1.03539e-16

*RES
0 *41:g *3:2 29.006489  // $poly_conn
1 *3:2 *8:g 58.837734  // $poly_conn
2 *3:2 *3:4 45.265926  // $metal1_conn
3 *3:4 *37:d 75.111153  // $metal1_conn
4 *3:4 *4:d 62.232555  // $metal1_conn

*END

