*SPEF "IEEE 1481-1999"
*DESIGN  "DFFNSRX2"
*DATE "Mon Sep 27 09:27:23 2010"
*VENDOR "Cadence Design Systems"
*PROGRAM "Assura RCX"
*VERSION "3.2 Red Hat Linux release 7.2 (Enigma) - (09/09/2009-10:39)"
*DESIGN_FLOW "Physical Verification"
*DIVIDER /
*DELIMITER :
*BUS_DELIMITER []
*T_UNIT 1 PS
*C_UNIT 1e15 FF
*R_UNIT 1 OHM
*L_UNIT 1 MH
// DeviceFingerDelim "@"
// MATCHED
// caps2d version: 10

*NAME_MAP
*1 VSS
*2 mp40
*3 mp53
*4 mp50
*5 mp52
*6 mp51
*7 mp45
*8 mp55
*9 mp55\@1
*10 mp57
*11 mp57\@1
*12 mn40
*13 mp56
*14 mn53
*15 mp20
*16 mn50
*17 mp25
*18 mn52
*19 mp26
*20 mn51
*21 mp36
*22 mn45
*23 qbint
*24 mp35
*25 mn55
*26 n42
*27 mp21
*28 mn55\@1
*29 n40
*30 mp31
*31 mn57
*32 n41
*33 QN
*34 mp32
*35 n35
*36 CKN
*37 RNb
*38 n25
*39 CKNb
*40 D
*41 n20
*42 mout
*43 mp30
*44 mp22
*45 VDD
*46 qint
*47 CKNbb
*48 n22
*49 n31
*50 n26
*51 Q
*52 RN
*53 n43
*54 n21
*55 n30
*56 mn57\@1
*57 mn56
*58 mn20
*59 mn25
*60 mn26
*61 mn36
*62 mn35
*63 mn21
*64 mn31
*65 mn32
*66 SN
*67 mn30
*68 mn22

*GROUND_NETS VSS

*PORTS
*45 I
*1 I
*36 I
*40 I
*52 I
*66 I
*51 O
*33 O

*D_NET *45 9.73796e-16

*CONN
*P *45 I *C 0.1000 1.7100 
*I *4:s B *C 4.4650 1.2475 
*I *6:s B *C 4.9600 1.1525 
*I *7:s B *C 5.6850 1.1000 
*I *8:s B *C 5.6850 1.1000 
*I *9:s B *C 6.3400 1.1450 
*I *10:s B *C 6.3400 1.1450 
*I *11:s B *C 6.7500 1.5700 
*I *13:s B *C 6.7500 1.5700 
*I *15:s B *C 0.4175 1.3725 
*I *17:s B *C 0.4175 1.3725 
*I *24:s B *C 1.3950 1.5700 
*I *27:s B *C 1.3950 1.5700 
*I *30:s B *C 1.9300 1.0075 
*I *43:s B *C 2.8175 1.0075 
*I *44:s B *C 2.8175 1.0075 
*N *45:3 *C 5.8000 1.7100 
*N *45:6 *C 4.8200 1.7100 
*N *45:7 *C 4.4550 1.7100 
*N *45:8 *C 3.5000 1.7100 
*N *45:9 *C 2.6000 1.7100 
*N *45:10 *C 1.7550 1.7100 
*N *45:11 *C 1.3700 1.7100 
*N *45:12 *C 1.2000 1.7100 
*N *45:13 *C 0.3900 1.7100 

*CAP
0 *43:s 2.70343e-17
1 *30:s 1.42439e-17
2 *24:s 1.61934e-17
3 *15:s 2.03689e-17
4 *11:s 1.15842e-16
5 *6:s 5.24396e-17
6 *4:s 3.01153e-17
7 *45:13 2.08403e-17
8 *45:11 7.53508e-18
9 *45:10 2.5926e-17
10 *45:9 4.48245e-17
11 *45:7 1.66358e-17
12 *45:6 3.11425e-17
13 *45:3 5.44699e-16
14 *45 5.95468e-18

*RES
0 *45:13 *45 0.145056  // $metal1_conn
1 *45:3 *11:s 6.25  // $metal1_conn
2 *45:3 *45:8 6.818182  // $metal1_conn
3 *45:3 *45:12 6.25  // $metal1_conn
4 *45:6 *6:s 62.401333  // $metal1_conn
5 *45:7 *4:s 62.259239  // $metal1_conn
6 *45:9 *43:s 62.045841  // $metal1_conn
7 *45:10 *30:s 62.074944  // $metal1_conn
8 *45:11 *24:s 62.074944  // $metal1_conn
9 *45:13 *15:s 62.175468  // $metal1_conn
10 *11:s *45:6 0.375908  // $metal1_conn
11 *45:6 *45:7 0.182741  // $metal1_conn
12 *45:7 *45:8 0.47896  // $metal1_conn
13 *45:8 *45:9 0.450415  // $metal1_conn
14 *45:9 *45:10 0.422623  // $metal1_conn
15 *45:10 *45:11 0.192775  // $metal1_conn
16 *45:11 *45:12 0.085099  // $metal1_conn
17 *45:12 *45:13 0.406209  // $metal1_conn

*END

*D_NET *1 0

*CONN
*P *1 I *C 0.1000 0.0000 
*I *16:s B *C 4.4850 0.4375 
*I *22:s B *C 5.6850 0.5300 
*I *25:s B *C 5.6850 0.5300 
*I *28:s B *C 6.1675 0.5300 
*I *31:s B *C 6.1675 0.5300 
*I *56:s B *C 6.6825 0.4725 
*I *57:s B *C 6.6825 0.4725 
*I *58:s B *C 0.4450 0.4725 
*I *59:s B *C 0.4450 0.4725 
*I *62:s B *C 1.3850 0.5875 
*I *63:s B *C 1.3850 0.5875 
*I *67:s B *C 2.8950 0.4275 
*I *68:s B *C 2.8950 0.4275 
*N *1:3 *C 5.8000 0.0000 
*N *1:6 *C 4.3400 0.0000 
*N *1:7 *C 3.5000 0.0000 
*N *1:8 *C 2.7750 0.0000 
*N *1:9 *C 1.4200 0.0000 
*N *1:10 *C 1.2000 0.0000 
*N *1:11 *C 0.4450 0.0000 


*RES
0 *1:11 *1 0.172651  // $metal1_conn
1 *1:3 *56:s 5.166667  // $metal1_conn
2 *1:3 *1:7 5.636364  // $metal1_conn
3 *1:3 *1:10 5.166667  // $metal1_conn
4 *1:6 *16:s 75.273018  // $metal1_conn
5 *1:8 *67:s 75.175499  // $metal1_conn
6 *1:9 *62:s 75.045837  // $metal1_conn
7 *1:11 *58:s 75.296722  // $metal1_conn
8 *56:s *1:6 0.659388  // $metal1_conn
9 *1:6 *1:7 0.421261  // $metal1_conn
10 *1:7 *1:8 0.363561  // $metal1_conn
11 *1:8 *1:9 0.678508  // $metal1_conn
12 *1:9 *1:10 0.109235  // $metal1_conn
13 *1:10 *1:11 0.378613  // $metal1_conn

*END

*D_NET *36 2.36823e-16

*CONN
*P *36 I *C 0.3000 0.8550 
*I *58:g B *C 0.3425 0.4725 
*I *15:g B *C 0.2875 1.3725 
*N *36:2 *C 0.3150 0.8500 
*N *36:4 *C 0.3150 0.8500 

*CAP
0 *15:g 3.76928e-17
1 *58:g 3.60524e-17
2 *36:2 1.63077e-16

*RES
0 *58:g *36:2 69.691948  // $poly_conn
1 *36:2 *15:g 97.897079  // $poly_conn
2 *36:4 *36 0.002746  // $metal1_conn
3 *36:2 *36:4 45  // $metal1_conn

*END

*D_NET *40 3.01027e-16

*CONN
*P *40 I *C 0.5000 1.0450 
*I *59:g B *C 0.5475 0.4725 
*I *17:g B *C 0.5475 1.3725 
*N *40:2 *C 0.5200 1.0400 
*N *40:4 *C 0.5200 1.0400 

*CAP
0 *17:g 5.94108e-17
1 *59:g 5.37189e-17
2 *40:2 6.38905e-17
3 *40 1.24007e-16

*RES
0 *17:g *40:2 49.179131  // $poly_conn
1 *40:2 *59:g 118.409897  // $poly_conn
2 *40:4 *40 0.002919  // $metal1_conn
3 *40:2 *40:4 45  // $metal1_conn

*END

*D_NET *52 1.99677e-16

*CONN
*P *52 I *C 3.1000 0.8550 
*I *68:g B *C 2.9475 0.4275 
*I *44:g B *C 2.9475 1.0075 
*N *52:2 *C 2.9750 0.7900 

*CAP
0 *44:g 3.09814e-17
1 *68:g 4.02025e-17
2 *52:2 7.41453e-17
3 *52 5.43478e-17

*RES
0 *44:g *52:2 19.691952  // $poly_conn
1 *52:2 *68:g 65.845802  // $poly_conn
2 *52 *52:2 45.03561  // $metal1_conn

*END

*D_NET *66 4.61228e-16

*CONN
*P *66 I *C 2.7000 0.8550 
*I *16:g B *C 4.5575 0.4375 
*I *67:g B *C 2.5875 0.4275 
*I *4:g B *C 4.5575 1.2475 
*I *43:g B *C 2.5875 1.0075 
*N *66:4 *C 2.6250 0.6350 

*CAP
0 *43:g 3.41415e-17
1 *4:g 7.15892e-17
2 *67:g 1.07654e-16
3 *16:g 1.23149e-16
4 *66:4 6.30743e-17
5 *66 6.16204e-17

*RES
0 *4:g *16:g 161.538467  // $poly_conn
1 *16:g *67:g 599.710388  // $poly_conn
2 *67:g *66:4 25.129578  // $poly_conn
3 *66:4 *43:g 58.462914  // $poly_conn
4 *66 *66:4 45.163162  // $metal1_conn

*END

*D_NET *51 1.38624e-16

*CONN
*P *51 O *C 5.9000 1.0450 
*I *25:d B *C 5.8950 0.5300 
*I *28:d B *C 5.8950 0.5300 
*I *8:d B *C 5.8950 1.1000 
*I *9:d B *C 5.8950 1.1000 
*N *51:2 *C 5.8900 1.0400 

*CAP
0 *8:d 1.1052e-17
1 *25:d 5.42724e-17
2 *51 7.32994e-17

*RES
0 *51 *51:2 0.003117  // $metal1_conn
1 *8:d *51:2 62  // $metal1_conn
2 *51:2 *25:d 75.264549  // $metal1_conn

*END

*D_NET *33 1.1538e-16

*CONN
*P *33 O *C 6.5000 1.0450 
*I *31:d B *C 6.4050 0.5300 
*I *56:d B *C 6.4050 0.5300 
*I *10:d B *C 6.4900 1.1450 
*I *11:d B *C 6.4900 1.1450 
*N *33:3 *C 6.4900 1.0400 

*CAP
0 *10:d 7.27792e-17
1 *31:d 4.2601e-17

*RES
0 *33:3 *33 0.004856  // $metal1_conn
1 *10:d *33:3 62  // $metal1_conn
2 *31:d *33:3 75.29641  // $metal1_conn

*END

*D_NET *55 3.43925e-19

*CONN
*I *61:s B *C 1.1200 0.4725 
*I *62:d B *C 1.1200 0.4725 

*CAP
0 *61:s 3.43925e-19

*RES
0 *62:d *61:s 0.001  // $mwires

*END

*D_NET *54 1.52315e-18

*CONN
*I *59:d B *C 0.6475 0.4725 
*I *60:s B *C 0.6475 0.4725 

*CAP
0 *59:d 1.52315e-18

*RES
0 *60:s *59:d 0.001  // $mwires

*END

*D_NET *53 5.86853e-19

*CONN
*I *5:s B *C 4.8150 1.1525 
*I *6:d B *C 4.8150 1.1525 

*CAP
0 *5:s 5.86853e-19

*RES
0 *6:d *5:s 0.001  // $mwires

*END

*D_NET *50 8.08912e-19

*CONN
*I *30:d B *C 2.0550 1.0075 
*I *34:s B *C 2.0550 1.0075 

*CAP
0 *30:d 8.08912e-19

*RES
0 *34:s *30:d 0.001  // $mwires

*END

*D_NET *49 5.65611e-18

*CONN
*I *21:s B *C 1.1200 1.2775 
*I *24:d B *C 1.1200 1.2775 

*CAP
0 *21:s 5.65611e-18

*RES
0 *24:d *21:s 0.001  // $mwires

*END

*D_NET *48 0

*CONN
*I *17:d B *C 0.6000 1.3725 
*I *19:s B *C 0.6000 1.3725 


*RES
0 *19:s *17:d 0.001  // $mwires

*END

*D_NET *47 9.11435e-16

*CONN
*I *14:g B *C 3.9225 0.5875 
*I *60:g B *C 0.7475 0.4725 
*I *63:d B *C 1.5250 0.5875 
*I *2:g B *C 3.7025 1.1175 
*I *21:g B *C 1.0025 1.2775 
*I *27:d B *C 1.5750 1.0550 
*N *47:2 *C 1.0400 0.9500 
*N *47:6 *C 3.6650 1.4400 
*N *47:8 *C 1.5350 1.0550 
*N *47:9 *C 1.5525 0.9500 
*N *47:11 *C 1.5350 0.6000 

*CAP
0 *27:d 1.91587e-16
1 *21:g 3.77972e-17
2 *2:g 6.50881e-17
3 *63:d 4.31398e-17
4 *60:g 5.91596e-17
5 *14:g 6.06292e-17
6 *47:9 4.69974e-17
7 *47:2 1.21855e-16
8 *47:6 2.85181e-16

*RES
0 *21:g *47:2 46.92445  // $poly_conn
1 *47:2 *60:g 154.830948  // $poly_conn
2 *14:g *2:g 122.49778  // $poly_conn
3 *2:g *47:6 90.642395  // $poly_conn
4 *47:6 *47:8 1.864827  // $metal1_conn
5 *47:8 *47:9 0.062713  // $metal1_conn
6 *47:9 *47:11 0.247438  // $metal1_conn
7 *47:9 *47:2 45.354755  // $metal1_conn
8 *27:d *47:8 62  // $metal1_conn
9 *63:d *47:11 75  // $metal1_conn

*END

*D_NET *42 8.40254e-16

*CONN
*I *12:s B *C 3.5575 0.5875 
*I *62:g B *C 1.2375 0.4725 
*I *64:s B *C 2.1050 0.4275 
*I *65:d B *C 2.1050 0.4275 
*I *2:s B *C 3.5600 1.1175 
*I *24:g B *C 1.2375 1.2775 
*I *34:d B *C 2.3475 1.0075 
*I *43:d B *C 2.3475 1.0075 
*N *42:3 *C 1.2000 0.3000 
*N *42:5 *C 3.5000 1.0900 
*N *42:7 *C 2.4850 1.0550 
*N *42:8 *C 2.1050 0.6050 

*CAP
0 *34:d 1.70154e-16
1 *24:g 8.01032e-17
2 *2:s 1.68392e-16
3 *64:s 2.74019e-17
4 *62:g 6.66424e-17
5 *12:s 6.05331e-17
6 *42:8 1.42835e-16
7 *42:3 1.24193e-16

*RES
0 *24:g *62:g 160.256409  // $poly_conn
1 *62:g *42:3 61.15522  // $poly_conn
2 *42:5 *42:7 0.837663  // $metal1_conn
3 *42:7 *42:8 0.589477  // $metal1_conn
4 *42:8 *42:3 0.85222  // $metal1_conn
5 *42:5 *12:s 75.328384  // $metal1_conn
6 *42:8 *64:s 75.09964  // $metal1_conn
7 *2:s *42:5 62  // $metal1_conn
8 *34:d *42:7 62  // $metal1_conn

*END

*D_NET *41 5.08284e-16

*CONN
*I *60:d B *C 0.8750 0.4725 
*I *61:d B *C 0.8750 0.4725 
*I *65:g B *C 2.2075 0.4275 
*I *19:d B *C 0.9300 1.2775 
*I *21:d B *C 0.9300 1.2775 
*I *34:g B *C 2.1075 1.0075 
*N *41:3 *C 1.9450 1.3450 
*N *41:5 *C 0.8500 1.3250 

*CAP
0 *34:g 7.40107e-17
1 *19:d 1.30341e-16
2 *65:g 6.93599e-17
3 *60:d 1.12539e-16
4 *41:3 1.22032e-16

*RES
0 *65:g *34:g 116.377098  // $poly_conn
1 *34:g *41:3 109.564392  // $poly_conn
2 *41:3 *41:5 0.74094  // $metal1_conn
3 *41:5 *60:d 75.564613  // $metal1_conn
4 *19:d *41:5 62  // $metal1_conn

*END

*D_NET *39 1.63075e-15

*CONN
*I *12:g B *C 3.6975 0.5875 
*I *58:d B *C 0.2500 0.4725 
*I *61:g B *C 1.0025 0.4725 
*I *63:g B *C 1.4325 0.5875 
*I *3:g B *C 3.9225 1.1175 
*I *15:d B *C 0.1775 1.3725 
*I *19:g B *C 0.6525 1.3725 
*I *27:g B *C 1.4325 1.0075 
*N *39:2 *C 0.6900 1.0550 
*N *39:4 *C 1.0400 0.7750 
*N *39:6 *C 1.4325 0.7750 
*N *39:7 *C 1.3800 0.7750 
*N *39:9 *C 1.7600 0.8500 
*N *39:11 *C 3.6600 0.7800 
*N *39:13 *C 3.8850 1.3850 
*N *39:14 *C 0.6900 0.6500 
*N *39:15 *C 0.1300 0.6500 
*N *39:18 *C 3.6600 1.2800 

*CAP
0 *27:g 4.21947e-17
1 *19:g 5.73514e-17
2 *15:d 5.87585e-17
3 *3:g 5.12547e-17
4 *63:g 2.93714e-17
5 *61:g 3.91486e-17
6 *58:d 2.94416e-17
7 *12:g 4.64244e-17
8 *39:18 3.06703e-16
9 *39:15 6.84045e-17
10 *39:14 1.52127e-16
11 *39:2 1.13684e-16
12 *39:4 1.49721e-16
13 *39:7 7.31421e-17
14 *39:9 2.41979e-16
15 *39:11 1.18724e-16
16 *39:13 5.23195e-17

*RES
0 *19:g *39:2 89.360352  // $poly_conn
1 *61:g *39:4 94.488556  // $poly_conn
2 *27:g *39:6 28.701765  // $poly_conn
3 *39:6 *39:7 47.955154  // $poly_conn
4 *39:6 *63:g 26.137661  // $poly_conn
5 *39:6 *39:9 124.240425  // $poly_conn
6 *12:g *39:11 66.283424  // $poly_conn
7 *3:g *39:13 76.539833  // $poly_conn
8 *39:7 *39:4 0.253174  // $metal1_conn
9 *39:4 *39:14 0.832586  // $metal1_conn
10 *39:14 *39:15 0.375078  // $metal1_conn
11 *39:15 *15:d 62.503841  // $metal1_conn
12 *39:14 *39:2 0.335776  // $metal1_conn
13 *39:15 *58:d 75.186485  // $metal1_conn
14 *39:11 *39:18 0.382482  // $metal1_conn
15 *39:18 *39:9 1.845943  // $metal1_conn
16 *39:18 *39:13 0.208076  // $metal1_conn

*END

*D_NET *38 1.42327e-16

*CONN
*I *64:d B *C 1.9100 0.4275 
*I *65:s B *C 2.3975 0.4275 
*I *67:d B *C 2.3975 0.4275 

*CAP
0 *65:s 6.62083e-17
1 *64:d 7.61189e-17

*RES
0 *64:d *65:s 150.496841  // $metal1_conn

*END

*D_NET *37 1.04042e-15

*CONN
*I *20:g B *C 4.9725 0.4375 
*I *64:g B *C 2.0025 0.4275 
*I *68:d B *C 3.0400 0.4275 
*I *6:g B *C 4.8675 1.1525 
*I *30:g B *C 2.0025 1.0075 
*I *44:d B *C 3.1650 1.0075 
*N *37:3 *C 2.4550 0.1900 
*N *37:5 *C 4.9050 0.7650 
*N *37:8 *C 3.0500 0.4150 

*CAP
0 *44:d 9.50145e-17
1 *30:g 8.98606e-17
2 *6:g 7.48634e-17
3 *68:d 2.10579e-16
4 *64:g 5.99214e-17
5 *20:g 3.42206e-17
6 *37:3 1.37238e-16
7 *37:5 3.38724e-16

*RES
0 *30:g *64:g 102.564102  // $poly_conn
1 *64:g *37:3 197.548904  // $poly_conn
2 *20:g *37:5 66.561516  // $poly_conn
3 *37:5 *6:g 62.309063  // $poly_conn
4 *37:5 *37:8 46.821907  // $metal1_conn
5 *37:8 *37:3 0.595045  // $metal1_conn
6 *37:8 *44:d 62.549732  // $metal1_conn
7 *68:d *37:8 75  // $metal1_conn

*END

*D_NET *35 5.41993e-16

*CONN
*I *12:d B *C 3.8100 0.5875 
*I *14:s B *C 3.8100 0.5875 
*I *22:g B *C 5.5525 0.5575 
*I *2:d B *C 3.8125 1.1175 
*I *3:s B *C 3.8125 1.1175 
*I *7:g B *C 5.4375 1.1600 
*N *35:2 *C 5.4100 0.8950 
*N *35:4 *C 3.8200 0.9250 

*CAP
0 *7:g 3.80098e-17
1 *2:d 3.23246e-17
2 *22:g 4.60533e-17
3 *12:d 5.10232e-17
4 *35:4 2.0335e-16
5 *35:2 1.71232e-16

*RES
0 *22:g *35:2 69.870781  // $poly_conn
1 *35:2 *7:g 19.691952  // $poly_conn
2 *35:2 *35:4 46.193104  // $metal1_conn
3 *35:4 *12:d 75.255028  // $metal1_conn
4 *35:4 *2:d 62.105259  // $metal1_conn

*END

*D_NET *32 1.68117e-16

*CONN
*I *3:d B *C 4.0150 1.1175 
*I *4:d B *C 4.7100 1.1525 
*I *5:d B *C 4.7100 1.1525 

*CAP
0 *4:d 9.30438e-17
1 *3:d 7.50727e-17

*RES
0 *4:d *3:d 124.424103  // $metal1_conn

*END

*D_NET *29 2.65358e-16

*CONN
*I *14:d B *C 4.0725 0.5875 
*I *18:d B *C 4.8675 0.4375 
*I *20:d B *C 4.8675 0.4375 

*CAP
0 *18:d 1.26571e-16
1 *14:d 1.38788e-16

*RES
0 *14:d *18:d 150.874176  // $metal1_conn

*END

*D_NET *26 1.65777e-16

*CONN
*I *16:d B *C 4.6600 0.4375 
*I *18:s B *C 4.6600 0.4375 
*I *20:s B *C 5.0650 0.4375 

*CAP
0 *20:s 6.83053e-17
1 *16:d 9.74712e-17

*RES
0 *20:s *16:d 150.385849  // $metal1_conn

*END

*D_NET *23 9.39381e-16

*CONN
*I *18:g B *C 4.7625 0.4375 
*I *22:d B *C 5.4600 0.5575 
*I *25:g B *C 5.7575 0.5300 
*I *28:g B *C 6.0325 0.5300 
*I *57:g B *C 6.7575 0.4725 
*I *5:g B *C 4.7625 1.1525 
*I *7:d B *C 5.3450 1.1600 
*I *8:g B *C 5.7575 1.1000 
*I *9:g B *C 6.0325 1.1000 
*I *13:g B *C 6.7875 1.0575 
*N *23:1 *C 5.0100 1.4350 
*N *23:11 *C 6.7300 0.8400 
*N *23:16 *C 5.3350 1.2550 

*CAP
0 *13:g 3.06224e-17
1 *9:g 3.96732e-16
2 *7:d 5.61391e-17
3 *5:g 1.06245e-16
4 *57:g 3.45731e-17
5 *22:d 3.98891e-17
6 *18:g 7.07895e-17
7 *23:1 7.36959e-17
8 *23:11 1.30695e-16

*RES
0 *13:g *23:11 22.663601  // $poly_conn
1 *5:g *18:g 137.179489  // $poly_conn
2 *23:1 *5:g 145.957428  // $poly_conn
3 *23:11 *57:g 63.965935  // $poly_conn
4 *23:11 *9:g 45.760704  // $metal1_conn
5 *9:g *22:d 75.321732  // $metal1_conn
6 *9:g *23:16 0.288117  // $metal1_conn
7 *23:16 *23:1 0.341653  // $metal1_conn
8 *7:d *23:16 62  // $metal1_conn

*END

*D_NET *46 3.06443e-16

*CONN
*I *31:g B *C 6.3025 0.5300 
*I *56:g B *C 6.5075 0.5300 
*I *57:d B *C 6.8500 0.4725 
*I *10:g B *C 6.3875 1.1450 
*I *11:g B *C 6.5925 1.1450 
*I *13:d B *C 6.8800 1.0575 
*N *46:9 *C 6.8600 0.6500 

*CAP
0 *13:d 3.84651e-17
1 *11:g 2.13344e-16
2 *57:d 1.46874e-17
3 *46:9 3.99466e-17

*RES
0 *46:9 *11:g 45.279343  // $metal1_conn
1 *13:d *46:9 62.272415  // $metal1_conn
2 *46:9 *57:d 75.109138  // $metal1_conn

*END

