*SPEF "IEEE 1481-1999"
*DESIGN  "DFFQX2"
*DATE "Mon Sep 27 09:28:54 2010"
*VENDOR "Cadence Design Systems"
*PROGRAM "Assura RCX"
*VERSION "3.2 Red Hat Linux release 7.2 (Enigma) - (09/09/2009-10:39)"
*DESIGN_FLOW "Physical Verification"
*DIVIDER /
*DELIMITER :
*BUS_DELIMITER []
*T_UNIT 1 PS
*C_UNIT 1e15 FF
*R_UNIT 1 OHM
*L_UNIT 1 MH
// DeviceFingerDelim "@"
// MATCHED
// caps2d version: 10

*NAME_MAP
*1 D
*2 CK
*3 mn25
*4 mn26
*5 mn36
*6 Q
*7 mp25
*8 mn35
*9 VDD
*10 mp26
*11 mp36
*12 VSS
*13 mp35
*14 CKbb
*15 CKb
*16 n22
*17 n26
*18 n36
*19 n21
*20 n25
*21 n35
*22 mn40
*23 mn51
*24 n20
*25 mn50
*26 mout
*27 mn55
*28 qbint
*29 mn55\@1
*30 n30
*31 mn45
*32 mn30
*33 mn20
*34 mn21
*35 mp30
*36 mp40
*37 mp51
*38 mp50
*39 mp55
*40 mp55\@1
*41 mp45
*42 mp20
*43 mp21

*GROUND_NETS VSS

*PORTS
*9 I
*12 I
*2 I
*1 I
*6 O

*D_NET *9 5.02041e-16

*CONN
*P *9 I *C 0.1000 1.7100 
*I *35:s B *C 1.9000 1.2475 
*I *38:s B *C 2.9150 1.1600 
*I *39:s B *C 2.9150 1.1600 
*I *40:s B *C 3.3600 1.1200 
*I *41:s B *C 3.3600 1.1200 
*I *42:s B *C 0.1900 1.0075 
*I *43:s B *C 0.9500 1.2475 
*I *7:s B *C 0.9500 1.2475 
*I *13:s B *C 1.9000 1.2475 
*N *9:2 *C 2.9000 1.7100 
*N *9:5 *C 1.7800 1.7100 
*N *9:6 *C 1.0000 1.7100 
*N *9:7 *C 0.1800 1.7100 

*CAP
0 *43:s 3.61882e-17
1 *42:s 2.09909e-17
2 *40:s 1.52403e-16
3 *35:s 2.91599e-17
4 *9:7 9.35076e-18
5 *9:5 4.07804e-17
6 *9:2 2.11298e-16
7 *9 1.87022e-18

*RES
0 *9:7 *9 0.039665  // $metal1_conn
1 *9:2 *40:s 8.333333  // $metal1_conn
2 *9:2 *9:6 7.5  // $metal1_conn
3 *9:5 *35:s 62.097305  // $metal1_conn
4 *9:6 *43:s 62.268581  // $metal1_conn
5 *9:7 *42:s 62.418285  // $metal1_conn
6 *40:s *9:5 0.523658  // $metal1_conn
7 *9:5 *9:6 0.390961  // $metal1_conn
8 *9:6 *9:7 0.41102  // $metal1_conn

*END

*D_NET *12 0

*CONN
*P *12 I *C 0.1000 0.0000 
*I *25:s B *C 2.9350 0.5300 
*I *27:s B *C 2.9350 0.5300 
*I *29:s B *C 3.4225 0.5025 
*I *31:s B *C 3.4225 0.5025 
*I *32:s B *C 1.8150 0.5025 
*I *33:s B *C 0.2400 0.4525 
*I *34:s B *C 1.0450 0.5025 
*I *3:s B *C 1.0450 0.5025 
*I *8:s B *C 1.8150 0.5025 
*N *12:2 *C 2.9000 0.0000 
*N *12:5 *C 1.7800 0.0000 
*N *12:6 *C 1.0000 0.0000 
*N *12:7 *C 0.2300 0.0000 


*RES
0 *12:7 *12 0.064746  // $metal1_conn
1 *12:2 *29:s 6.888889  // $metal1_conn
2 *12:2 *12:6 6.2  // $metal1_conn
3 *12:5 *32:s 75.340248  // $metal1_conn
4 *12:6 *34:s 75.086067  // $metal1_conn
5 *12:7 *33:s 75.274818  // $metal1_conn
6 *29:s *12:5 0.506106  // $metal1_conn
7 *12:5 *12:6 0.391575  // $metal1_conn
8 *12:6 *12:7 0.385946  // $metal1_conn

*END

*D_NET *2 1.49798e-16

*CONN
*P *2 I *C 0.1000 0.6650 
*I *33:g B *C 0.3325 0.4525 
*I *42:g B *C 0.2825 1.0075 
*N *2:2 *C 0.3200 0.6850 

*CAP
0 *42:g 2.02047e-17
1 *33:g 2.12057e-17
2 *2:2 7.54427e-17
3 *2 3.29452e-17

*RES
0 *33:g *2:2 31.539833  // $poly_conn
1 *2:2 *42:g 45.642399  // $poly_conn
2 *2:2 *2 45.113312  // $metal1_conn

*END

*D_NET *1 2.55106e-16

*CONN
*P *1 I *C 0.9000 0.6650 
*I *3:g B *C 1.0925 0.5025 
*I *7:g B *C 1.0525 1.2475 
*N *1:2 *C 1.0250 0.7100 

*CAP
0 *7:g 7.55399e-17
1 *3:g 3.94097e-17
2 *1:2 1.04527e-16
3 *1 3.5629e-17

*RES
0 *3:g *1:2 28.380754  // $poly_conn
1 *1:2 *7:g 98.581322  // $poly_conn
2 *1:2 *1 45.062458  // $metal1_conn

*END

*D_NET *6 1.3552e-16

*CONN
*P *6 O *C 3.1000 0.8550 
*I *27:d B *C 3.1100 0.5300 
*I *29:d B *C 3.1100 0.5300 
*I *39:d B *C 3.0975 1.1600 
*I *40:d B *C 3.0975 1.1600 

*CAP
0 *39:d 5.01779e-17
1 *27:d 4.63361e-17
2 *6 3.90055e-17

*RES
0 *39:d *6 20.880575  // $metal1_conn
1 *6 *27:d 75.185364  // $metal1_conn

*END

*D_NET *21 0

*CONN
*I *23:s B *C 2.6050 0.5025 
*I *25:d B *C 2.6050 0.5025 


*RES
0 *25:d *23:s 0.001  // $mwires

*END

*D_NET *20 1.40643e-18

*CONN
*I *5:s B *C 1.5775 0.5025 
*I *8:d B *C 1.5775 0.5025 

*CAP
0 *5:s 1.40643e-18

*RES
0 *8:d *5:s 0.001  // $mwires

*END

*D_NET *19 0

*CONN
*I *3:d B *C 1.1825 0.5025 
*I *4:s B *C 1.1825 0.5025 


*RES
0 *4:s *3:d 0.001  // $mwires

*END

*D_NET *18 2.25734e-18

*CONN
*I *37:s B *C 2.6375 1.2475 
*I *38:d B *C 2.6375 1.2475 

*CAP
0 *37:s 2.25734e-18

*RES
0 *38:d *37:s 0.001  // $mwires

*END

*D_NET *17 1.67182e-18

*CONN
*I *11:s B *C 1.6250 1.2475 
*I *13:d B *C 1.6250 1.2475 

*CAP
0 *11:s 1.67182e-18

*RES
0 *13:d *11:s 0.001  // $mwires

*END

*D_NET *16 2.69733e-19

*CONN
*I *7:d B *C 1.1325 1.2475 
*I *10:s B *C 1.1325 1.2475 

*CAP
0 *7:d 2.69733e-19

*RES
0 *10:s *7:d 0.001  // $mwires

*END

*D_NET *15 1.20631e-15

*CONN
*I *23:g B *C 2.5525 0.5025 
*I *33:d B *C 0.4575 0.4525 
*I *34:g B *C 0.8475 0.5025 
*I *4:g B *C 1.2725 0.5025 
*I *36:g B *C 2.2925 1.2475 
*I *42:d B *C 0.5300 0.9600 
*I *43:g B *C 0.8475 1.2475 
*I *11:g B *C 1.5725 1.2475 
*N *15:3 *C 0.8400 0.3000 
*N *15:5 *C 1.3000 0.2700 
*N *15:7 *C 1.5350 1.0400 
*N *15:9 *C 2.2600 0.9250 
*N *15:11 *C 2.5250 0.3200 
*N *15:12 *C 2.2725 0.3225 
*N *15:13 *C 1.5650 0.6800 
*N *15:14 *C 1.3000 0.3300 
*N *15:16 *C 0.5000 0.4400 

*CAP
0 *11:g 5.89195e-17
1 *43:g 5.14712e-17
2 *42:d 5.6497e-17
3 *36:g 3.3241e-17
4 *4:g 5.59459e-17
5 *34:g 4.38432e-17
6 *33:d 6.9567e-17
7 *23:g 8.95664e-17
8 *15:14 8.30224e-17
9 *15:13 1.35078e-16
10 *15:12 1.34277e-16
11 *15:3 9.3965e-17
12 *15:5 2.48983e-17
13 *15:7 8.33143e-17
14 *15:9 1.19508e-16
15 *15:11 7.31904e-17

*RES
0 *43:g *34:g 144.871796  // $poly_conn
1 *34:g *15:3 67.526878  // $poly_conn
2 *4:g *15:5 77.512466  // $poly_conn
3 *11:g *15:7 61.15522  // $poly_conn
4 *36:g *15:9 89.042877  // $poly_conn
5 *23:g *15:11 64.691956  // $poly_conn
6 *15:9 *15:12 0.475312  // $metal1_conn
7 *15:12 *15:13 0.768138  // $metal1_conn
8 *15:13 *15:14 0.463882  // $metal1_conn
9 *15:14 *15:3 0.336566  // $metal1_conn
10 *15:12 *15:11 0.193901  // $metal1_conn
11 *15:13 *15:7 0.272595  // $metal1_conn
12 *15:14 *15:5 0.015042  // $metal1_conn
13 *15:3 *15:16 0.368888  // $metal1_conn
14 *15:16 *42:d 62.375031  // $metal1_conn
15 *33:d *15:16 75  // $metal1_conn

*END

*D_NET *14 8.85232e-16

*CONN
*I *22:g B *C 2.3475 0.5025 
*I *34:d B *C 0.7325 0.5025 
*I *5:g B *C 1.4775 0.5025 
*I *37:g B *C 2.5525 1.2475 
*I *43:d B *C 0.7550 1.2475 
*I *10:g B *C 1.2125 1.2475 
*N *14:2 *C 1.1850 1.0300 
*N *14:5 *C 2.5800 1.0100 
*N *14:7 *C 1.1850 1.1050 
*N *14:8 *C 0.7375 1.1050 

*CAP
0 *10:g 3.15829e-17
1 *43:d 1.60508e-17
2 *37:g 3.24579e-17
3 *5:g 6.5778e-17
4 *34:d 8.04769e-17
5 *22:g 4.76721e-17
6 *14:8 5.6229e-17
7 *14:7 1.97944e-16
8 *14:2 9.38429e-17
9 *14:5 2.63198e-16

*RES
0 *5:g *14:2 164.274185  // $poly_conn
1 *14:2 *10:g 19.691952  // $poly_conn
2 *37:g *14:5 23.847527  // $poly_conn
3 *14:5 *22:g 134.685425  // $poly_conn
4 *14:5 *14:7 46.504177  // $metal1_conn
5 *14:7 *14:8 0.280525  // $metal1_conn
6 *14:8 *34:d 75.434387  // $metal1_conn
7 *14:7 *14:2 45.064175  // $metal1_conn
8 *14:8 *43:d 62.062901  // $metal1_conn

*END

*D_NET *30 5.15702e-16

*CONN
*I *22:d B *C 2.4500 0.5025 
*I *23:d B *C 2.4500 0.5025 
*I *31:g B *C 3.5325 0.5025 
*I *36:d B *C 2.4225 1.2475 
*I *37:d B *C 2.4225 1.2475 
*I *41:g B *C 3.4125 1.1200 
*N *30:2 *C 3.4750 0.7050 
*N *30:4 *C 2.4500 0.6500 

*CAP
0 *41:g 5.93005e-17
1 *36:d 8.3539e-17
2 *31:g 2.28127e-17
3 *22:d 3.20227e-17
4 *30:4 1.44665e-16
5 *30:2 1.73362e-16

*RES
0 *31:g *30:2 20.156593  // $poly_conn
1 *30:2 *41:g 70.296989  // $poly_conn
2 *30:2 *30:4 46.034809  // $metal1_conn
3 *30:4 *22:d 75.069695  // $metal1_conn
4 *30:4 *36:d 62.39444  // $metal1_conn

*END

*D_NET *28 4.38607e-16

*CONN
*I *25:g B *C 2.6575 0.5025 
*I *27:g B *C 3.0075 0.5300 
*I *29:g B *C 3.2125 0.5300 
*I *31:d B *C 3.6250 0.5025 
*I *38:g B *C 2.7225 1.2475 
*I *39:g B *C 2.9875 1.1600 
*I *40:g B *C 3.2075 1.1600 
*I *41:d B *C 3.5050 1.1200 
*N *28:4 *C 2.7225 0.8375 
*N *28:7 *C 3.2700 0.8650 
*N *28:12 *C 3.5150 0.8950 

*CAP
0 *41:d 3.19472e-17
1 *40:g 1.45564e-16
2 *38:g 4.24587e-17
3 *31:d 3.30701e-17
4 *25:g 5.28199e-17
5 *28:12 4.15772e-17
6 *28:4 4.47484e-17
7 *28:7 4.64216e-17

*RES
0 *28:4 *38:g 72.864586  // $poly_conn
1 *40:g *28:7 48.14896  // $poly_conn
2 *40:g *28:4 68.632202  // $poly_conn
3 *28:4 *25:g 76.90834  // $poly_conn
4 *28:12 *28:7 0.188029  // $metal1_conn
5 *28:12 *41:d 31.135639  // $metal1_conn
6 *31:d *28:12 75.330566  // $metal1_conn

*END

*D_NET *26 4.11622e-16

*CONN
*I *22:s B *C 2.1500 0.5025 
*I *32:d B *C 2.1500 0.5025 
*I *8:g B *C 1.6775 0.5025 
*I *35:d B *C 2.1225 1.2475 
*I *36:s B *C 2.1225 1.2475 
*I *13:g B *C 1.6775 1.2475 
*N *26:1 *C 1.7550 0.8400 
*N *26:2 *C 1.6775 0.8400 
*N *26:6 *C 2.1000 0.8400 

*CAP
0 *13:g 7.80221e-17
1 *35:d 6.3691e-17
2 *8:g 3.38116e-17
3 *22:s 6.13886e-17
4 *26:6 6.93813e-17
5 *26:2 3.64231e-17
6 *26:1 6.8904e-17

*RES
0 *26:1 *26:2 47.826286  // $poly_conn
1 *26:2 *8:g 62.871178  // $poly_conn
2 *26:2 *13:g 71.845535  // $poly_conn
3 *35:d *26:6 62.336407  // $metal1_conn
4 *26:6 *26:1 0.23777  // $metal1_conn
5 *26:6 *22:s 75.267609  // $metal1_conn

*END

*D_NET *24 3.90301e-16

*CONN
*I *32:g B *C 1.9525 0.5025 
*I *4:d B *C 1.3750 0.5025 
*I *5:d B *C 1.3750 0.5025 
*I *35:g B *C 1.9525 1.2475 
*I *10:d B *C 1.3925 1.2475 
*I *11:d B *C 1.3925 1.2475 
*N *24:2 *C 1.9250 1.0300 
*N *24:5 *C 1.3750 1.2000 

*CAP
0 *10:d 1.2978e-16
1 *35:g 3.18034e-17
2 *4:d 7.08633e-17
3 *32:g 3.7985e-17
4 *24:2 1.1987e-16

*RES
0 *35:g *24:2 19.691952  // $poly_conn
1 *24:2 *32:g 108.153488  // $poly_conn
2 *24:2 *24:5 45.537766  // $metal1_conn
3 *24:5 *4:d 75.492355  // $metal1_conn
4 *10:d *24:5 62  // $metal1_conn

*END

