*SPEF "IEEE 1481-1999"
*DESIGN  "DFFQXL"
*DATE "Mon Sep 27 09:29:39 2010"
*VENDOR "Cadence Design Systems"
*PROGRAM "Assura RCX"
*VERSION "3.2 Red Hat Linux release 7.2 (Enigma) - (09/09/2009-10:39)"
*DESIGN_FLOW "Physical Verification"
*DIVIDER /
*DELIMITER :
*BUS_DELIMITER []
*T_UNIT 1 PS
*C_UNIT 1e15 FF
*R_UNIT 1 OHM
*L_UNIT 1 MH
// DeviceFingerDelim "@"
// MATCHED
// caps2d version: 10

*NAME_MAP
*1 n30
*2 qbint
*3 mout
*4 D
*5 n20
*6 mn55
*7 mn20
*8 mn45
*9 mp30
*10 mn50
*11 mp35
*12 mn51
*13 mp36
*14 mn40
*15 mp26
*16 mn30
*17 mp25
*18 mn35
*19 mp21
*20 mn36
*21 Q
*22 mp55
*23 mp20
*24 mp45
*25 mp50
*26 mp51
*27 mp40
*28 VDD
*29 mn26
*30 mn25
*31 mn21
*32 CKbb
*33 CKb
*34 n36
*35 n26
*36 n22
*37 n35
*38 n25
*39 n21
*40 CK
*41 VSS

*GROUND_NETS VSS

*PORTS
*28 I
*41 I
*40 I
*4 I
*21 O

*D_NET *28 4.92812e-16

*CONN
*P *28 I *C 0.1000 1.7100 
*I *9:s B *C 2.1175 1.2975 
*I *11:s B *C 2.1175 1.2975 
*I *17:s B *C 2.8750 1.2975 
*I *19:s B *C 2.8750 1.2975 
*I *22:s B *C 0.3325 1.2975 
*I *23:s B *C 0.3325 1.2975 
*I *24:s B *C 1.1350 1.2975 
*I *25:s B *C 1.1350 1.2975 
*N *28:2 *C 2.4000 1.7100 
*N *28:3 *C 2.4000 1.7100 
*N *28:4 *C 2.0300 1.7100 
*N *28:5 *C 1.0500 1.7100 
*N *28:6 *C 0.8000 1.7100 
*N *28:7 *C 0.3050 1.7100 

*CAP
0 *24:s 2.32169e-17
1 *22:s 2.88538e-17
2 *17:s 4.05718e-17
3 *9:s 2.28095e-17
4 *28:7 1.04345e-17
5 *28:5 3.25334e-17
6 *28:4 3.39695e-17
7 *28:2 2.92977e-16
8 *28 7.44521e-18

*RES
0 *17:s *28:3 62.498806  // $metal1_conn
1 *28:3 *28:4 0.184928  // $metal1_conn
2 *28:4 *28:5 0.490555  // $metal1_conn
3 *28:5 *28:6 0.124809  // $metal1_conn
4 *28:6 *28:7 0.248744  // $metal1_conn
5 *28:7 *28 0.102649  // $metal1_conn
6 *28:4 *9:s 62.045948  // $metal1_conn
7 *28:5 *24:s 62.045948  // $metal1_conn
8 *28:7 *22:s 62.228012  // $metal1_conn
9 *28:2 *28:3 9.375  // $metal1_conn
10 *28:2 *28:6 9.375  // $metal1_conn

*END

*D_NET *41 0

*CONN
*P *41 I *C 0.1000 0.0000 
*I *6:s B *C 0.3325 0.5425 
*I *7:s B *C 0.3325 0.5425 
*I *8:s B *C 1.0650 0.3825 
*I *10:s B *C 1.0650 0.3825 
*I *16:s B *C 2.1750 0.3825 
*I *18:s B *C 2.1750 0.3825 
*I *30:s B *C 2.9300 0.3825 
*I *31:s B *C 2.9300 0.3825 
*N *41:2 *C 1.0500 0.0000 
*N *41:3 *C 0.8000 0.0000 
*N *41:4 *C 0.8000 0.0000 
*N *41:5 *C 0.3050 0.0000 
*N *41:6 *C 2.0600 0.0000 
*N *41:9 *C 2.4000 0.0000 


*RES
0 *8:s *41:2 75.234718  // $metal1_conn
1 *41:2 *41:4 0.125118  // $metal1_conn
2 *41:4 *41:5 0.248744  // $metal1_conn
3 *41:5 *41 0.102649  // $metal1_conn
4 *41:2 *41:6 0.507134  // $metal1_conn
5 *41:6 *16:s 75.128662  // $metal1_conn
6 *41:5 *6:s 75.357666  // $metal1_conn
7 *41:6 *41:9 0.170793  // $metal1_conn
8 *41:9 *30:s 75.45591  // $metal1_conn
9 *41:3 *41:4 7.75  // $metal1_conn
10 *41:3 *41:9 7.75  // $metal1_conn

*END

*D_NET *40 2.24923e-16

*CONN
*P *40 I *C 0.3000 1.0450 
*I *7:g B *C 0.4625 0.5425 
*I *23:g B *C 0.4625 1.2975 
*N *40:2 *C 0.4350 0.9100 

*CAP
0 *23:g 3.31366e-17
1 *7:g 4.21117e-17
2 *40:2 9.5522e-17
3 *40 5.41527e-17

*RES
0 *23:g *40:2 63.281693  // $poly_conn
1 *40:2 *7:g 67.127846  // $poly_conn
2 *40:2 *40 45.116035  // $metal1_conn

*END

*D_NET *4 3.26572e-16

*CONN
*P *4 I *C 2.9000 1.0450 
*I *30:g B *C 2.7125 0.3825 
*I *17:g B *C 2.7725 1.2975 
*N *4:2 *C 2.8150 0.8850 

*CAP
0 *17:g 4.07022e-17
1 *30:g 8.41669e-17
2 *4:2 1.3564e-16
3 *4 6.6063e-17

*RES
0 *17:g *4:2 68.910156  // $poly_conn
1 *4:2 *30:g 105.609238  // $poly_conn
2 *4 *4:2 45.048237  // $metal1_conn

*END

*D_NET *21 1.14038e-16

*CONN
*P *21 O *C 0.1000 0.6650 
*I *6:d B *C 0.1100 0.5425 
*I *22:d B *C 0.1100 1.2975 

*CAP
0 *22:d 5.83745e-17
1 *6:d 1.94946e-17
2 *21 3.61694e-17

*RES
0 *21 *6:d 75.066437  // $metal1_conn
1 *21 *22:d 62.353317  // $metal1_conn

*END

*D_NET *39 1.29587e-18

*CONN
*I *29:s B *C 2.6550 0.3825 
*I *30:d B *C 2.6550 0.3825 

*CAP
0 *29:s 1.29587e-18

*RES
0 *30:d *29:s 0.001  // $mwires

*END

*D_NET *38 1.74023e-18

*CONN
*I *18:d B *C 2.3075 0.3825 
*I *20:s B *C 2.3075 0.3825 

*CAP
0 *18:d 1.74023e-18

*RES
0 *20:s *18:d 0.001  // $mwires

*END

*D_NET *37 1.49475e-18

*CONN
*I *10:d B *C 1.2350 0.3825 
*I *12:s B *C 1.2350 0.3825 

*CAP
0 *10:d 1.49475e-18

*RES
0 *12:s *10:d 0.001  // $mwires

*END

*D_NET *36 2.78301e-18

*CONN
*I *15:s B *C 2.6425 1.2975 
*I *17:d B *C 2.6425 1.2975 

*CAP
0 *15:s 2.78301e-18

*RES
0 *17:d *15:s 0.001  // $mwires

*END

*D_NET *35 2.23864e-18

*CONN
*I *11:d B *C 2.2375 1.2975 
*I *13:s B *C 2.2375 1.2975 

*CAP
0 *11:d 2.23864e-18

*RES
0 *13:s *11:d 0.001  // $mwires

*END

*D_NET *34 1.59823e-18

*CONN
*I *25:d B *C 1.2550 1.2975 
*I *26:s B *C 1.2550 1.2975 

*CAP
0 *25:d 1.59823e-18

*RES
0 *26:s *25:d 0.001  // $mwires

*END

*D_NET *33 1.31302e-15

*CONN
*I *7:d B *C 0.5850 0.5425 
*I *12:g B *C 1.2875 0.3825 
*I *29:g B *C 2.5975 0.3825 
*I *31:g B *C 2.9775 0.3825 
*I *13:g B *C 2.3075 1.2975 
*I *19:g B *C 2.9775 1.2975 
*I *23:d B *C 0.5800 1.2975 
*I *27:g B *C 1.5525 1.2975 
*N *33:2 *C 1.5900 1.0900 
*N *33:4 *C 2.3600 0.9950 
*N *33:7 *C 2.6350 0.6850 
*N *33:9 *C 2.9775 0.7150 
*N *33:10 *C 2.9100 0.7150 
*N *33:12 *C 2.6000 1.0250 
*N *33:13 *C 1.5900 1.3950 
*N *33:15 *C 0.6150 1.2500 

*CAP
0 *27:g 2.33374e-17
1 *23:d 1.47537e-16
2 *19:g 4.68089e-17
3 *13:g 4.61894e-17
4 *31:g 3.59446e-17
5 *29:g 6.94932e-17
6 *12:g 8.91549e-17
7 *7:d 8.55869e-17
8 *33:13 2.04049e-16
9 *33:12 1.2975e-16
10 *33:9 3.95079e-17
11 *33:2 1.28339e-16
12 *33:4 8.26475e-17
13 *33:7 1.12333e-16
14 *33:10 7.23382e-17

*RES
0 *27:g *33:2 16.15522  // $poly_conn
1 *33:2 *12:g 209.455383  // $poly_conn
2 *33:4 *13:g 87.701248  // $poly_conn
3 *29:g *33:7 94.488556  // $poly_conn
4 *19:g *33:9 118.483833  // $poly_conn
5 *33:9 *33:10 46.611767  // $poly_conn
6 *33:9 *31:g 63.355629  // $poly_conn
7 *33:10 *33:7 0.206389  // $metal1_conn
8 *33:7 *33:12 0.264297  // $metal1_conn
9 *33:12 *33:4 0.149611  // $metal1_conn
10 *33:12 *33:13 1.015198  // $metal1_conn
11 *33:13 *33:2 45.229488  // $metal1_conn
12 *33:13 *33:15 0.909224  // $metal1_conn
13 *33:15 *7:d 75.534866  // $metal1_conn
14 *23:d *33:15 62  // $metal1_conn

*END

*D_NET *32 9.69542e-16

*CONN
*I *14:g B *C 1.6125 0.3825 
*I *20:g B *C 2.3925 0.3825 
*I *31:d B *C 3.0700 0.3825 
*I *15:g B *C 2.5125 1.2975 
*I *19:d B *C 3.0800 1.2975 
*I *26:g B *C 1.3275 1.2975 
*N *32:1 *C 1.4100 1.0250 
*N *32:4 *C 1.6850 0.7000 
*N *32:7 *C 2.4300 0.2050 
*N *32:9 *C 3.0900 0.4950 
*N *32:10 *C 1.5800 0.7000 

*CAP
0 *26:g 4.59084e-17
1 *19:d 6.33947e-17
2 *15:g 7.89754e-17
3 *31:d 1.37774e-17
4 *20:g 7.90334e-17
5 *14:g 2.25991e-17
6 *32:10 1.36265e-16
7 *32:9 1.11315e-16
8 *32:1 1.06734e-16
9 *32:4 7.46874e-17
10 *32:7 2.36852e-16

*RES
0 *32:1 *26:g 86.983063  // $poly_conn
1 *14:g *32:4 99.017769  // $poly_conn
2 *15:g *20:g 199.955811  // $poly_conn
3 *20:g *32:7 62.437271  // $poly_conn
4 *19:d *32:9 62.551121  // $metal1_conn
5 *32:9 *32:7 0.694656  // $metal1_conn
6 *32:7 *32:10 1.203628  // $metal1_conn
7 *32:10 *32:1 0.362833  // $metal1_conn
8 *32:9 *31:d 75.065361  // $metal1_conn
9 *32:10 *32:4 0.079435  // $metal1_conn

*END

*D_NET *5 4.33891e-16

*CONN
*I *16:g B *C 1.8975 0.3825 
*I *20:d B *C 2.4950 0.3825 
*I *29:d B *C 2.4950 0.3825 
*I *9:g B *C 1.8975 1.2975 
*I *13:d B *C 2.4100 1.2975 
*I *15:d B *C 2.4100 1.2975 
*N *5:2 *C 1.8975 0.7625 
*N *5:4 *C 2.0350 0.8000 
*N *5:6 *C 2.2000 0.7700 
*N *5:8 *C 2.4950 0.3950 

*CAP
0 *13:d 7.27343e-17
1 *9:g 5.55772e-17
2 *20:d 6.78713e-17
3 *16:g 5.19988e-17
4 *5:6 7.57031e-17
5 *5:2 4.34952e-17
6 *5:4 6.65105e-17

*RES
0 *9:g *5:2 108.463379  // $poly_conn
1 *5:2 *16:g 77.694153  // $poly_conn
2 *5:2 *5:4 66.071091  // $poly_conn
3 *13:d *5:6 62.48027  // $metal1_conn
4 *5:6 *5:8 0.441024  // $metal1_conn
5 *5:6 *5:4 0.108072  // $metal1_conn
6 *20:d *5:8 75  // $metal1_conn

*END

*D_NET *3 4.23236e-16

*CONN
*I *14:s B *C 1.7550 0.3825 
*I *16:d B *C 1.7550 0.3825 
*I *18:g B *C 2.2225 0.3825 
*I *9:d B *C 1.7250 1.2975 
*I *11:g B *C 2.1675 1.2975 
*I *27:s B *C 1.7250 1.2975 
*N *3:2 *C 2.1675 0.5800 
*N *3:3 *C 2.0400 0.5800 
*N *3:5 *C 1.8750 0.6100 

*CAP
0 *11:g 8.71956e-17
1 *9:d 6.98682e-17
2 *18:g 3.41028e-17
3 *14:s 5.50525e-17
4 *3:5 6.17903e-17
5 *3:2 5.43227e-17
6 *3:3 6.09042e-17

*RES
0 *18:g *3:2 33.538918  // $poly_conn
1 *3:2 *3:3 55.751797  // $poly_conn
2 *3:2 *11:g 146.596008  // $poly_conn
3 *3:3 *3:5 0.093437  // $metal1_conn
4 *3:5 *14:s 75.250511  // $metal1_conn
5 *3:5 *9:d 62.505741  // $metal1_conn

*END

*D_NET *2 6.70151e-16

*CONN
*I *6:g B *C 0.2025 0.5425 
*I *8:d B *C 0.8550 0.3825 
*I *10:g B *C 1.1825 0.3825 
*I *22:g B *C 0.2025 1.2975 
*I *24:d B *C 0.8250 1.2975 
*I *25:g B *C 1.1825 1.2975 
*N *2:1 *C 0.2700 0.7500 
*N *2:2 *C 0.2025 0.7500 
*N *2:6 *C 1.1825 0.5900 
*N *2:7 *C 1.0900 0.5900 
*N *2:9 *C 0.8450 0.6200 
*N *2:11 *C 0.8450 0.3950 

*CAP
0 *25:g 8.14992e-17
1 *24:d 6.30968e-17
2 *22:g 3.90185e-17
3 *10:g 4.44913e-17
4 *8:d 8.10379e-17
5 *6:g 2.19092e-17
6 *2:9 6.53471e-17
7 *2:6 5.74887e-17
8 *2:2 4.21501e-17
9 *2:1 1.09865e-16
10 *2:7 6.42474e-17

*RES
0 *2:1 *2:2 46.611767  // $poly_conn
1 *2:2 *6:g 27.944992  // $poly_conn
2 *2:2 *22:g 106.150116  // $poly_conn
3 *25:g *2:6 151.091461  // $poly_conn
4 *2:6 *2:7 49.422031  // $poly_conn
5 *2:6 *10:g 31.860699  // $poly_conn
6 *2:7 *2:9 0.159414  // $metal1_conn
7 *2:9 *2:11 0.176359  // $metal1_conn
8 *2:11 *2:1 0.660753  // $metal1_conn
9 *2:9 *24:d 62.46043  // $metal1_conn
10 *8:d *2:11 75  // $metal1_conn

*END

*D_NET *1 3.9211e-16

*CONN
*I *8:g B *C 0.9475 0.3825 
*I *12:d B *C 1.4500 0.3825 
*I *14:d B *C 1.4500 0.3825 
*I *24:g B *C 0.9175 1.2975 
*I *26:d B *C 1.4400 1.2975 
*I *27:d B *C 1.4400 1.2975 
*N *1:2 *C 0.9550 0.8100 
*N *1:4 *C 1.0050 0.8100 
*N *1:6 *C 1.2500 0.8400 

*CAP
0 *26:d 7.24376e-17
1 *24:g 4.77569e-17
2 *12:d 5.83514e-17
3 *8:g 4.09124e-17
4 *1:6 7.85357e-17
5 *1:2 3.95452e-17
6 *1:4 5.45713e-17

*RES
0 *8:g *1:2 81.342018  // $poly_conn
1 *1:2 *24:g 97.509445  // $poly_conn
2 *1:2 *1:4 47.542171  // $poly_conn
3 *12:d *1:6 75.41507  // $metal1_conn
4 *1:6 *1:4 0.154358  // $metal1_conn
5 *1:6 *26:d 62.405441  // $metal1_conn

*END

