*SPEF "IEEE 1481-1999"
*DESIGN  "DFFQX4"
*DATE "Mon Sep 27 09:29:16 2010"
*VENDOR "Cadence Design Systems"
*PROGRAM "Assura RCX"
*VERSION "3.2 Red Hat Linux release 7.2 (Enigma) - (09/09/2009-10:39)"
*DESIGN_FLOW "Physical Verification"
*DIVIDER /
*DELIMITER :
*BUS_DELIMITER []
*T_UNIT 1 PS
*C_UNIT 1e15 FF
*R_UNIT 1 OHM
*L_UNIT 1 MH
// DeviceFingerDelim "@"
// MATCHED
// caps2d version: 10

*NAME_MAP
*1 Q
*2 VDD
*3 mout
*4 mp40
*5 n30
*6 mp30
*7 n20
*8 mp35
*9 qbint
*10 mp36
*11 mp26
*12 mp25
*13 mp21
*14 mp51
*15 mp55
*16 mp20
*17 mp55\@1
*18 mp55\@2
*19 mp55\@3
*20 mp45
*21 mp45\@1
*22 CK
*23 mp50
*24 mn55
*25 mn55\@1
*26 mn55\@2
*27 mn55\@3
*28 mn45
*29 mn45\@1
*30 mn50
*31 VSS
*32 CKbb
*33 CKb
*34 n36
*35 mn51
*36 n26
*37 mn40
*38 n22
*39 mn30
*40 n35
*41 mn35
*42 n25
*43 mn36
*44 n21
*45 mn26
*46 D
*47 mn25
*48 mn21
*49 mn20

*GROUND_NETS VSS

*PORTS
*2 I
*31 I
*22 I
*46 I
*1 O

*D_NET *2 6.66863e-16

*CONN
*P *2 I *C 0.1000 1.7100 
*I *6:s B *C 2.8500 1.2475 
*I *8:s B *C 2.8500 1.2475 
*I *12:s B *C 3.5950 1.2475 
*I *13:s B *C 3.5950 1.2475 
*I *16:s B *C 0.5150 1.1600 
*I *15:s B *C 0.5150 1.1600 
*I *17:s B *C 0.8950 1.1600 
*I *18:s B *C 0.8950 1.1600 
*I *19:s B *C 1.3550 1.2000 
*I *20:s B *C 1.3550 1.2000 
*I *21:s B *C 1.7850 1.2475 
*I *23:s B *C 1.7850 1.2475 
*N *2:2 *C 3.2000 1.7100 
*N *2:3 *C 3.2000 1.7100 
*N *2:4 *C 2.7650 1.7100 

*CAP
0 *21:s 2.85513e-16
1 *12:s 3.59439e-17
2 *6:s 1.69669e-17
3 *2:4 3.06699e-17
4 *2:2 2.90269e-16
5 *2 7.50099e-18

*RES
0 *21:s *2 0.192592  // $metal1_conn
1 *2:2 *2:3 7.5  // $metal1_conn
2 *2:2 *21:s 6.818182  // $metal1_conn
3 *12:s *2:3 62.49881  // $metal1_conn
4 *2:4 *6:s 62.045811  // $metal1_conn
5 *2:3 *2:4 0.216963  // $metal1_conn
6 *2:4 *21:s 0.525128  // $metal1_conn

*END

*D_NET *31 0

*CONN
*P *31 I *C 0.1000 0.0000 
*I *39:s B *C 2.8500 0.5025 
*I *41:s B *C 2.8500 0.5025 
*I *47:s B *C 3.7100 0.5025 
*I *48:s B *C 3.7100 0.5025 
*I *49:s B *C 0.5050 0.4450 
*I *24:s B *C 0.5050 0.4450 
*I *25:s B *C 0.9750 0.4450 
*I *26:s B *C 0.9750 0.4450 
*I *27:s B *C 1.4450 0.4725 
*I *28:s B *C 1.4450 0.4725 
*I *29:s B *C 1.8800 0.5025 
*I *30:s B *C 1.8800 0.5025 
*N *31:2 *C 3.2000 0.0000 
*N *31:3 *C 3.2000 0.0000 
*N *31:4 *C 2.7650 0.0000 


*RES
0 *29:s *31 0.160001  // $metal1_conn
1 *31:2 *31:3 6.2  // $metal1_conn
2 *31:2 *29:s 5.636364  // $metal1_conn
3 *47:s *31:3 75.472046  // $metal1_conn
4 *31:4 *39:s 75.045807  // $metal1_conn
5 *31:3 *31:4 0.216963  // $metal1_conn
6 *31:4 *29:s 0.467467  // $metal1_conn

*END

*D_NET *22 2.1597e-16

*CONN
*P *22 I *C 0.3000 0.8550 
*I *49:g B *C 0.3475 0.5025 
*I *16:g B *C 0.3825 1.0725 
*N *22:2 *C 0.3100 0.6750 

*CAP
0 *16:g 4.63996e-17
1 *49:g 2.94105e-17
2 *22:2 9.45259e-17
3 *22 4.56341e-17

*RES
0 *16:g *22:2 74.713036  // $poly_conn
1 *22:2 *49:g 16.833908  // $poly_conn
2 *22 *22:2 45.107948  // $metal1_conn

*END

*D_NET *46 2.82808e-16

*CONN
*P *46 I *C 3.7000 0.8550 
*I *47:g B *C 3.4925 0.5025 
*I *12:g B *C 3.4925 1.2475 
*N *46:2 *C 3.5200 0.7350 

*CAP
0 *12:g 6.57135e-17
1 *47:g 5.35414e-17
2 *46:2 1.18183e-16
3 *46 4.53703e-17

*RES
0 *12:g *46:2 95.332977  // $poly_conn
1 *46:2 *47:g 32.512463  // $poly_conn
2 *46 *46:2 45.173832  // $metal1_conn

*END

*D_NET *1 2.85624e-16

*CONN
*P *1 O *C 0.7000 0.6650 
*I *24:d B *C 0.6550 0.4450 
*I *25:d B *C 0.6550 0.4450 
*I *26:d B *C 1.1250 0.4450 
*I *27:d B *C 1.1250 0.4450 
*I *15:d B *C 0.6900 1.1600 
*I *17:d B *C 0.6900 1.1600 
*I *18:d B *C 1.1000 1.1600 
*I *19:d B *C 1.1000 1.1600 

*CAP
0 *1 2.85624e-16


*END

*D_NET *44 2.31555e-18

*CONN
*I *45:s B *C 3.4375 0.5025 
*I *47:d B *C 3.4375 0.5025 

*CAP
0 *45:s 2.31555e-18

*RES
0 *47:d *45:s 0.001  // $mwires

*END

*D_NET *42 1.84788e-18

*CONN
*I *41:d B *C 2.9925 0.5025 
*I *43:s B *C 2.9925 0.5025 

*CAP
0 *41:d 1.84788e-18

*RES
0 *43:s *41:d 0.001  // $mwires

*END

*D_NET *40 0

*CONN
*I *35:s B *C 2.0575 0.5025 
*I *30:d B *C 2.0575 0.5025 


*RES
0 *30:d *35:s 0.001  // $mwires

*END

*D_NET *38 5.15806e-19

*CONN
*I *11:s B *C 3.4025 1.2475 
*I *12:d B *C 3.4025 1.2475 

*CAP
0 *11:s 5.15806e-19

*RES
0 *12:d *11:s 0.001  // $mwires

*END

*D_NET *36 3.20775e-18

*CONN
*I *8:d B *C 2.9775 1.2475 
*I *10:s B *C 2.9775 1.2475 

*CAP
0 *8:d 3.20775e-18

*RES
0 *10:s *8:d 0.001  // $mwires

*END

*D_NET *34 2.07421e-18

*CONN
*I *14:s B *C 1.9475 1.2475 
*I *23:d B *C 1.9475 1.2475 

*CAP
0 *14:s 2.07421e-18

*RES
0 *23:d *14:s 0.001  // $mwires

*END

*D_NET *33 1.33252e-15

*CONN
*I *35:g B *C 2.1525 0.5025 
*I *45:g B *C 3.3825 0.5025 
*I *48:g B *C 3.7575 0.5025 
*I *49:d B *C 0.1975 0.5025 
*I *4:g B *C 2.2825 1.2475 
*I *10:g B *C 3.0575 1.2475 
*I *13:g B *C 3.6975 1.2475 
*I *16:d B *C 0.2900 1.0725 
*N *33:3 *C 2.1150 0.3250 
*N *33:5 *C 3.0300 0.9200 
*N *33:7 *C 3.3550 0.6850 
*N *33:9 *C 3.7250 0.6850 
*N *33:11 *C 3.3550 0.5450 
*N *33:12 *C 3.0300 0.3250 
*N *33:14 *C 0.1300 0.4900 

*CAP
0 *16:d 6.73935e-17
1 *13:g 4.67511e-17
2 *10:g 4.42275e-17
3 *4:g 7.52626e-17
4 *49:d 2.06828e-16
5 *48:g 2.21973e-17
6 *45:g 5.45974e-17
7 *35:g 6.80093e-17
8 *33:12 1.25847e-16
9 *33:11 5.75188e-17
10 *33:3 2.45085e-16
11 *33:5 1.24232e-16
12 *33:7 7.98049e-17
13 *33:9 1.14762e-16

*RES
0 *4:g *35:g 166.377106  // $poly_conn
1 *35:g *33:3 62.437271  // $poly_conn
2 *10:g *33:5 92.897079  // $poly_conn
3 *45:g *33:7 64.691956  // $poly_conn
4 *48:g *33:9 17.394072  // $poly_conn
5 *33:9 *13:g 104.991577  // $poly_conn
6 *33:7 *33:11 0.101821  // $metal1_conn
7 *33:11 *33:12 0.393815  // $metal1_conn
8 *33:12 *33:3 0.644907  // $metal1_conn
9 *33:11 *33:9 45.315784  // $metal1_conn
10 *33:12 *33:5 0.428085  // $metal1_conn
11 *33:3 *33:14 1.485922  // $metal1_conn
12 *33:14 *16:d 62.528145  // $metal1_conn
13 *49:d *33:14 75  // $metal1_conn

*END

*D_NET *32 8.51311e-16

*CONN
*I *37:g B *C 2.3875 0.5025 
*I *43:g B *C 3.0875 0.5025 
*I *48:d B *C 3.8925 0.5025 
*I *11:g B *C 3.3125 1.2475 
*I *13:d B *C 3.7900 1.2475 
*I *14:g B *C 2.0375 1.2475 
*N *32:1 *C 2.1500 1.0050 
*N *32:4 *C 2.4150 0.8650 
*N *32:6 *C 3.3500 1.0400 
*N *32:8 *C 3.3500 1.1050 
*N *32:9 *C 2.3400 1.0350 
*N *32:10 *C 3.8475 1.1050 

*CAP
0 *14:g 3.83073e-17
1 *13:d 2.40887e-17
2 *11:g 2.99802e-17
3 *48:d 4.62216e-17
4 *43:g 7.2724e-17
5 *37:g 4.43184e-17
6 *32:10 6.53188e-17
7 *32:9 1.32151e-16
8 *32:8 1.48334e-16
9 *32:1 7.93013e-17
10 *32:4 8.30694e-17
11 *32:6 8.7496e-17

*RES
0 *32:1 *14:g 83.446335  // $poly_conn
1 *37:g *32:4 110.845795  // $poly_conn
2 *11:g *32:6 16.15522  // $poly_conn
3 *32:6 *43:g 150.695221  // $poly_conn
4 *32:6 *32:8 45.056683  // $metal1_conn
5 *32:8 *32:9 1.115985  // $metal1_conn
6 *32:9 *32:1 0.140787  // $metal1_conn
7 *32:8 *32:10 0.303426  // $metal1_conn
8 *32:10 *48:d 75.400589  // $metal1_conn
9 *32:9 *32:4 0.179099  // $metal1_conn
10 *32:10 *13:d 62.038151  // $metal1_conn

*END

*D_NET *9 6.63333e-16

*CONN
*I *24:g B *C 0.5525 0.4450 
*I *25:g B *C 0.7575 0.4450 
*I *26:g B *C 1.0225 0.4450 
*I *27:g B *C 1.2275 0.4450 
*I *28:d B *C 1.5950 0.4725 
*I *29:d B *C 1.5950 0.4725 
*I *30:g B *C 1.9625 0.5025 
*I *15:g B *C 0.5875 1.1600 
*I *17:g B *C 0.7925 1.1600 
*I *18:g B *C 0.9975 1.1600 
*I *19:g B *C 1.2025 1.1600 
*I *20:d B *C 1.5100 1.2000 
*I *21:d B *C 1.5100 1.2000 
*I *23:g B *C 1.8575 1.2475 
*N *9:17 *C 1.8300 0.7750 
*N *9:20 *C 1.6250 0.7450 
*N *9:21 *C 1.5100 0.7450 

*CAP
0 *23:g 5.74705e-17
1 *20:d 7.02603e-17
2 *19:g 3.22314e-16
3 *30:g 5.23092e-17
4 *28:d 2.90911e-17
5 *9:21 2.39133e-17
6 *9:20 1.81039e-17
7 *9:17 8.98712e-17

*RES
0 *9:17 *23:g 81.91465  // $poly_conn
1 *30:g *9:17 60.241207  // $poly_conn
2 *9:21 *19:g 45.174034  // $metal1_conn
3 *9:20 *9:17 45.151894  // $metal1_conn
4 *28:d *9:20 75.136932  // $metal1_conn
5 *9:21 *20:d 31.309622  // $metal1_conn
6 *9:20 *9:21 0.098392  // $metal1_conn

*END

*D_NET *7 3.97249e-16

*CONN
*I *39:g B *C 2.6325 0.5025 
*I *43:d B *C 3.2350 0.5025 
*I *45:d B *C 3.2350 0.5025 
*I *6:g B *C 2.6325 1.2475 
*I *10:d B *C 3.1850 1.2475 
*I *11:d B *C 3.1850 1.2475 
*N *7:2 *C 2.6325 0.9925 
*N *7:4 *C 2.7650 1.0300 
*N *7:7 *C 3.1600 1.2000 

*CAP
0 *10:d 1.01748e-16
1 *6:g 3.20795e-17
2 *43:d 9.56071e-17
3 *39:g 5.52943e-17
4 *7:2 2.87324e-17
5 *7:4 8.37878e-17

*RES
0 *6:g *7:2 36.668507  // $poly_conn
1 *7:2 *39:g 105.899277  // $poly_conn
2 *7:2 *7:4 64.78904  // $poly_conn
3 *43:d *7:7 75.524422  // $metal1_conn
4 *7:7 *7:4 0.370992  // $metal1_conn
5 *10:d *7:7 62  // $metal1_conn

*END

*D_NET *5 4.28458e-16

*CONN
*I *35:d B *C 2.2700 0.5025 
*I *37:d B *C 2.2700 0.5025 
*I *28:g B *C 1.4925 0.4725 
*I *29:g B *C 1.6975 0.4725 
*I *4:d B *C 2.1600 1.2475 
*I *14:d B *C 2.1600 1.2475 
*I *20:g B *C 1.4075 1.2000 
*I *21:g B *C 1.6125 1.2000 
*N *5:9 *C 1.9900 0.9650 

*CAP
0 *21:g 2.57355e-16
1 *4:d 3.58969e-17
2 *35:d 6.77412e-17
3 *5:9 6.74647e-17

*RES
0 *5:9 *21:g 45.207478  // $metal1_conn
1 *35:d *5:9 75.489906  // $metal1_conn
2 *5:9 *4:d 62.271236  // $metal1_conn

*END

*D_NET *3 3.66267e-16

*CONN
*I *37:s B *C 2.5100 0.5025 
*I *39:d B *C 2.5100 0.5025 
*I *41:g B *C 2.8975 0.5025 
*I *4:s B *C 2.4575 1.2475 
*I *6:d B *C 2.4575 1.2475 
*I *8:g B *C 2.8975 1.2475 
*N *3:2 *C 2.8700 0.7100 
*N *3:4 *C 2.5750 0.7400 

*CAP
0 *8:g 8.27545e-17
1 *4:s 7.77461e-17
2 *41:g 3.58186e-17
3 *37:s 3.29921e-17
4 *3:4 4.93509e-17
5 *3:2 8.76048e-17

*RES
0 *8:g *3:2 101.743233  // $poly_conn
1 *3:2 *41:g 26.102209  // $poly_conn
2 *3:2 *3:4 45.180244  // $metal1_conn
3 *3:4 *37:s 75.152809  // $metal1_conn
4 *3:4 *4:s 62.313847  // $metal1_conn

*END

