*SPEF "IEEE 1481-1999"
*DESIGN  "DFFQX1"
*DATE "Mon Sep 27 09:28:31 2010"
*VENDOR "Cadence Design Systems"
*PROGRAM "Assura RCX"
*VERSION "3.2 Red Hat Linux release 7.2 (Enigma) - (09/09/2009-10:39)"
*DESIGN_FLOW "Physical Verification"
*DIVIDER /
*DELIMITER :
*BUS_DELIMITER []
*T_UNIT 1 PS
*C_UNIT 1e15 FF
*R_UNIT 1 OHM
*L_UNIT 1 MH
// DeviceFingerDelim "@"
// MATCHED
// caps2d version: 10

*NAME_MAP
*1 n30
*2 mout
*3 n20
*4 D
*5 qbint
*6 mn55
*7 mn20
*8 mn45
*9 mp30
*10 mn50
*11 mp35
*12 mn51
*13 mp36
*14 mn40
*15 mp26
*16 mn30
*17 mp25
*18 mn35
*19 mp21
*20 mn36
*21 Q
*22 mp55
*23 mp20
*24 mp45
*25 mp50
*26 mp51
*27 mp40
*28 VDD
*29 mn26
*30 mn25
*31 mn21
*32 CKbb
*33 CKb
*34 n36
*35 n26
*36 n22
*37 n35
*38 n25
*39 n21
*40 CK
*41 VSS

*GROUND_NETS VSS

*PORTS
*28 I
*41 I
*40 I
*4 I
*21 O

*D_NET *28 5.13528e-16

*CONN
*P *28 I *C 0.1000 1.7100 
*I *9:s B *C 2.1850 1.2875 
*I *11:s B *C 2.1850 1.2875 
*I *17:s B *C 2.9850 1.2875 
*I *19:s B *C 2.9850 1.2875 
*I *22:s B *C 0.4050 1.3325 
*I *23:s B *C 0.4050 1.3325 
*I *24:s B *C 1.1800 1.2875 
*I *25:s B *C 1.1800 1.2875 
*N *28:2 *C 2.6000 1.7100 
*N *28:3 *C 2.6000 1.7100 
*N *28:4 *C 2.1000 1.7100 
*N *28:5 *C 1.0950 1.7100 
*N *28:6 *C 0.9000 1.7100 
*N *28:7 *C 0.3500 1.7100 

*CAP
0 *24:s 2.33541e-17
1 *22:s 2.85978e-17
2 *17:s 4.37697e-17
3 *9:s 2.11488e-17
4 *28:7 1.37826e-17
5 *28:5 2.99445e-17
6 *28:4 3.74562e-17
7 *28:2 3.06376e-16
8 *28 9.09802e-18

*RES
0 *17:s *28:3 62.458565  // $metal1_conn
1 *28:3 *28:4 0.249763  // $metal1_conn
2 *28:4 *28:5 0.502034  // $metal1_conn
3 *28:5 *28:6 0.096708  // $metal1_conn
4 *28:6 *28:7 0.275804  // $metal1_conn
5 *28:7 *28 0.125007  // $metal1_conn
6 *28:4 *9:s 62.045849  // $metal1_conn
7 *28:5 *24:s 62.045849  // $metal1_conn
8 *28:7 *22:s 62.207039  // $metal1_conn
9 *28:2 *28:3 9.375  // $metal1_conn
10 *28:2 *28:6 8.333333  // $metal1_conn

*END

*D_NET *41 0

*CONN
*P *41 I *C 0.1000 0.0000 
*I *6:s B *C 0.4350 0.5275 
*I *7:s B *C 0.4350 0.5275 
*I *8:s B *C 1.1000 0.5675 
*I *10:s B *C 1.1000 0.5675 
*I *16:s B *C 2.3000 0.5675 
*I *18:s B *C 2.3000 0.5675 
*I *30:s B *C 3.0450 0.5675 
*I *31:s B *C 3.0450 0.5675 
*N *41:2 *C 2.2450 0.0000 
*N *41:3 *C 1.0750 0.0000 
*N *41:4 *C 0.9000 0.0000 
*N *41:5 *C 0.9000 0.0000 
*N *41:6 *C 0.3500 0.0000 
*N *41:7 *C 2.6000 0.0000 


*RES
0 *16:s *41:2 75.131973  // $metal1_conn
1 *41:2 *41:3 0.586323  // $metal1_conn
2 *41:3 *41:5 0.087622  // $metal1_conn
3 *41:5 *41:6 0.275804  // $metal1_conn
4 *41:6 *41 0.125007  // $metal1_conn
5 *41:2 *41:7 0.177537  // $metal1_conn
6 *41:7 *30:s 75.619751  // $metal1_conn
7 *41:3 *8:s 75.371407  // $metal1_conn
8 *41:6 *6:s 75.255508  // $metal1_conn
9 *41:4 *41:5 6.888889  // $metal1_conn
10 *41:4 *41:7 7.75  // $metal1_conn

*END

*D_NET *40 2.45667e-16

*CONN
*P *40 I *C 0.5000 1.0450 
*I *7:g B *C 0.4825 0.5275 
*I *23:g B *C 0.4625 1.3325 
*N *40:2 *C 0.4900 1.0400 
*N *40:4 *C 0.4900 1.0400 

*CAP
0 *23:g 3.99048e-17
1 *7:g 5.30002e-17
2 *40:2 4.20132e-17
3 *40 1.10749e-16

*RES
0 *7:g *40:2 102.014053  // $poly_conn
1 *40:2 *23:g 36.629444  // $poly_conn
2 *40:4 *40 0.003119  // $metal1_conn
3 *40:2 *40:4 45  // $metal1_conn

*END

*D_NET *4 2.87565e-16

*CONN
*P *4 I *C 2.9000 1.0450 
*I *30:g B *C 2.9225 0.5675 
*I *17:g B *C 2.8825 1.2875 
*N *4:2 *C 2.9200 1.0350 

*CAP
0 *17:g 3.17324e-17
1 *30:g 6.88267e-17
2 *4:2 5.75268e-17
3 *4 1.29479e-16

*RES
0 *30:g *4:2 91.796249  // $poly_conn
1 *4:2 *17:g 27.69368  // $poly_conn
2 *4 *4:2 45.006741  // $metal1_conn

*END

*D_NET *21 1.11967e-16

*CONN
*P *21 O *C 0.1000 0.6650 
*I *6:d B *C 0.1550 0.4700 
*I *22:d B *C 0.1550 1.2450 

*CAP
0 *22:d 4.96244e-17
1 *6:d 1.40638e-17
2 *21 4.82793e-17

*RES
0 *22:d *21 21.008562  // $metal1_conn
1 *21 *6:d 75.070656  // $metal1_conn

*END

*D_NET *39 7.21012e-19

*CONN
*I *29:s B *C 2.8700 0.5675 
*I *30:d B *C 2.8700 0.5675 

*CAP
0 *29:s 7.21012e-19

*RES
0 *30:d *29:s 0.001  // $mwires

*END

*D_NET *38 1.33041e-18

*CONN
*I *18:d B *C 2.4550 0.5675 
*I *20:s B *C 2.4550 0.5675 

*CAP
0 *18:d 1.33041e-18

*RES
0 *20:s *18:d 0.001  // $mwires

*END

*D_NET *37 3.57377e-18

*CONN
*I *10:d B *C 1.3200 0.5675 
*I *12:s B *C 1.3200 0.5675 

*CAP
0 *10:d 3.57377e-18

*RES
0 *12:s *10:d 0.001  // $mwires

*END

*D_NET *36 2.571e-18

*CONN
*I *15:s B *C 2.7225 1.2875 
*I *17:d B *C 2.7225 1.2875 

*CAP
0 *15:s 2.571e-18

*RES
0 *17:d *15:s 0.001  // $mwires

*END

*D_NET *35 1.13617e-18

*CONN
*I *11:d B *C 2.2850 1.2875 
*I *13:s B *C 2.2850 1.2875 

*CAP
0 *11:d 1.13617e-18

*RES
0 *13:s *11:d 0.001  // $mwires

*END

*D_NET *34 1.26428e-18

*CONN
*I *25:d B *C 1.2950 1.2875 
*I *26:s B *C 1.2950 1.2875 

*CAP
0 *25:d 1.26428e-18

*RES
0 *26:s *25:d 0.001  // $mwires

*END

*D_NET *33 1.25941e-15

*CONN
*I *7:d B *C 0.6175 0.5275 
*I *12:g B *C 1.4125 0.5675 
*I *29:g B *C 2.8175 0.5675 
*I *31:g B *C 3.1675 0.5675 
*I *13:g B *C 2.3375 1.2875 
*I *19:g B *C 3.0875 1.2875 
*I *23:d B *C 0.5825 1.3325 
*I *27:g B *C 1.6175 1.2875 
*N *33:2 *C 1.6550 1.0800 
*N *33:4 *C 2.4300 1.0250 
*N *33:7 *C 2.7050 0.8450 
*N *33:9 *C 3.1100 0.8750 
*N *33:11 *C 2.6300 1.0550 
*N *33:12 *C 1.6250 1.3850 
*N *33:14 *C 0.6200 1.3800 

*CAP
0 *27:g 2.19954e-17
1 *23:d 1.64496e-16
2 *19:g 4.10659e-17
3 *13:g 5.43544e-17
4 *31:g 2.85037e-17
5 *29:g 5.71579e-17
6 *12:g 6.12318e-17
7 *7:d 1.08878e-16
8 *33:12 1.79415e-16
9 *33:11 1.12235e-16
10 *33:2 1.11879e-16
11 *33:4 8.72688e-17
12 *33:7 1.15838e-16
13 *33:9 1.15094e-16

*RES
0 *27:g *33:2 16.15522  // $poly_conn
1 *33:2 *12:g 145.428162  // $poly_conn
2 *33:4 *13:g 80.822021  // $poly_conn
3 *29:g *33:7 104.931778  // $poly_conn
4 *31:g *33:9 55.300556  // $poly_conn
5 *33:9 *19:g 66.354378  // $poly_conn
6 *33:9 *33:7 45.318909  // $metal1_conn
7 *33:7 *33:11 0.178132  // $metal1_conn
8 *33:11 *33:12 0.969946  // $metal1_conn
9 *33:12 *33:14 0.745713  // $metal1_conn
10 *33:11 *33:4 0.119477  // $metal1_conn
11 *33:12 *33:2 45.22382  // $metal1_conn
12 *33:14 *7:d 75.666992  // $metal1_conn
13 *23:d *33:14 62  // $metal1_conn

*END

*D_NET *32 8.43791e-16

*CONN
*I *14:g B *C 1.7125 0.5675 
*I *20:g B *C 2.5625 0.5675 
*I *31:d B *C 3.2600 0.5675 
*I *15:g B *C 2.5625 1.2875 
*I *19:d B *C 3.2350 1.2875 
*I *26:g B *C 1.3625 1.2875 
*N *32:1 *C 1.4650 1.0200 
*N *32:4 *C 1.7500 0.8800 
*N *32:7 *C 2.5250 0.3900 
*N *32:9 *C 3.2700 0.7150 

*CAP
0 *26:g 4.64403e-17
1 *19:d 4.20608e-17
2 *15:g 6.75099e-17
3 *31:d 1.44254e-17
4 *20:g 5.26784e-17
5 *14:g 3.4581e-17
6 *32:9 1.19056e-16
7 *32:1 1.01569e-16
8 *32:4 1.67522e-16
9 *32:7 1.97948e-16

*RES
0 *32:1 *26:g 90.829224  // $poly_conn
1 *14:g *32:4 97.052658  // $poly_conn
2 *15:g *20:g 138.461548  // $poly_conn
3 *20:g *32:7 62.437271  // $poly_conn
4 *19:d *32:9 62.376831  // $metal1_conn
5 *32:9 *32:7 0.749744  // $metal1_conn
6 *32:7 *32:4 0.905499  // $metal1_conn
7 *32:4 *32:1 0.296626  // $metal1_conn
8 *32:9 *31:d 75.089775  // $metal1_conn

*END

*D_NET *5 6.63375e-16

*CONN
*I *6:g B *C 0.2475 0.4700 
*I *8:d B *C 0.8800 0.5675 
*I *10:g B *C 1.2275 0.5675 
*I *22:g B *C 0.2475 1.2450 
*I *24:d B *C 0.8700 1.2875 
*I *25:g B *C 1.2275 1.2875 
*N *5:1 *C 0.3050 0.7000 
*N *5:2 *C 0.2475 0.7000 
*N *5:6 *C 1.2275 0.8800 
*N *5:7 *C 1.1150 0.8800 
*N *5:9 *C 0.8800 0.8800 
*N *5:11 *C 0.8700 0.5550 

*CAP
0 *25:g 6.75048e-17
1 *24:d 5.73717e-17
2 *22:g 5.92335e-17
3 *10:g 3.4919e-17
4 *8:d 9.20343e-17
5 *6:g 3.47501e-17
6 *5:9 5.41707e-17
7 *5:6 3.49506e-17
8 *5:2 3.51057e-17
9 *5:1 1.23688e-16
10 *5:7 6.96468e-17

*RES
0 *5:1 *5:2 45.794373  // $poly_conn
1 *5:2 *6:g 20.563484  // $poly_conn
2 *5:2 *22:g 84.666046  // $poly_conn
3 *25:g *5:6 74.168388  // $poly_conn
4 *5:6 *5:7 51.54969  // $poly_conn
5 *5:6 *10:g 58.783772  // $poly_conn
6 *5:7 *5:9 0.149271  // $metal1_conn
7 *5:9 *5:11 0.24964  // $metal1_conn
8 *5:11 *5:1 0.787839  // $metal1_conn
9 *5:9 *24:d 62.216801  // $metal1_conn
10 *8:d *5:11 75  // $metal1_conn

*END

*D_NET *3 3.97111e-16

*CONN
*I *16:g B *C 1.9675 0.5675 
*I *20:d B *C 2.6900 0.5675 
*I *29:d B *C 2.6900 0.5675 
*I *9:g B *C 1.9675 1.2875 
*I *13:d B *C 2.4500 1.2875 
*I *15:d B *C 2.4500 1.2875 
*N *3:1 *C 2.1000 0.9600 
*N *3:2 *C 1.9675 0.9600 
*N *3:6 *C 2.2700 0.9300 

*CAP
0 *13:d 6.17875e-17
1 *9:g 4.22991e-17
2 *20:d 7.26676e-17
3 *16:g 5.04484e-17
4 *3:6 7.23139e-17
5 *3:2 3.63554e-17
6 *3:1 6.12394e-17

*RES
0 *3:1 *3:2 52.24773  // $poly_conn
1 *3:2 *16:g 75.38089  // $poly_conn
2 *3:2 *9:g 49.739868  // $poly_conn
3 *20:d *3:6 75.519844  // $metal1_conn
4 *3:6 *3:1 0.090504  // $metal1_conn
5 *3:6 *13:d 62.35334  // $metal1_conn

*END

*D_NET *2 3.96974e-16

*CONN
*I *14:s B *C 1.8400 0.5675 
*I *16:d B *C 1.8400 0.5675 
*I *18:g B *C 2.3475 0.5675 
*I *9:d B *C 1.7925 1.2875 
*I *11:g B *C 2.2325 1.2875 
*I *27:s B *C 1.7925 1.2875 
*N *2:2 *C 2.2325 0.7675 
*N *2:3 *C 2.1100 0.7400 
*N *2:5 *C 1.9400 0.7450 

*CAP
0 *11:g 9.29345e-17
1 *9:d 5.95935e-17
2 *18:g 4.28506e-17
3 *14:s 3.09721e-17
4 *2:5 5.95896e-17
5 *2:2 4.32926e-17
6 *2:3 6.77413e-17

*RES
0 *18:g *2:2 55.113464  // $poly_conn
1 *2:2 *2:3 66.745071  // $poly_conn
2 *2:2 *11:g 101.069717  // $poly_conn
3 *2:3 *2:5 0.120505  // $metal1_conn
4 *2:5 *14:s 75.168053  // $metal1_conn
5 *2:5 *9:d 62.368679  // $metal1_conn

*END

*D_NET *1 3.53473e-16

*CONN
*I *8:g B *C 0.9725 0.5675 
*I *12:d B *C 1.5625 0.5675 
*I *14:d B *C 1.5625 0.5675 
*I *24:g B *C 0.9625 1.2875 
*I *26:d B *C 1.4900 1.2875 
*I *27:d B *C 1.4900 1.2875 
*N *1:2 *C 0.9675 1.0400 
*N *1:4 *C 1.0800 1.0400 
*N *1:6 *C 1.3050 1.0400 

*CAP
0 *26:d 6.11089e-17
1 *24:g 3.75566e-17
2 *12:d 5.18029e-17
3 *8:g 3.24888e-17
4 *1:6 6.23626e-17
5 *1:2 3.25164e-17
6 *1:4 7.56369e-17

*RES
0 *8:g *1:2 100.717018  // $poly_conn
1 *1:2 *24:g 34.050354  // $poly_conn
2 *1:2 *1:4 54.110878  // $poly_conn
3 *12:d *1:6 75.469917  // $metal1_conn
4 *1:6 *1:4 0.144054  // $metal1_conn
5 *1:6 *26:d 62.234058  // $metal1_conn

*END

