*SPEF "IEEE 1481-1999"
*DESIGN  "DFFRX2"
*DATE "Mon Sep 27 09:31:55 2010"
*VENDOR "Cadence Design Systems"
*PROGRAM "Assura RCX"
*VERSION "3.2 Red Hat Linux release 7.2 (Enigma) - (09/09/2009-10:39)"
*DESIGN_FLOW "Physical Verification"
*DIVIDER /
*DELIMITER :
*BUS_DELIMITER []
*T_UNIT 1 PS
*C_UNIT 1e15 FF
*R_UNIT 1 OHM
*L_UNIT 1 MH
// DeviceFingerDelim "@"
// MATCHED
// caps2d version: 10

*NAME_MAP
*1 VDD
*2 n27
*3 n40
*4 n35
*5 VSS
*6 n26
*7 qint
*8 QN
*9 mn50
*10 mn45
*11 mn46
*12 mp51
*13 mn20
*14 mp21
*15 mn55
*16 mp25
*17 mp50
*18 mn55\@1
*19 mp26
*20 mp45
*21 mn57
*22 mp37
*23 mp46
*24 mn21
*25 mn57\@1
*26 mp36
*27 mp20
*28 mn25
*29 mn56
*30 mp35
*31 mp55
*32 mn26
*33 mp30
*34 mp55\@1
*35 mn37
*36 RN
*37 mp40
*38 mp57
*39 mn36
*40 mp57\@1
*41 mn35
*42 mp56
*43 mn30
*44 mn40
*45 mn51
*46 CK
*47 D
*48 mout
*49 n30
*50 n20
*51 qbint
*52 CKbb
*53 CKb
*54 n22
*55 n41
*56 Q
*57 n21
*58 n25

*GROUND_NETS VSS

*PORTS
*1 I
*5 I
*46 I
*47 I
*36 I
*56 O
*8 O

*D_NET *1 6.51031e-16

*CONN
*P *1 I *C 0.1000 1.7100 
*I *17:s B *C 2.4725 1.5700 
*I *20:s B *C 2.4725 1.5700 
*I *23:s B *C 2.8900 1.5700 
*I *27:s B *C 3.2750 1.1100 
*I *31:s B *C 3.2750 1.1100 
*I *34:s B *C 3.6575 1.1100 
*I *38:s B *C 3.6575 1.1100 
*I *40:s B *C 4.1200 1.0225 
*I *42:s B *C 4.1200 1.0225 
*I *14:s B *C 0.3950 1.5700 
*I *16:s B *C 0.3950 1.5700 
*I *26:s B *C 1.1100 1.1775 
*I *30:s B *C 1.5800 1.1775 
*I *33:s B *C 1.5800 1.1775 
*N *1:3 *C 3.3000 1.7100 
*N *1:6 *C 2.8600 1.7100 
*N *1:7 *C 2.4350 1.7100 
*N *1:8 *C 1.4950 1.7100 
*N *1:9 *C 1.1000 1.7100 
*N *1:10 *C 0.3700 1.7100 

*CAP
0 *30:s 1.88637e-17
1 *26:s 1.29893e-17
2 *14:s 1.30783e-17
3 *40:s 2.00561e-16
4 *23:s 1.00883e-17
5 *17:s 9.81561e-18
6 *1:10 1.57128e-17
7 *1:8 2.50544e-17
8 *1:7 2.79013e-17
9 *1:6 1.42779e-17
10 *1:3 2.94699e-16
11 *1 7.98942e-18

*RES
0 *1:10 *1 0.135066  // $metal1_conn
1 *1:3 *40:s 6.818182  // $metal1_conn
2 *1:3 *1:9 6.818182  // $metal1_conn
3 *1:6 *23:s 62.075157  // $metal1_conn
4 *1:7 *17:s 62.075157  // $metal1_conn
5 *1:8 *30:s 62.12067  // $metal1_conn
6 *1:9 *26:s 62.059456  // $metal1_conn
7 *1:10 *14:s 62.075157  // $metal1_conn
8 *40:s *1:6 0.172764  // $metal1_conn
9 *1:6 *1:7 0.212916  // $metal1_conn
10 *1:7 *1:8 0.471395  // $metal1_conn
11 *1:8 *1:9 0.198055  // $metal1_conn
12 *1:9 *1:10 0.366192  // $metal1_conn

*END

*D_NET *5 0

*CONN
*P *5 I *C 0.1000 0.0000 
*I *9:s B *C 2.4500 0.5075 
*I *10:s B *C 2.4500 0.5075 
*I *13:s B *C 3.2750 0.5250 
*I *15:s B *C 3.2750 0.5250 
*I *18:s B *C 3.7150 0.5250 
*I *21:s B *C 3.7150 0.5250 
*I *25:s B *C 4.1250 0.5825 
*I *29:s B *C 4.1250 0.5825 
*I *24:s B *C 0.3450 0.5075 
*I *28:s B *C 0.5800 0.5375 
*I *41:s B *C 1.5700 0.5375 
*I *43:s B *C 1.5700 0.5375 
*N *5:3 *C 3.3000 0.0000 
*N *5:6 *C 2.4050 0.0000 
*N *5:7 *C 1.4750 0.0000 
*N *5:8 *C 1.1000 0.0000 
*N *5:9 *C 0.5400 0.0000 
*N *5:10 *C 0.3400 0.0000 


*RES
0 *5:10 *5 0.120009  // $metal1_conn
1 *5:3 *25:s 5.636364  // $metal1_conn
2 *5:3 *5:8 5.636364  // $metal1_conn
3 *5:6 *9:s 75.333908  // $metal1_conn
4 *5:7 *41:s 75.233688  // $metal1_conn
5 *5:9 *28:s 75.377625  // $metal1_conn
6 *5:10 *24:s 75.349503  // $metal1_conn
7 *25:s *5:6 0.403639  // $metal1_conn
8 *5:6 *5:7 0.466376  // $metal1_conn
9 *5:7 *5:8 0.188017  // $metal1_conn
10 *5:8 *5:9 0.280869  // $metal1_conn
11 *5:9 *5:10 0.099988  // $metal1_conn

*END

*D_NET *46 2.17953e-16

*CONN
*P *46 I *C 3.1000 1.0450 
*I *13:g B *C 3.1025 0.5825 
*I *27:g B *C 3.1025 1.1975 
*N *46:2 *C 3.0900 0.9500 

*CAP
0 *27:g 3.93806e-17
1 *13:g 4.50295e-17
2 *46:2 6.60703e-17
3 *46 6.74721e-17

*RES
0 *27:g *46:2 25.090984  // $poly_conn
1 *46:2 *13:g 64.834572  // $poly_conn
2 *46:2 *46 45.056545  // $metal1_conn

*END

*D_NET *47 2.97565e-16

*CONN
*P *47 I *C 0.3000 1.0450 
*I *28:g B *C 0.6725 0.5375 
*I *16:g B *C 0.4325 1.0825 
*N *47:2 *C 0.3950 0.8750 

*CAP
0 *16:g 6.01755e-17
1 *28:g 6.67547e-17
2 *47:2 1.0138e-16
3 *47 6.92545e-17

*RES
0 *28:g *47:2 108.173347  // $poly_conn
1 *47:2 *16:g 16.15522  // $poly_conn
2 *47:2 *47 45.139694  // $metal1_conn

*END

*D_NET *36 5.21173e-16

*CONN
*P *36 I *C 1.3000 0.8550 
*I *10:g B *C 2.5225 0.5075 
*I *41:g B *C 1.3425 0.5375 
*I *20:g B *C 2.5225 1.1300 
*I *30:g B *C 1.3625 1.1775 
*N *36:4 *C 1.3800 0.8850 
*N *36:6 *C 1.3800 0.8850 

*CAP
0 *30:g 4.68801e-17
1 *20:g 7.9155e-17
2 *41:g 9.40565e-17
3 *10:g 1.3293e-16
4 *36:4 1.28609e-16
5 *36 3.9542e-17

*RES
0 *20:g *10:g 93.589745  // $poly_conn
1 *10:g *41:g 394.582214  // $poly_conn
2 *41:g *36:4 61.027016  // $poly_conn
3 *36:4 *30:g 37.950092  // $poly_conn
4 *36 *36:6 0.041041  // $metal1_conn
5 *36:4 *36:6 45  // $metal1_conn

*END

*D_NET *56 1.82221e-16

*CONN
*P *56 O *C 3.4600 1.0450 
*I *15:d B *C 3.4500 0.5250 
*I *18:d B *C 3.4500 0.5250 
*I *31:d B *C 3.4500 1.1100 
*I *34:d B *C 3.4500 1.1100 

*CAP
0 *15:d 7.77867e-17
1 *56 1.04435e-16

*RES
0 *15:d *56 75.32972  // $metal1_conn
1 *56 *31:d 20.714087  // $metal1_conn

*END

*D_NET *8 1.52504e-16

*CONN
*P *8 O *C 3.9250 1.0450 
*I *21:d B *C 3.8650 0.5250 
*I *25:d B *C 3.8650 0.5250 
*I *38:d B *C 3.8650 1.1100 
*I *40:d B *C 3.8650 1.1100 
*N *8:2 *C 3.8655 1.1100 

*CAP
0 *38:d 7.09698e-17
1 *21:d 5.0767e-17
2 *8 3.07675e-17

*RES
0 *8 *8:2 0.019164  // $metal1_conn
1 *8:2 *21:d 75.328392  // $metal1_conn
2 *38:d *8:2 20.666666  // $metal1_conn

*END

*D_NET *4 0

*CONN
*I *10:d B *C 2.5750 0.5075 
*I *11:s B *C 2.5750 0.5075 


*RES
0 *11:s *10:d 0.001  // $mwires

*END

*D_NET *3 0

*CONN
*I *9:d B *C 2.2125 0.5375 
*I *45:s B *C 2.2125 0.5375 


*RES
0 *45:s *9:d 0.001  // $mwires

*END

*D_NET *2 1.05672e-18

*CONN
*I *39:s B *C 1.2500 0.5375 
*I *41:d B *C 1.2500 0.5375 

*CAP
0 *39:s 1.05672e-18

*RES
0 *41:d *39:s 0.001  // $mwires

*END

*D_NET *58 0

*CONN
*I *35:s B *C 1.1050 0.5375 
*I *39:d B *C 1.1050 0.5375 


*RES
0 *39:d *35:s 0.001  // $mwires

*END

*D_NET *57 1.44146e-19

*CONN
*I *28:d B *C 0.7325 0.5375 
*I *32:s B *C 0.7325 0.5375 

*CAP
0 *28:d 1.44146e-19

*RES
0 *32:s *28:d 0.001  // $mwires

*END

*D_NET *55 9.81012e-19

*CONN
*I *17:d B *C 2.2500 1.1125 
*I *12:s B *C 2.2500 1.1125 

*CAP
0 *17:d 9.81012e-19

*RES
0 *12:s *17:d 0.001  // $mwires

*END

*D_NET *54 0

*CONN
*I *16:d B *C 0.4850 1.0825 
*I *19:s B *C 0.4850 1.0825 


*RES
0 *19:s *16:d 0.001  // $mwires

*END

*D_NET *53 9.85635e-16

*CONN
*I *13:d B *C 2.9950 0.5825 
*I *24:g B *C 0.2375 0.5075 
*I *32:g B *C 0.7925 0.5375 
*I *45:g B *C 2.1225 0.5375 
*I *27:d B *C 3.0100 1.1975 
*I *14:g B *C 0.2375 1.0825 
*I *22:g B *C 0.7925 1.0825 
*I *37:g B *C 1.9925 1.1125 
*N *53:2 *C 0.2000 1.3200 
*N *53:5 *C 0.7550 1.3200 
*N *53:9 *C 2.0300 1.3200 
*N *53:12 *C 3.0000 1.2450 

*CAP
0 *37:g 5.59072e-17
1 *22:g 4.21831e-17
2 *14:g 4.67262e-17
3 *27:d 1.22887e-16
4 *45:g 7.60398e-17
5 *32:g 6.23654e-17
6 *24:g 3.90406e-17
7 *13:d 1.25742e-16
8 *53:2 7.47113e-17
9 *53:5 1.60868e-16
10 *53:9 1.79165e-16

*RES
0 *14:g *53:2 68.847527  // $poly_conn
1 *14:g *24:g 101.282051  // $poly_conn
2 *22:g *53:5 68.847527  // $poly_conn
3 *22:g *32:g 93.589745  // $poly_conn
4 *45:g *37:g 122.787354  // $poly_conn
5 *37:g *53:9 61.15522  // $poly_conn
6 *13:d *53:12 75.506203  // $metal1_conn
7 *53:12 *53:9 0.651487  // $metal1_conn
8 *53:9 *53:5 0.899848  // $metal1_conn
9 *53:5 *53:2 0.39429  // $metal1_conn
10 *27:d *53:12 62  // $metal1_conn

*END

*D_NET *52 1.04546e-15

*CONN
*I *24:d B *C 0.1450 0.5075 
*I *35:g B *C 1.0525 0.5375 
*I *44:g B *C 1.8325 0.5375 
*I *12:g B *C 2.1975 1.1125 
*I *14:d B *C 0.1450 1.0825 
*I *19:g B *C 0.5375 1.0825 
*N *52:2 *C 0.5750 0.8400 
*N *52:4 *C 1.0150 0.2950 
*N *52:6 *C 1.8600 0.8300 
*N *52:8 *C 2.1400 0.8950 
*N *52:9 *C 1.0150 0.3650 
*N *52:10 *C 0.5750 0.6850 
*N *52:11 *C 0.1350 0.6850 

*CAP
0 *19:g 5.93029e-17
1 *14:d 3.87576e-17
2 *12:g 6.09153e-17
3 *44:g 3.82803e-17
4 *35:g 7.18167e-17
5 *24:d 1.76118e-17
6 *52:11 3.53576e-17
7 *52:10 9.08818e-17
8 *52:9 2.06411e-16
9 *52:2 7.10043e-17
10 *52:4 2.87951e-17
11 *52:6 2.13875e-16
12 *52:8 1.12455e-16

*RES
0 *19:g *52:2 70.129578  // $poly_conn
1 *35:g *52:4 79.103935  // $poly_conn
2 *44:g *52:6 92.897079  // $poly_conn
3 *12:g *52:8 65.678978  // $poly_conn
4 *52:4 *52:9 0.020103  // $metal1_conn
5 *52:9 *52:10 0.550351  // $metal1_conn
6 *52:10 *52:11 0.306982  // $metal1_conn
7 *52:11 *24:d 75.113251  // $metal1_conn
8 *52:9 *52:6 1.147928  // $metal1_conn
9 *52:6 *52:8 0.196664  // $metal1_conn
10 *52:10 *52:2 0.085298  // $metal1_conn
11 *52:11 *14:d 62.247086  // $metal1_conn

*END

*D_NET *51 1.11873e-15

*CONN
*I *9:g B *C 2.3025 0.5375 
*I *11:d B *C 2.7200 0.5075 
*I *15:g B *C 3.3475 0.5250 
*I *18:g B *C 3.5525 0.5250 
*I *29:g B *C 4.1725 0.5825 
*I *17:g B *C 2.3025 1.1125 
*I *20:d B *C 2.6250 1.1300 
*I *23:d B *C 2.6250 1.1300 
*I *31:g B *C 3.3475 1.1100 
*I *34:g B *C 3.5525 1.1100 
*I *42:g B *C 4.1725 1.0225 
*N *51:1 *C 2.3800 0.8750 
*N *51:2 *C 2.3025 0.8750 
*N *51:14 *C 4.2000 0.4000 
*N *51:17 *C 2.7300 0.4650 
*N *51:18 *C 2.6250 0.8475 

*CAP
0 *42:g 4.47712e-17
1 *34:g 4.93934e-16
2 *20:d 2.49454e-17
3 *17:g 6.57055e-17
4 *29:g 3.14973e-17
5 *11:d 1.29801e-16
6 *9:g 5.49121e-17
7 *51:18 8.07001e-17
8 *51:2 3.45342e-17
9 *51:1 7.51447e-17
10 *51:14 8.27884e-17

*RES
0 *42:g *29:g 66.666664  // $poly_conn
1 *51:2 *17:g 28.255793  // $poly_conn
2 *29:g *51:14 64.691956  // $poly_conn
3 *51:2 *9:g 62.871178  // $poly_conn
4 *51:1 *51:2 47.826286  // $poly_conn
5 *51:14 *34:g 0.437625  // $metal1_conn
6 *51:18 *51:1 0.182783  // $metal1_conn
7 *51:18 *20:d 62.105495  // $metal1_conn
8 *11:d *51:17 75  // $metal1_conn
9 *34:g *51:17 0.754867  // $metal1_conn
10 *51:17 *51:18 0.507472  // $metal1_conn

*END

*D_NET *50 4.1808e-16

*CONN
*I *32:d B *C 0.9225 0.5375 
*I *35:d B *C 0.9225 0.5375 
*I *43:g B *C 1.6275 0.5375 
*I *19:d B *C 0.6650 1.0825 
*I *22:d B *C 0.6650 1.0825 
*I *33:g B *C 1.6275 1.1775 
*N *50:2 *C 1.5900 0.7100 
*N *50:5 *C 0.9200 0.6800 

*CAP
0 *33:g 5.49862e-17
1 *19:d 6.91254e-17
2 *43:g 4.1102e-17
3 *32:d 3.34143e-17
4 *50:5 6.88386e-17
5 *50:2 1.50613e-16

*RES
0 *33:g *50:2 82.821884  // $poly_conn
1 *50:2 *43:g 16.15522  // $poly_conn
2 *19:d *50:5 62.382645  // $metal1_conn
3 *50:5 *32:d 75.109818  // $metal1_conn
4 *50:5 *50:2 45.490509  // $metal1_conn

*END

*D_NET *49 4.31871e-16

*CONN
*I *11:g B *C 2.6275 0.5075 
*I *44:d B *C 1.9775 0.5375 
*I *45:d B *C 1.9775 0.5375 
*I *23:g B *C 2.7275 1.1300 
*I *12:d B *C 2.0950 1.1125 
*I *37:d B *C 2.0950 1.1125 
*N *49:2 *C 2.6650 0.7150 
*N *49:4 *C 2.2600 0.7150 

*CAP
0 *12:d 5.81979e-17
1 *23:g 4.7729e-17
2 *44:d 7.4496e-17
3 *11:g 4.77018e-17
4 *49:4 1.04281e-16
5 *49:2 9.94657e-17

*RES
0 *23:g *49:2 69.041237  // $poly_conn
1 *49:2 *11:g 17.437269  // $poly_conn
2 *49:2 *49:4 45.326748  // $metal1_conn
3 *49:4 *44:d 75.32148  // $metal1_conn
4 *49:4 *12:d 62.416927  // $metal1_conn

*END

*D_NET *48 4.67898e-16

*CONN
*I *39:g B *C 1.1575 0.5375 
*I *43:d B *C 1.7300 0.5375 
*I *44:s B *C 1.7300 0.5375 
*I *26:g B *C 1.1575 1.1775 
*I *33:d B *C 1.8700 1.1125 
*I *37:s B *C 1.8700 1.1125 
*N *48:2 *C 1.1575 0.9600 
*N *48:3 *C 1.1050 0.9600 
*N *48:6 *C 1.7300 1.0250 

*CAP
0 *33:d 2.46267e-17
1 *26:g 3.4478e-17
2 *43:d 8.75384e-17
3 *39:g 7.4546e-17
4 *48:6 8.89112e-17
5 *48:3 1.57798e-16

*RES
0 *26:g *48:2 24.894089  // $poly_conn
1 *48:2 *48:3 45.361767  // $poly_conn
2 *48:2 *39:g 86.432549  // $poly_conn
3 *33:d *48:6 62.08144  // $metal1_conn
4 *48:6 *48:3 0.545938  // $metal1_conn
5 *48:6 *43:d 75.393211  // $metal1_conn

*END

*D_NET *7 2.60236e-16

*CONN
*I *21:g B *C 3.7625 0.5250 
*I *25:g B *C 3.9675 0.5250 
*I *29:d B *C 4.2650 0.5825 
*I *38:g B *C 3.7625 1.1100 
*I *40:g B *C 3.9675 1.1100 
*I *42:d B *C 4.2650 1.0225 
*N *7:8 *C 4.2750 0.7550 

*CAP
0 *42:d 1.90882e-17
1 *40:g 2.01956e-16
2 *29:d 2.1204e-17
3 *7:8 1.79874e-17

*RES
0 *7:8 *40:g 45.167412  // $metal1_conn
1 *42:d *7:8 62.15873  // $metal1_conn
2 *7:8 *29:d 75.10994  // $metal1_conn

*END

*D_NET *6 1.4215e-16

*CONN
*I *22:s B *C 0.8850 1.0825 
*I *26:d B *C 1.2600 1.1775 
*I *30:d B *C 1.2600 1.1775 

*CAP
0 *26:d 8.03501e-17
1 *22:s 6.17995e-17

*RES
0 *26:d *22:s 124.259628  // $metal1_conn

*END

