*SPEF "IEEE 1481-1999"
*DESIGN  "DFFRHQX1"
*DATE "Mon Sep 27 09:30:01 2010"
*VENDOR "Cadence Design Systems"
*PROGRAM "Assura RCX"
*VERSION "3.2 Red Hat Linux release 7.2 (Enigma) - (09/09/2009-10:39)"
*DESIGN_FLOW "Physical Verification"
*DIVIDER /
*DELIMITER :
*BUS_DELIMITER []
*T_UNIT 1 PS
*C_UNIT 1e15 FF
*R_UNIT 1 OHM
*L_UNIT 1 MH
// DeviceFingerDelim "@"
// MATCHED
// caps2d version: 10

*NAME_MAP
*1 CK
*2 VSS
*3 mn30
*4 mn35
*5 mn46
*6 mn36
*7 Q
*8 mn45
*9 mn37
*10 mn50
*11 mn26
*12 mn51
*13 mn25
*14 mn40
*15 mn21
*16 mn55
*17 mn20
*18 n26
*19 mout
*20 n30
*21 VDD
*22 mp46
*23 mp45
*24 mp50
*25 mp51
*26 mp40
*27 n20
*28 qbint
*29 CKbb
*30 CKb
*31 n41
*32 n22
*33 n35
*34 n40
*35 mp30
*36 n27
*37 mp35
*38 n25
*39 mp36
*40 mp37
*41 mp26
*42 mp25
*43 RN
*44 mp21
*45 mp55
*46 mp20
*47 n21
*48 D

*GROUND_NETS VSS

*PORTS
*21 I
*2 I
*1 I
*48 I
*43 I
*7 O

*D_NET *21 7.95922e-16

*CONN
*P *21 I *C 0.1000 1.7100 
*I *35:s B *C 2.0800 1.2050 
*I *37:s B *C 2.0800 1.2050 
*I *39:s B *C 2.5450 1.2400 
*I *42:s B *C 3.3500 1.1575 
*I *44:s B *C 3.3500 1.1575 
*I *45:s B *C 0.3900 1.2525 
*I *46:s B *C 0.3900 1.2525 
*I *22:s B *C 0.8050 1.2050 
*I *23:s B *C 1.2275 1.2050 
*I *24:s B *C 1.2275 1.2050 
*N *21:2 *C 2.7000 1.7100 
*N *21:3 *C 2.7000 1.7100 
*N *21:4 *C 2.5050 1.7100 
*N *21:5 *C 2.0950 1.7100 
*N *21:6 *C 1.2300 1.7100 
*N *21:7 *C 0.9000 1.7100 
*N *21:8 *C 0.7500 1.7100 
*N *21:9 *C 0.3050 1.7100 

*CAP
0 *23:s 9.51753e-17
1 *22:s 7.21785e-17
2 *45:s 8.48176e-17
3 *42:s 7.04396e-17
4 *39:s 5.72368e-17
5 *35:s 6.6755e-17
6 *21:9 8.98256e-18
7 *21:8 6.39514e-18
8 *21:6 3.39057e-17
9 *21:5 3.59286e-17
10 *21:4 8.35313e-18
11 *21:2 2.47697e-16
12 *21 8.05692e-18

*RES
0 *42:s *21:3 62.696011  // $metal1_conn
1 *21:3 *21:4 0.098614  // $metal1_conn
2 *21:4 *21:5 0.207363  // $metal1_conn
3 *21:5 *21:6 0.437925  // $metal1_conn
4 *21:6 *21:7 0.167023  // $metal1_conn
5 *21:7 *21:8 0.075811  // $metal1_conn
6 *21:8 *21:9 0.225098  // $metal1_conn
7 *21:9 *21 0.103428  // $metal1_conn
8 *21:4 *39:s 31.311596  // $metal1_conn
9 *21:5 *35:s 62.367687  // $metal1_conn
10 *21:6 *23:s 62.401325  // $metal1_conn
11 *21:8 *22:s 31.338663  // $metal1_conn
12 *21:9 *45:s 21.027178  // $metal1_conn
13 *21:2 *21:3 8.333333  // $metal1_conn
14 *21:2 *21:7 8.333333  // $metal1_conn

*END

*D_NET *2 0

*CONN
*P *2 I *C 0.1000 0.0000 
*I *3:s B *C 2.1500 0.4075 
*I *4:s B *C 2.1500 0.4075 
*I *13:s B *C 3.0250 0.3350 
*I *15:s B *C 3.3050 0.3475 
*I *16:s B *C 0.3900 0.4275 
*I *17:s B *C 0.3900 0.4275 
*I *8:s B *C 1.2675 0.4075 
*I *10:s B *C 1.2675 0.4075 
*N *2:2 *C 2.0950 0.0000 
*N *2:3 *C 1.2100 0.0000 
*N *2:4 *C 0.9000 0.0000 
*N *2:5 *C 0.9000 0.0000 
*N *2:6 *C 0.3050 0.0000 
*N *2:7 *C 2.7000 0.0000 
*N *2:8 *C 2.9700 0.0000 


*RES
0 *3:s *2:2 75.251808  // $metal1_conn
1 *2:2 *2:3 0.447644  // $metal1_conn
2 *2:3 *2:5 0.156888  // $metal1_conn
3 *2:5 *2:6 0.301306  // $metal1_conn
4 *2:6 *2 0.103428  // $metal1_conn
5 *2:2 *2:7 0.305958  // $metal1_conn
6 *2:7 *2:8 0.136619  // $metal1_conn
7 *2:8 *13:s 75.211227  // $metal1_conn
8 *2:3 *8:s 75.23101  // $metal1_conn
9 *2:6 *16:s 37.863155  // $metal1_conn
10 *2:8 *15:s 75.360336  // $metal1_conn
11 *2:4 *2:5 6.888889  // $metal1_conn
12 *2:4 *2:7 6.888889  // $metal1_conn

*END

*D_NET *1 2.49787e-16

*CONN
*P *1 I *C 0.4000 0.8850 
*I *17:g B *C 0.4375 0.4275 
*I *46:g B *C 0.4375 1.2525 
*N *1:2 *C 0.4100 0.8600 
*N *1:4 *C 0.4050 0.8600 
*N *1:5 *C 0.4100 0.8600 
*N *1:6 *C 0.4050 0.8850 

*CAP
0 *46:g 3.59477e-17
1 *17:g 4.11612e-17
2 *1:6 9.3705e-17
3 *1:2 7.89736e-17

*RES
0 *46:g *1:2 64.563744  // $poly_conn
1 *1:2 *17:g 83.79451  // $poly_conn
2 *1:4 *1:5 0.002534  // $metal1_conn
3 *1 *1:6 0.002281  // $metal1_conn
4 *1:4 *1:6 0.016654  // $metal1_conn
5 *1:2 *1:5 45  // $metal1_conn

*END

*D_NET *48 3.34913e-16

*CONN
*P *48 I *C 3.2600 0.6050 
*I *13:g B *C 2.8675 0.4075 
*I *42:g B *C 3.1625 1.2050 
*N *48:2 *C 3.1350 0.6200 
*N *48:4 *C 3.1350 0.6125 
*N *48:5 *C 3.1350 0.6200 
*N *48:6 *C 3.2605 0.6125 

*CAP
0 *42:g 1.10409e-16
1 *13:g 6.90355e-17
2 *48:6 3.90424e-17
3 *48:4 4.79394e-17
4 *48:2 6.84869e-17

*RES
0 *42:g *48:2 109.913048  // $poly_conn
1 *48:2 *13:g 71.741074  // $poly_conn
2 *48:4 *48:5 0.00197  // $metal1_conn
3 *48 *48:6 0.00197  // $metal1_conn
4 *48:4 *48:6 0.083605  // $metal1_conn
5 *48:2 *48:5 45  // $metal1_conn

*END

*D_NET *43 5.37348e-16

*CONN
*P *43 I *C 1.3000 0.8950 
*I *4:g B *C 2.1975 0.4075 
*I *8:g B *C 1.1075 0.4075 
*I *37:g B *C 2.1975 1.2050 
*I *23:g B *C 1.1075 1.2050 
*N *43:3 *C 1.1450 0.9050 

*CAP
0 *23:g 9.16112e-17
1 *37:g 1.28607e-16
2 *8:g 8.21056e-17
3 *4:g 7.02489e-17
4 *43:3 1.17171e-16
5 *43 4.76043e-17

*RES
0 *37:g *23:g 245.760513  // $poly_conn
1 *23:g *43:3 27.238419  // $poly_conn
2 *43:3 *8:g 92.206375  // $poly_conn
3 *37:g *4:g 138.461548  // $poly_conn
4 *43 *43:3 45.080418  // $metal1_conn

*END

*D_NET *7 1.36594e-16

*CONN
*P *7 O *C 0.0900 0.7400 
*I *16:d B *C 0.1100 0.4850 
*I *45:d B *C 0.1100 1.1650 

*CAP
0 *45:d 5.7089e-17
1 *16:d 3.33969e-17
2 *7 4.61086e-17

*RES
0 *45:d *7 20.967201  // $metal1_conn
1 *7 *16:d 37.669437  // $metal1_conn

*END

*D_NET *47 9.75339e-19

*CONN
*I *11:s B *C 2.8150 0.4075 
*I *13:d B *C 2.8150 0.4075 

*CAP
0 *11:s 9.75339e-19

*RES
0 *13:d *11:s 0.001  // $mwires

*END

*D_NET *38 0

*CONN
*I *6:d B *C 2.4550 0.4075 
*I *9:s B *C 2.4550 0.4075 


*RES
0 *9:s *6:d 0.001  // $mwires

*END

*D_NET *36 0

*CONN
*I *4:d B *C 2.3000 0.4075 
*I *6:s B *C 2.3000 0.4075 


*RES
0 *6:s *4:d 0.001  // $mwires

*END

*D_NET *34 1.30342e-18

*CONN
*I *10:d B *C 1.3700 0.4075 
*I *12:s B *C 1.3700 0.4075 

*CAP
0 *10:d 1.30342e-18

*RES
0 *12:s *10:d 0.001  // $mwires

*END

*D_NET *33 1.216e-18

*CONN
*I *5:s B *C 1.0550 0.4075 
*I *8:d B *C 1.0550 0.4075 

*CAP
0 *5:s 1.216e-18

*RES
0 *8:d *5:s 0.001  // $mwires

*END

*D_NET *32 9.87313e-20

*CONN
*I *41:s B *C 3.1100 1.2050 
*I *42:d B *C 3.1100 1.2050 

*CAP
0 *41:s 9.87313e-20

*RES
0 *42:d *41:s 0.001  // $mwires

*END

*D_NET *31 1.10653e-18

*CONN
*I *24:d B *C 1.4025 1.2050 
*I *25:s B *C 1.4025 1.2050 

*CAP
0 *24:d 1.10653e-18

*RES
0 *25:s *24:d 0.001  // $mwires

*END

*D_NET *30 1.9291e-15

*CONN
*I *11:g B *C 2.7625 0.4075 
*I *15:g B *C 3.3975 0.3475 
*I *17:d B *C 0.5325 0.4275 
*I *12:g B *C 1.4225 0.4075 
*I *40:g B *C 2.8525 1.2050 
*I *44:g B *C 3.3975 1.1575 
*I *46:d B *C 0.5825 1.2050 
*I *26:g B *C 1.7075 1.2050 
*N *30:2 *C 1.4600 0.6850 
*N *30:4 *C 1.7350 0.9250 
*N *30:6 *C 2.8050 0.9100 
*N *30:9 *C 3.3600 0.8900 
*N *30:11 *C 2.8050 0.9100 
*N *30:12 *C 1.7350 1.3800 
*N *30:13 *C 1.3500 1.0250 
*N *30:14 *C 0.5450 0.9400 

*CAP
0 *26:g 3.80388e-17
1 *46:d 4.75687e-17
2 *44:g 2.93721e-17
3 *40:g 3.48736e-17
4 *12:g 4.92726e-17
5 *17:d 8.53597e-17
6 *15:g 3.76376e-17
7 *11:g 7.1106e-17
8 *30:14 2.28594e-16
9 *30:13 2.65494e-16
10 *30:12 2.11766e-16
11 *30:2 1.2772e-16
12 *30:4 1.1124e-16
13 *30:6 3.82772e-16
14 *30:9 2.08291e-16

*RES
0 *12:g *30:2 79.065338  // $poly_conn
1 *26:g *30:4 68.538101  // $poly_conn
2 *40:g *30:6 29.406761  // $poly_conn
3 *30:6 *11:g 92.495613  // $poly_conn
4 *44:g *30:9 30.219189  // $poly_conn
5 *30:9 *15:g 109.706367  // $poly_conn
6 *30:9 *30:11 46.185577  // $metal1_conn
7 *30:11 *30:12 1.152717  // $metal1_conn
8 *30:12 *30:13 0.554555  // $metal1_conn
9 *30:13 *30:14 1.373863  // $metal1_conn
10 *30:14 *17:d 75.410202  // $metal1_conn
11 *30:12 *30:4 0.398422  // $metal1_conn
12 *30:13 *30:2 0.385787  // $metal1_conn
13 *30:14 *46:d 62.234386  // $metal1_conn
14 *30:6 *30:11 45  // $metal1_conn

*END

*D_NET *29 1.18244e-15

*CONN
*I *9:g B *C 2.5075 0.4075 
*I *15:d B *C 3.4900 0.3475 
*I *14:g B *C 1.6975 0.4075 
*I *41:g B *C 3.0575 1.2050 
*I *44:d B *C 3.5400 1.1100 
*I *25:g B *C 1.4575 1.2050 
*N *29:2 *C 1.7050 0.7000 
*N *29:5 *C 2.5350 0.6200 
*N *29:7 *C 3.0850 0.8300 
*N *29:9 *C 3.5000 0.7400 
*N *29:10 *C 3.5000 0.4550 
*N *29:11 *C 2.5350 0.5450 

*CAP
0 *25:g 9.86269e-17
1 *44:d 3.81655e-17
2 *41:g 6.89491e-17
3 *14:g 2.54534e-17
4 *15:d 1.47326e-17
5 *9:g 4.22331e-17
6 *29:11 2.595e-16
7 *29:10 1.32035e-16
8 *29:9 5.43867e-17
9 *29:2 2.45686e-16
10 *29:5 6.69684e-17
11 *29:7 1.35707e-16

*RES
0 *14:g *29:2 36.867199  // $poly_conn
1 *29:2 *25:g 116.361885  // $poly_conn
2 *9:g *29:5 64.691956  // $poly_conn
3 *41:g *29:7 92.897079  // $poly_conn
4 *44:d *29:9 62.281235  // $metal1_conn
5 *29:9 *29:10 0.222035  // $metal1_conn
6 *29:10 *29:11 1.061744  // $metal1_conn
7 *29:11 *29:2 46.180897  // $metal1_conn
8 *29:9 *29:7 0.378448  // $metal1_conn
9 *29:10 *15:d 75.07663  // $metal1_conn
10 *29:11 *29:5 0.069076  // $metal1_conn

*END

*D_NET *28 9.7642e-16

*CONN
*I *16:g B *C 0.2025 0.4850 
*I *5:d B *C 0.9300 0.4075 
*I *10:g B *C 1.3175 0.4075 
*I *45:g B *C 0.2025 1.1650 
*I *22:d B *C 0.9925 1.2050 
*I *23:d B *C 0.9925 1.2050 
*I *24:g B *C 1.3475 1.2050 
*N *28:2 *C 0.2400 0.8600 
*N *28:5 *C 1.2800 0.6850 
*N *28:7 *C 0.9900 0.8100 
*N *28:8 *C 0.7250 0.3650 

*CAP
0 *24:g 8.95445e-17
1 *22:d 8.26737e-17
2 *45:g 3.86717e-17
3 *10:g 5.84512e-17
4 *5:d 3.67525e-17
5 *16:g 3.46441e-17
6 *28:8 1.65779e-16
7 *28:7 1.34847e-16
8 *28:2 1.91985e-16
9 *28:5 1.43071e-16

*RES
0 *45:g *28:2 17.398676  // $poly_conn
1 *28:2 *16:g 52.014061  // $poly_conn
2 *24:g *28:5 85.283981  // $poly_conn
3 *28:5 *10:g 35.385986  // $poly_conn
4 *28:5 *28:7 45.331749  // $metal1_conn
5 *28:7 *28:8 0.574489  // $metal1_conn
6 *28:8 *28:2 45.988853  // $metal1_conn
7 *28:7 *22:d 62.388874  // $metal1_conn
8 *28:8 *5:d 75.103569  // $metal1_conn

*END

*D_NET *27 6.08336e-16

*CONN
*I *3:g B *C 1.9625 0.4075 
*I *9:d B *C 2.6350 0.4075 
*I *11:d B *C 2.6350 0.4075 
*I *35:g B *C 1.9625 1.2050 
*I *40:d B *C 2.9550 1.2050 
*I *41:d B *C 2.9550 1.2050 
*N *27:2 *C 1.9950 0.8700 
*N *27:5 *C 2.6600 0.7300 

*CAP
0 *40:d 1.05335e-16
1 *35:g 4.77851e-17
2 *9:d 6.07052e-17
3 *3:g 4.67655e-17
4 *27:5 1.77003e-16
5 *27:2 1.70742e-16

*RES
0 *35:g *27:2 37.64098  // $poly_conn
1 *27:2 *3:g 83.017822  // $poly_conn
2 *40:d *27:5 62.639572  // $metal1_conn
3 *27:5 *27:2 45.750008  // $metal1_conn
4 *27:5 *9:d 75.208771  // $metal1_conn

*END

*D_NET *20 5.2519e-16

*CONN
*I *5:g B *C 1.0025 0.4075 
*I *12:d B *C 1.5600 0.4075 
*I *14:d B *C 1.5600 0.4075 
*I *22:g B *C 0.8775 1.2050 
*I *25:d B *C 1.5825 1.2050 
*I *26:d B *C 1.5825 1.2050 
*N *20:2 *C 0.8450 0.6200 
*N *20:5 *C 1.5800 0.5100 

*CAP
0 *25:d 1.02584e-16
1 *22:g 5.54673e-17
2 *12:d 3.21086e-17
3 *5:g 5.7132e-17
4 *20:5 1.38272e-16
5 *20:2 1.39626e-16

*RES
0 *5:g *20:2 40.450478  // $poly_conn
1 *20:2 *22:g 99.449959  // $poly_conn
2 *25:d *20:5 62.639915  // $metal1_conn
3 *20:5 *20:2 45.641022  // $metal1_conn
4 *20:5 *12:d 75.085701  // $metal1_conn

*END

*D_NET *19 5.50525e-16

*CONN
*I *3:d B *C 1.8300 0.4075 
*I *6:g B *C 2.4025 0.4075 
*I *14:s B *C 1.8300 0.4075 
*I *35:d B *C 1.8350 1.2050 
*I *39:g B *C 2.4025 1.2050 
*I *26:s B *C 1.8350 1.2050 
*N *19:2 *C 2.3650 0.6650 
*N *19:4 *C 1.8550 0.6650 

*CAP
0 *39:g 5.17442e-17
1 *35:d 1.06313e-16
2 *6:g 5.30715e-17
3 *3:d 5.7827e-17
4 *19:4 1.24648e-16
5 *19:2 1.56922e-16

*RES
0 *39:g *19:2 89.23214  // $poly_conn
1 *19:2 *6:g 30.257782  // $poly_conn
2 *19:2 *19:4 45.50478  // $metal1_conn
3 *19:4 *3:d 75.197235  // $metal1_conn
4 *19:4 *35:d 62.419876  // $metal1_conn

*END

*D_NET *18 2.13969e-16

*CONN
*I *37:d B *C 2.3000 1.2050 
*I *39:d B *C 2.3000 1.2050 
*I *40:s B *C 2.7625 1.2050 

*CAP
0 *40:s 1.28561e-16
1 *37:d 8.54082e-17

*RES
0 *40:s *37:d 62.577805  // $metal1_conn

*END

