*SPEF "IEEE 1481-1999"
*DESIGN  "DFFRXL"
*DATE "Mon Sep 27 09:32:40 2010"
*VENDOR "Cadence Design Systems"
*PROGRAM "Assura RCX"
*VERSION "3.2 Red Hat Linux release 7.2 (Enigma) - (09/09/2009-10:39)"
*DESIGN_FLOW "Physical Verification"
*DIVIDER /
*DELIMITER :
*BUS_DELIMITER []
*T_UNIT 1 PS
*C_UNIT 1e15 FF
*R_UNIT 1 OHM
*L_UNIT 1 MH
// DeviceFingerDelim "@"
// MATCHED
// caps2d version: 10

*NAME_MAP
*1 mp56
*2 mp55
*3 mp20
*4 mp46
*5 mp45
*6 mp50
*7 mp51
*8 VDD
*9 mn51
*10 mn40
*11 mn30
*12 mn35
*13 mn36
*14 VSS
*15 mn37
*16 mp40
*17 mn26
*18 mp30
*19 mn25
*20 mp35
*21 mn21
*22 mp36
*23 mp37
*24 mp26
*25 mout
*26 QN
*27 mp25
*28 n30
*29 mp21
*30 n20
*31 mp57
*32 qbint
*33 CKbb
*34 CKb
*35 n41
*36 n22
*37 n35
*38 CK
*39 n40
*40 n27
*41 RN
*42 n25
*43 n21
*44 D
*45 mn57
*46 mn56
*47 mn55
*48 mn20
*49 mn46
*50 mn45
*51 mn50
*52 qint
*53 n26
*54 Q

*GROUND_NETS VSS

*PORTS
*8 I
*14 I
*38 I
*44 I
*41 I
*54 O
*26 O

*D_NET *8 6.15083e-16

*CONN
*P *8 I *C 0.1000 1.7100 
*I *18:s B *C 3.3800 1.0825 
*I *20:s B *C 3.3800 1.0825 
*I *22:s B *C 3.7750 1.3025 
*I *27:s B *C 4.7500 1.0175 
*I *29:s B *C 4.7500 1.0175 
*I *31:s B *C 0.5450 1.3450 
*I *1:s B *C 0.5450 1.3450 
*I *2:s B *C 1.1150 1.5700 
*I *3:s B *C 1.1150 1.5700 
*I *4:s B *C 1.8600 1.5700 
*I *5:s B *C 2.2600 1.5700 
*I *6:s B *C 2.2600 1.5700 
*N *8:2 *C 4.2000 1.7100 
*N *8:3 *C 4.2000 1.7100 
*N *8:4 *C 3.6450 1.7100 
*N *8:5 *C 3.2950 1.7100 
*N *8:6 *C 2.6000 1.7100 
*N *8:7 *C 2.2350 1.7100 
*N *8:8 *C 1.8350 1.7100 
*N *8:9 *C 1.0900 1.7100 
*N *8:10 *C 0.9000 1.7100 
*N *8:11 *C 0.5200 1.7100 

*CAP
0 *5:s 2.45464e-17
1 *4:s 7.8331e-18
2 *2:s 4.26876e-18
3 *31:s 8.21599e-18
4 *27:s 2.77461e-17
5 *22:s 1.29798e-17
6 *18:s 2.22379e-17
7 *8:11 6.09151e-18
8 *8:9 1.27343e-17
9 *8:8 1.92888e-17
10 *8:7 1.40834e-17
11 *8:5 2.2355e-17
12 *8:4 1.87102e-17
13 *8:2 4.08221e-16
14 *8 5.77081e-18

*RES
0 *27:s *8:3 62.337357  // $metal1_conn
1 *8:3 *8:4 0.278173  // $metal1_conn
2 *8:4 *8:5 0.174206  // $metal1_conn
3 *8:5 *8:6 0.347443  // $metal1_conn
4 *8:6 *8:7 0.181926  // $metal1_conn
5 *8:7 *8:8 0.199285  // $metal1_conn
6 *8:8 *8:9 0.373275  // $metal1_conn
7 *8:9 *8:10 0.095102  // $metal1_conn
8 *8:10 *8:11 0.190399  // $metal1_conn
9 *8:11 *8 0.210211  // $metal1_conn
10 *8:4 *22:s 62.07473  // $metal1_conn
11 *8:5 *18:s 62.045826  // $metal1_conn
12 *8:7 *5:s 62.045826  // $metal1_conn
13 *8:8 *4:s 62.07473  // $metal1_conn
14 *8:9 *2:s 62.07473  // $metal1_conn
15 *8:11 *31:s 62.225086  // $metal1_conn
16 *8:2 *8:3 9.375  // $metal1_conn
17 *8:2 *8:6 9.375  // $metal1_conn
18 *8:2 *8:10 8.333333  // $metal1_conn

*END

*D_NET *14 0

*CONN
*P *14 I *C 0.1000 0.0000 
*I *11:s B *C 3.5250 0.5075 
*I *12:s B *C 3.5250 0.5075 
*I *19:s B *C 4.5175 0.5075 
*I *21:s B *C 4.5175 0.5075 
*I *45:s B *C 0.4900 0.5875 
*I *46:s B *C 0.4900 0.5875 
*I *47:s B *C 1.2675 0.5875 
*I *48:s B *C 1.2675 0.5875 
*I *50:s B *C 2.2900 0.5025 
*I *51:s B *C 2.2900 0.5025 
*N *14:2 *C 4.2000 0.0000 
*N *14:3 *C 4.2000 0.0000 
*N *14:4 *C 3.4700 0.0000 
*N *14:5 *C 2.6000 0.0000 
*N *14:6 *C 2.2050 0.0000 
*N *14:7 *C 1.1750 0.0000 
*N *14:8 *C 0.9000 0.0000 
*N *14:9 *C 0.4900 0.0000 


*RES
0 *19:s *14:3 75.516754  // $metal1_conn
1 *14:3 *14:4 0.365948  // $metal1_conn
2 *14:4 *14:5 0.436167  // $metal1_conn
3 *14:5 *14:6 0.197923  // $metal1_conn
4 *14:6 *14:7 0.516222  // $metal1_conn
5 *14:7 *14:8 0.137735  // $metal1_conn
6 *14:8 *14:9 0.205446  // $metal1_conn
7 *14:9 *14 0.195164  // $metal1_conn
8 *14:4 *11:s 75.117203  // $metal1_conn
9 *14:6 *50:s 75.245132  // $metal1_conn
10 *14:7 *47:s 75.332291  // $metal1_conn
11 *14:9 *45:s 75.370209  // $metal1_conn
12 *14:2 *14:3 7.75  // $metal1_conn
13 *14:2 *14:5 7.75  // $metal1_conn
14 *14:2 *14:8 6.888889  // $metal1_conn

*END

*D_NET *38 1.94785e-16

*CONN
*P *38 I *C 1.3000 0.8550 
*I *48:g B *C 1.3225 0.5875 
*I *3:g B *C 1.3225 1.1125 
*N *38:2 *C 1.2850 0.8900 

*CAP
0 *3:g 2.7596e-17
1 *48:g 4.04359e-17
2 *38:2 2.43361e-17
3 *38 1.02417e-16

*RES
0 *3:g *38:2 20.001371  // $poly_conn
1 *38:2 *48:g 49.488552  // $poly_conn
2 *38 *38:2 45.002224  // $metal1_conn

*END

*D_NET *44 2.23268e-16

*CONN
*P *44 I *C 4.5000 0.6650 
*I *19:g B *C 4.3525 0.5075 
*I *27:g B *C 4.5325 1.1825 
*N *44:2 *C 4.4950 0.7050 
*N *44:4 *C 4.4950 0.7050 

*CAP
0 *27:g 5.53615e-17
1 *19:g 2.97469e-17
2 *44:2 1.0541e-16
3 *44 3.27499e-17

*RES
0 *27:g *44:2 85.385994  // $poly_conn
1 *44:2 *19:g 43.949356  // $poly_conn
2 *44 *44:4 0.011521  // $metal1_conn
3 *44:2 *44:4 45  // $metal1_conn

*END

*D_NET *41 7.97517e-16

*CONN
*P *41 I *C 1.9000 0.8550 
*I *12:g B *C 3.5725 0.5075 
*I *50:g B *C 2.1025 0.4075 
*I *20:g B *C 3.4275 1.0825 
*I *5:g B *C 2.1025 1.0825 
*N *41:2 *C 2.0650 0.7600 
*N *41:4 *C 2.0750 1.4100 
*N *41:7 *C 3.4550 1.4100 
*N *41:8 *C 1.9005 0.8075 
*N *41:9 *C 2.0650 0.7600 
*N *41:10 *C 2.0650 0.8075 

*CAP
0 *5:g 4.36366e-17
1 *20:g 5.97934e-17
2 *50:g 4.93526e-17
3 *12:g 8.31326e-17
4 *41:10 5.27945e-17
5 *41:2 5.38503e-17
6 *41:4 1.87335e-16
7 *41:7 1.84259e-16
8 *41 8.33616e-17

*RES
0 *50:g *41:2 62.309063  // $poly_conn
1 *41:2 *5:g 45.642399  // $poly_conn
2 *5:g *41:4 92.897079  // $poly_conn
3 *12:g *20:g 126.633514  // $poly_conn
4 *20:g *41:7 92.897079  // $poly_conn
5 *41:8 *41 0.008949  // $metal1_conn
6 *41:9 *41:10 0.008949  // $metal1_conn
7 *41:8 *41:10 0.043541  // $metal1_conn
8 *41:2 *41:9 45  // $metal1_conn
9 *41:7 *41:4 1.046936  // $metal1_conn

*END

*D_NET *54 1.62581e-16

*CONN
*P *54 O *C 0.9000 1.0450 
*I *47:d B *C 0.9800 0.5025 
*I *2:d B *C 0.8850 1.1125 
*N *54:2 *C 0.8550 1.0450 

*CAP
0 *2:d 1.27379e-17
1 *47:d 8.221e-17
2 *54:2 5.39769e-17
3 *54 1.36564e-17

*RES
0 *47:d *54:2 75.477188  // $metal1_conn
1 *54:2 *2:d 62.09901  // $metal1_conn
2 *54:2 *54 0.007499  // $metal1_conn

*END

*D_NET *26 7.51621e-17

*CONN
*P *26 O *C 0.1000 0.6650 
*I *45:d B *C 0.2825 0.5875 
*I *31:d B *C 0.2825 1.0075 
*N *26:3 *C 0.2600 0.6000 

*CAP
0 *31:d 1.50453e-17
1 *45:d 3.87149e-17
2 *26 2.14019e-17

*RES
0 *31:d *26:3 62.224846  // $metal1_conn
1 *26:3 *26 0.075859  // $metal1_conn
2 *45:d *26:3 75  // $metal1_conn

*END

*D_NET *43 7.51728e-19

*CONN
*I *17:s B *C 4.2200 0.5075 
*I *19:d B *C 4.2200 0.5075 

*CAP
0 *17:s 7.51728e-19

*RES
0 *19:d *17:s 0.001  // $mwires

*END

*D_NET *42 0

*CONN
*I *13:d B *C 3.7675 0.5075 
*I *15:s B *C 3.7675 0.5075 


*RES
0 *15:s *13:d 0.001  // $mwires

*END

*D_NET *40 0

*CONN
*I *12:d B *C 3.6250 0.5075 
*I *13:s B *C 3.6250 0.5075 


*RES
0 *13:s *12:d 0.001  // $mwires

*END

*D_NET *39 4.84675e-18

*CONN
*I *9:s B *C 2.4575 0.5025 
*I *51:d B *C 2.4575 0.5025 

*CAP
0 *9:s 4.84675e-18

*RES
0 *51:d *9:s 0.001  // $mwires

*END

*D_NET *37 0

*CONN
*I *49:s B *C 2.0275 0.4075 
*I *50:d B *C 2.0275 0.4075 


*RES
0 *50:d *49:s 0.001  // $mwires

*END

*D_NET *36 8.99795e-19

*CONN
*I *24:s B *C 4.4375 1.1825 
*I *27:d B *C 4.4375 1.1825 

*CAP
0 *24:s 8.99795e-19

*RES
0 *27:d *24:s 0.001  // $mwires

*END

*D_NET *35 1.62098e-18

*CONN
*I *6:d B *C 2.4000 1.0825 
*I *7:s B *C 2.4000 1.0825 

*CAP
0 *6:d 1.62098e-18

*RES
0 *7:s *6:d 0.001  // $mwires

*END

*D_NET *34 1.20967e-15

*CONN
*I *9:g B *C 2.5775 0.5025 
*I *17:g B *C 4.0875 0.5075 
*I *21:g B *C 4.6825 0.5075 
*I *48:d B *C 1.4500 0.5875 
*I *16:g B *C 2.7075 1.0825 
*I *23:g B *C 4.0875 1.1825 
*I *29:g B *C 4.7975 1.0175 
*I *3:d B *C 1.4250 1.1125 
*N *34:1 *C 2.8500 0.8750 
*N *34:2 *C 2.7075 0.8775 
*N *34:6 *C 4.0500 1.3900 
*N *34:10 *C 4.8350 1.2250 
*N *34:13 *C 1.4450 1.1600 
*N *34:14 *C 2.8100 1.2500 

*CAP
0 *3:d 2.03998e-16
1 *29:g 3.45396e-17
2 *23:g 4.66536e-17
3 *16:g 2.72175e-17
4 *48:d 8.16583e-17
5 *21:g 4.07493e-17
6 *17:g 5.07448e-17
7 *9:g 5.87556e-17
8 *34:14 2.42982e-16
9 *34:2 3.77216e-17
10 *34:1 8.65731e-17
11 *34:6 2.1106e-16
12 *34:10 8.70116e-17

*RES
0 *34:1 *34:2 66.760536  // $poly_conn
1 *34:2 *9:g 97.53463  // $poly_conn
2 *34:2 *16:g 23.465221  // $poly_conn
3 *23:g *34:6 61.15522  // $poly_conn
4 *23:g *17:g 126.923073  // $poly_conn
5 *21:g *29:g 102.274536  // $poly_conn
6 *29:g *34:10 61.15522  // $poly_conn
7 *48:d *34:13 75.441795  // $metal1_conn
8 *34:13 *34:14 1.081437  // $metal1_conn
9 *34:14 *34:1 0.249945  // $metal1_conn
10 *34:14 *34:6 1.003712  // $metal1_conn
11 *34:6 *34:10 0.662054  // $metal1_conn
12 *3:d *34:13 62  // $metal1_conn

*END

*D_NET *33 9.29314e-16

*CONN
*I *10:g B *C 2.8675 0.5025 
*I *15:g B *C 3.8575 0.5075 
*I *21:d B *C 4.7750 0.5075 
*I *24:g B *C 4.3425 1.1825 
*I *29:d B *C 4.8900 1.0175 
*I *7:g B *C 2.5025 1.0825 
*N *33:1 *C 2.5750 0.8150 
*N *33:4 *C 2.8400 0.6850 
*N *33:6 *C 3.8200 0.3300 
*N *33:8 *C 4.3050 0.9750 
*N *33:10 *C 4.7850 0.9700 

*CAP
0 *7:g 4.67682e-17
1 *29:d 9.31009e-18
2 *24:g 4.47705e-17
3 *21:d 3.09633e-17
4 *15:g 6.44373e-17
5 *10:g 3.41051e-17
6 *33:10 5.88624e-17
7 *33:1 1.05357e-16
8 *33:4 1.64281e-16
9 *33:6 2.13615e-16
10 *33:8 1.56843e-16

*RES
0 *33:1 *7:g 80.402321  // $poly_conn
1 *10:g *33:4 64.691956  // $poly_conn
2 *15:g *33:6 62.437271  // $poly_conn
3 *24:g *33:8 61.15522  // $poly_conn
4 *21:d *33:10 75.303329  // $metal1_conn
5 *33:10 *33:8 0.374315  // $metal1_conn
6 *33:8 *33:6 0.840403  // $metal1_conn
7 *33:6 *33:4 1.063996  // $metal1_conn
8 *33:4 *33:1 0.268629  // $metal1_conn
9 *33:10 *29:d 62.091976  // $metal1_conn

*END

*D_NET *32 8.18168e-16

*CONN
*I *46:g B *C 0.5925 0.5875 
*I *47:g B *C 1.0725 0.5025 
*I *49:d B *C 1.8600 0.4075 
*I *51:g B *C 2.3375 0.5025 
*I *1:g B *C 0.5925 1.0075 
*I *2:g B *C 0.9575 1.1125 
*I *4:d B *C 2.0000 1.0825 
*I *5:d B *C 2.0000 1.0825 
*I *6:g B *C 2.2975 1.0825 
*N *32:2 *C 1.0450 0.6850 
*N *32:3 *C 0.9575 0.7375 
*N *32:4 *C 0.5925 0.7375 
*N *32:9 *C 2.2550 0.8750 
*N *32:12 *C 2.0000 1.0900 
*N *32:14 *C 1.8500 0.3950 

*CAP
0 *6:g 4.53098e-17
1 *4:d 1.64791e-16
2 *2:g 3.23914e-17
3 *1:g 3.26827e-17
4 *51:g 5.21237e-17
5 *49:d 1.70546e-16
6 *47:g 2.15902e-17
7 *46:g 1.92285e-17
8 *32:4 2.80991e-17
9 *32:3 1.61438e-17
10 *32:2 1.33808e-16
11 *32:9 1.01454e-16

*RES
0 *47:g *32:2 19.340628  // $poly_conn
1 *32:2 *32:3 15.874935  // $poly_conn
2 *32:3 *32:4 87.929619  // $poly_conn
3 *32:4 *46:g 18.337015  // $poly_conn
4 *32:3 *2:g 63.890228  // $poly_conn
5 *32:4 *1:g 40.131889  // $poly_conn
6 *51:g *32:9 67.338539  // $poly_conn
7 *32:9 *6:g 16.15522  // $poly_conn
8 *32:9 *32:12 45.361256  // $metal1_conn
9 *32:12 *32:14 0.866887  // $metal1_conn
10 *32:14 *32:2 45.954109  // $metal1_conn
11 *4:d *32:12 62  // $metal1_conn
12 *49:d *32:14 75  // $metal1_conn

*END

*D_NET *30 4.1301e-16

*CONN
*I *11:g B *C 3.1625 0.5025 
*I *15:d B *C 3.9725 0.5075 
*I *17:d B *C 3.9725 0.5075 
*I *18:g B *C 3.1625 1.0825 
*I *23:d B *C 4.2150 1.1825 
*I *24:d B *C 4.2150 1.1825 
*N *30:1 *C 3.2200 0.8400 
*N *30:2 *C 3.1625 0.8400 
*N *30:6 *C 3.9600 0.8400 
*N *30:8 *C 4.1900 1.1950 

*CAP
0 *23:d 6.7348e-17
1 *18:g 3.60693e-17
2 *15:d 3.80664e-17
3 *11:g 3.6138e-17
4 *30:6 1.1127e-16
5 *30:2 3.79509e-17
6 *30:1 8.61667e-17

*RES
0 *30:1 *30:2 45.794373  // $poly_conn
1 *30:2 *11:g 62.871178  // $poly_conn
2 *30:2 *18:g 29.537844  // $poly_conn
3 *15:d *30:6 75.205605  // $metal1_conn
4 *30:6 *30:8 0.378453  // $metal1_conn
5 *30:6 *30:1 0.568047  // $metal1_conn
6 *23:d *30:8 62  // $metal1_conn

*END

*D_NET *28 3.82412e-16

*CONN
*I *9:d B *C 2.7225 0.5025 
*I *10:d B *C 2.7225 0.5025 
*I *49:g B *C 1.9525 0.4075 
*I *16:d B *C 2.6050 1.0825 
*I *4:g B *C 1.8975 1.0825 
*I *7:d B *C 2.6050 1.0825 
*N *28:2 *C 1.9250 0.5900 
*N *28:5 *C 2.4150 0.5900 

*CAP
0 *4:g 5.07827e-17
1 *16:d 7.10897e-17
2 *49:g 3.03715e-17
3 *9:d 4.33343e-17
4 *28:5 9.27563e-17
5 *28:2 9.40776e-17

*RES
0 *49:g *28:2 19.691952  // $poly_conn
1 *28:2 *4:g 90.204765  // $poly_conn
2 *9:d *28:5 75.245277  // $metal1_conn
3 *28:5 *28:2 45.332779  // $metal1_conn
4 *28:5 *16:d 62.496246  // $metal1_conn

*END

*D_NET *25 4.2893e-16

*CONN
*I *10:s B *C 3.0150 0.5025 
*I *11:d B *C 3.0150 0.5025 
*I *13:g B *C 3.6775 0.5075 
*I *16:s B *C 2.9350 1.0825 
*I *18:d B *C 2.9350 1.0825 
*I *22:g B *C 3.6775 1.0825 
*N *25:2 *C 3.7150 0.6800 
*N *25:4 *C 3.0600 0.6800 

*CAP
0 *22:g 4.81882e-17
1 *16:s 6.2575e-17
2 *13:g 5.64178e-17
3 *10:s 4.09951e-17
4 *25:4 8.99283e-17
5 *25:2 1.30825e-16

*RES
0 *22:g *25:2 66.15522  // $poly_conn
1 *25:2 *13:g 16.15522  // $poly_conn
2 *25:2 *25:4 45.456528  // $metal1_conn
3 *25:4 *16:s 62.273232  // $metal1_conn
4 *25:4 *10:s 75.084747  // $metal1_conn

*END

*D_NET *53 1.22574e-16

*CONN
*I *20:d B *C 3.5525 1.0825 
*I *22:d B *C 3.5525 1.0825 
*I *23:s B *C 3.9950 1.1825 

*CAP
0 *23:s 6.41274e-17
1 *20:d 5.84464e-17

*RES
0 *20:d *23:s 124.241821  // $metal1_conn

*END

*D_NET *52 2.22256e-16

*CONN
*I *45:g B *C 0.3875 0.5875 
*I *46:d B *C 0.6850 0.5875 
*I *31:g B *C 0.3875 1.0075 
*I *1:d B *C 0.7350 0.9600 
*N *52:1 *C 0.4500 0.7650 
*N *52:2 *C 0.3875 0.7650 
*N *52:6 *C 0.6850 0.7750 

*CAP
0 *1:d 3.06707e-17
1 *31:g 3.58257e-17
2 *46:d 3.91671e-17
3 *45:g 2.47586e-17
4 *52:6 3.11043e-17
5 *52:2 3.00117e-17
6 *52:1 3.07179e-17

*RES
0 *52:1 *52:2 46.294373  // $poly_conn
1 *52:2 *45:g 21.845535  // $poly_conn
2 *52:2 *31:g 29.537844  // $poly_conn
3 *46:d *52:6 75.113022  // $metal1_conn
4 *52:6 *52:1 0.122552  // $metal1_conn
5 *52:6 *1:d 62.119656  // $metal1_conn

*END

