*SPEF "IEEE 1481-1999"
*DESIGN  "DFFRHQX4"
*DATE "Mon Sep 27 09:30:45 2010"
*VENDOR "Cadence Design Systems"
*PROGRAM "Assura RCX"
*VERSION "3.2 Red Hat Linux release 7.2 (Enigma) - (09/09/2009-10:39)"
*DESIGN_FLOW "Physical Verification"
*DIVIDER /
*DELIMITER :
*BUS_DELIMITER []
*T_UNIT 1 PS
*C_UNIT 1e15 FF
*R_UNIT 1 OHM
*L_UNIT 1 MH
// DeviceFingerDelim "@"
// MATCHED
// caps2d version: 10

*NAME_MAP
*1 mn45
*2 mn46
*3 mn46\@1
*4 mn45\@1
*5 mn50
*6 mn51
*7 RN
*8 mp55
*9 mp55\@1
*10 mp55\@2
*11 mp55\@3
*12 mp45
*13 mp46
*14 mp46\@1
*15 mp45\@1
*16 mp50
*17 mp51
*18 mout
*19 mp40
*20 n20
*21 mp30
*22 CKbb
*23 mp35
*24 CKb
*25 mp36
*26 n41
*27 mp37
*28 n22
*29 mp26
*30 n35
*31 mp25
*32 n35\@1
*33 mp21
*34 n40
*35 mp20
*36 n27
*37 n25
*38 CK
*39 n21
*40 VSS
*41 D
*42 mn40
*43 mn30
*44 mn35
*45 mn36
*46 Q
*47 mn37
*48 VDD
*49 mn26
*50 mn25
*51 mn21
*52 n26
*53 mn20
*54 qbint
*55 n30
*56 mn55
*57 mn55\@1
*58 mn55\@2
*59 mn55\@3

*GROUND_NETS VSS

*PORTS
*48 I
*40 I
*38 I
*41 I
*7 I
*46 O

*D_NET *48 7.87631e-16

*CONN
*P *48 I *C 0.1000 1.7100 
*I *21:s B *C 3.6475 1.1000 
*I *23:s B *C 3.6475 1.1000 
*I *25:s B *C 4.2600 1.2875 
*I *31:s B *C 5.2150 1.1575 
*I *33:s B *C 5.2150 1.1575 
*I *35:s B *C 0.5100 1.1100 
*I *8:s B *C 0.5100 1.1100 
*I *9:s B *C 0.9800 1.1100 
*I *10:s B *C 0.9800 1.1100 
*I *11:s B *C 1.4300 1.5700 
*I *12:s B *C 1.4300 1.5700 
*I *13:s B *C 1.8300 1.5700 
*I *14:s B *C 1.8300 1.5700 
*I *15:s B *C 2.3200 1.2600 
*I *16:s B *C 2.3200 1.2600 
*N *48:2 *C 4.7000 1.7100 
*N *48:3 *C 4.7000 1.7100 
*N *48:4 *C 4.2250 1.7100 
*N *48:5 *C 3.5100 1.7100 
*N *48:6 *C 2.9000 1.7100 

*CAP
0 *15:s 1.80705e-16
1 *13:s 1.34739e-17
2 *31:s 3.9664e-17
3 *25:s 2.44197e-17
4 *21:s 2.56317e-17
5 *48:5 2.84004e-17
6 *48:4 2.49803e-17
7 *48:2 4.389e-16
8 *48 1.14554e-17

*RES
0 *15:s *48 0.147565  // $metal1_conn
1 *48:2 *48:3 8.333333  // $metal1_conn
2 *48:2 *48:6 8.333333  // $metal1_conn
3 *48:2 *15:s 7.5  // $metal1_conn
4 *31:s *48:3 62.59164  // $metal1_conn
5 *48:4 *25:s 62.045841  // $metal1_conn
6 *48:5 *21:s 62.045841  // $metal1_conn
7 *15:s *13:s 62.074944  // $metal1_conn
8 *48:3 *48:4 0.237178  // $metal1_conn
9 *48:4 *48:5 0.356447  // $metal1_conn
10 *48:5 *48:6 0.304912  // $metal1_conn
11 *48:6 *15:s 0.29081  // $metal1_conn

*END

*D_NET *40 0

*CONN
*P *40 I *C 0.1000 0.0000 
*I *43:s B *C 3.6150 0.4525 
*I *44:s B *C 3.6150 0.4525 
*I *50:s B *C 5.2150 0.4225 
*I *51:s B *C 5.2150 0.4225 
*I *53:s B *C 0.5150 0.4800 
*I *56:s B *C 0.5150 0.4800 
*I *57:s B *C 0.8950 0.4800 
*I *58:s B *C 0.8950 0.4800 
*I *59:s B *C 1.4250 0.4525 
*I *1:s B *C 1.4250 0.4525 
*I *4:s B *C 2.3100 0.4525 
*I *5:s B *C 2.3100 0.4525 
*N *40:2 *C 4.7000 0.0000 
*N *40:3 *C 4.7000 0.0000 
*N *40:4 *C 3.4900 0.0000 
*N *40:5 *C 2.9000 0.0000 
*N *40:6 *C 2.1300 0.0000 


*RES
0 *59:s *40 0.190212  // $metal1_conn
1 *40:2 *40:3 6.888889  // $metal1_conn
2 *40:2 *40:5 6.888889  // $metal1_conn
3 *40:2 *59:s 6.2  // $metal1_conn
4 *50:s *40:3 75.525436  // $metal1_conn
5 *40:4 *43:s 75.26371  // $metal1_conn
6 *40:6 *4:s 75.224274  // $metal1_conn
7 *40:3 *40:4 0.606902  // $metal1_conn
8 *40:4 *40:5 0.295827  // $metal1_conn
9 *40:5 *40:6 0.386139  // $metal1_conn
10 *40:6 *59:s 0.400995  // $metal1_conn

*END

*D_NET *38 2.31188e-16

*CONN
*P *38 I *C 0.3000 0.8550 
*I *53:g B *C 0.3775 0.5375 
*I *35:g B *C 0.3225 1.2975 
*N *38:2 *C 0.3500 0.7200 

*CAP
0 *35:g 5.2719e-17
1 *53:g 2.95378e-17
2 *38:2 1.03233e-16
3 *38 4.56984e-17

*RES
0 *53:g *38:2 19.691952  // $poly_conn
1 *38:2 *35:g 111.999641  // $poly_conn
2 *38 *38:2 45.025776  // $metal1_conn

*END

*D_NET *41 2.92672e-16

*CONN
*P *41 I *C 5.1000 0.6650 
*I *50:g B *C 5.0625 0.4525 
*I *31:g B *C 5.0625 1.1100 
*N *41:2 *C 5.0900 0.6900 
*N *41:4 *C 5.0900 0.6900 

*CAP
0 *31:g 9.82035e-17
1 *50:g 3.34834e-17
2 *41:2 4.02431e-17
3 *41 1.20742e-16

*RES
0 *31:g *41:2 59.435539  // $poly_conn
1 *41:2 *50:g 26.102209  // $poly_conn
2 *41 *41:4 0.006018  // $metal1_conn
3 *41:2 *41:4 45  // $metal1_conn

*END

*D_NET *7 1.02417e-15

*CONN
*P *7 I *C 1.5000 0.4750 
*I *44:g B *C 3.8525 0.4525 
*I *1:g B *C 1.5225 0.4525 
*I *4:g B *C 2.0275 0.4525 
*I *23:g B *C 3.7475 1.1000 
*I *12:g B *C 1.4675 1.0700 
*I *15:g B *C 2.2175 1.2600 
*N *7:8 *C 3.7100 0.7900 

*CAP
0 *23:g 4.03684e-17
1 *4:g 2.9845e-17
2 *1:g 3.80496e-17
3 *44:g 3.39138e-17
4 *7:8 2.72696e-16
5 *7 6.09298e-16

*RES
0 *7:8 *23:g 30.257782  // $poly_conn
1 *44:g *7:8 86.882225  // $poly_conn
2 *7 *4:g 18.425531  // $poly_conn
3 *1:g *7 19.691952  // $poly_conn
4 *7:8 *7 46.704353  // $metal1_conn

*END

*D_NET *46 2.01715e-16

*CONN
*P *46 O *C 0.7000 0.8550 
*I *56:d B *C 0.6900 0.4800 
*I *57:d B *C 0.6900 0.4800 
*I *58:d B *C 1.1125 0.4800 
*I *59:d B *C 1.1125 0.4800 
*I *8:d B *C 0.6600 1.1100 
*I *9:d B *C 0.6600 1.1100 
*I *10:d B *C 1.1500 1.1100 
*I *11:d B *C 1.1500 1.1100 

*CAP
0 *46 2.01715e-16


*END

*D_NET *39 0

*CONN
*I *49:s B *C 4.8650 0.4525 
*I *50:d B *C 4.8650 0.4525 


*RES
0 *50:d *49:s 0.001  // $mwires

*END

*D_NET *37 6.90955e-19

*CONN
*I *45:d B *C 4.3125 0.4525 
*I *47:s B *C 4.3125 0.4525 

*CAP
0 *45:d 6.90955e-19

*RES
0 *47:s *45:d 0.001  // $mwires

*END

*D_NET *36 0

*CONN
*I *44:d B *C 4.0075 0.4525 
*I *45:s B *C 4.0075 0.4525 


*RES
0 *45:s *44:d 0.001  // $mwires

*END

*D_NET *34 6.0788e-18

*CONN
*I *5:d B *C 2.6000 0.4525 
*I *6:s B *C 2.6000 0.4525 

*CAP
0 *5:d 6.0788e-18

*RES
0 *6:s *5:d 0.001  // $mwires

*END

*D_NET *32 2.73804e-18

*CONN
*I *3:s B *C 1.9475 0.4525 
*I *4:d B *C 1.9475 0.4525 

*CAP
0 *3:s 2.73804e-18

*RES
0 *4:d *3:s 0.001  // $mwires

*END

*D_NET *30 1.38261e-18

*CONN
*I *1:d B *C 1.5925 0.4525 
*I *2:s B *C 1.5925 0.4525 

*CAP
0 *1:d 1.38261e-18

*RES
0 *2:s *1:d 0.001  // $mwires

*END

*D_NET *28 2.16536e-18

*CONN
*I *29:s B *C 5.0100 1.1100 
*I *31:d B *C 5.0100 1.1100 

*CAP
0 *29:s 2.16536e-18

*RES
0 *31:d *29:s 0.001  // $mwires

*END

*D_NET *26 8.58766e-18

*CONN
*I *16:d B *C 2.5600 1.2600 
*I *17:s B *C 2.5600 1.2600 

*CAP
0 *16:d 8.58766e-18

*RES
0 *17:s *16:d 0.001  // $mwires

*END

*D_NET *24 1.32134e-15

*CONN
*I *49:g B *C 4.6675 0.4525 
*I *51:g B *C 5.2675 0.4225 
*I *53:d B *C 0.2850 0.5375 
*I *6:g B *C 2.7775 0.4525 
*I *19:g B *C 2.9025 1.1000 
*I *27:g B *C 4.6675 1.1100 
*I *33:g B *C 5.2675 1.1575 
*I *35:d B *C 0.2300 1.2975 
*N *24:3 *C 2.9400 1.3550 
*N *24:5 *C 4.6675 1.4675 
*N *24:6 *C 4.4200 1.4100 
*N *24:10 *C 0.1400 1.1850 

*CAP
0 *35:d 2.351e-17
1 *33:g 7.6803e-17
2 *27:g 4.73093e-17
3 *19:g 7.14382e-17
4 *6:g 5.79362e-17
5 *53:d 7.46048e-17
6 *51:g 5.69561e-17
7 *49:g 4.93379e-17
8 *24:10 2.75069e-16
9 *24:5 3.93008e-17
10 *24:3 3.81006e-16
11 *24:6 1.68065e-16

*RES
0 *6:g *19:g 117.414543  // $poly_conn
1 *19:g *24:3 61.15522  // $poly_conn
2 *33:g *24:5 198.703201  // $poly_conn
3 *24:5 *24:6 101.825096  // $poly_conn
4 *33:g *51:g 142.307693  // $poly_conn
5 *24:5 *27:g 47.22356  // $poly_conn
6 *27:g *49:g 102.564102  // $poly_conn
7 *24:6 *24:3 1.102505  // $metal1_conn
8 *24:3 *24:10 2.250937  // $metal1_conn
9 *24:10 *35:d 62.020878  // $metal1_conn
10 *24:10 *53:d 75.580124  // $metal1_conn

*END

*D_NET *22 1.1356e-15

*CONN
*I *42:g B *C 2.9825 0.4525 
*I *47:g B *C 4.4625 0.4525 
*I *51:d B *C 5.4025 0.4225 
*I *29:g B *C 4.9575 1.1100 
*I *33:d B *C 5.3600 1.1575 
*I *17:g B *C 2.6975 1.2600 
*N *22:2 *C 2.7350 0.8450 
*N *22:4 *C 3.0100 0.7100 
*N *22:6 *C 4.4900 0.7850 
*N *22:8 *C 4.9300 0.8300 
*N *22:10 *C 5.4125 1.0150 
*N *22:11 *C 4.9300 1.0150 
*N *22:12 *C 4.6100 1.2400 
*N *22:14 *C 3.0100 0.8450 

*CAP
0 *17:g 5.32607e-17
1 *33:d 2.21829e-17
2 *29:g 6.95734e-17
3 *51:d 4.18115e-17
4 *47:g 3.79444e-17
5 *42:g 4.1356e-17
6 *22:14 1.90958e-16
7 *22:12 2.23404e-16
8 *22:11 6.4247e-17
9 *22:10 7.01846e-17
10 *22:2 8.42637e-17
11 *22:4 5.59192e-17
12 *22:6 1.09647e-16
13 *22:8 7.08475e-17

*RES
0 *17:g *22:2 102.180862  // $poly_conn
1 *42:g *22:4 76.230415  // $poly_conn
2 *47:g *22:6 95.461182  // $poly_conn
3 *29:g *22:8 68.538101  // $poly_conn
4 *51:d *22:10 75.404289  // $metal1_conn
5 *22:10 *22:11 0.308049  // $metal1_conn
6 *22:11 *22:12 0.400877  // $metal1_conn
7 *22:12 *22:6 0.371335  // $metal1_conn
8 *22:10 *33:d 62.041988  // $metal1_conn
9 *22:11 *22:8 0.148915  // $metal1_conn
10 *22:12 *22:14 1.67785  // $metal1_conn
11 *22:14 *22:4 0.10049  // $metal1_conn
12 *22:14 *22:2 0.177357  // $metal1_conn

*END

*D_NET *20 4.22788e-16

*CONN
*I *43:g B *C 3.3775 0.4525 
*I *47:d B *C 4.5650 0.4525 
*I *49:d B *C 4.5650 0.4525 
*I *21:g B *C 3.3775 1.1000 
*I *27:d B *C 4.8125 1.1100 
*I *29:d B *C 4.8125 1.1100 
*N *20:1 *C 3.5200 0.6550 
*N *20:2 *C 3.3775 0.6525 
*N *20:6 *C 4.5650 0.6000 

*CAP
0 *27:d 9.65916e-17
1 *21:g 4.9759e-17
2 *47:d 1.32588e-17
3 *43:g 2.26735e-17
4 *20:6 9.40283e-17
5 *20:2 2.0902e-17
6 *20:1 1.25574e-16

*RES
0 *20:1 *20:2 66.760536  // $poly_conn
1 *20:2 *43:g 23.465221  // $poly_conn
2 *20:2 *21:g 73.465225  // $poly_conn
3 *27:d *20:6 62.494415  // $metal1_conn
4 *20:6 *20:1 0.729085  // $metal1_conn
5 *20:6 *47:d 75.056358  // $metal1_conn

*END

*D_NET *18 4.63313e-16

*CONN
*I *42:s B *C 3.1800 0.4525 
*I *43:d B *C 3.1800 0.4525 
*I *45:g B *C 4.1625 0.4525 
*I *19:s B *C 3.1400 1.1000 
*I *21:d B *C 3.1400 1.1000 
*I *25:g B *C 4.1625 1.1000 
*N *18:2 *C 4.2000 0.8350 
*N *18:5 *C 3.2000 1.0050 

*CAP
0 *25:g 3.38191e-17
1 *19:s 1.69574e-16
2 *45:g 3.59406e-17
3 *42:s 7.86808e-17
4 *18:2 1.45299e-16

*RES
0 *25:g *18:2 18.719322  // $poly_conn
1 *18:2 *45:g 62.309063  // $poly_conn
2 *18:2 *18:5 45.832897  // $metal1_conn
3 *18:5 *42:s 75.38221  // $metal1_conn
4 *19:s *18:5 62  // $metal1_conn

*END

*D_NET *55 5.56524e-16

*CONN
*I *42:d B *C 2.8800 0.4525 
*I *2:g B *C 1.6625 0.4525 
*I *3:g B *C 1.8675 0.4525 
*I *6:d B *C 2.8800 0.4525 
*I *19:d B *C 2.8500 1.1000 
*I *13:g B *C 1.6725 1.0700 
*I *14:g B *C 1.8675 1.0700 
*I *17:d B *C 2.8500 1.1000 
*N *55:8 *C 2.5450 0.6850 

*CAP
0 *14:g 2.07645e-16
1 *19:d 7.87604e-17
2 *3:g 3.22367e-17
3 *2:g 3.70504e-17
4 *42:d 6.3337e-17
5 *55:8 1.37495e-16

*RES
0 *14:g *3:g 50.770603  // $poly_conn
1 *14:g *2:g 50.04372  // $poly_conn
2 *55:8 *14:g 45.602638  // $metal1_conn
3 *55:8 *19:d 62.541996  // $metal1_conn
4 *42:d *55:8 75.384857  // $metal1_conn

*END

*D_NET *54 7.57658e-16

*CONN
*I *56:g B *C 0.5875 0.4800 
*I *57:g B *C 0.7925 0.4800 
*I *58:g B *C 0.9975 0.4800 
*I *59:g B *C 1.2275 0.4800 
*I *2:d B *C 1.7650 0.4525 
*I *3:d B *C 1.7650 0.4525 
*I *5:g B *C 2.4225 0.4525 
*I *8:g B *C 0.5575 1.1100 
*I *9:g B *C 0.7625 1.1100 
*I *10:g B *C 1.0275 1.1100 
*I *11:g B *C 1.2725 1.1100 
*I *12:d B *C 1.5700 1.0700 
*I *13:d B *C 1.5700 1.0700 
*I *14:d B *C 2.1450 1.2600 
*I *15:d B *C 2.1450 1.2600 
*I *16:g B *C 2.4225 1.2600 
*N *54:17 *C 2.3850 0.9750 

*CAP
0 *16:g 3.84549e-17
1 *14:d 1.65123e-16
2 *11:g 3.22436e-16
3 *5:g 4.4159e-17
4 *2:d 8.05481e-17
5 *54:17 1.06937e-16

*RES
0 *16:g *54:17 23.847527  // $poly_conn
1 *54:17 *5:g 98.206505  // $poly_conn
2 *54:17 *14:d 45.300995  // $metal1_conn
3 *14:d *11:g 45.309685  // $metal1_conn
4 *14:d *2:d 75.419205  // $metal1_conn

*END

*D_NET *52 1.51439e-16

*CONN
*I *23:d B *C 3.9550 1.1000 
*I *25:d B *C 3.9550 1.1000 
*I *27:s B *C 4.5950 1.1100 

*CAP
0 *27:s 6.54107e-17
1 *23:d 8.60282e-17

*RES
0 *27:s *23:d 124.228966  // $metal1_conn

*END

