*SPEF "IEEE 1481-1999"
*DESIGN  "DFFSX4"
*DATE "Mon Sep 27 09:38:19 2010"
*VENDOR "Cadence Design Systems"
*PROGRAM "Assura RCX"
*VERSION "3.2 Red Hat Linux release 7.2 (Enigma) - (09/09/2009-10:39)"
*DESIGN_FLOW "Physical Verification"
*DIVIDER /
*DELIMITER :
*BUS_DELIMITER []
*T_UNIT 1 PS
*C_UNIT 1e15 FF
*R_UNIT 1 OHM
*L_UNIT 1 MH
// DeviceFingerDelim "@"
// MATCHED
// caps2d version: 10

*NAME_MAP
*1 mn55
*2 mn57
*3 mn57\@1
*4 mn57\@2
*5 mp55
*6 mn57\@3
*7 mp55\@1
*8 mn56
*9 mp57
*10 mn51
*11 mp57\@1
*12 mn50
*13 mp57\@2
*14 mn45
*15 mp57\@3
*16 mp56
*17 mp51
*18 mp50
*19 VSS
*20 SN
*21 mp45
*22 mp45\@1
*23 mp55\@2
*24 mp55\@3
*25 mp20
*26 mp25
*27 mp26
*28 mp36
*29 mp35
*30 mp31
*31 n20
*32 mp30
*33 n35
*34 mp21
*35 mout
*36 mp40
*37 CKbb
*38 mp52
*39 CKb
*40 qbint
*41 D
*42 n22
*43 n31
*44 n21
*45 n30
*46 n25
*47 n41
*48 n40
*49 Q
*50 net331
*51 n42
*52 CK
*53 VDD
*54 mn45\@1
*55 mn55\@1
*56 mn55\@2
*57 mn55\@3
*58 mn20
*59 mn25
*60 mn26
*61 mn35
*62 QN
*63 mn36
*64 mn31
*65 mn30
*66 mn21
*67 mn40
*68 mn52

*GROUND_NETS VSS

*PORTS
*53 I
*19 I
*52 I
*41 I
*20 I
*49 O
*62 O

*D_NET *53 9.99764e-16

*CONN
*P *53 I *C 0.1000 1.7100 
*I *5:s B *C 4.6750 1.1350 
*I *7:s B *C 5.0850 1.1350 
*I *9:s B *C 5.0850 1.1350 
*I *11:s B *C 5.4950 1.1350 
*I *13:s B *C 5.4950 1.1350 
*I *15:s B *C 5.9050 1.1350 
*I *16:s B *C 5.9050 1.1350 
*I *17:s B *C 3.3650 1.2225 
*I *18:s B *C 3.8550 1.1750 
*I *21:s B *C 3.8550 1.1750 
*I *22:s B *C 4.2750 1.1350 
*I *23:s B *C 4.2750 1.1350 
*I *24:s B *C 4.6750 1.1350 
*I *25:s B *C 0.4650 1.1075 
*I *26:s B *C 0.4650 1.1075 
*I *29:s B *C 1.4500 1.1075 
*I *30:s B *C 1.4500 1.1075 
*I *32:s B *C 1.9700 1.1075 
*I *34:s B *C 1.9700 1.1075 
*N *53:3 *C 5.3000 1.7100 
*N *53:9 *C 3.2000 1.7100 
*N *53:10 *C 1.8850 1.7100 
*N *53:11 *C 1.3650 1.7100 
*N *53:12 *C 1.1000 1.7100 
*N *53:13 *C 0.5350 1.7100 

*CAP
0 *32:s 2.01202e-17
1 *29:s 1.53691e-17
2 *25:s 4.59649e-17
3 *17:s 1.67647e-17
4 *15:s 4.34962e-16
5 *53:13 1.56466e-17
6 *53:11 1.43771e-17
7 *53:10 3.78205e-17
8 *53:3 3.92164e-16
9 *53 6.57491e-18

*RES
0 *53:13 *53 0.217662  // $metal1_conn
1 *53:3 *15:s 6.818182  // $metal1_conn
2 *53:3 *53:9 7.5  // $metal1_conn
3 *53:3 *53:12 6.818182  // $metal1_conn
4 *53:9 *17:s 62.103561  // $metal1_conn
5 *53:10 *32:s 62.045811  // $metal1_conn
6 *53:11 *29:s 62.074516  // $metal1_conn
7 *53:13 *25:s 62.351055  // $metal1_conn
8 *15:s *53:9 0.253625  // $metal1_conn
9 *53:9 *53:10 0.658194  // $metal1_conn
10 *53:10 *53:11 0.259386  // $metal1_conn
11 *53:11 *53:12 0.132675  // $metal1_conn
12 *53:12 *53:13 0.283095  // $metal1_conn

*END

*D_NET *19 0

*CONN
*P *19 I *C 0.1000 0.0000 
*I *1:s B *C 5.1400 0.5300 
*I *2:s B *C 5.1400 0.5300 
*I *3:s B *C 5.6100 0.5300 
*I *4:s B *C 5.6100 0.5300 
*I *6:s B *C 6.0400 0.5300 
*I *8:s B *C 6.0400 0.5300 
*I *12:s B *C 3.6500 0.5575 
*I *14:s B *C 3.6500 0.5575 
*I *54:s B *C 4.1750 0.5300 
*I *55:s B *C 4.1750 0.5300 
*I *56:s B *C 4.6700 0.5300 
*I *57:s B *C 4.6700 0.5300 
*I *58:s B *C 0.5025 0.3025 
*I *59:s B *C 0.5025 0.3025 
*I *63:s B *C 1.4250 0.1400 
*I *65:s B *C 2.2575 0.5775 
*I *66:s B *C 2.2575 0.5775 
*N *19:3 *C 5.3000 0.0000 
*N *19:9 *C 3.2000 0.0000 
*N *19:10 *C 2.1300 0.0000 
*N *19:11 *C 1.4000 0.0000 
*N *19:12 *C 1.1000 0.0000 
*N *19:13 *C 0.4700 0.0000 


*RES
0 *19:13 *19 0.185071  // $metal1_conn
1 *19:3 *6:s 5.636364  // $metal1_conn
2 *19:3 *19:9 6.2  // $metal1_conn
3 *19:3 *19:12 5.636364  // $metal1_conn
4 *19:10 *65:s 75.120674  // $metal1_conn
5 *19:11 *63:s 75.045807  // $metal1_conn
6 *19:13 *58:s 75.177063  // $metal1_conn
7 *6:s *19:9 0.210392  // $metal1_conn
8 *19:9 *19:10 0.536301  // $metal1_conn
9 *19:10 *19:11 0.36468  // $metal1_conn
10 *19:11 *19:12 0.149274  // $metal1_conn
11 *19:12 *19:13 0.315685  // $metal1_conn

*END

*D_NET *52 2.05166e-16

*CONN
*P *52 I *C 0.3000 0.8550 
*I *58:g B *C 0.3675 0.3025 
*I *25:g B *C 0.2925 1.1075 
*N *52:2 *C 0.3300 0.9000 
*N *52:4 *C 0.3150 0.8550 
*N *52:5 *C 0.3150 0.9000 
*N *52:6 *C 0.3300 0.9000 

*CAP
0 *25:g 1.97166e-17
1 *58:g 4.20723e-17
2 *52:5 4.78763e-17
3 *52:4 6.02065e-17
4 *52:2 3.52945e-17

*RES
0 *58:g *52:2 127.399895  // $poly_conn
1 *52:2 *25:g 18.425531  // $poly_conn
2 *52 *52:4 0.001952  // $metal1_conn
3 *52:5 *52:6 0.002019  // $metal1_conn
4 *52:4 *52:5 0.024686  // $metal1_conn
5 *52:2 *52:6 45  // $metal1_conn

*END

*D_NET *41 2.61092e-16

*CONN
*P *41 I *C 0.5000 0.8550 
*I *59:g B *C 0.6375 0.3025 
*I *26:g B *C 0.6375 1.1075 
*N *41:2 *C 0.6100 0.8350 

*CAP
0 *26:g 2.76217e-17
1 *59:g 6.61067e-17
2 *41:2 1.08855e-16
3 *41 5.85087e-17

*RES
0 *26:g *41:2 33.794518  // $poly_conn
1 *41:2 *59:g 109.435547  // $poly_conn
2 *41:2 *41 45.041176  // $metal1_conn

*END

*D_NET *20 6.49122e-16

*CONN
*P *20 I *C 3.1000 0.8550 
*I *12:g B *C 3.5175 0.5425 
*I *65:g B *C 1.8425 0.5775 
*I *18:g B *C 3.6175 1.2225 
*I *32:g B *C 1.7525 1.1075 
*N *20:3 *C 1.8800 0.4050 
*N *20:5 *C 3.5450 0.9100 

*CAP
0 *32:g 6.02441e-17
1 *18:g 4.22169e-17
2 *65:g 3.6091e-17
3 *12:g 6.60363e-17
4 *20:3 1.62553e-16
5 *20:5 1.25432e-16
6 *20 1.56548e-16

*RES
0 *32:g *65:g 100.992477  // $poly_conn
1 *65:g *20:3 61.15522  // $poly_conn
2 *18:g *20:5 46.138638  // $poly_conn
3 *20:5 *12:g 63.965935  // $poly_conn
4 *20:5 *20 45.346928  // $metal1_conn
5 *20 *20:3 1.252987  // $metal1_conn

*END

*D_NET *49 2.79028e-16

*CONN
*P *49 O *C 4.5000 0.8550 
*I *1:d B *C 4.8200 0.5300 
*I *55:d B *C 4.3500 0.5300 
*I *56:d B *C 4.3500 0.5300 
*I *57:d B *C 4.8200 0.5300 
*I *5:d B *C 4.8800 1.1350 
*I *7:d B *C 4.8800 1.1350 
*I *23:d B *C 4.4700 1.1350 
*I *24:d B *C 4.4700 1.1350 

*CAP
0 *5:d 1.52258e-16
1 *1:d 1.01683e-16
2 *49 2.50873e-17

*RES
0 *5:d *49 0.071894  // $metal1_conn
1 *49 *1:d 0.169722  // $metal1_conn

*END

*D_NET *62 2.50791e-16

*CONN
*P *62 O *C 5.3000 0.6650 
*I *2:d B *C 5.2900 0.5300 
*I *3:d B *C 5.2900 0.5300 
*I *4:d B *C 5.7775 0.5300 
*I *6:d B *C 5.7775 0.5300 
*I *9:d B *C 5.2900 1.1350 
*I *11:d B *C 5.2900 1.1350 
*I *13:d B *C 5.7000 1.1350 
*I *15:d B *C 5.7000 1.1350 

*CAP
0 *13:d 1.55634e-16
1 *2:d 8.24849e-17
2 *62 1.26721e-17

*RES
0 *2:d *62 0.042979  // $metal1_conn
1 *62 *13:d 0.187844  // $metal1_conn

*END

*D_NET *51 0

*CONN
*I *10:s B *C 3.4650 0.5425 
*I *12:d B *C 3.4650 0.5425 


*RES
0 *12:d *10:s 0.001  // $mwires

*END

*D_NET *48 1.91457e-18

*CONN
*I *10:d B *C 3.2225 0.5425 
*I *68:s B *C 3.2225 0.5425 

*CAP
0 *10:d 1.91457e-18

*RES
0 *68:s *10:d 0.001  // $mwires

*END

*D_NET *46 3.71813e-18

*CONN
*I *64:s B *C 1.7375 0.5775 
*I *65:d B *C 1.7375 0.5775 

*CAP
0 *64:s 3.71813e-18

*RES
0 *65:d *64:s 0.001  // $mwires

*END

*D_NET *45 2.80703e-18

*CONN
*I *61:s B *C 1.1725 0.3025 
*I *63:d B *C 1.1725 0.3025 

*CAP
0 *61:s 2.80703e-18

*RES
0 *63:d *61:s 0.001  // $mwires

*END

*D_NET *44 0

*CONN
*I *59:d B *C 0.6975 0.3025 
*I *60:s B *C 0.6975 0.3025 


*RES
0 *60:s *59:d 0.001  // $mwires

*END

*D_NET *43 0

*CONN
*I *28:s B *C 1.1400 1.1075 
*I *29:d B *C 1.1400 1.1075 


*RES
0 *29:d *28:s 0.001  // $mwires

*END

*D_NET *42 2.57839e-18

*CONN
*I *26:d B *C 0.7400 1.1075 
*I *27:s B *C 0.7400 1.1075 

*CAP
0 *26:d 2.57839e-18

*RES
0 *27:s *26:d 0.001  // $mwires

*END

*D_NET *40 1.09812e-15

*CONN
*I *1:g B *C 4.9225 0.5300 
*I *8:g B *C 6.1825 0.5300 
*I *10:g B *C 3.4125 0.5425 
*I *14:d B *C 3.8250 0.5575 
*I *54:d B *C 3.8250 0.5575 
*I *55:g B *C 4.2475 0.5300 
*I *56:g B *C 4.4525 0.5300 
*I *57:g B *C 4.7175 0.5300 
*I *5:g B *C 4.7775 1.1350 
*I *7:g B *C 4.9825 1.1350 
*I *16:g B *C 6.0075 1.1350 
*I *17:g B *C 3.4125 1.2225 
*I *21:d B *C 4.0300 1.1750 
*I *22:d B *C 4.0300 1.1750 
*I *23:g B *C 4.3675 1.1350 
*I *24:g B *C 4.5725 1.1350 
*N *40:2 *C 3.3750 0.7200 
*N *40:19 *C 6.0450 0.7800 
*N *40:21 *C 4.1900 0.7375 
*N *40:22 *C 4.0300 0.7375 
*N *40:23 *C 3.8250 0.7200 

*CAP
0 *21:d 4.71272e-17
1 *17:g 5.34458e-17
2 *16:g 4.07172e-17
3 *7:g 2.61684e-16
4 *14:d 1.95345e-17
5 *10:g 3.7347e-17
6 *8:g 2.39813e-17
7 *40:23 3.96277e-17
8 *40:22 3.68116e-17
9 *40:21 1.79068e-16
10 *40:2 1.03116e-16
11 *40:19 2.55661e-16

*RES
0 *40:19 *16:g 31.539833  // $poly_conn
1 *17:g *40:2 91.796249  // $poly_conn
2 *8:g *40:19 39.68005  // $poly_conn
3 *40:2 *10:g 17.437269  // $poly_conn
4 *40:19 *40:21 46.823029  // $metal1_conn
5 *40:23 *40:2 45.338772  // $metal1_conn
6 *40:23 *14:d 75.066032  // $metal1_conn
7 *40:22 *21:d 31.282066  // $metal1_conn
8 *40:21 *7:g 45.093998  // $metal1_conn
9 *40:21 *40:22 0.096524  // $metal1_conn
10 *40:22 *40:23 0.162235  // $metal1_conn

*END

*D_NET *39 9.8657e-16

*CONN
*I *58:d B *C 0.2750 0.3025 
*I *60:g B *C 0.7575 0.3025 
*I *66:g B *C 2.3475 0.5775 
*I *68:g B *C 3.0325 0.5425 
*I *25:d B *C 0.1575 1.1075 
*I *28:g B *C 1.0475 1.1075 
*I *34:g B *C 2.0175 1.1075 
*I *36:g B *C 2.5425 1.2125 
*N *39:2 *C 0.7850 0.6550 
*N *39:4 *C 1.0200 1.4350 
*N *39:7 *C 2.3475 0.9025 
*N *39:10 *C 2.0450 1.3800 
*N *39:11 *C 0.2650 0.4800 

*CAP
0 *36:g 3.70606e-17
1 *34:g 3.82356e-17
2 *28:g 4.81185e-17
3 *25:d 5.36494e-17
4 *68:g 7.14769e-17
5 *66:g 6.20493e-17
6 *60:g 4.74533e-17
7 *58:d 1.78656e-17
8 *39:11 9.73786e-17
9 *39:7 4.17838e-17
10 *39:2 1.95616e-16
11 *39:4 1.59685e-16
12 *39:10 1.16198e-16

*RES
0 *60:g *39:2 105.988419  // $poly_conn
1 *28:g *39:4 92.897079  // $poly_conn
2 *68:g *66:g 276.633514  // $poly_conn
3 *66:g *39:7 60.235458  // $poly_conn
4 *39:7 *34:g 102.166588  // $poly_conn
5 *39:7 *36:g 94.474281  // $poly_conn
6 *34:g *39:10 78.794518  // $poly_conn
7 *39:10 *39:4 0.701295  // $metal1_conn
8 *39:4 *39:2 0.664764  // $metal1_conn
9 *39:2 *39:11 0.49706  // $metal1_conn
10 *39:11 *25:d 62.599976  // $metal1_conn
11 *39:11 *58:d 75.092239  // $metal1_conn

*END

*D_NET *37 6.59706e-16

*CONN
*I *61:g B *C 1.0775 0.3025 
*I *66:d B *C 2.4400 0.5775 
*I *67:g B *C 2.8275 0.5425 
*I *27:g B *C 0.8425 1.1075 
*I *34:d B *C 2.1600 1.0600 
*I *38:g B *C 2.7525 1.2125 
*N *37:2 *C 1.1050 0.4850 
*N *37:5 *C 2.7525 0.7775 
*N *37:6 *C 2.6100 0.7500 
*N *37:8 *C 2.4500 0.7800 
*N *37:9 *C 2.1500 0.7800 

*CAP
0 *38:g 4.69065e-17
1 *34:d 3.90768e-17
2 *27:g 7.17716e-17
3 *67:g 4.1654e-17
4 *66:d 2.15413e-17
5 *61:g 2.74381e-17
6 *37:9 1.05465e-16
7 *37:8 2.65243e-17
8 *37:5 2.89859e-17
9 *37:2 1.85077e-16
10 *37:6 6.52656e-17

*RES
0 *61:g *37:2 19.691952  // $poly_conn
1 *37:2 *27:g 171.966476  // $poly_conn
2 *67:g *37:5 53.831417  // $poly_conn
3 *37:5 *37:6 71.873276  // $poly_conn
4 *37:5 *38:g 79.274841  // $poly_conn
5 *37:6 *37:8 0.113095  // $metal1_conn
6 *37:8 *37:9 0.222201  // $metal1_conn
7 *37:9 *37:2 46.02359  // $metal1_conn
8 *37:8 *66:d 75.117119  // $metal1_conn
9 *37:9 *34:d 62.168976  // $metal1_conn

*END

*D_NET *35 6.16716e-16

*CONN
*I *63:g B *C 1.2675 0.3025 
*I *64:d B *C 1.5400 0.5775 
*I *67:s B *C 2.7350 0.5425 
*I *29:g B *C 1.2325 1.1075 
*I *30:d B *C 1.6250 1.1075 
*I *32:d B *C 1.6250 1.1075 
*I *36:s B *C 2.4700 1.2125 
*N *35:2 *C 1.2950 0.7250 
*N *35:6 *C 2.4400 1.2500 
*N *35:8 *C 1.6500 1.0850 
*N *35:9 *C 1.5300 0.7250 

*CAP
0 *36:s 1.31139e-16
1 *30:d 9.44967e-17
2 *29:g 5.65449e-17
3 *67:s 1.23237e-16
4 *64:d 2.48111e-17
5 *63:g 4.59287e-17
6 *35:9 5.35705e-17
7 *35:2 8.69878e-17

*RES
0 *63:g *35:2 78.068497  // $poly_conn
1 *35:2 *29:g 65.075478  // $poly_conn
2 *67:s *35:6 75.738068  // $metal1_conn
3 *35:6 *35:8 0.605855  // $metal1_conn
4 *35:8 *35:9 0.327879  // $metal1_conn
5 *35:9 *35:2 45.182549  // $metal1_conn
6 *35:9 *64:d 75.070518  // $metal1_conn
7 *36:s *35:6 62  // $metal1_conn
8 *30:d *35:8 62  // $metal1_conn

*END

*D_NET *33 5.80419e-16

*CONN
*I *14:g B *C 3.7225 0.5575 
*I *54:g B *C 3.9275 0.5575 
*I *67:d B *C 2.9300 0.5425 
*I *68:d B *C 2.9300 0.5425 
*I *21:g B *C 3.9275 1.1750 
*I *22:g B *C 4.1325 1.1750 
*I *36:d B *C 2.6475 1.2125 
*I *38:d B *C 2.6475 1.2125 
*N *33:6 *C 3.8700 0.9100 
*N *33:8 *C 2.9300 1.1000 

*CAP
0 *36:d 4.66371e-17
1 *22:g 1.6368e-16
2 *67:d 8.61667e-17
3 *33:8 1.55014e-16
4 *33:6 1.28922e-16

*RES
0 *22:g *33:6 45.778431  // $poly_conn
1 *33:6 *33:8 0.835571  // $metal1_conn
2 *33:8 *36:d 62.257263  // $metal1_conn
3 *33:8 *67:d 75.413742  // $metal1_conn

*END

*D_NET *31 3.50814e-16

*CONN
*I *60:d B *C 0.9175 0.3025 
*I *61:d B *C 0.9175 0.3025 
*I *64:g B *C 1.6325 0.5775 
*I *27:d B *C 0.9450 1.1075 
*I *28:d B *C 0.9450 1.1075 
*I *30:g B *C 1.4975 1.1075 
*N *31:2 *C 1.4600 0.8950 
*N *31:4 *C 0.9450 0.8950 

*CAP
0 *30:g 3.71931e-17
1 *27:d 2.80764e-17
2 *64:g 4.20501e-17
3 *60:d 7.16242e-17
4 *31:4 7.29121e-17
5 *31:2 9.89576e-17

*RES
0 *64:g *31:2 76.122063  // $poly_conn
1 *31:2 *30:g 17.437269  // $poly_conn
2 *31:2 *31:4 45.347176  // $metal1_conn
3 *31:4 *60:d 75.447563  // $metal1_conn
4 *31:4 *27:d 62.119892  // $metal1_conn

*END

*D_NET *50 3.83127e-16

*CONN
*I *2:g B *C 5.1875 0.5300 
*I *3:g B *C 5.3925 0.5300 
*I *4:g B *C 5.6575 0.5300 
*I *6:g B *C 5.8975 0.5300 
*I *8:d B *C 6.2750 0.5300 
*I *9:g B *C 5.1875 1.1350 
*I *11:g B *C 5.3925 1.1350 
*I *13:g B *C 5.5975 1.1350 
*I *15:g B *C 5.8025 1.1350 
*I *16:d B *C 6.1000 1.1350 
*N *50:17 *C 6.1100 0.9700 

*CAP
0 *16:d 2.90884e-17
1 *15:g 2.85608e-16
2 *8:d 3.06103e-17
3 *50:17 3.78205e-17

*RES
0 *50:17 *15:g 45.269016  // $metal1_conn
1 *50:17 *16:d 20.758904  // $metal1_conn
2 *8:d *50:17 75.376511  // $metal1_conn

*END

*D_NET *47 1.7681e-16

*CONN
*I *17:d B *C 3.5150 1.2225 
*I *18:d B *C 3.5150 1.2225 
*I *38:s B *C 2.8450 1.2125 

*CAP
0 *38:s 8.09641e-17
1 *17:d 9.58462e-17

*RES
0 *17:d *38:s 124.395813  // $metal1_conn

*END

