*SPEF "IEEE 1481-1999"
*DESIGN  "DFFSX2"
*DATE "Mon Sep 27 09:37:56 2010"
*VENDOR "Cadence Design Systems"
*PROGRAM "Assura RCX"
*VERSION "3.2 Red Hat Linux release 7.2 (Enigma) - (09/09/2009-10:39)"
*DESIGN_FLOW "Physical Verification"
*DIVIDER /
*DELIMITER :
*BUS_DELIMITER []
*T_UNIT 1 PS
*C_UNIT 1e15 FF
*R_UNIT 1 OHM
*L_UNIT 1 MH
// DeviceFingerDelim "@"
// MATCHED
// caps2d version: 10

*NAME_MAP
*1 mn35
*2 QN
*3 mn36
*4 mn21
*5 mn40
*6 mn52
*7 mp56
*8 mp20
*9 mp25
*10 mp26
*11 mp36
*12 mp35
*13 mp21
*14 mp40
*15 mp52
*16 CKbb
*17 mp31
*18 n41
*19 SN
*20 mp30
*21 n40
*22 mp50
*23 mout
*24 mp51
*25 qbint
*26 mp45
*27 CKb
*28 mp55
*29 n20
*30 mp55\@1
*31 n22
*32 mp57
*33 n31
*34 mp57\@1
*35 n21
*36 n30
*37 CK
*38 n25
*39 n42
*40 VSS
*41 D
*42 mn31
*43 mn30
*44 mn50
*45 mn51
*46 Q
*47 mn45
*48 VDD
*49 mn55
*50 mn55\@1
*51 mn57
*52 mn57\@1
*53 net331
*54 n35
*55 mn56
*56 mn20
*57 mn25
*58 mn26

*GROUND_NETS VSS

*PORTS
*48 I
*40 I
*37 I
*41 I
*19 I
*46 O
*2 O

*D_NET *48 7.89088e-16

*CONN
*P *48 I *C 0.1000 1.7100 
*I *17:s B *C 3.0550 1.0425 
*I *20:s B *C 3.4900 1.5700 
*I *22:s B *C 3.4900 1.5700 
*I *24:s B *C 3.8700 1.2825 
*I *26:s B *C 4.5100 1.0950 
*I *28:s B *C 4.5100 1.0950 
*I *30:s B *C 5.0100 1.0950 
*I *32:s B *C 5.0100 1.0950 
*I *34:s B *C 5.5675 1.0075 
*I *7:s B *C 5.5675 1.0075 
*I *8:s B *C 0.4400 1.2225 
*I *9:s B *C 0.4400 1.2225 
*I *12:s B *C 1.5000 1.2225 
*I *13:s B *C 1.5000 1.2225 
*N *48:2 *C 5.0000 1.7100 
*N *48:6 *C 3.8350 1.7100 
*N *48:7 *C 3.4650 1.7100 
*N *48:8 *C 3.0000 1.7100 
*N *48:9 *C 1.1600 1.7100 
*N *48:10 *C 1.0000 1.7100 
*N *48:11 *C 0.4400 1.7100 

*CAP
0 *12:s 1.78624e-17
1 *8:s 3.65707e-17
2 *34:s 1.79292e-16
3 *24:s 3.76525e-18
4 *20:s 1.74689e-17
5 *17:s 2.07627e-17
6 *48:11 8.35194e-18
7 *48:9 7.15139e-17
8 *48:7 1.57538e-17
9 *48:6 1.16597e-17
10 *48:2 3.96008e-16
11 *48 1.00789e-17

*RES
0 *48:11 *48 0.170029  // $metal1_conn
1 *48:2 *34:s 7.5  // $metal1_conn
2 *48:2 *48:8 7.5  // $metal1_conn
3 *48:2 *48:10 7.5  // $metal1_conn
4 *48:6 *24:s 62.074516  // $metal1_conn
5 *48:7 *20:s 62.074516  // $metal1_conn
6 *48:8 *17:s 62.071449  // $metal1_conn
7 *48:9 *12:s 62.074516  // $metal1_conn
8 *48:11 *8:s 62.27887  // $metal1_conn
9 *34:s *48:6 0.32301  // $metal1_conn
10 *48:6 *48:7 0.185126  // $metal1_conn
11 *48:7 *48:8 0.233262  // $metal1_conn
12 *48:8 *48:9 0.9233  // $metal1_conn
13 *48:9 *48:10 0.080028  // $metal1_conn
14 *48:10 *48:11 0.280588  // $metal1_conn

*END

*D_NET *40 0

*CONN
*P *40 I *C 0.1000 0.0000 
*I *43:s B *C 3.4800 0.4725 
*I *44:s B *C 3.4800 0.4725 
*I *47:s B *C 4.5300 0.5300 
*I *49:s B *C 4.5300 0.5300 
*I *50:s B *C 5.0950 0.5300 
*I *51:s B *C 5.0950 0.5300 
*I *52:s B *C 5.5675 0.5875 
*I *55:s B *C 5.5675 0.5875 
*I *56:s B *C 0.4875 0.4625 
*I *57:s B *C 0.4875 0.4625 
*I *3:s B *C 1.5200 0.4625 
*I *4:s B *C 1.5200 0.4625 
*N *40:2 *C 5.0000 0.0000 
*N *40:5 *C 3.4250 0.0000 
*N *40:6 *C 3.0000 0.0000 
*N *40:7 *C 1.4350 0.0000 
*N *40:8 *C 1.0000 0.0000 
*N *40:9 *C 0.4700 0.0000 


*RES
0 *40:9 *40 0.185071  // $metal1_conn
1 *40:2 *52:s 6.2  // $metal1_conn
2 *40:2 *40:6 6.2  // $metal1_conn
3 *40:2 *40:8 6.2  // $metal1_conn
4 *40:5 *43:s 75.17746  // $metal1_conn
5 *40:7 *3:s 75.045807  // $metal1_conn
6 *40:9 *56:s 75.074516  // $metal1_conn
7 *52:s *40:5 0.510086  // $metal1_conn
8 *40:5 *40:6 0.212899  // $metal1_conn
9 *40:6 *40:7 0.783544  // $metal1_conn
10 *40:7 *40:8 0.216963  // $metal1_conn
11 *40:8 *40:9 0.265546  // $metal1_conn

*END

*D_NET *37 2.4262e-16

*CONN
*P *37 I *C 0.3000 1.0450 
*I *56:g B *C 0.3375 0.4625 
*I *8:g B *C 0.3375 1.2225 
*N *37:2 *C 0.3100 1.0050 
*N *37:4 *C 0.3050 1.0050 

*CAP
0 *8:g 2.96698e-17
1 *56:g 5.42393e-17
2 *37:4 9.40743e-17
3 *37:2 3.86204e-17
4 *37 2.60165e-17

*RES
0 *8:g *37:2 19.691952  // $poly_conn
1 *37:2 *56:g 111.999641  // $poly_conn
2 *37:4 *37 0.024887  // $metal1_conn
3 *37:2 *37:4 45  // $metal1_conn

*END

*D_NET *41 2.66086e-16

*CONN
*P *41 I *C 0.5000 1.0450 
*I *57:g B *C 0.5375 0.4625 
*I *9:g B *C 0.5425 1.2225 
*N *41:2 *C 0.5100 0.6700 

*CAP
0 *9:g 4.84029e-17
1 *57:g 5.7364e-17
2 *41:2 1.1679e-16
3 *41 4.35294e-17

*RES
0 *9:g *41:2 104.554359  // $poly_conn
1 *41:2 *57:g 26.102209  // $poly_conn
2 *41 *41:2 45.224892  // $metal1_conn

*END

*D_NET *19 2.57667e-16

*CONN
*P *19 I *C 3.5000 1.0450 
*I *43:g B *C 3.2625 0.4725 
*I *44:g B *C 3.5275 0.4725 
*I *20:g B *C 3.3325 1.0425 
*I *22:g B *C 3.5275 1.0425 
*N *19:2 *C 3.4900 0.8100 
*N *19:3 *C 3.4900 0.7325 

*CAP
0 *22:g 2.11226e-17
1 *20:g 3.12563e-17
2 *44:g 2.57975e-17
3 *43:g 4.10967e-17
4 *19:3 3.84124e-17
5 *19:2 3.86494e-17
6 *19 6.13319e-17

*RES
0 *22:g *19:2 22.975597  // $poly_conn
1 *19:2 *19:3 4.693467  // $poly_conn
2 *19:3 *43:g 88.599052  // $poly_conn
3 *19:2 *20:g 48.664146  // $poly_conn
4 *19:3 *44:g 44.556061  // $poly_conn
5 *19 *19:2 45.140934  // $metal1_conn

*END

*D_NET *46 1.62305e-16

*CONN
*P *46 O *C 4.7000 0.6650 
*I *49:d B *C 4.7050 0.5300 
*I *50:d B *C 4.7050 0.5300 
*I *28:d B *C 4.7075 1.0950 
*I *30:d B *C 4.7075 1.0950 

*CAP
0 *28:d 8.51717e-17
1 *49:d 4.20825e-17
2 *46 3.50504e-17

*RES
0 *46 *49:d 75.045471  // $metal1_conn
1 *46 *28:d 20.924543  // $metal1_conn

*END

*D_NET *2 1.12445e-16

*CONN
*P *2 O *C 5.3000 0.8550 
*I *51:d B *C 5.2900 0.5300 
*I *52:d B *C 5.2900 0.5300 
*I *32:d B *C 5.2900 1.0950 
*I *34:d B *C 5.2900 1.0950 

*CAP
0 *32:d 5.86936e-17
1 *51:d 3.51674e-17
2 *2 1.85841e-17

*RES
0 *2 *51:d 75.146927  // $metal1_conn
1 *2 *32:d 20.810598  // $metal1_conn

*END

*D_NET *39 5.73788e-18

*CONN
*I *44:d B *C 3.6500 0.4725 
*I *45:s B *C 3.6500 0.4725 

*CAP
0 *44:d 5.73788e-18

*RES
0 *45:s *44:d 0.001  // $mwires

*END

*D_NET *38 9.82731e-19

*CONN
*I *42:s B *C 3.1825 0.4725 
*I *43:d B *C 3.1825 0.4725 

*CAP
0 *42:s 9.82731e-19

*RES
0 *43:d *42:s 0.001  // $mwires

*END

*D_NET *36 0

*CONN
*I *1:s B *C 1.3200 0.4625 
*I *3:d B *C 1.3200 0.4625 


*RES
0 *3:d *1:s 0.001  // $mwires

*END

*D_NET *35 3.26191e-18

*CONN
*I *57:d B *C 0.5900 0.4625 
*I *58:s B *C 0.5900 0.4625 

*CAP
0 *57:d 3.26191e-18

*RES
0 *58:s *57:d 0.001  // $mwires

*END

*D_NET *33 1.11498e-18

*CONN
*I *11:s B *C 1.1300 1.2225 
*I *12:d B *C 1.1300 1.2225 

*CAP
0 *11:s 1.11498e-18

*RES
0 *12:d *11:s 0.001  // $mwires

*END

*D_NET *31 2.60124e-19

*CONN
*I *9:d B *C 0.7075 1.2225 
*I *10:s B *C 0.7075 1.2225 

*CAP
0 *9:d 2.60124e-19

*RES
0 *10:s *9:d 0.001  // $mwires

*END

*D_NET *29 7.2416e-16

*CONN
*I *42:g B *C 3.1025 0.4725 
*I *58:d B *C 0.9550 0.4625 
*I *1:d B *C 0.9550 0.4625 
*I *17:g B *C 3.1025 1.0425 
*I *10:d B *C 0.9750 1.2225 
*I *11:d B *C 0.9750 1.2225 
*N *29:3 *C 3.1400 1.3950 
*N *29:5 *C 0.9750 1.1750 

*CAP
0 *10:d 2.54503e-16
1 *17:g 5.72878e-17
2 *58:d 9.71691e-17
3 *42:g 4.63438e-17
4 *29:3 2.68856e-16

*RES
0 *17:g *42:g 100  // $poly_conn
1 *17:g *29:3 98.334702  // $poly_conn
2 *29:3 *29:5 1.93109  // $metal1_conn
3 *29:5 *58:d 75.534653  // $metal1_conn
4 *10:d *29:5 62  // $metal1_conn

*END

*D_NET *27 1.14196e-15

*CONN
*I *56:d B *C 0.2450 0.4625 
*I *58:g B *C 0.6425 0.4625 
*I *4:g B *C 1.5675 0.4625 
*I *6:g B *C 2.2925 0.5525 
*I *8:d B *C 0.2450 1.2225 
*I *11:g B *C 1.0775 1.2225 
*I *13:g B *C 1.5675 1.2225 
*I *14:g B *C 2.0575 1.1275 
*N *27:2 *C 0.6700 0.6650 
*N *27:4 *C 1.0500 0.8950 
*N *27:7 *C 1.5950 0.2800 
*N *27:9 *C 2.0300 0.8550 
*N *27:11 *C 2.2650 0.1900 
*N *27:12 *C 2.0300 0.2675 
*N *27:13 *C 1.0500 0.3150 
*N *27:14 *C 0.6700 0.4800 
*N *27:16 *C 0.2350 0.4500 

*CAP
0 *14:g 3.25765e-17
1 *13:g 4.64808e-17
2 *11:g 6.30083e-17
3 *8:d 8.21879e-17
4 *6:g 3.86667e-17
5 *4:g 5.80302e-17
6 *58:g 4.71545e-17
7 *56:d 8.74986e-17
8 *27:14 6.30471e-17
9 *27:13 8.77104e-17
10 *27:12 7.74998e-17
11 *27:2 6.40712e-17
12 *27:4 1.08395e-16
13 *27:7 9.99714e-17
14 *27:9 1.28962e-16
15 *27:11 5.67037e-17

*RES
0 *58:g *27:2 69.82016  // $poly_conn
1 *11:g *27:4 92.897079  // $poly_conn
2 *13:g *4:g 148.717941  // $poly_conn
3 *4:g *27:7 64.691956  // $poly_conn
4 *14:g *27:9 77.821884  // $poly_conn
5 *6:g *27:11 110.845795  // $poly_conn
6 *27:11 *27:12 0.227315  // $metal1_conn
7 *27:12 *27:7 0.302518  // $metal1_conn
8 *27:7 *27:13 0.468141  // $metal1_conn
9 *27:13 *27:14 0.391224  // $metal1_conn
10 *27:14 *27:16 0.283737  // $metal1_conn
11 *27:12 *27:9 0.460607  // $metal1_conn
12 *27:13 *27:4 0.411426  // $metal1_conn
13 *27:14 *27:2 0.150619  // $metal1_conn
14 *27:16 *8:d 62.670544  // $metal1_conn
15 *56:d *27:16 75  // $metal1_conn

*END

*D_NET *25 7.6489e-16

*CONN
*I *45:g B *C 3.7725 0.4725 
*I *47:d B *C 4.2200 0.5575 
*I *49:g B *C 4.5775 0.5300 
*I *50:g B *C 4.8325 0.5300 
*I *55:g B *C 5.6425 0.5875 
*I *24:g B *C 3.7725 1.0425 
*I *26:d B *C 4.2850 1.1350 
*I *28:g B *C 4.5825 1.0950 
*I *30:g B *C 4.8325 1.0950 
*I *7:g B *C 5.6425 1.0075 
*N *25:1 *C 3.8600 0.6700 
*N *25:2 *C 3.7725 0.6700 
*N *25:14 *C 5.7150 0.3900 
*N *25:18 *C 4.2750 1.0400 
*N *25:19 *C 4.2100 0.6700 

*CAP
0 *7:g 4.39064e-17
1 *30:g 3.3677e-16
2 *26:d 4.94023e-17
3 *24:g 3.61344e-17
4 *55:g 3.12582e-17
5 *47:d 6.4165e-18
6 *45:g 2.81102e-17
7 *25:19 4.41415e-17
8 *25:2 2.04284e-17
9 *25:1 6.33988e-17
10 *25:14 1.04923e-16

*RES
0 *7:g *55:g 61.538464  // $poly_conn
1 *25:2 *24:g 62.871178  // $poly_conn
2 *55:g *25:14 77.40535  // $poly_conn
3 *25:2 *45:g 26.97374  // $poly_conn
4 *25:1 *25:2 48.890118  // $poly_conn
5 *25:14 *30:g 0.579063  // $metal1_conn
6 *25:19 *25:1 0.274636  // $metal1_conn
7 *25:19 *47:d 75.032715  // $metal1_conn
8 *26:d *25:18 62  // $metal1_conn
9 *30:g *25:18 0.28493  // $metal1_conn
10 *30:g *25:19 0.177131  // $metal1_conn

*END

*D_NET *23 9.30354e-16

*CONN
*I *42:d B *C 3.0100 0.4725 
*I *3:g B *C 1.3725 0.4625 
*I *5:s B *C 1.9375 0.5525 
*I *17:d B *C 3.2175 1.0425 
*I *20:d B *C 3.2175 1.0425 
*I *12:g B *C 1.1825 1.2225 
*I *14:s B *C 1.9650 1.1275 
*N *23:2 *C 1.4000 0.9800 
*N *23:5 *C 2.7700 1.0150 
*N *23:6 *C 1.9550 1.3350 
*N *23:9 *C 1.9550 1.1750 

*CAP
0 *14:s 6.13806e-17
1 *12:g 7.02191e-17
2 *17:d 6.59075e-17
3 *5:s 9.08135e-17
4 *3:g 8.45701e-17
5 *42:d 8.5308e-17
6 *23:6 1.60936e-16
7 *23:5 1.61056e-16
8 *23:2 1.50163e-16

*RES
0 *3:g *23:2 102.427475  // $poly_conn
1 *23:2 *12:g 65.369408  // $poly_conn
2 *42:d *23:5 75.514351  // $metal1_conn
3 *23:5 *23:6 0.839787  // $metal1_conn
4 *23:6 *23:2 45.688755  // $metal1_conn
5 *23:5 *17:d 62.347637  // $metal1_conn
6 *23:6 *23:9 0.086539  // $metal1_conn
7 *23:9 *5:s 75.492668  // $metal1_conn
8 *14:s *23:9 62  // $metal1_conn

*END

*D_NET *21 3.14125e-16

*CONN
*I *45:d B *C 3.8650 0.4725 
*I *6:s B *C 2.3850 0.5525 

*CAP
0 *6:s 1.49909e-16
1 *45:d 1.64217e-16

*RES
0 *45:d *6:s 151.288071  // $metal1_conn

*END

*D_NET *18 3.16905e-16

*CONN
*I *22:d B *C 3.6500 1.0425 
*I *24:d B *C 3.6500 1.0425 
*I *15:s B *C 2.4425 1.1275 

*CAP
0 *15:s 1.86101e-16
1 *22:d 1.30804e-16

*RES
0 *22:d *15:s 125.194489  // $metal1_conn

*END

*D_NET *16 5.73603e-16

*CONN
*I *1:g B *C 1.2675 0.4625 
*I *4:d B *C 1.6600 0.4625 
*I *5:g B *C 2.0875 0.5525 
*I *10:g B *C 0.8725 1.2225 
*I *13:d B *C 1.6600 1.2225 
*I *15:g B *C 2.2625 1.1275 
*N *16:2 *C 1.2400 0.7200 
*N *16:5 *C 2.0875 0.7225 
*N *16:6 *C 1.7100 0.7500 
*N *16:9 *C 1.6400 0.7200 

*CAP
0 *15:g 4.67201e-17
1 *13:d 6.10388e-17
2 *10:g 7.49042e-17
3 *5:g 2.4256e-17
4 *4:d 3.71418e-17
5 *1:g 4.56441e-17
6 *16:9 7.45732e-17
7 *16:5 6.53143e-17
8 *16:2 1.07906e-16
9 *16:6 3.61044e-17

*RES
0 *1:g *16:2 36.385986  // $poly_conn
1 *16:2 *10:g 177.900345  // $poly_conn
2 *15:g *16:5 102.259804  // $poly_conn
3 *16:5 *16:6 132.1297  // $poly_conn
4 *16:5 *5:g 20.300484  // $poly_conn
5 *13:d *16:6 62.30666  // $metal1_conn
6 *16:6 *16:9 0.052979  // $metal1_conn
7 *16:9 *16:2 45.277321  // $metal1_conn
8 *16:9 *4:d 75.15493  // $metal1_conn

*END

*D_NET *54 6.72796e-16

*CONN
*I *47:g B *C 4.3125 0.5575 
*I *5:d B *C 2.1900 0.5525 
*I *6:d B *C 2.1900 0.5525 
*I *26:g B *C 4.3775 1.1350 
*I *14:d B *C 2.1600 1.1275 
*I *15:d B *C 2.1600 1.1275 
*N *54:1 *C 2.9600 0.8000 
*N *54:2 *C 2.5200 0.8550 
*N *54:4 *C 4.2750 0.8300 
*N *54:6 *C 2.1900 0.8550 

*CAP
0 *14:d 3.45626e-17
1 *26:g 4.89087e-17
2 *5:d 4.68824e-17
3 *47:g 3.95586e-17
4 *54:6 4.86409e-17
5 *54:2 7.43048e-17
6 *54:1 1.82985e-16
7 *54:4 1.96952e-16

*RES
0 *54:1 *54:2 185.794159  // $poly_conn
1 *26:g *54:4 37.42522  // $poly_conn
2 *54:4 *47:g 34.514061  // $poly_conn
3 *54:2 *54:6 0.222049  // $metal1_conn
4 *54:6 *14:d 62.161518  // $metal1_conn
5 *54:6 *5:d 75.221184  // $metal1_conn
6 *54:4 *54:1 46.230278  // $metal1_conn

*END

*D_NET *53 2.30261e-16

*CONN
*I *51:g B *C 5.1875 0.5300 
*I *52:g B *C 5.3925 0.5300 
*I *55:d B *C 5.7350 0.5875 
*I *32:g B *C 5.1875 1.0950 
*I *34:g B *C 5.3925 1.0950 
*I *7:d B *C 5.7350 1.0075 
*N *53:6 *C 5.5000 0.7800 
*N *53:9 *C 5.7450 0.7800 

*CAP
0 *7:d 1.05865e-17
1 *34:g 1.29342e-16
2 *55:d 2.31371e-17
3 *53:9 1.67908e-17
4 *53:6 5.04038e-17

*RES
0 *34:g *53:6 53.564121  // $poly_conn
1 *53:9 *53:6 0.151886  // $metal1_conn
2 *7:d *53:9 62.122952  // $metal1_conn
3 *53:9 *55:d 75.119194  // $metal1_conn

*END

