*SPEF "IEEE 1481-1999"
*DESIGN  "DFFSHQX8"
*DATE "Mon Sep 27 09:34:11 2010"
*VENDOR "Cadence Design Systems"
*PROGRAM "Assura RCX"
*VERSION "3.2 Red Hat Linux release 7.2 (Enigma) - (09/09/2009-10:39)"
*DESIGN_FLOW "Physical Verification"
*DIVIDER /
*DELIMITER :
*BUS_DELIMITER []
*T_UNIT 1 PS
*C_UNIT 1e15 FF
*R_UNIT 1 OHM
*L_UNIT 1 MH
// DeviceFingerDelim "@"
// MATCHED
// caps2d version: 10

*NAME_MAP
*1 VSS
*2 mp52
*3 mp40
*4 mp21
*5 mp30
*6 mp31
*7 mp35
*8 mp36
*9 mp26
*10 mp25
*11 CK
*12 mp20
*13 mn52
*14 mp45
*15 mn40
*16 mp45\@1
*17 mn21
*18 mp45\@2
*19 mn30
*20 mp50
*21 mn31
*22 mp51
*23 mn36
*24 n35
*25 mp55
*26 mn35
*27 qbint
*28 mp55\@1
*29 mn26
*30 CKbb
*31 mp55\@2
*32 mn25
*33 mout
*34 mp55\@3
*35 n31
*36 n22
*37 n42
*38 n40
*39 D
*40 n25
*41 n30
*42 mp55\@4
*43 mp55\@5
*44 mp55\@6
*45 CKb
*46 n41
*47 VDD
*48 n20
*49 n21
*50 Q
*51 mn20
*52 mn45
*53 mn45\@1
*54 mn45\@2
*55 mn50
*56 mn51
*57 mn55
*58 mn55\@1
*59 mn55\@2
*60 mn55\@3
*61 SN
*62 mn55\@4
*63 mn55\@5
*64 mn55\@6

*GROUND_NETS VSS

*PORTS
*47 I
*1 I
*11 I
*39 I
*61 I
*50 O

*D_NET *47 9.35506e-16

*CONN
*P *47 I *C 0.1000 1.7100 
*I *4:s B *C 4.3825 1.5700 
*I *5:s B *C 4.3825 1.5700 
*I *6:s B *C 4.7775 1.0550 
*I *7:s B *C 4.7775 1.0550 
*I *10:s B *C 5.6100 1.2525 
*I *12:s B *C 5.6100 1.2525 
*I *14:s B *C 2.0750 1.1700 
*I *16:s B *C 2.0750 1.1700 
*I *18:s B *C 2.5350 1.2100 
*I *20:s B *C 2.5350 1.2100 
*I *22:s B *C 2.8850 1.2100 
*I *25:s B *C 0.3150 1.1225 
*I *28:s B *C 0.3150 1.1225 
*I *31:s B *C 0.7250 1.1225 
*I *34:s B *C 0.7250 1.1225 
*I *42:s B *C 1.1350 1.1225 
*I *43:s B *C 1.1350 1.1225 
*I *44:s B *C 1.5850 1.2850 
*N *47:2 *C 5.2000 1.7100 
*N *47:3 *C 5.2000 1.7100 
*N *47:4 *C 4.7200 1.7100 
*N *47:5 *C 4.4250 1.7100 
*N *47:6 *C 3.2000 1.7100 
*N *47:7 *C 2.8650 1.7100 

*CAP
0 *44:s 3.1535e-16
1 *22:s 3.17841e-17
2 *18:s 1.14259e-16
3 *10:s 3.27409e-17
4 *6:s 3.81996e-17
5 *4:s 1.55477e-17
6 *47:7 6.93381e-18
7 *47:5 2.87318e-17
8 *47:4 9.1679e-18
9 *47:2 3.35806e-16
10 *47 6.98622e-18

*RES
0 *44:s *47 0.107532  // $metal1_conn
1 *47:2 *47:3 7.5  // $metal1_conn
2 *47:2 *47:6 7.5  // $metal1_conn
3 *47:2 *44:s 6.818182  // $metal1_conn
4 *10:s *47:3 62.479416  // $metal1_conn
5 *47:4 *6:s 62.22411  // $metal1_conn
6 *47:5 *4:s 62.045811  // $metal1_conn
7 *47:7 *22:s 62.247433  // $metal1_conn
8 *47:3 *47:4 0.240476  // $metal1_conn
9 *47:4 *47:5 0.146571  // $metal1_conn
10 *47:5 *47:6 0.613069  // $metal1_conn
11 *47:6 *47:7 0.167773  // $metal1_conn
12 *47:7 *18:s 0.19014  // $metal1_conn
13 *18:s *44:s 0.26535  // $metal1_conn

*END

*D_NET *1 0

*CONN
*P *1 I *C 0.1000 0.0000 
*I *17:s B *C 4.1100 0.4675 
*I *19:s B *C 4.1100 0.4675 
*I *23:s B *C 4.7350 0.3625 
*I *32:s B *C 5.6100 0.3925 
*I *51:s B *C 5.6100 0.3925 
*I *52:s B *C 2.0750 0.5300 
*I *53:s B *C 2.0750 0.5300 
*I *54:s B *C 2.5350 0.4325 
*I *55:s B *C 2.5350 0.4325 
*I *57:s B *C 0.3150 0.5125 
*I *58:s B *C 0.3150 0.5125 
*I *59:s B *C 0.7250 0.5125 
*I *60:s B *C 0.7250 0.5125 
*I *62:s B *C 1.1350 0.5125 
*I *63:s B *C 1.1350 0.5125 
*I *64:s B *C 1.6000 0.1400 
*N *1:2 *C 5.2000 0.0000 
*N *1:3 *C 5.2000 0.0000 
*N *1:4 *C 4.6950 0.0000 
*N *1:5 *C 4.0250 0.0000 
*N *1:6 *C 3.2000 0.0000 


*RES
0 *64:s *1 0.107532  // $metal1_conn
1 *1:2 *1:3 6.2  // $metal1_conn
2 *1:2 *1:6 6.2  // $metal1_conn
3 *1:2 *64:s 5.636364  // $metal1_conn
4 *32:s *1:3 75.463867  // $metal1_conn
5 *1:4 *23:s 75.190788  // $metal1_conn
6 *1:5 *17:s 75.045807  // $metal1_conn
7 *1:3 *1:4 0.253011  // $metal1_conn
8 *1:4 *1:5 0.334596  // $metal1_conn
9 *1:5 *1:6 0.412509  // $metal1_conn
10 *1:6 *54:s 0.358304  // $metal1_conn
11 *54:s *64:s 0.250308  // $metal1_conn

*END

*D_NET *11 2.08075e-16

*CONN
*P *11 I *C 6.1000 0.8550 
*I *51:g B *C 5.6625 0.3925 
*I *12:g B *C 5.6625 1.2525 
*N *11:1 *C 5.9300 0.9300 
*N *11:2 *C 5.6625 0.9300 

*CAP
0 *12:g 4.05185e-17
1 *51:g 4.78119e-17
2 *11:2 5.30272e-17
3 *11:1 2.57878e-17
4 *11 4.09295e-17

*RES
0 *11:1 *11:2 64.089836  // $poly_conn
1 *11:2 *51:g 112.560371  // $poly_conn
2 *11:2 *12:g 48.457813  // $poly_conn
3 *11 *11:1 0.118967  // $metal1_conn

*END

*D_NET *39 3.12969e-16

*CONN
*P *39 I *C 5.7000 0.8550 
*I *32:g B *C 5.4575 0.3625 
*I *10:g B *C 5.4575 1.2050 
*N *39:1 *C 5.5300 0.8450 
*N *39:2 *C 5.4575 0.8450 

*CAP
0 *10:g 5.31122e-17
1 *32:g 8.12436e-17
2 *39:2 3.90279e-17
3 *39:1 7.30772e-17
4 *39 6.65083e-17

*RES
0 *39:1 *39:2 47.037205  // $poly_conn
1 *39:2 *32:g 90.765511  // $poly_conn
2 *39:2 *10:g 45.893711  // $poly_conn
3 *39:1 *39 0.061117  // $metal1_conn

*END

*D_NET *61 7.84138e-16

*CONN
*P *61 I *C 2.9000 0.4750 
*I *19:g B *C 4.1575 0.4675 
*I *55:g B *C 2.5875 0.4325 
*I *5:g B *C 4.3525 1.0550 
*I *20:g B *C 2.5875 1.2100 
*N *61:1 *C 2.6450 0.8250 
*N *61:2 *C 2.5875 0.8250 
*N *61:6 *C 4.1575 0.6700 
*N *61:7 *C 4.0550 0.6700 

*CAP
0 *20:g 5.82162e-17
1 *5:g 6.5596e-17
2 *55:g 5.763e-17
3 *19:g 4.27604e-17
4 *61:6 3.39977e-17
5 *61:2 6.61102e-17
6 *61:1 7.91064e-17
7 *61:7 2.00175e-16
8 *61 1.80546e-16

*RES
0 *61:1 *61:2 45.778431  // $poly_conn
1 *61:2 *55:g 67.688583  // $poly_conn
2 *61:2 *20:g 52.30397  // $poly_conn
3 *5:g *61:6 94.391647  // $poly_conn
4 *61:6 *61:7 50.485863  // $poly_conn
5 *61:6 *19:g 22.886339  // $poly_conn
6 *61:7 *61 1.373136  // $metal1_conn
7 *61 *61:1 0.439175  // $metal1_conn

*END

*D_NET *50 4.64669e-16

*CONN
*P *50 O *C 0.1000 0.6650 
*I *57:d B *C 0.1200 0.5125 
*I *58:d B *C 0.5200 0.5125 
*I *59:d B *C 0.5200 0.5125 
*I *60:d B *C 0.9300 0.5125 
*I *62:d B *C 0.9300 0.5125 
*I *63:d B *C 1.3400 0.5125 
*I *64:d B *C 1.3400 0.5125 
*I *25:d B *C 0.1200 1.1225 
*I *28:d B *C 0.5200 1.1225 
*I *31:d B *C 0.5200 1.1225 
*I *34:d B *C 0.9300 1.1225 
*I *42:d B *C 0.9300 1.1225 
*I *43:d B *C 1.3400 1.1225 
*I *44:d B *C 1.3400 1.1225 

*CAP
0 *50 4.64669e-16


*END

*D_NET *49 0

*CONN
*I *29:s B *C 5.4025 0.3625 
*I *32:d B *C 5.4025 0.3625 


*RES
0 *32:d *29:s 0.001  // $mwires

*END

*D_NET *41 2.30314e-18

*CONN
*I *23:d B *C 4.9075 0.3625 
*I *26:s B *C 4.9075 0.3625 

*CAP
0 *23:d 2.30314e-18

*RES
0 *26:s *23:d 0.001  // $mwires

*END

*D_NET *40 2.0326e-18

*CONN
*I *19:d B *C 4.2150 0.4675 
*I *21:s B *C 4.2150 0.4675 

*CAP
0 *19:d 2.0326e-18

*RES
0 *21:s *19:d 0.001  // $mwires

*END

*D_NET *38 3.94847e-18

*CONN
*I *13:s B *C 2.9325 0.4325 
*I *56:d B *C 2.9325 0.4325 

*CAP
0 *13:s 3.94847e-18

*RES
0 *56:d *13:s 0.001  // $mwires

*END

*D_NET *37 0

*CONN
*I *55:d B *C 2.6825 0.4325 
*I *56:s B *C 2.6825 0.4325 


*RES
0 *56:s *55:d 0.001  // $mwires

*END

*D_NET *36 7.01193e-18

*CONN
*I *9:s B *C 5.3400 1.2050 
*I *10:d B *C 5.3400 1.2050 

*CAP
0 *9:s 7.01193e-18

*RES
0 *10:d *9:s 0.001  // $mwires

*END

*D_NET *35 1.69238e-18

*CONN
*I *7:d B *C 4.8800 1.0550 
*I *8:s B *C 4.8800 1.0550 

*CAP
0 *7:d 1.69238e-18

*RES
0 *8:s *7:d 0.001  // $mwires

*END

*D_NET *33 7.10555e-16

*CONN
*I *15:s B *C 3.4000 0.4325 
*I *21:d B *C 4.3650 0.4675 
*I *23:g B *C 4.8275 0.3625 
*I *3:s B *C 3.6600 1.0800 
*I *5:d B *C 4.4550 1.0550 
*I *6:d B *C 4.4550 1.0550 
*I *7:g B *C 4.8275 1.0550 
*N *33:2 *C 4.8275 0.6400 
*N *33:3 *C 4.7700 0.6400 
*N *33:5 *C 4.3750 0.6400 
*N *33:6 *C 4.3750 0.9900 
*N *33:8 *C 3.6700 1.0950 

*CAP
0 *7:g 9.04315e-17
1 *5:d 2.3421e-17
2 *3:s 1.37934e-16
3 *23:g 4.27928e-17
4 *21:d 3.24033e-17
5 *15:s 1.02853e-16
6 *33:6 1.07917e-16
7 *33:5 5.14013e-17
8 *33:2 4.09822e-17
9 *33:3 8.04194e-17

*RES
0 *7:g *33:2 63.355629  // $poly_conn
1 *33:2 *33:3 45.778431  // $poly_conn
2 *33:2 *23:g 41.560753  // $poly_conn
3 *33:3 *33:5 0.291924  // $metal1_conn
4 *33:5 *33:6 0.223566  // $metal1_conn
5 *33:6 *33:8 0.664536  // $metal1_conn
6 *33:8 *15:s 75.61824  // $metal1_conn
7 *33:5 *21:d 75.09687  // $metal1_conn
8 *33:6 *5:d 62.042179  // $metal1_conn
9 *3:s *33:8 31  // $metal1_conn

*END

*D_NET *30 8.45872e-16

*CONN
*I *15:g B *C 3.3075 0.4325 
*I *17:d B *C 3.8000 0.4975 
*I *26:g B *C 4.9875 0.3625 
*I *2:g B *C 3.3625 1.0800 
*I *4:d B *C 3.8950 1.0675 
*I *9:g B *C 5.2225 1.2050 
*N *30:2 *C 3.3625 0.6325 
*N *30:4 *C 3.6000 0.4550 
*N *30:6 *C 4.9600 0.5750 
*N *30:8 *C 3.8550 0.8600 
*N *30:10 *C 3.7900 0.4850 

*CAP
0 *9:g 7.33431e-17
1 *4:d 3.78258e-17
2 *2:g 6.06046e-17
3 *26:g 3.39687e-17
4 *17:d 5.11004e-17
5 *15:g 2.87552e-17
6 *30:8 1.87727e-16
7 *30:2 4.70534e-17
8 *30:4 7.67297e-17
9 *30:6 2.48764e-16

*RES
0 *2:g *30:2 70.491875  // $poly_conn
1 *30:2 *15:g 31.65377  // $poly_conn
2 *30:2 *30:4 128.397003  // $poly_conn
3 *9:g *30:6 152.259323  // $poly_conn
4 *30:6 *26:g 16.530039  // $poly_conn
5 *30:6 *30:8 46.361099  // $metal1_conn
6 *30:8 *30:10 0.335231  // $metal1_conn
7 *30:10 *30:4 0.143575  // $metal1_conn
8 *30:8 *4:d 62.110714  // $metal1_conn
9 *17:d *30:10 75  // $metal1_conn

*END

*D_NET *27 7.44559e-16

*CONN
*I *52:d B *C 1.9000 0.5300 
*I *53:d B *C 2.3300 0.4600 
*I *54:d B *C 2.3300 0.4600 
*I *56:g B *C 2.7775 0.4325 
*I *57:g B *C 0.2125 0.5125 
*I *58:g B *C 0.4175 0.5125 
*I *59:g B *C 0.6225 0.5125 
*I *60:g B *C 0.8275 0.5125 
*I *62:g B *C 1.0325 0.5125 
*I *63:g B *C 1.2375 0.5125 
*I *64:g B *C 1.4425 0.5125 
*I *14:d B *C 1.9000 1.1700 
*I *16:d B *C 2.2800 1.1700 
*I *18:d B *C 2.2800 1.1700 
*I *22:g B *C 2.7925 1.2100 
*I *25:g B *C 0.2125 1.1225 
*I *28:g B *C 0.4175 1.1225 
*I *31:g B *C 0.6225 1.1225 
*I *34:g B *C 0.8275 1.1225 
*I *42:g B *C 1.0325 1.1225 
*I *43:g B *C 1.2375 1.1225 
*I *44:g B *C 1.4425 1.1225 
*N *27:11 *C 1.5000 0.7600 
*N *27:24 *C 2.7300 0.6350 

*CAP
0 *44:g 2.85301e-16
1 *22:g 5.6046e-17
2 *16:d 2.25057e-16
3 *56:g 2.89246e-17
4 *27:11 4.03973e-17
5 *27:24 1.08833e-16

*RES
0 *22:g *27:24 96.408554  // $poly_conn
1 *27:24 *56:g 16.15522  // $poly_conn
2 *44:g *27:11 48.256718  // $poly_conn
3 *27:24 *16:d 45.344028  // $metal1_conn
4 *16:d *27:11 0.228948  // $metal1_conn

*END

*D_NET *24 6.12175e-16

*CONN
*I *13:d B *C 3.1975 0.4325 
*I *15:d B *C 3.1975 0.4325 
*I *52:g B *C 1.9725 0.5300 
*I *53:g B *C 2.1775 0.5300 
*I *54:g B *C 2.3825 0.4600 
*I *2:d B *C 3.4650 1.0800 
*I *3:d B *C 3.4650 1.0800 
*I *14:g B *C 1.9725 1.1700 
*I *16:g B *C 2.1775 1.1700 
*I *18:g B *C 2.3825 1.1700 
*N *24:12 *C 3.0700 0.9850 

*CAP
0 *18:g 3.10477e-16
1 *2:d 7.22285e-17
2 *13:d 8.29863e-17
3 *24:12 1.46484e-16

*RES
0 *24:12 *18:g 45.567429  // $metal1_conn
1 *24:12 *13:d 75.428299  // $metal1_conn
2 *2:d *24:12 31.383595  // $metal1_conn

*END

*D_NET *48 3.89012e-16

*CONN
*I *21:g B *C 4.2725 0.4675 
*I *26:d B *C 5.1675 0.3625 
*I *29:d B *C 5.1675 0.3625 
*I *6:g B *C 4.5575 1.0550 
*I *8:d B *C 5.1500 1.2050 
*I *9:d B *C 5.1500 1.2050 
*N *48:2 *C 4.5950 0.8000 
*N *48:5 *C 5.1200 0.8000 

*CAP
0 *8:d 4.13486e-17
1 *6:g 4.69235e-17
2 *26:d 5.27614e-17
3 *21:g 7.76878e-17
4 *48:5 6.91444e-17
5 *48:2 1.01147e-16

*RES
0 *6:g *48:2 16.15522  // $poly_conn
1 *48:2 *21:g 110.737442  // $poly_conn
2 *8:d *48:5 62.238079  // $metal1_conn
3 *48:5 *48:2 45.357746  // $metal1_conn
4 *48:5 *26:d 75.306473  // $metal1_conn

*END

*D_NET *46 1.48688e-16

*CONN
*I *2:s B *C 3.2700 1.0800 
*I *20:d B *C 2.6900 1.2100 
*I *22:d B *C 2.6900 1.2100 

*CAP
0 *20:d 8.16209e-17
1 *2:s 6.70674e-17

*RES
0 *2:s *20:d 124.421349  // $metal1_conn

*END

*D_NET *45 1.11435e-15

*CONN
*I *13:g B *C 3.0875 0.4325 
*I *17:g B *C 3.8925 0.4975 
*I *29:g B *C 5.3475 0.3625 
*I *51:d B *C 5.7550 0.3925 
*I *3:g B *C 3.5675 1.0800 
*I *4:g B *C 3.9875 1.0675 
*I *8:g B *C 4.9325 1.0550 
*I *12:d B *C 5.7550 1.2525 
*N *45:2 *C 3.2300 0.7750 
*N *45:3 *C 3.9600 1.3400 
*N *45:5 *C 3.8925 0.8025 
*N *45:6 *C 3.5775 0.8275 
*N *45:7 *C 3.5050 0.8250 
*N *45:11 *C 4.9700 1.3100 
*N *45:13 *C 5.3100 0.6550 
*N *45:15 *C 5.3400 1.1100 
*N *45:17 *C 5.7655 0.4050 

*CAP
0 *12:d 5.29545e-17
1 *8:g 7.7154e-17
2 *4:g 1.96375e-17
3 *3:g 2.81934e-17
4 *51:d 5.66831e-17
5 *29:g 5.708e-17
6 *17:g 4.70663e-17
7 *13:g 4.31675e-17
8 *45:15 8.46523e-17
9 *45:5 3.29731e-17
10 *45:2 1.17865e-16
11 *45:7 9.05999e-17
12 *45:3 1.27512e-16
13 *45:11 1.53078e-16
14 *45:13 1.25737e-16

*RES
0 *13:g *45:2 115.684433  // $poly_conn
1 *45:3 *4:g 78.79451  // $poly_conn
2 *4:g *45:5 57.677567  // $poly_conn
3 *45:5 *45:6 81.162155  // $poly_conn
4 *45:6 *45:7 50.001949  // $poly_conn
5 *45:5 *17:g 54.915871  // $poly_conn
6 *45:6 *3:g 18.912601  // $poly_conn
7 *8:g *45:11 61.15522  // $poly_conn
8 *29:g *45:13 84.232147  // $poly_conn
9 *45:7 *45:2 0.158104  // $metal1_conn
10 *12:d *45:15 62.356274  // $metal1_conn
11 *45:15 *45:13 0.351938  // $metal1_conn
12 *45:13 *45:17 0.418196  // $metal1_conn
13 *45:15 *45:11 0.382612  // $metal1_conn
14 *45:11 *45:3 0.869492  // $metal1_conn
15 *51:d *45:17 75  // $metal1_conn

*END

