*SPEF "IEEE 1481-1999"
*DESIGN  "DFFSRHQX4"
*DATE "Mon Sep 27 09:35:18 2010"
*VENDOR "Cadence Design Systems"
*PROGRAM "Assura RCX"
*VERSION "3.2 Red Hat Linux release 7.2 (Enigma) - (09/09/2009-10:39)"
*DESIGN_FLOW "Physical Verification"
*DIVIDER /
*DELIMITER :
*BUS_DELIMITER []
*T_UNIT 1 PS
*C_UNIT 1e15 FF
*R_UNIT 1 OHM
*L_UNIT 1 MH
// DeviceFingerDelim "@"
// MATCHED
// caps2d version: 10

*NAME_MAP
*1 VSS
*2 mp31
*3 mp32
*4 mp30
*5 mp35
*6 mp36
*7 mp26
*8 mp25
*9 mp21
*10 mp20
*11 CK
*12 mp51
*13 mn31
*14 mp52
*15 mn32
*16 mp50
*17 mn30
*18 mp53
*19 mn35
*20 mp40
*21 mn36
*22 mp55
*23 mn26
*24 n25
*25 mp55\@1
*26 mn25
*27 mout
*28 mp55\@2
*29 mn21
*30 CKb
*31 mp55\@3
*32 mn20
*33 n41
*34 mp45
*35 n42
*36 n40
*37 RNb
*38 n35
*39 D
*40 qbint
*41 n43
*42 mp45\@1
*43 mp22
*44 CKbb
*45 VDD
*46 n20
*47 n26
*48 n31
*49 n22
*50 n30
*51 Q
*52 RN
*53 n21
*54 mn40
*55 mn55
*56 mn55\@1
*57 mn55\@2
*58 mn55\@3
*59 mn45
*60 mn45\@1
*61 mn22
*62 mn51
*63 mn52
*64 SN
*65 mn50
*66 mn53

*GROUND_NETS VSS

*PORTS
*45 I
*1 I
*11 I
*39 I
*52 I
*64 I
*51 O

*D_NET *45 1.08599e-15

*CONN
*P *45 I *C 0.1000 1.7100 
*I *2:s B *C 4.6075 1.0550 
*I *4:s B *C 5.4200 1.2150 
*I *5:s B *C 5.4200 1.2150 
*I *8:s B *C 6.4300 1.2625 
*I *9:s B *C 6.4300 1.2625 
*I *10:s B *C 7.1900 1.0075 
*I *12:s B *C 2.3875 1.1750 
*I *16:s B *C 2.9500 1.3875 
*I *22:s B *C 0.2700 1.1450 
*I *25:s B *C 0.6700 1.1450 
*I *28:s B *C 0.6700 1.1450 
*I *31:s B *C 1.1550 1.1850 
*I *34:s B *C 1.1550 1.1850 
*I *42:s B *C 1.6000 1.1375 
*I *43:s B *C 1.6000 1.1375 
*N *45:2 *C 6.5000 1.7100 
*N *45:3 *C 6.5000 1.7100 
*N *45:4 *C 6.3800 1.7100 
*N *45:5 *C 5.3600 1.7100 
*N *45:6 *C 4.7000 1.7100 
*N *45:7 *C 4.4150 1.7100 
*N *45:8 *C 2.9000 1.7100 
*N *45:9 *C 2.2750 1.7100 

*CAP
0 *42:s 2.68157e-16
1 *16:s 2.59788e-17
2 *12:s 4.22906e-17
3 *10:s 2.3846e-17
4 *8:s 3.0333e-17
5 *4:s 5.51291e-17
6 *2:s 4.64408e-17
7 *45:9 2.84061e-17
8 *45:7 3.93935e-17
9 *45:5 3.26084e-17
10 *45:4 1.73116e-17
11 *45:2 4.76099e-16

*RES
0 *42:s *45 0.079804  // $metal1_conn
1 *45:2 *45:3 8.333333  // $metal1_conn
2 *45:2 *45:6 8.333333  // $metal1_conn
3 *45:2 *45:8 8.333333  // $metal1_conn
4 *45:2 *42:s 7.5  // $metal1_conn
5 *10:s *45:3 62.798145  // $metal1_conn
6 *45:4 *8:s 62.248478  // $metal1_conn
7 *45:5 *4:s 62.267574  // $metal1_conn
8 *45:7 *2:s 62.174629  // $metal1_conn
9 *45:8 *16:s 62.06144  // $metal1_conn
10 *45:9 *12:s 62.157921  // $metal1_conn
11 *45:3 *45:4 0.059992  // $metal1_conn
12 *45:4 *45:5 0.511206  // $metal1_conn
13 *45:5 *45:6 0.330838  // $metal1_conn
14 *45:6 *45:7 0.14275  // $metal1_conn
15 *45:7 *45:8 0.760803  // $metal1_conn
16 *45:8 *45:9 0.313385  // $metal1_conn
17 *45:9 *42:s 0.380798  // $metal1_conn

*END

*D_NET *1 0

*CONN
*P *1 I *C 0.1000 0.0000 
*I *17:s B *C 5.4900 0.4375 
*I *19:s B *C 5.4900 0.4375 
*I *26:s B *C 6.3850 0.5025 
*I *29:s B *C 6.3850 0.5025 
*I *32:s B *C 7.1350 0.4775 
*I *55:s B *C 0.2700 0.4050 
*I *56:s B *C 0.6700 0.4050 
*I *57:s B *C 0.6700 0.4050 
*I *58:s B *C 1.1425 0.3775 
*I *59:s B *C 1.1425 0.3775 
*I *60:s B *C 1.6700 0.5025 
*I *61:s B *C 1.6700 0.5025 
*I *65:s B *C 3.1100 0.1400 
*N *1:2 *C 6.5000 0.0000 
*N *1:3 *C 6.5000 0.0000 
*N *1:4 *C 6.3050 0.0000 
*N *1:5 *C 5.4900 0.0000 
*N *1:6 *C 4.7000 0.0000 
*N *1:7 *C 3.0950 0.0000 
*N *1:8 *C 2.9000 0.0000 


*RES
0 *60:s *1 0.079804  // $metal1_conn
1 *1:2 *1:3 6.888889  // $metal1_conn
2 *1:2 *1:6 6.888889  // $metal1_conn
3 *1:2 *1:8 6.888889  // $metal1_conn
4 *1:2 *60:s 6.2  // $metal1_conn
5 *32:s *1:3 75.645454  // $metal1_conn
6 *1:4 *26:s 75.320869  // $metal1_conn
7 *1:5 *17:s 75.245132  // $metal1_conn
8 *1:7 *65:s 75.045822  // $metal1_conn
9 *1:3 *1:4 0.097609  // $metal1_conn
10 *1:4 *1:5 0.408385  // $metal1_conn
11 *1:5 *1:6 0.396042  // $metal1_conn
12 *1:6 *1:7 0.803869  // $metal1_conn
13 *1:7 *1:8 0.09666  // $metal1_conn
14 *1:8 *60:s 0.679427  // $metal1_conn

*END

*D_NET *11 1.51957e-16

*CONN
*P *11 I *C 7.1000 0.6650 
*I *32:g B *C 7.0425 0.4775 
*I *10:g B *C 7.0975 1.0075 
*N *11:2 *C 7.0700 0.6850 

*CAP
0 *10:g 2.21287e-17
1 *32:g 1.88016e-17
2 *11:2 1.11027e-16

*RES
0 *10:g *11:2 46.615028  // $poly_conn
1 *11:2 *32:g 26.102209  // $poly_conn
2 *11 *11:2 45.008984  // $metal1_conn

*END

*D_NET *39 2.96545e-16

*CONN
*P *39 I *C 6.5000 0.8550 
*I *26:g B *C 6.2025 0.4725 
*I *8:g B *C 6.2775 1.2150 
*N *39:2 *C 6.2775 0.8450 
*N *39:4 *C 6.3350 0.8450 

*CAP
0 *8:g 6.74639e-17
1 *26:g 5.47905e-17
2 *39:2 4.40965e-17
3 *39:4 7.22878e-17
4 *39 5.79059e-17

*RES
0 *8:g *39:2 43.259449  // $poly_conn
1 *39:2 *26:g 73.975166  // $poly_conn
2 *39:2 *39:4 47.969933  // $poly_conn
3 *39 *39:4 0.080084  // $metal1_conn

*END

*D_NET *52 2.01121e-16

*CONN
*P *52 I *C 1.7000 0.6650 
*I *61:g B *C 1.7425 0.5025 
*I *43:g B *C 1.6875 1.1375 
*N *52:2 *C 1.7150 0.8350 

*CAP
0 *43:g 4.03196e-17
1 *61:g 3.43162e-17
2 *52:2 8.04274e-17
3 *52 4.60576e-17

*RES
0 *61:g *52:2 58.153492  // $poly_conn
1 *52:2 *43:g 41.486824  // $poly_conn
2 *52 *52:2 45.058655  // $metal1_conn

*END

*D_NET *64 7.95417e-16

*CONN
*P *64 I *C 3.1000 1.0450 
*I *17:g B *C 5.3875 0.4375 
*I *65:g B *C 2.8175 0.4925 
*I *4:g B *C 5.1825 1.0550 
*I *16:g B *C 2.8175 1.3000 
*N *64:2 *C 2.8175 1.0075 
*N *64:4 *C 3.0350 1.0350 
*N *64:7 *C 5.1450 1.3100 

*CAP
0 *16:g 4.7073e-17
1 *4:g 7.4389e-17
2 *65:g 4.60545e-17
3 *17:g 8.77368e-17
4 *64:2 3.26572e-17
5 *64:4 2.6199e-16
6 *64:7 2.45517e-16

*RES
0 *16:g *64:2 34.104404  // $poly_conn
1 *64:2 *65:g 104.617226  // $poly_conn
2 *64:2 *64:4 87.556541  // $poly_conn
3 *17:g *4:g 133.043762  // $poly_conn
4 *4:g *64:7 61.15522  // $poly_conn
5 *64:7 *64 1.846437  // $metal1_conn
6 *64 *64:4 0.06253  // $metal1_conn

*END

*D_NET *51 2.42695e-16

*CONN
*P *51 O *C 0.5000 0.6650 
*I *55:d B *C 0.4650 0.4050 
*I *56:d B *C 0.4650 0.4050 
*I *57:d B *C 0.8750 0.4050 
*I *58:d B *C 0.8750 0.4050 
*I *22:d B *C 0.4650 1.1450 
*I *25:d B *C 0.4650 1.1450 
*I *28:d B *C 0.8875 1.1450 
*I *31:d B *C 0.8875 1.1450 

*CAP
0 *51 2.42695e-16


*END

*D_NET *53 0

*CONN
*I *23:s B *C 6.1275 0.4725 
*I *26:d B *C 6.1275 0.4725 


*RES
0 *26:d *23:s 0.001  // $mwires

*END

*D_NET *50 1.7844e-18

*CONN
*I *19:d B *C 5.6450 0.4375 
*I *21:s B *C 5.6450 0.4375 

*CAP
0 *19:d 1.7844e-18

*RES
0 *21:s *19:d 0.001  // $mwires

*END

*D_NET *49 2.92289e-18

*CONN
*I *7:s B *C 6.1975 1.2150 
*I *8:d B *C 6.1975 1.2150 

*CAP
0 *7:s 2.92289e-18

*RES
0 *8:d *7:s 0.001  // $mwires

*END

*D_NET *48 5.26667e-18

*CONN
*I *5:d B *C 5.5825 1.2150 
*I *6:s B *C 5.5825 1.2150 

*CAP
0 *5:d 5.26667e-18

*RES
0 *6:s *5:d 0.001  // $mwires

*END

*D_NET *47 5.41833e-18

*CONN
*I *2:d B *C 4.8850 1.0550 
*I *3:s B *C 4.8850 1.0550 

*CAP
0 *2:d 5.41833e-18

*RES
0 *3:s *2:d 0.001  // $mwires

*END

*D_NET *41 8.35437e-19

*CONN
*I *12:d B *C 2.5450 1.1750 
*I *14:d B *C 2.5450 1.1750 

*CAP
0 *12:d 8.35437e-19

*RES
0 *14:d *12:d 0.001  // $mwires

*END

*D_NET *40 8.57881e-16

*CONN
*I *55:g B *C 0.3625 0.4050 
*I *56:g B *C 0.5675 0.4050 
*I *57:g B *C 0.7725 0.4050 
*I *58:g B *C 0.9775 0.4050 
*I *59:d B *C 1.3100 0.3775 
*I *60:d B *C 1.3100 0.3775 
*I *63:g B *C 2.5975 0.4925 
*I *14:g B *C 2.5975 1.1750 
*I *22:g B *C 0.3625 1.1450 
*I *25:g B *C 0.5675 1.1450 
*I *28:g B *C 0.7725 1.1450 
*I *31:g B *C 1.0025 1.1450 
*I *34:d B *C 1.3100 1.1850 
*I *42:d B *C 1.3100 1.1850 
*N *40:8 *C 1.0650 0.6350 
*N *40:16 *C 2.5975 0.6950 
*N *40:17 *C 2.4950 0.6950 
*N *40:19 *C 1.3100 0.4950 
*N *40:20 *C 1.3100 0.6350 

*CAP
0 *34:d 5.18079e-17
1 *31:g 2.2905e-16
2 *14:g 9.89087e-17
3 *63:g 2.99799e-17
4 *59:d 2.08267e-17
5 *40:20 2.94137e-17
6 *40:19 1.33811e-16
7 *40:16 2.88946e-17
8 *40:8 4.46736e-17
9 *40:17 1.90515e-16

*RES
0 *14:g *40:16 80.578644  // $poly_conn
1 *40:16 *63:g 22.886339  // $poly_conn
2 *40:16 *40:17 50.485863  // $poly_conn
3 *31:g *40:8 48.38456  // $poly_conn
4 *40:17 *40:19 1.219503  // $metal1_conn
5 *40:20 *40:8 0.14975  // $metal1_conn
6 *40:20 *34:d 62.33083  // $metal1_conn
7 *40:19 *59:d 75.058365  // $metal1_conn
8 *40:19 *40:20 0.101191  // $metal1_conn

*END

*D_NET *38 8.57548e-16

*CONN
*I *54:d B *C 3.5400 0.5025 
*I *59:g B *C 1.2075 0.3775 
*I *60:g B *C 1.4125 0.3775 
*I *66:d B *C 3.5400 0.5025 
*I *18:d B *C 3.5700 1.1200 
*I *20:d B *C 3.5700 1.1200 
*I *34:g B *C 1.2075 1.1850 
*I *42:g B *C 1.4125 1.1850 
*N *38:1 *C 1.4700 0.9300 
*N *38:10 *C 3.5550 0.8750 

*CAP
0 *42:g 2.00174e-16
1 *18:d 7.13356e-17
2 *54:d 6.17904e-17
3 *38:10 2.65728e-16
4 *38:1 2.5852e-16

*RES
0 *38:1 *42:g 45.794373  // $poly_conn
1 *38:10 *38:1 2.002001  // $metal1_conn
2 *18:d *38:10 31.175224  // $metal1_conn
3 *38:10 *54:d 75.263474  // $metal1_conn

*END

*D_NET *37 7.70778e-16

*CONN
*I *13:g B *C 4.7925 0.4875 
*I *61:d B *C 1.8600 0.5025 
*I *62:g B *C 2.3525 0.4925 
*I *2:g B *C 4.7925 1.0550 
*I *12:g B *C 2.4925 1.1750 
*I *43:d B *C 1.8025 1.1375 
*N *37:1 *C 2.4650 1.4400 
*N *37:3 *C 2.3525 0.8275 
*N *37:4 *C 1.9550 0.8000 
*N *37:7 *C 3.2050 1.5200 

*CAP
0 *43:d 5.86299e-17
1 *12:g 5.79706e-17
2 *2:g 1.05143e-16
3 *62:g 4.83137e-17
4 *61:d 5.51736e-17
5 *13:g 4.27448e-17
6 *37:3 5.19648e-17
7 *37:4 9.3252e-17
8 *37:1 1.04305e-16
9 *37:7 1.5328e-16

*RES
0 *37:1 *12:g 64.691956  // $poly_conn
1 *12:g *37:3 78.190392  // $poly_conn
2 *37:3 *37:4 137.257904  // $poly_conn
3 *37:3 *62:g 54.915871  // $poly_conn
4 *2:g *37:7 524.162537  // $poly_conn
5 *2:g *13:g 79.487183  // $poly_conn
6 *61:d *37:4 75.179512  // $metal1_conn
7 *37:4 *43:d 62.193485  // $metal1_conn
8 *37:7 *37:1 0.66489  // $metal1_conn

*END

*D_NET *36 1.69089e-16

*CONN
*I *62:d B *C 2.4750 0.4925 
*I *63:d B *C 2.4750 0.4925 
*I *66:s B *C 3.3200 0.5025 

*CAP
0 *66:s 7.72798e-17
1 *62:d 9.18095e-17

*RES
0 *66:s *62:d 150.616943  // $metal1_conn

*END

*D_NET *35 2.54849e-16

*CONN
*I *62:s B *C 2.1925 0.4925 
*I *63:s B *C 2.7075 0.4925 
*I *65:d B *C 2.7075 0.4925 

*CAP
0 *63:s 1.27049e-16
1 *62:s 1.278e-16

*RES
0 *62:s *63:s 150.847122  // $metal1_conn

*END

*D_NET *33 1.63671e-16

*CONN
*I *14:s B *C 2.7575 1.3000 
*I *16:d B *C 2.7575 1.3000 
*I *18:s B *C 3.2875 1.1200 

*CAP
0 *18:s 8.61361e-17
1 *14:s 7.7535e-17

*RES
0 *18:s *14:s 124.288719  // $metal1_conn

*END

*D_NET *30 1.65461e-15

*CONN
*I *23:g B *C 6.0525 0.4725 
*I *29:g B *C 6.4675 0.5025 
*I *32:d B *C 6.9175 0.4775 
*I *66:g B *C 3.3925 0.5025 
*I *6:g B *C 5.6725 1.2150 
*I *9:g B *C 6.4825 1.2625 
*I *10:d B *C 7.0250 1.0075 
*I *20:g B *C 3.6875 1.1200 
*N *30:2 *C 3.3650 0.7150 
*N *30:4 *C 3.7150 0.8550 
*N *30:6 *C 5.6350 0.9600 
*N *30:8 *C 6.0150 0.6850 
*N *30:10 *C 6.4950 0.6850 
*N *30:12 *C 5.6050 1.1075 
*N *30:13 *C 6.4950 0.6850 
*N *30:15 *C 6.8750 0.4650 

*CAP
0 *20:g 4.34119e-17
1 *10:d 6.47507e-17
2 *9:g 4.91815e-17
3 *6:g 3.60531e-17
4 *66:g 3.63649e-17
5 *32:d 1.05531e-16
6 *29:g 2.51691e-17
7 *23:g 5.12123e-17
8 *30:12 3.00902e-16
9 *30:2 1.31227e-16
10 *30:4 3.99012e-16
11 *30:6 8.72945e-17
12 *30:8 1.54437e-16
13 *30:10 1.70068e-16

*RES
0 *66:g *30:2 64.691956  // $poly_conn
1 *20:g *30:4 64.691956  // $poly_conn
2 *6:g *30:6 61.15522  // $poly_conn
3 *23:g *30:8 63.719322  // $poly_conn
4 *9:g *30:10 109.706367  // $poly_conn
5 *30:10 *29:g 17.398676  // $poly_conn
6 *30:2 *30:4 0.884463  // $metal1_conn
7 *30:4 *30:12 1.854176  // $metal1_conn
8 *30:12 *30:6 0.110824  // $metal1_conn
9 *30:12 *30:8 0.893756  // $metal1_conn
10 *30:8 *30:13 0.340546  // $metal1_conn
11 *30:13 *30:15 0.587778  // $metal1_conn
12 *30:15 *10:d 62.387527  // $metal1_conn
13 *30:10 *30:13 45  // $metal1_conn
14 *32:d *30:15 75  // $metal1_conn

*END

*D_NET *27 8.9878e-16

*CONN
*I *13:d B *C 4.9025 0.4875 
*I *15:d B *C 4.9025 0.4875 
*I *19:g B *C 5.5925 0.4375 
*I *54:s B *C 3.8525 0.5025 
*I *3:d B *C 5.0800 1.0550 
*I *4:d B *C 5.0800 1.0550 
*I *5:g B *C 5.4925 1.2150 
*I *20:s B *C 3.8225 1.1200 
*N *27:2 *C 5.4925 0.9600 
*N *27:3 *C 5.4150 0.9600 
*N *27:6 *C 5.0800 0.9600 
*N *27:7 *C 3.9350 0.9350 
*N *27:9 *C 3.9350 0.6050 

*CAP
0 *20:s 3.23122e-17
1 *5:g 4.77987e-17
2 *3:d 1.8382e-16
3 *54:s 1.19149e-16
4 *19:g 9.55617e-17
5 *13:d 1.37527e-16
6 *27:7 1.46908e-16
7 *27:2 5.67629e-17
8 *27:3 7.89405e-17

*RES
0 *19:g *27:2 118.750626  // $poly_conn
1 *27:2 *27:3 47.826286  // $poly_conn
2 *27:2 *5:g 22.886339  // $poly_conn
3 *27:3 *27:6 0.279833  // $metal1_conn
4 *27:6 *27:7 0.946776  // $metal1_conn
5 *27:7 *20:s 62.112743  // $metal1_conn
6 *27:7 *27:9 0.235551  // $metal1_conn
7 *27:9 *54:s 75.053131  // $metal1_conn
8 *27:9 *13:d 75.735466  // $metal1_conn
9 *3:d *27:6 62  // $metal1_conn

*END

*D_NET *24 1.14323e-16

*CONN
*I *13:s B *C 4.7000 0.4875 
*I *15:s B *C 5.3150 0.4375 
*I *17:d B *C 5.3150 0.4375 

*CAP
0 *15:s 4.58902e-17
1 *13:s 6.8433e-17

*RES
0 *15:s *13:s 150.309662  // $metal1_conn

*END

*D_NET *46 4.17909e-16

*CONN
*I *15:g B *C 5.0125 0.4875 
*I *21:d B *C 5.9800 0.4725 
*I *23:d B *C 5.9800 0.4725 
*I *3:g B *C 4.9775 1.0550 
*I *6:d B *C 5.8950 1.2150 
*I *7:d B *C 5.8950 1.2150 
*N *46:1 *C 5.2450 0.6400 
*N *46:2 *C 5.0175 0.6775 
*N *46:7 *C 5.8250 0.4800 

*CAP
0 *6:d 9.27718e-17
1 *3:g 6.37423e-17
2 *21:d 9.0898e-17
3 *15:g 3.40459e-17
4 *46:2 2.83294e-17
5 *46:1 1.08122e-16

*RES
0 *46:1 *46:2 94.322357  // $poly_conn
1 *46:2 *3:g 60.709  // $poly_conn
2 *46:2 *15:g 17.087807  // $poly_conn
3 *6:d *46:7 62.504257  // $metal1_conn
4 *46:7 *46:1 0.491222  // $metal1_conn
5 *21:d *46:7 75  // $metal1_conn

*END

*D_NET *44 1.04646e-15

*CONN
*I *21:g B *C 5.6975 0.4375 
*I *29:d B *C 6.6025 0.5025 
*I *54:g B *C 3.6875 0.5025 
*I *7:g B *C 6.1175 1.2150 
*I *9:d B *C 6.5750 1.2625 
*I *18:g B *C 3.4525 1.1200 
*N *44:2 *C 3.6875 0.7125 
*N *44:4 *C 4.1250 0.7650 
*N *44:6 *C 6.1450 0.9500 
*N *44:7 *C 5.6975 0.8000 
*N *44:8 *C 5.6350 0.8000 
*N *44:11 *C 6.5850 1.0750 

*CAP
0 *18:g 4.95278e-17
1 *9:d 1.78132e-17
2 *7:g 3.85812e-17
3 *54:g 2.73397e-17
4 *29:d 9.6899e-17
5 *21:g 6.74535e-17
6 *44:11 9.71147e-17
7 *44:7 4.44947e-17
8 *44:2 5.9983e-17
9 *44:4 2.16555e-16
10 *44:8 2.255e-16
11 *44:6 1.05202e-16

*RES
0 *54:g *44:2 23.055975  // $poly_conn
1 *44:2 *18:g 105.723175  // $poly_conn
2 *44:2 *44:4 155.256821  // $poly_conn
3 *7:g *44:6 16.530041  // $poly_conn
4 *44:6 *44:7 115.574989  // $poly_conn
5 *44:7 *44:8 48.900734  // $poly_conn
6 *44:7 *21:g 56.852413  // $poly_conn
7 *44:8 *44:4 1.313873  // $metal1_conn
8 *29:d *44:11 75.560127  // $metal1_conn
9 *44:11 *44:6 45.419029  // $metal1_conn
10 *44:11 *9:d 62.07151  // $metal1_conn

*END

