*SPEF "IEEE 1481-1999"
*DESIGN  "DFFSHQX4"
*DATE "Mon Sep 27 09:33:47 2010"
*VENDOR "Cadence Design Systems"
*PROGRAM "Assura RCX"
*VERSION "3.2 Red Hat Linux release 7.2 (Enigma) - (09/09/2009-10:39)"
*DESIGN_FLOW "Physical Verification"
*DIVIDER /
*DELIMITER :
*BUS_DELIMITER []
*T_UNIT 1 PS
*C_UNIT 1e15 FF
*R_UNIT 1 OHM
*L_UNIT 1 MH
// DeviceFingerDelim "@"
// MATCHED
// caps2d version: 10

*NAME_MAP
*1 VDD
*2 n21
*3 VSS
*4 n41
*5 n20
*6 qbint
*7 mn30
*8 mn31
*9 mn36
*10 mp55\@1
*11 mn35
*12 mp55\@2
*13 mn26
*14 mp55\@3
*15 mp30
*16 mn25
*17 mp45
*18 mp31
*19 mn21
*20 mp45\@1
*21 mp35
*22 mn55\@1
*23 mn20
*24 mp50
*25 mp36
*26 mn55\@2
*27 mn55
*28 mp51
*29 mp26
*30 mn55\@3
*31 mp52
*32 mp25
*33 mn45
*34 mp40
*35 mp21
*36 mn45\@1
*37 mp20
*38 mn50
*39 mp55
*40 mn51
*41 mn52
*42 mn40
*43 CK
*44 SN
*45 D
*46 mout
*47 n35
*48 CKbb
*49 CKb
*50 n31
*51 n22
*52 n42
*53 n40
*54 Q
*55 n25
*56 n30

*GROUND_NETS VSS

*PORTS
*1 I
*3 I
*43 I
*45 I
*44 I
*54 O

*D_NET *1 8.66979e-16

*CONN
*P *1 I *C 0.1000 1.7100 
*I *15:s B *C 3.1400 1.0550 
*I *18:s B *C 3.5500 1.5700 
*I *21:s B *C 3.5500 1.5700 
*I *32:s B *C 4.5750 1.1675 
*I *35:s B *C 4.5750 1.1675 
*I *37:s B *C 5.3700 1.0075 
*I *39:s B *C 0.1400 1.2700 
*I *10:s B *C 0.5400 1.2700 
*I *12:s B *C 0.5400 1.2700 
*I *14:s B *C 1.0000 1.3100 
*I *17:s B *C 1.0000 1.3100 
*I *20:s B *C 1.4050 1.3100 
*I *24:s B *C 1.4050 1.3100 
*I *28:s B *C 1.8300 1.3100 
*N *1:2 *C 4.7000 1.7100 
*N *1:3 *C 4.7000 1.7100 
*N *1:4 *C 4.5000 1.7100 
*N *1:5 *C 3.5250 1.7100 
*N *1:6 *C 3.0550 1.7100 
*N *1:7 *C 2.9000 1.7100 
*N *1:8 *C 1.8400 1.7100 

*CAP
0 *28:s 3.23835e-17
1 *37:s 3.1501e-17
2 *32:s 3.62106e-17
3 *18:s 2.24497e-17
4 *15:s 1.88951e-17
5 *1:8 2.52779e-17
6 *1:6 8.88044e-18
7 *1:5 3.2775e-17
8 *1:4 2.20118e-17
9 *1:2 3.69406e-16
10 *1 2.67188e-16

*RES
0 *1:2 *1:3 8.333333  // $metal1_conn
1 *1:2 *1:7 8.333333  // $metal1_conn
2 *1:2 *1 7.5  // $metal1_conn
3 *37:s *1:3 62.789902  // $metal1_conn
4 *1:4 *32:s 62.315136  // $metal1_conn
5 *1:5 *18:s 62.045834  // $metal1_conn
6 *1:6 *15:s 62.045834  // $metal1_conn
7 *1:8 *28:s 62.189716  // $metal1_conn
8 *1:3 *1:4 0.100134  // $metal1_conn
9 *1:4 *1:5 0.487767  // $metal1_conn
10 *1:5 *1:6 0.233484  // $metal1_conn
11 *1:6 *1:7 0.07661  // $metal1_conn
12 *1:7 *1:8 0.531553  // $metal1_conn
13 *1:8 *1 0.230367  // $metal1_conn

*END

*D_NET *3 0

*CONN
*P *3 I *C 0.1000 0.0000 
*I *7:s B *C 2.9800 0.4275 
*I *9:s B *C 3.7850 0.4675 
*I *16:s B *C 4.5775 0.4975 
*I *19:s B *C 4.5775 0.4975 
*I *23:s B *C 5.4275 0.5875 
*I *27:s B *C 0.1400 0.5300 
*I *22:s B *C 0.5400 0.5300 
*I *26:s B *C 0.5400 0.5300 
*I *30:s B *C 1.0000 0.5025 
*I *33:s B *C 1.0000 0.5025 
*I *36:s B *C 1.3950 0.5025 
*I *38:s B *C 1.3950 0.5025 
*N *3:2 *C 4.7000 0.0000 
*N *3:3 *C 4.7000 0.0000 
*N *3:4 *C 4.4350 0.0000 
*N *3:5 *C 3.7750 0.0000 
*N *3:6 *C 3.0000 0.0000 
*N *3:7 *C 2.9000 0.0000 


*RES
0 *36:s *3 0.015102  // $metal1_conn
1 *3:2 *3:3 6.888889  // $metal1_conn
2 *3:2 *3:7 6.888889  // $metal1_conn
3 *3:2 *36:s 6.2  // $metal1_conn
4 *23:s *3:3 75.801422  // $metal1_conn
5 *3:4 *16:s 75.267448  // $metal1_conn
6 *3:5 *9:s 75.267792  // $metal1_conn
7 *3:6 *7:s 75.235107  // $metal1_conn
8 *3:3 *3:4 0.132741  // $metal1_conn
9 *3:4 *3:5 0.330697  // $metal1_conn
10 *3:5 *3:6 0.388387  // $metal1_conn
11 *3:6 *3:7 0.049969  // $metal1_conn
12 *3:7 *36:s 0.772346  // $metal1_conn

*END

*D_NET *43 1.73676e-16

*CONN
*P *43 I *C 5.3000 0.8550 
*I *23:g B *C 5.2775 0.5875 
*I *37:g B *C 5.2775 1.0075 
*N *43:2 *C 5.3150 0.7600 

*CAP
0 *37:g 1.99263e-17
1 *23:g 1.4169e-17
2 *43:2 9.68416e-17
3 *43 4.27395e-17

*RES
0 *37:g *43:2 26.411629  // $poly_conn
1 *43:2 *23:g 16.15522  // $poly_conn
2 *43:2 *43 45.051537  // $metal1_conn

*END

*D_NET *45 2.98624e-16

*CONN
*P *45 I *C 4.5000 0.8550 
*I *16:g B *C 4.3625 0.4675 
*I *32:g B *C 4.3975 1.1200 
*N *45:2 *C 4.4250 0.7750 

*CAP
0 *32:g 5.46454e-17
1 *16:g 6.19346e-17
2 *45:2 9.65351e-17
3 *45 8.55084e-17

*RES
0 *32:g *45:2 40.204773  // $poly_conn
1 *45:2 *16:g 44.749485  // $poly_conn
2 *45 *45:2 45.078938  // $metal1_conn

*END

*D_NET *44 6.95855e-16

*CONN
*P *44 I *C 1.9000 0.6650 
*I *7:g B *C 3.0725 0.4275 
*I *38:g B *C 1.5325 0.5025 
*I *15:g B *C 3.1875 1.0550 
*I *24:g B *C 1.5325 1.3100 
*N *44:2 *C 1.5050 0.8950 
*N *44:5 *C 3.0450 0.6400 

*CAP
0 *24:g 4.94575e-17
1 *15:g 5.87268e-17
2 *38:g 4.39891e-17
3 *7:g 4.37563e-17
4 *44:2 1.3444e-16
5 *44:5 1.87368e-16
6 *44 1.78117e-16

*RES
0 *24:g *44:2 58.153492  // $poly_conn
1 *44:2 *38:g 65.845802  // $poly_conn
2 *15:g *44:5 75.812637  // $poly_conn
3 *44:5 *7:g 19.691952  // $poly_conn
4 *44:5 *44 46.174564  // $metal1_conn
5 *44 *44:2 45.466148  // $metal1_conn

*END

*D_NET *54 2.51629e-16

*CONN
*P *54 O *C 0.3000 0.6650 
*I *27:d B *C 0.3350 0.5300 
*I *22:d B *C 0.3350 0.5300 
*I *26:d B *C 0.7450 0.5300 
*I *30:d B *C 0.7450 0.5300 
*I *39:d B *C 0.3350 1.2700 
*I *10:d B *C 0.3350 1.2700 
*I *12:d B *C 0.7450 1.2700 
*I *14:d B *C 0.7450 1.2700 

*CAP
0 *54 2.51629e-16


*END

*D_NET *2 1.2771e-18

*CONN
*I *13:s B *C 4.3100 0.4675 
*I *16:d B *C 4.3100 0.4675 

*CAP
0 *13:s 1.2771e-18

*RES
0 *16:d *13:s 0.001  // $mwires

*END

*D_NET *56 4.82966e-18

*CONN
*I *9:d B *C 3.9650 0.4675 
*I *11:s B *C 3.9650 0.4675 

*CAP
0 *9:d 4.82966e-18

*RES
0 *11:s *9:d 0.001  // $mwires

*END

*D_NET *55 0

*CONN
*I *7:d B *C 3.1250 0.4275 
*I *8:s B *C 3.1250 0.4275 


*RES
0 *8:s *7:d 0.001  // $mwires

*END

*D_NET *53 5.49085e-18

*CONN
*I *40:d B *C 1.9325 0.5025 
*I *41:s B *C 1.9325 0.5025 

*CAP
0 *40:d 5.49085e-18

*RES
0 *41:s *40:d 0.001  // $mwires

*END

*D_NET *52 0

*CONN
*I *38:d B *C 1.6350 0.5025 
*I *40:s B *C 1.6350 0.5025 


*RES
0 *40:s *38:d 0.001  // $mwires

*END

*D_NET *51 3.20719e-18

*CONN
*I *29:s B *C 4.3075 1.1200 
*I *32:d B *C 4.3075 1.1200 

*CAP
0 *29:s 3.20719e-18

*RES
0 *32:d *29:s 0.001  // $mwires

*END

*D_NET *50 1.65053e-18

*CONN
*I *21:d B *C 3.7500 1.0550 
*I *25:s B *C 3.7500 1.0550 

*CAP
0 *21:d 1.65053e-18

*RES
0 *25:s *21:d 0.001  // $mwires

*END

*D_NET *49 1.33794e-15

*CONN
*I *13:g B *C 4.2575 0.4675 
*I *19:g B *C 4.6525 0.4975 
*I *23:d B *C 5.1750 0.5875 
*I *41:g B *C 2.1275 0.5025 
*I *25:g B *C 3.8025 1.0550 
*I *35:g B *C 4.6525 1.1675 
*I *37:d B *C 5.1850 1.0075 
*I *34:g B *C 2.6425 1.1200 
*N *49:2 *C 2.2600 0.7300 
*N *49:3 *C 2.6950 0.8650 
*N *49:5 *C 3.9350 0.8000 
*N *49:8 *C 4.2200 0.6700 
*N *49:10 *C 4.6250 0.6850 
*N *49:14 *C 5.1550 0.5750 
*N *49:15 *C 4.6250 0.5850 
*N *49:16 *C 4.0950 0.8000 

*CAP
0 *34:g 4.08988e-17
1 *37:d 6.37439e-17
2 *35:g 4.03298e-17
3 *25:g 7.87065e-17
4 *41:g 3.10266e-17
5 *23:d 1.25872e-16
6 *19:g 2.42572e-17
7 *13:g 7.23014e-17
8 *49:16 1.81964e-16
9 *49:15 9.12618e-17
10 *49:2 9.69864e-17
11 *49:3 2.45347e-16
12 *49:5 6.01994e-17
13 *49:8 1.18684e-16
14 *49:10 6.63623e-17

*RES
0 *41:g *49:2 89.547165  // $poly_conn
1 *49:3 *34:g 65.232071  // $poly_conn
2 *49:5 *25:g 76.21225  // $poly_conn
3 *13:g *49:8 61.15522  // $poly_conn
4 *35:g *49:10 87.640671  // $poly_conn
5 *49:10 *19:g 20.974003  // $poly_conn
6 *37:d *49:14 62.399418  // $metal1_conn
7 *49:14 *49:15 0.662071  // $metal1_conn
8 *49:15 *49:8 0.296701  // $metal1_conn
9 *49:8 *49:16 0.096996  // $metal1_conn
10 *49:16 *49:3 1.637551  // $metal1_conn
11 *49:3 *49:2 0.386712  // $metal1_conn
12 *49:15 *49:10 45.052822  // $metal1_conn
13 *49:16 *49:5 0.090912  // $metal1_conn
14 *23:d *49:14 75  // $metal1_conn

*END

*D_NET *48 8.99169e-16

*CONN
*I *11:g B *C 4.0525 0.4675 
*I *19:d B *C 4.8400 0.4975 
*I *42:g B *C 2.4025 0.5025 
*I *29:g B *C 4.2175 1.1200 
*I *35:d B *C 4.7450 1.1675 
*I *31:g B *C 2.4025 1.1200 
*N *48:3 *C 2.4300 1.3850 
*N *48:5 *C 4.2550 0.8650 
*N *48:7 *C 4.2550 1.0250 
*N *48:8 *C 4.8350 1.0250 

*CAP
0 *31:g 4.08747e-17
1 *35:d 1.98925e-17
2 *29:g 3.65537e-17
3 *42:g 4.88046e-17
4 *19:d 6.97741e-17
5 *11:g 7.71639e-17
6 *48:8 9.86764e-17
7 *48:7 2.01485e-16
8 *48:3 2.11336e-16
9 *48:5 9.46082e-17

*RES
0 *31:g *42:g 92.307693  // $poly_conn
1 *31:g *48:3 64.691956  // $poly_conn
2 *29:g *48:5 16.15522  // $poly_conn
3 *48:5 *11:g 100.740196  // $poly_conn
4 *48:5 *48:7 45.130352  // $metal1_conn
5 *48:7 *48:3 1.622668  // $metal1_conn
6 *48:7 *48:8 0.359786  // $metal1_conn
7 *48:8 *19:d 75.360321  // $metal1_conn
8 *48:8 *35:d 62.02951  // $metal1_conn

*END

*D_NET *47 6.30822e-16

*CONN
*I *33:g B *C 1.0525 0.5025 
*I *36:g B *C 1.2575 0.5025 
*I *41:d B *C 2.2650 0.5025 
*I *42:d B *C 2.2650 0.5025 
*I *17:g B *C 1.0525 1.3100 
*I *20:g B *C 1.2775 1.3100 
*I *31:d B *C 2.5225 1.1200 
*I *34:d B *C 2.5225 1.1200 
*N *47:6 *C 1.3150 1.0250 
*N *47:9 *C 2.0700 1.0550 

*CAP
0 *31:d 8.88131e-17
1 *20:g 2.0586e-16
2 *41:d 9.36732e-17
3 *47:9 1.46961e-16
4 *47:6 9.55157e-17

*RES
0 *20:g *47:6 47.215244  // $poly_conn
1 *47:9 *47:6 0.59037  // $metal1_conn
2 *31:d *47:9 62.39732  // $metal1_conn
3 *47:9 *41:d 75.460426  // $metal1_conn

*END

*D_NET *46 5.2972e-16

*CONN
*I *8:d B *C 3.2700 0.4275 
*I *9:g B *C 3.8775 0.4675 
*I *42:s B *C 2.4950 0.5025 
*I *15:d B *C 3.2900 1.0550 
*I *18:d B *C 3.2900 1.0550 
*I *21:g B *C 3.6975 1.0550 
*I *34:s B *C 2.8400 1.0250 
*N *46:2 *C 3.6975 0.6675 
*N *46:3 *C 3.5550 0.6700 
*N *46:6 *C 3.2050 0.8300 
*N *46:7 *C 2.8850 0.8300 
*N *46:9 *C 3.2800 0.6000 

*CAP
0 *34:s 3.75132e-17
1 *21:g 8.63524e-17
2 *15:d 3.43844e-17
3 *42:s 7.41268e-17
4 *9:g 4.6709e-17
5 *8:d 1.92868e-17
6 *46:9 4.07493e-17
7 *46:7 6.65492e-17
8 *46:6 3.28283e-17
9 *46:2 2.28563e-17
10 *46:3 6.83641e-17

*RES
0 *9:g *46:2 64.08783  // $poly_conn
1 *46:2 *46:3 70.116661  // $poly_conn
2 *46:2 *21:g 54.915871  // $poly_conn
3 *15:d *46:6 62.176105  // $metal1_conn
4 *46:6 *46:7 0.191904  // $metal1_conn
5 *46:7 *42:s 75.44603  // $metal1_conn
6 *46:6 *46:9 0.233402  // $metal1_conn
7 *46:9 *8:d 75.071106  // $metal1_conn
8 *46:7 *34:s 62.137672  // $metal1_conn
9 *46:9 *46:3 0.225416  // $metal1_conn

*END

*D_NET *6 6.32683e-16

*CONN
*I *27:g B *C 0.2325 0.5300 
*I *22:g B *C 0.4375 0.5300 
*I *26:g B *C 0.6425 0.5300 
*I *30:g B *C 0.8475 0.5300 
*I *33:d B *C 1.1550 0.5025 
*I *36:d B *C 1.1550 0.5025 
*I *40:g B *C 1.7375 0.5025 
*I *39:g B *C 0.2325 1.2700 
*I *10:g B *C 0.4375 1.2700 
*I *12:g B *C 0.6425 1.2700 
*I *14:g B *C 0.8475 1.2700 
*I *17:d B *C 1.1650 1.3100 
*I *20:d B *C 1.1650 1.3100 
*I *28:g B *C 1.7375 1.3100 
*N *6:8 *C 0.9050 0.7600 
*N *6:15 *C 1.7000 0.7050 
*N *6:17 *C 1.1550 0.7300 

*CAP
0 *28:g 5.70031e-17
1 *17:d 6.70115e-17
2 *14:g 2.40976e-16
3 *40:g 2.49677e-17
4 *33:d 2.50101e-17
5 *6:17 5.75739e-17
6 *6:8 5.23108e-17
7 *6:15 1.07831e-16

*RES
0 *28:g *6:15 105.898811  // $poly_conn
1 *6:15 *40:g 16.15522  // $poly_conn
2 *14:g *6:8 48.256718  // $poly_conn
3 *6:15 *6:17 45.387718  // $metal1_conn
4 *6:17 *6:8 0.174364  // $metal1_conn
5 *6:17 *17:d 31.409708  // $metal1_conn
6 *6:17 *33:d 75.127838  // $metal1_conn

*END

*D_NET *5 4.46528e-16

*CONN
*I *8:g B *C 3.1775 0.4275 
*I *11:d B *C 4.1550 0.4675 
*I *13:d B *C 4.1550 0.4675 
*I *18:g B *C 3.3925 1.0550 
*I *25:d B *C 4.1450 1.1200 
*I *29:d B *C 4.1450 1.1200 
*N *5:2 *C 3.3650 0.7900 
*N *5:5 *C 3.7450 0.8300 

*CAP
0 *25:d 5.61065e-17
1 *18:g 4.73432e-17
2 *11:d 7.13721e-17
3 *8:g 6.276e-17
4 *5:5 9.77007e-17
5 *5:2 1.11245e-16

*RES
0 *18:g *5:2 19.691952  // $poly_conn
1 *5:2 *8:g 87.351097  // $poly_conn
2 *11:d *5:5 75.569878  // $metal1_conn
3 *5:5 *5:2 45.249634  // $metal1_conn
4 *5:5 *25:d 62.257622  // $metal1_conn

*END

*D_NET *4 1.8367e-16

*CONN
*I *24:d B *C 1.6350 1.3100 
*I *28:d B *C 1.6350 1.3100 
*I *31:s B *C 2.3100 1.1200 

*CAP
0 *31:s 8.2186e-17
1 *24:d 1.01484e-16

*RES
0 *31:s *24:d 93.568672  // $metal1_conn

*END

