*SPEF "IEEE 1481-1999"
*DESIGN  "DFFSRHQX8"
*DATE "Mon Sep 27 09:35:40 2010"
*VENDOR "Cadence Design Systems"
*PROGRAM "Assura RCX"
*VERSION "3.2 Red Hat Linux release 7.2 (Enigma) - (09/09/2009-10:39)"
*DESIGN_FLOW "Physical Verification"
*DIVIDER /
*DELIMITER :
*BUS_DELIMITER []
*T_UNIT 1 PS
*C_UNIT 1e15 FF
*R_UNIT 1 OHM
*L_UNIT 1 MH
// DeviceFingerDelim "@"
// MATCHED
// caps2d version: 10

*NAME_MAP
*1 mn55\@1
*2 n26
*3 n31
*4 n22
*5 n30
*6 n21
*7 mn55\@2
*8 mn55\@3
*9 mn55\@4
*10 mn55\@5
*11 mn55\@6
*12 mn45\@2
*13 mp21
*14 mp20
*15 mp45
*16 mp22
*17 mp50
*18 mp52
*19 mp51
*20 mp45\@1
*21 mp55
*22 mp55\@1
*23 mp55\@2
*24 mp55\@3
*25 VDD
*26 mp55\@4
*27 mp55\@5
*28 mp55\@6
*29 mp45\@2
*30 n42
*31 n25
*32 mn53
*33 mn40
*34 mp53
*35 mn31
*36 mp40
*37 mn32
*38 VSS
*39 mp31
*40 mn30
*41 mp32
*42 mn35
*43 mp30
*44 mn36
*45 mp35
*46 mn26
*47 mp36
*48 mn25
*49 mp26
*50 mp25
*51 D
*52 CK
*53 RN
*54 Q
*55 SN
*56 n41
*57 n40
*58 n20
*59 RNb
*60 qbint
*61 mout
*62 n35
*63 CKb
*64 mn21
*65 CKbb
*66 mn20
*67 n43
*68 mn45
*69 mn22
*70 mn50
*71 mn52
*72 mn51
*73 mn45\@1
*74 mn55

*GROUND_NETS VSS

*PORTS
*25 I
*38 I
*52 I
*51 I
*53 I
*55 I
*54 O

*D_NET *25 1.39122e-15

*CONN
*P *25 I *C 0.1000 1.7100 
*I *39:s B *C 5.2050 1.0550 
*I *43:s B *C 5.9525 1.1850 
*I *45:s B *C 5.9525 1.1850 
*I *50:s B *C 6.9200 1.1375 
*I *13:s B *C 6.9200 1.1375 
*I *14:s B *C 7.5450 1.2675 
*I *15:s B *C 1.9550 1.1500 
*I *16:s B *C 3.0650 1.1400 
*I *17:s B *C 3.0650 1.1400 
*I *19:s B *C 3.7400 1.3100 
*I *20:s B *C 1.9550 1.1500 
*I *21:s B *C 0.3150 1.1225 
*I *22:s B *C 0.3150 1.1225 
*I *23:s B *C 0.7250 1.1225 
*I *24:s B *C 0.7250 1.1225 
*I *26:s B *C 1.1350 1.1225 
*I *27:s B *C 1.1350 1.1225 
*I *28:s B *C 1.5950 1.1500 
*I *29:s B *C 1.5950 1.1500 
*N *25:2 *C 6.8700 1.7100 
*N *25:3 *C 6.8000 1.7100 
*N *25:4 *C 6.8000 1.7100 
*N *25:5 *C 6.0700 1.7100 
*N *25:6 *C 5.1500 1.7100 
*N *25:7 *C 4.9000 1.7100 
*N *25:8 *C 3.7100 1.7100 
*N *25:9 *C 3.0000 1.7100 
*N *25:10 *C 2.7900 1.7100 

*CAP
0 *19:s 4.32075e-17
1 *16:s 6.2373e-17
2 *15:s 4.89165e-16
3 *14:s 2.10745e-17
4 *50:s 3.91035e-17
5 *43:s 4.42305e-17
6 *39:s 3.78209e-17
7 *25:10 4.07856e-17
8 *25:8 5.79792e-17
9 *25:6 2.80578e-17
10 *25:5 2.66209e-17
11 *25:2 1.45838e-17
12 *25:3 4.79235e-16
13 *25 6.98535e-18

*RES
0 *15:s *25 0.107581  // $metal1_conn
1 *25:3 *25:4 7.5  // $metal1_conn
2 *25:3 *25:7 8.333333  // $metal1_conn
3 *25:3 *25:9 7.5  // $metal1_conn
4 *25:3 *15:s 7.5  // $metal1_conn
5 *14:s *25:2 62.621834  // $metal1_conn
6 *25:2 *50:s 62.338318  // $metal1_conn
7 *25:5 *43:s 62.26598  // $metal1_conn
8 *25:6 *39:s 62.178734  // $metal1_conn
9 *25:8 *19:s 62.242489  // $metal1_conn
10 *25:10 *16:s 62.206043  // $metal1_conn
11 *25:2 *25:4 0.034926  // $metal1_conn
12 *25:4 *25:5 0.366131  // $metal1_conn
13 *25:5 *25:6 0.46128  // $metal1_conn
14 *25:6 *25:7 0.125258  // $metal1_conn
15 *25:7 *25:8 0.596967  // $metal1_conn
16 *25:8 *25:9 0.356095  // $metal1_conn
17 *25:9 *25:10 0.105186  // $metal1_conn
18 *25:10 *15:s 0.418626  // $metal1_conn

*END

*D_NET *38 0

*CONN
*P *38 I *C 0.1000 0.0000 
*I *40:s B *C 5.9525 0.4625 
*I *42:s B *C 5.9525 0.4625 
*I *48:s B *C 6.9850 0.5375 
*I *64:s B *C 6.9850 0.5375 
*I *66:s B *C 7.6250 0.3300 
*I *68:s B *C 1.9650 0.5300 
*I *69:s B *C 3.0350 0.4525 
*I *70:s B *C 3.0350 0.4525 
*I *73:s B *C 1.9650 0.5300 
*I *74:s B *C 0.3150 0.5125 
*I *1:s B *C 0.3150 0.5125 
*I *7:s B *C 0.7250 0.5125 
*I *8:s B *C 0.7250 0.5125 
*I *9:s B *C 1.1350 0.5125 
*I *10:s B *C 1.1350 0.5125 
*I *11:s B *C 1.5950 0.5300 
*I *12:s B *C 1.5950 0.5300 
*N *38:2 *C 6.9000 0.0000 
*N *38:3 *C 6.8000 0.0000 
*N *38:4 *C 6.8000 0.0000 
*N *38:5 *C 5.8650 0.0000 
*N *38:6 *C 4.9000 0.0000 
*N *38:7 *C 3.0000 0.0000 


*RES
0 *68:s *38 0.107581  // $metal1_conn
1 *38:3 *38:4 6.2  // $metal1_conn
2 *38:3 *38:6 6.888889  // $metal1_conn
3 *38:3 *38:7 6.2  // $metal1_conn
4 *38:3 *68:s 6.2  // $metal1_conn
5 *66:s *38:2 75.450005  // $metal1_conn
6 *38:2 *48:s 75.045845  // $metal1_conn
7 *38:5 *40:s 75.262962  // $metal1_conn
8 *38:7 *69:s 75.06147  // $metal1_conn
9 *38:2 *38:4 0.049028  // $metal1_conn
10 *38:4 *38:5 0.469004  // $metal1_conn
11 *38:5 *38:6 0.484058  // $metal1_conn
12 *38:6 *38:7 0.953455  // $metal1_conn
13 *38:7 *68:s 0.524204  // $metal1_conn

*END

*D_NET *52 1.7472e-16

*CONN
*P *52 I *C 7.5000 1.0450 
*I *66:g B *C 7.5275 0.5075 
*I *14:g B *C 7.4525 1.2675 
*N *52:2 *C 7.4900 1.0400 
*N *52:4 *C 7.4900 1.0400 

*CAP
0 *14:g 2.17621e-17
1 *66:g 3.16218e-17
2 *52:2 2.65787e-17
3 *52 9.47576e-17

*RES
0 *66:g *52:2 110.733223  // $poly_conn
1 *52:2 *14:g 23.553736  // $poly_conn
2 *52:4 *52 0.003119  // $metal1_conn
3 *52:2 *52:4 45  // $metal1_conn

*END

*D_NET *51 2.93364e-16

*CONN
*P *51 I *C 6.9000 0.6650 
*I *48:g B *C 6.7675 0.4625 
*I *50:g B *C 6.7675 1.1850 
*N *51:1 *C 6.8250 0.7150 
*N *51:2 *C 6.7675 0.7150 

*CAP
0 *50:g 7.20355e-17
1 *48:g 4.439e-17
2 *51:2 6.51173e-17
3 *51:1 6.65057e-17
4 *51 4.5315e-17

*RES
0 *51:1 *51:2 45.778431  // $poly_conn
1 *51:2 *48:g 31.791147  // $poly_conn
2 *51:2 *50:g 74.098839  // $poly_conn
3 *51 *51:1 0.023655  // $metal1_conn

*END

*D_NET *53 1.82634e-16

*CONN
*P *53 I *C 2.7000 0.8550 
*I *69:g B *C 2.7275 0.4825 
*I *16:g B *C 2.6275 1.0075 
*N *53:2 *C 2.6900 0.7750 
*N *53:4 *C 2.6900 0.7750 

*CAP
0 *16:g 2.48555e-17
1 *69:g 2.63673e-17
2 *53:4 4.69995e-17
3 *53:2 2.29477e-17
4 *53 6.14636e-17

*RES
0 *69:g *53:2 46.92445  // $poly_conn
1 *53:2 *16:g 35.681602  // $poly_conn
2 *53:4 *53 0.049898  // $metal1_conn
3 *53:2 *53:4 45  // $metal1_conn

*END

*D_NET *55 7.96944e-16

*CONN
*P *55 I *C 3.1000 0.8550 
*I *40:g B *C 5.7625 0.4625 
*I *70:g B *C 3.0825 0.4525 
*I *43:g B *C 5.7625 1.1850 
*I *17:g B *C 3.1375 1.1400 
*N *55:2 *C 3.1100 0.8500 
*N *55:5 *C 5.5300 1.4100 

*CAP
0 *17:g 4.40906e-17
1 *43:g 5.89392e-17
2 *70:g 4.12409e-17
3 *40:g 5.12827e-17
4 *55:2 3.10056e-16
5 *55:5 2.91335e-16

*RES
0 *17:g *55:2 26.102209  // $poly_conn
1 *55:2 *70:g 67.127846  // $poly_conn
2 *43:g *55:5 115.188194  // $poly_conn
3 *43:g *40:g 119.230766  // $poly_conn
4 *55:5 *55 2.356037  // $metal1_conn
5 *55 *55:2 45.003357  // $metal1_conn

*END

*D_NET *54 4.69223e-16

*CONN
*P *54 O *C 0.1000 0.6650 
*I *74:d B *C 0.1200 0.5125 
*I *1:d B *C 0.5200 0.5125 
*I *7:d B *C 0.5200 0.5125 
*I *8:d B *C 0.9300 0.5125 
*I *9:d B *C 0.9300 0.5125 
*I *10:d B *C 1.3400 0.5125 
*I *11:d B *C 1.3400 0.5125 
*I *21:d B *C 0.1200 1.1225 
*I *22:d B *C 0.5200 1.1225 
*I *23:d B *C 0.5200 1.1225 
*I *24:d B *C 0.9300 1.1225 
*I *26:d B *C 0.9300 1.1225 
*I *27:d B *C 1.3400 1.1225 
*I *28:d B *C 1.3400 1.1225 

*CAP
0 *54 4.69223e-16


*END

*D_NET *6 1.42395e-18

*CONN
*I *46:s B *C 6.6875 0.4625 
*I *48:d B *C 6.6875 0.4625 

*CAP
0 *46:s 1.42395e-18

*RES
0 *48:d *46:s 0.001  // $mwires

*END

*D_NET *5 2.22354e-18

*CONN
*I *42:d B *C 6.2425 0.4625 
*I *44:s B *C 6.2425 0.4625 

*CAP
0 *42:d 2.22354e-18

*RES
0 *44:s *42:d 0.001  // $mwires

*END

*D_NET *4 1.71154e-18

*CONN
*I *49:s B *C 6.6875 1.1850 
*I *50:d B *C 6.6875 1.1850 

*CAP
0 *49:s 1.71154e-18

*RES
0 *50:d *49:s 0.001  // $mwires

*END

*D_NET *3 4.53202e-18

*CONN
*I *45:d B *C 6.2325 1.1850 
*I *47:s B *C 6.2325 1.1850 

*CAP
0 *45:d 4.53202e-18

*RES
0 *47:s *45:d 0.001  // $mwires

*END

*D_NET *2 2.73046e-18

*CONN
*I *39:d B *C 5.3200 1.0550 
*I *41:s B *C 5.3200 1.0550 

*CAP
0 *39:d 2.73046e-18

*RES
0 *41:s *39:d 0.001  // $mwires

*END

*D_NET *67 2.05084e-18

*CONN
*I *18:d B *C 3.4325 1.1400 
*I *19:d B *C 3.4325 1.1400 

*CAP
0 *18:d 2.05084e-18

*RES
0 *19:d *18:d 0.001  // $mwires

*END

*D_NET *65 1.23924e-15

*CONN
*I *33:g B *C 4.4775 0.4525 
*I *44:g B *C 6.3425 0.4625 
*I *64:d B *C 7.1250 0.5375 
*I *34:g B *C 4.1825 1.0600 
*I *49:g B *C 6.6075 1.1850 
*I *13:d B *C 7.0650 1.1375 
*N *65:2 *C 4.1300 0.8050 
*N *65:4 *C 4.4500 0.6650 
*N *65:6 *C 6.6350 0.9200 
*N *65:8 *C 6.6350 0.9950 
*N *65:9 *C 4.4500 1.1550 
*N *65:10 *C 7.0750 0.9950 

*CAP
0 *13:d 2.15459e-17
1 *49:g 3.74593e-17
2 *34:g 3.43087e-17
3 *64:d 6.2731e-17
4 *44:g 6.55052e-17
5 *33:g 3.76796e-17
6 *65:10 5.43803e-17
7 *65:9 3.87399e-16
8 *65:8 2.27825e-16
9 *65:2 1.04668e-16
10 *65:4 1.19922e-16
11 *65:6 8.58172e-17

*RES
0 *34:g *65:2 64.656593  // $poly_conn
1 *33:g *65:4 64.691956  // $poly_conn
2 *49:g *65:6 16.530041  // $poly_conn
3 *65:6 *44:g 129.182404  // $poly_conn
4 *65:6 *65:8 45.064545  // $metal1_conn
5 *65:8 *65:9 2.196277  // $metal1_conn
6 *65:9 *65:2 0.499123  // $metal1_conn
7 *65:8 *65:10 0.285859  // $metal1_conn
8 *65:10 *64:d 75.392982  // $metal1_conn
9 *65:9 *65:4 0.37522  // $metal1_conn
10 *65:10 *13:d 62.07605  // $metal1_conn

*END

*D_NET *63 1.20397e-15

*CONN
*I *32:g B *C 4.2725 0.4525 
*I *46:g B *C 6.6075 0.4625 
*I *64:g B *C 7.0325 0.5375 
*I *66:d B *C 7.4350 0.5075 
*I *36:g B *C 4.3925 1.0600 
*I *47:g B *C 6.3225 1.1850 
*I *13:g B *C 6.9725 1.1375 
*I *14:d B *C 7.3500 1.2675 
*N *63:1 *C 4.8000 0.7700 
*N *63:2 *C 4.3925 0.8075 
*N *63:6 *C 6.2850 0.8000 
*N *63:8 *C 6.6350 0.6750 
*N *63:9 *C 7.1200 0.3650 
*N *63:14 *C 7.4250 0.4950 
*N *63:15 *C 6.6350 0.3450 
*N *63:16 *C 6.2550 0.6100 

*CAP
0 *14:d 8.08863e-17
1 *13:g 5.39998e-17
2 *47:g 4.63037e-17
3 *36:g 4.04607e-17
4 *66:d 8.04851e-17
5 *64:g 4.08961e-17
6 *46:g 4.39704e-17
7 *32:g 5.28711e-17
8 *63:16 1.77125e-16
9 *63:15 7.23496e-17
10 *63:2 4.47761e-17
11 *63:1 2.12288e-16
12 *63:6 8.50977e-17
13 *63:8 9.89961e-17
14 *63:9 7.34589e-17

*RES
0 *63:1 *63:2 138.849365  // $poly_conn
1 *63:2 *32:g 76.618774  // $poly_conn
2 *63:2 *36:g 20.300484  // $poly_conn
3 *47:g *63:6 94.488556  // $poly_conn
4 *46:g *63:8 64.691956  // $poly_conn
5 *63:9 *64:g 69.181  // $poly_conn
6 *64:g *13:g 111.248894  // $poly_conn
7 *14:d *63:14 62.572941  // $metal1_conn
8 *63:14 *63:9 0.328083  // $metal1_conn
9 *63:9 *63:15 0.368372  // $metal1_conn
10 *63:15 *63:16 0.465666  // $metal1_conn
11 *63:16 *63:1 1.209984  // $metal1_conn
12 *63:15 *63:8 0.221642  // $metal1_conn
13 *63:16 *63:6 0.14716  // $metal1_conn
14 *66:d *63:14 75  // $metal1_conn

*END

*D_NET *62 8.29321e-16

*CONN
*I *32:d B *C 4.3750 0.4525 
*I *33:d B *C 4.3750 0.4525 
*I *68:g B *C 2.0775 0.5300 
*I *73:g B *C 1.8525 0.5300 
*I *12:g B *C 1.6475 0.5300 
*I *34:d B *C 4.2875 1.0600 
*I *36:d B *C 4.2875 1.0600 
*I *15:g B *C 2.0575 1.1500 
*I *20:g B *C 1.8525 1.1500 
*I *29:g B *C 1.6475 1.1500 
*N *62:11 *C 4.2900 0.6150 

*CAP
0 *15:g 4.41918e-16
1 *34:d 6.46057e-17
2 *32:d 3.32695e-17
3 *62:11 2.89527e-16

*RES
0 *62:11 *15:g 47.22501  // $metal1_conn
1 *32:d *62:11 75.155388  // $metal1_conn
2 *62:11 *34:d 62.290115  // $metal1_conn

*END

*D_NET *61 7.16283e-16

*CONN
*I *33:s B *C 4.5850 0.4525 
*I *35:d B *C 5.3550 0.4625 
*I *37:d B *C 5.3550 0.4625 
*I *42:g B *C 6.1425 0.4625 
*I *36:s B *C 4.5425 1.0600 
*I *41:d B *C 5.6900 1.1850 
*I *43:d B *C 5.6900 1.1850 
*I *45:g B *C 6.1425 1.1850 
*N *61:2 *C 6.1425 0.9025 
*N *61:3 *C 5.9050 0.9300 
*N *61:5 *C 5.6900 0.9300 
*N *61:7 *C 4.6100 0.9650 
*N *61:8 *C 4.6100 0.5800 

*CAP
0 *45:g 3.7883e-17
1 *41:d 3.39862e-17
2 *36:s 1.68818e-16
3 *42:g 3.96834e-17
4 *35:d 1.07187e-16
5 *33:s 1.79076e-17
6 *61:8 7.11581e-17
7 *61:5 1.32239e-16
8 *61:2 3.90237e-17
9 *61:3 6.83976e-17

*RES
0 *45:g *61:2 31.540302  // $poly_conn
1 *61:2 *61:3 92.684738  // $poly_conn
2 *61:2 *42:g 85.386459  // $poly_conn
3 *61:3 *61:5 0.176864  // $metal1_conn
4 *61:5 *61:7 0.874583  // $metal1_conn
5 *61:7 *61:8 0.296827  // $metal1_conn
6 *61:8 *33:s 75.067902  // $metal1_conn
7 *61:5 *41:d 62.083317  // $metal1_conn
8 *61:8 *35:d 75.620232  // $metal1_conn
9 *36:s *61:7 62  // $metal1_conn

*END

*D_NET *60 9.9484e-16

*CONN
*I *68:d B *C 2.2175 0.5300 
*I *71:g B *C 3.2875 0.4525 
*I *73:d B *C 1.7500 0.5300 
*I *74:g B *C 0.2125 0.5125 
*I *1:g B *C 0.4175 0.5125 
*I *7:g B *C 0.6225 0.5125 
*I *8:g B *C 0.8275 0.5125 
*I *9:g B *C 1.0325 0.5125 
*I *10:g B *C 1.2375 0.5125 
*I *11:g B *C 1.4425 0.5125 
*I *12:d B *C 1.7500 0.5300 
*I *15:d B *C 2.2000 1.2850 
*I *18:g B *C 3.3725 1.1400 
*I *20:d B *C 1.7500 1.1500 
*I *21:g B *C 0.2125 1.1225 
*I *22:g B *C 0.4175 1.1225 
*I *23:g B *C 0.6225 1.1225 
*I *24:g B *C 0.8275 1.1225 
*I *26:g B *C 1.0325 1.1225 
*I *27:g B *C 1.2375 1.1225 
*I *28:g B *C 1.4425 1.1225 
*I *29:d B *C 1.7500 1.1500 
*N *60:24 *C 2.5900 1.5200 

*CAP
0 *28:g 3.6702e-16
1 *18:g 1.26985e-16
2 *15:d 3.22365e-16
3 *71:g 7.38548e-17
4 *60:24 1.04616e-16

*RES
0 *71:g *18:g 120.223244  // $poly_conn
1 *18:g *60:24 304.63678  // $poly_conn
2 *60:24 *15:d 0.488643  // $metal1_conn
3 *15:d *28:g 45.168289  // $metal1_conn

*END

*D_NET *59 7.77439e-16

*CONN
*I *35:g B *C 5.2525 0.4625 
*I *69:d B *C 2.6350 0.4825 
*I *72:g B *C 3.4925 0.4525 
*I *39:g B *C 5.2525 1.0550 
*I *16:d B *C 2.5550 1.0075 
*I *19:g B *C 3.4925 1.1400 
*N *59:2 *C 3.5200 1.5050 
*N *59:7 *C 2.5250 0.9600 

*CAP
0 *19:g 7.19971e-17
1 *16:d 1.71878e-16
2 *39:g 1.23838e-16
3 *72:g 5.50435e-17
4 *69:d 7.94648e-17
5 *35:g 4.6791e-17
6 *59:2 2.28426e-16

*RES
0 *39:g *59:2 514.087341  // $poly_conn
1 *59:2 *19:g 42.171066  // $poly_conn
2 *19:g *72:g 110.256416  // $poly_conn
3 *39:g *35:g 85.897438  // $poly_conn
4 *59:2 *59:7 46.10762  // $metal1_conn
5 *59:7 *69:d 75.425255  // $metal1_conn
6 *16:d *59:7 62  // $metal1_conn

*END

*D_NET *58 5.09764e-16

*CONN
*I *37:g B *C 5.4575 0.4625 
*I *44:d B *C 6.4750 0.4625 
*I *46:d B *C 6.4750 0.4625 
*I *41:g B *C 5.3875 1.0550 
*I *47:d B *C 6.4650 1.1850 
*I *49:d B *C 6.4650 1.1850 
*N *58:1 *C 5.6200 0.7700 
*N *58:2 *C 5.4575 0.7975 
*N *58:6 *C 6.4750 0.9600 

*CAP
0 *47:d 3.76065e-17
1 *41:g 6.04209e-17
2 *44:d 6.91984e-17
3 *37:g 4.10252e-17
4 *58:6 1.12649e-16
5 *58:2 2.57112e-17
6 *58:1 1.63152e-16

*RES
0 *58:1 *58:2 77.00148  // $poly_conn
1 *58:2 *41:g 37.164749  // $poly_conn
2 *58:2 *37:g 54.915871  // $poly_conn
3 *47:d *58:6 62.099792  // $metal1_conn
4 *58:6 *58:1 0.784379  // $metal1_conn
5 *58:6 *44:d 75.358376  // $metal1_conn

*END

*D_NET *57 1.96539e-16

*CONN
*I *32:s B *C 4.1450 0.4525 
*I *71:d B *C 3.3900 0.4525 
*I *72:d B *C 3.3900 0.4525 

*CAP
0 *71:d 1.10276e-16
1 *32:s 8.62626e-17

*RES
0 *32:s *71:d 150.616043  // $metal1_conn

*END

*D_NET *56 2.11752e-16

*CONN
*I *34:s B *C 4.1100 1.0600 
*I *17:d B *C 3.2550 1.1400 
*I *18:s B *C 3.2550 1.1400 

*CAP
0 *17:d 1.07759e-16
1 *34:s 1.03994e-16

*RES
0 *34:s *17:d 124.410751  // $metal1_conn

*END

*D_NET *31 1.54251e-16

*CONN
*I *35:s B *C 5.1250 0.4625 
*I *37:s B *C 5.6100 0.4625 
*I *40:d B *C 5.6100 0.4625 

*CAP
0 *37:s 7.84459e-17
1 *35:s 7.58052e-17

*RES
0 *37:s *35:s 150.407639  // $metal1_conn

*END

*D_NET *30 1.34673e-16

*CONN
*I *70:d B *C 3.1850 0.4525 
*I *71:s B *C 3.1850 0.4525 
*I *72:s B *C 3.5975 0.4525 

*CAP
0 *72:s 7.14449e-17
1 *70:d 6.32285e-17

*RES
0 *70:d *72:s 150.316284  // $metal1_conn

*END

