*SPEF "IEEE 1481-1999"
*DESIGN  "DFFSRX4"
*DATE "Mon Sep 27 09:36:48 2010"
*VENDOR "Cadence Design Systems"
*PROGRAM "Assura RCX"
*VERSION "3.2 Red Hat Linux release 7.2 (Enigma) - (09/09/2009-10:39)"
*DESIGN_FLOW "Physical Verification"
*DIVIDER /
*DELIMITER :
*BUS_DELIMITER []
*T_UNIT 1 PS
*C_UNIT 1e15 FF
*R_UNIT 1 OHM
*L_UNIT 1 MH
// DeviceFingerDelim "@"
// MATCHED
// caps2d version: 10

*NAME_MAP
*1 mn36
*2 CKb
*3 n22
*4 n31
*5 net402
*6 n43
*7 n21
*8 n30
*9 mn35
*10 mn21
*11 mn31
*12 mn32
*13 mn30
*14 mn22
*15 mn40
*16 mp51
*17 mp52
*18 mp50
*19 mp45
*20 mp45\@1
*21 mp55\@3
*22 mp20
*23 mp25
*24 mp26
*25 mp36
*26 mp35
*27 mp21
*28 VDD
*29 mp31
*30 mp32
*31 mp30
*32 mp22
*33 mp40
*34 qint
*35 mn55
*36 mn55\@1
*37 mp55
*38 mn55\@2
*39 QN
*40 mp55\@1
*41 mn57
*42 VSS
*43 mp55\@2
*44 mn57\@1
*45 mp57
*46 mn57\@2
*47 mp57\@1
*48 mn57\@3
*49 mp57\@2
*50 mn56
*51 mp57\@3
*52 mn53
*53 mp56
*54 mp53
*55 D
*56 CK
*57 RN
*58 Q
*59 SN
*60 qbint
*61 n40
*62 n42
*63 n41
*64 n35
*65 net426
*66 RNb
*67 n20
*68 mn51
*69 mout
*70 mn52
*71 CKbb
*72 mn50
*73 mn45
*74 mn45\@1
*75 mn55\@3
*76 mn20
*77 mn25
*78 mn26

*GROUND_NETS VSS

*PORTS
*28 I
*42 I
*56 I
*55 I
*57 I
*59 I
*58 O
*39 O

*D_NET *28 1.15401e-15

*CONN
*P *28 I *C 0.1000 1.7100 
*I *37:s B *C 6.3075 1.1100 
*I *40:s B *C 6.3075 1.1100 
*I *43:s B *C 6.7800 1.1100 
*I *45:s B *C 6.7800 1.1100 
*I *47:s B *C 7.2350 1.1100 
*I *49:s B *C 7.2350 1.1100 
*I *51:s B *C 7.6850 1.1100 
*I *53:s B *C 7.6850 1.1100 
*I *16:s B *C 4.8250 1.1975 
*I *18:s B *C 5.4000 1.1500 
*I *19:s B *C 5.4000 1.1500 
*I *20:s B *C 5.9000 1.1100 
*I *21:s B *C 5.9000 1.1100 
*I *22:s B *C 0.5125 1.2425 
*I *23:s B *C 0.5125 1.2425 
*I *26:s B *C 1.5775 1.0075 
*I *27:s B *C 1.5775 1.0075 
*I *29:s B *C 2.3400 1.0075 
*I *31:s B *C 3.2525 1.0075 
*I *32:s B *C 3.2525 1.0075 
*N *28:3 *C 7.2000 1.7100 
*N *28:9 *C 5.2000 1.7100 
*N *28:10 *C 4.8150 1.7100 
*N *28:11 *C 3.2000 1.7100 
*N *28:12 *C 1.8900 1.7100 
*N *28:13 *C 1.4600 1.7100 
*N *28:14 *C 1.1000 1.7100 
*N *28:15 *C 0.4500 1.7100 

*CAP
0 *31:s 5.13421e-17
1 *29:s 1.70727e-17
2 *26:s 1.43431e-17
3 *22:s 3.07598e-17
4 *16:s 2.84981e-17
5 *51:s 3.60222e-16
6 *28:15 1.16391e-17
7 *28:13 1.09109e-17
8 *28:12 4.03725e-17
9 *28:10 3.25114e-17
10 *28:3 5.45624e-16
11 *28 1.07122e-17

*RES
0 *28:15 *28 0.17516  // $metal1_conn
1 *28:3 *51:s 7.5  // $metal1_conn
2 *28:3 *28:9 7.5  // $metal1_conn
3 *28:3 *28:11 7.5  // $metal1_conn
4 *28:3 *28:14 6.818182  // $metal1_conn
5 *28:10 *16:s 62.292747  // $metal1_conn
6 *28:11 *31:s 62.237968  // $metal1_conn
7 *28:12 *29:s 62.09745  // $metal1_conn
8 *28:13 *26:s 62.09745  // $metal1_conn
9 *28:15 *22:s 62.267059  // $metal1_conn
10 *51:s *28:9 0.065029  // $metal1_conn
11 *28:9 *28:10 0.192972  // $metal1_conn
12 *28:10 *28:11 0.810105  // $metal1_conn
13 *28:11 *28:12 0.657076  // $metal1_conn
14 *28:12 *28:13 0.215353  // $metal1_conn
15 *28:13 *28:14 0.180428  // $metal1_conn
16 *28:14 *28:15 0.325931  // $metal1_conn

*END

*D_NET *42 0

*CONN
*P *42 I *C 0.1000 0.0000 
*I *35:s B *C 6.3950 0.4100 
*I *36:s B *C 6.3950 0.4100 
*I *38:s B *C 6.8650 0.4100 
*I *41:s B *C 6.8650 0.4100 
*I *44:s B *C 7.3350 0.4100 
*I *46:s B *C 7.3350 0.4100 
*I *48:s B *C 7.8100 0.4100 
*I *50:s B *C 7.8100 0.4100 
*I *72:s B *C 5.3150 0.4375 
*I *73:s B *C 5.3150 0.4375 
*I *74:s B *C 5.9000 0.4100 
*I *75:s B *C 5.9000 0.4100 
*I *76:s B *C 0.5550 0.4825 
*I *77:s B *C 0.5550 0.4825 
*I *9:s B *C 1.5800 0.4825 
*I *10:s B *C 1.5800 0.4825 
*I *13:s B *C 3.2900 0.4825 
*I *14:s B *C 3.2900 0.4825 
*N *42:2 *C 7.2000 0.0000 
*N *42:8 *C 5.2000 0.0000 
*N *42:9 *C 3.2000 0.0000 
*N *42:10 *C 1.4950 0.0000 
*N *42:11 *C 1.1000 0.0000 
*N *42:12 *C 0.4700 0.0000 


*RES
0 *42:12 *42 0.185195  // $metal1_conn
1 *42:2 *48:s 6.2  // $metal1_conn
2 *42:2 *42:8 6.2  // $metal1_conn
3 *42:2 *42:9 6.2  // $metal1_conn
4 *42:2 *42:11 5.636364  // $metal1_conn
5 *42:9 *13:s 75.220337  // $metal1_conn
6 *42:10 *9:s 75.045837  // $metal1_conn
7 *42:12 *76:s 75.074944  // $metal1_conn
8 *48:s *42:8 0.042445  // $metal1_conn
9 *42:8 *42:9 1.004083  // $metal1_conn
10 *42:9 *42:10 0.854311  // $metal1_conn
11 *42:10 *42:11 0.197039  // $metal1_conn
12 *42:11 *42:12 0.315896  // $metal1_conn

*END

*D_NET *56 2.14006e-16

*CONN
*P *56 I *C 0.3000 0.8550 
*I *76:g B *C 0.3375 0.4825 
*I *22:g B *C 0.3475 1.2425 
*N *56:2 *C 0.3100 0.6900 

*CAP
0 *22:g 3.96621e-17
1 *76:g 2.9682e-17
2 *56:2 6.89524e-17
3 *56 7.57097e-17

*RES
0 *22:g *56:2 104.61676  // $poly_conn
1 *56:2 *76:g 25.129578  // $poly_conn
2 *56 *56:2 45.099205  // $metal1_conn

*END

*D_NET *55 2.45122e-16

*CONN
*P *55 I *C 0.7000 1.0450 
*I *77:g B *C 0.6025 0.4825 
*I *23:g B *C 0.6775 1.2425 
*N *55:2 *C 0.6400 0.8550 

*CAP
0 *23:g 2.82516e-17
1 *77:g 6.9953e-17
2 *55:2 8.60537e-17
3 *55 6.08641e-17

*RES
0 *23:g *55:2 64.579376  // $poly_conn
1 *55:2 *77:g 69.707581  // $poly_conn
2 *55:2 *55 45.061138  // $metal1_conn

*END

*D_NET *57 2.3921e-16

*CONN
*P *57 I *C 3.3000 0.8550 
*I *14:g B *C 3.3375 0.4825 
*I *32:g B *C 3.3375 1.0075 
*N *57:2 *C 3.3000 0.6600 

*CAP
0 *32:g 3.69677e-17
1 *14:g 3.40112e-17
2 *57:2 8.55646e-17
3 *57 8.26666e-17

*RES
0 *32:g *57:2 52.052654  // $poly_conn
1 *57:2 *14:g 17.437269  // $poly_conn
2 *57:2 *57 45.044395  // $metal1_conn

*END

*D_NET *59 5.46382e-16

*CONN
*P *59 I *C 2.9000 0.8550 
*I *72:g B *C 5.1825 0.4075 
*I *13:g B *C 3.0725 0.4825 
*I *18:g B *C 5.2275 1.1975 
*I *31:g B *C 2.9975 1.0075 
*N *59:4 *C 3.0350 0.6600 

*CAP
0 *31:g 4.07479e-17
1 *18:g 7.56858e-17
2 *13:g 1.00215e-16
3 *72:g 1.70539e-16
4 *59:4 7.93233e-17
5 *59 7.98702e-17

*RES
0 *18:g *72:g 156.120697  // $poly_conn
1 *72:g *13:g 652.274536  // $poly_conn
2 *13:g *59:4 19.707582  // $poly_conn
3 *59:4 *31:g 54.322968  // $poly_conn
4 *59:4 *59 45.046658  // $metal1_conn

*END

*D_NET *58 2.723e-16

*CONN
*P *58 O *C 6.1000 0.6650 
*I *35:d B *C 6.0750 0.4100 
*I *36:d B *C 6.5450 0.4100 
*I *38:d B *C 6.5450 0.4100 
*I *75:d B *C 6.0750 0.4100 
*I *37:d B *C 6.0825 1.1100 
*I *40:d B *C 6.5350 1.1100 
*I *43:d B *C 6.5350 1.1100 
*I *21:d B *C 6.0825 1.1100 

*CAP
0 *40:d 1.38065e-16
1 *35:d 1.13471e-16
2 *58 2.07645e-17

*RES
0 *35:d *58 0.127654  // $metal1_conn
1 *58 *40:d 0.173294  // $metal1_conn

*END

*D_NET *39 2.6516e-16

*CONN
*P *39 O *C 7.1000 0.6650 
*I *41:d B *C 7.0150 0.4100 
*I *44:d B *C 7.0150 0.4100 
*I *46:d B *C 7.5325 0.4100 
*I *48:d B *C 7.5325 0.4100 
*I *45:d B *C 7.0150 1.1100 
*I *47:d B *C 7.0150 1.1100 
*I *49:d B *C 7.4675 1.1100 
*I *51:d B *C 7.4675 1.1100 

*CAP
0 *49:d 1.40816e-16
1 *41:d 1.06686e-16
2 *39 1.76575e-17

*RES
0 *41:d *39 0.093194  // $metal1_conn
1 *39 *49:d 0.15194  // $metal1_conn

*END

*D_NET *8 0

*CONN
*I *1:s B *C 1.2450 0.4825 
*I *9:d B *C 1.2450 0.4825 


*RES
0 *9:d *1:s 0.001  // $mwires

*END

*D_NET *7 1.53776e-18

*CONN
*I *77:d B *C 0.6550 0.4825 
*I *78:s B *C 0.6550 0.4825 

*CAP
0 *77:d 1.53776e-18

*RES
0 *78:s *77:d 0.001  // $mwires

*END

*D_NET *6 0

*CONN
*I *16:d B *C 4.9700 1.1975 
*I *17:s B *C 4.9700 1.1975 


*RES
0 *17:s *16:d 0.001  // $mwires

*END

*D_NET *5 8.51075e-20

*CONN
*I *29:d B *C 2.4650 1.0075 
*I *30:s B *C 2.4650 1.0075 

*CAP
0 *29:d 8.51075e-20

*RES
0 *30:s *29:d 0.001  // $mwires

*END

*D_NET *4 8.53924e-19

*CONN
*I *25:s B *C 1.3050 1.1625 
*I *26:d B *C 1.3050 1.1625 

*CAP
0 *25:s 8.53924e-19

*RES
0 *26:d *25:s 0.001  // $mwires

*END

*D_NET *3 5.52275e-18

*CONN
*I *23:d B *C 0.8625 1.2425 
*I *24:s B *C 0.8625 1.2425 

*CAP
0 *23:d 5.52275e-18

*RES
0 *24:s *23:d 0.001  // $mwires

*END

*D_NET *2 1.31603e-15

*CONN
*I *52:g B *C 4.1925 0.5575 
*I *76:d B *C 0.2450 0.4825 
*I *78:g B *C 0.7075 0.4825 
*I *10:g B *C 1.6275 0.4825 
*I *22:d B *C 0.2550 1.2425 
*I *25:g B *C 1.2525 1.1625 
*I *27:g B *C 1.6275 1.0075 
*I *33:g B *C 4.0175 1.1325 
*N *2:2 *C 0.7350 0.6650 
*N *2:4 *C 1.2150 0.8450 
*N *2:6 *C 1.5900 0.7800 
*N *2:10 *C 2.9100 1.4500 
*N *2:11 *C 1.5400 0.8575 
*N *2:12 *C 0.7350 0.5000 
*N *2:14 *C 0.2350 0.4700 

*CAP
0 *33:g 1.05466e-16
1 *27:g 2.82744e-17
2 *25:g 6.82144e-17
3 *22:d 8.39945e-17
4 *10:g 3.44533e-17
5 *78:g 5.02425e-17
6 *76:d 9.04022e-17
7 *52:g 6.85455e-17
8 *2:12 9.91517e-17
9 *2:2 6.88258e-17
10 *2:4 1.74316e-16
11 *2:6 2.45361e-16
12 *2:10 1.98781e-16

*RES
0 *78:g *2:2 64.691956  // $poly_conn
1 *25:g *2:4 89.360352  // $poly_conn
2 *27:g *2:6 21.283424  // $poly_conn
3 *2:6 *10:g 48.206497  // $poly_conn
4 *52:g *33:g 122.497787  // $poly_conn
5 *33:g *2:10 375.44458  // $poly_conn
6 *2:10 *2:11 1.451402  // $metal1_conn
7 *2:11 *2:4 0.223826  // $metal1_conn
8 *2:4 *2:12 0.911742  // $metal1_conn
9 *2:12 *2:14 0.322962  // $metal1_conn
10 *2:11 *2:6 45.06184  // $metal1_conn
11 *2:12 *2:2 0.12248  // $metal1_conn
12 *2:14 *22:d 62.681076  // $metal1_conn
13 *76:d *2:14 75  // $metal1_conn

*END

*D_NET *71 1.11224e-15

*CONN
*I *1:g B *C 1.1325 0.4825 
*I *10:d B *C 1.7200 0.4825 
*I *15:g B *C 3.9875 0.5575 
*I *54:g B *C 4.2225 1.1025 
*I *24:g B *C 1.0475 1.2425 
*I *27:d B *C 1.7200 1.0075 
*N *71:2 *C 1.1325 0.6550 
*N *71:4 *C 1.2150 0.6550 
*N *71:6 *C 3.9600 0.7800 
*N *71:8 *C 4.1850 1.3700 
*N *71:9 *C 3.9600 1.3700 
*N *71:11 *C 1.7300 0.9700 
*N *71:12 *C 1.7300 0.5900 

*CAP
0 *27:d 2.7369e-16
1 *24:g 5.36834e-17
2 *54:g 5.55901e-17
3 *15:g 4.98856e-17
4 *10:d 2.96684e-17
5 *1:g 3.11216e-17
6 *71:12 5.83351e-17
7 *71:9 2.47964e-16
8 *71:2 3.87805e-17
9 *71:4 9.99879e-17
10 *71:6 1.27458e-16
11 *71:8 4.6073e-17

*RES
0 *1:g *71:2 15.869391  // $poly_conn
1 *71:2 *24:g 132.171631  // $poly_conn
2 *71:2 *71:4 50.879326  // $poly_conn
3 *15:g *71:6 74.948364  // $poly_conn
4 *54:g *71:8 76.539833  // $poly_conn
5 *71:8 *71:9 0.161625  // $metal1_conn
6 *71:9 *71:11 1.959186  // $metal1_conn
7 *71:11 *71:12 0.283254  // $metal1_conn
8 *71:12 *71:4 0.373917  // $metal1_conn
9 *71:9 *71:6 0.449612  // $metal1_conn
10 *71:12 *10:d 75.050323  // $metal1_conn
11 *27:d *71:11 62  // $metal1_conn

*END

*D_NET *69 1.03587e-15

*CONN
*I *9:g B *C 1.3575 0.4825 
*I *11:d B *C 2.5825 0.4825 
*I *12:d B *C 2.5825 0.4825 
*I *15:s B *C 3.8950 0.5575 
*I *26:g B *C 1.3575 1.1625 
*I *30:d B *C 2.7575 1.0075 
*I *31:d B *C 2.7575 1.0075 
*I *33:s B *C 3.9450 1.1325 
*N *69:3 *C 1.2750 0.3100 
*N *69:6 *C 3.8000 1.1800 
*N *69:8 *C 2.6200 1.0250 
*N *69:9 *C 2.1000 0.3050 

*CAP
0 *33:s 1.92424e-16
1 *30:d 2.45068e-16
2 *26:g 9.30634e-17
3 *15:s 9.28966e-17
4 *11:d 6.96539e-17
5 *9:g 5.98733e-17
6 *69:9 1.69535e-16
7 *69:3 1.13353e-16

*RES
0 *26:g *9:g 128.205124  // $poly_conn
1 *9:g *69:3 68.014587  // $poly_conn
2 *15:s *69:6 75.511055  // $metal1_conn
3 *69:6 *69:8 1.008604  // $metal1_conn
4 *69:8 *69:9 0.917923  // $metal1_conn
5 *69:9 *69:3 0.579343  // $metal1_conn
6 *69:9 *11:d 75.402977  // $metal1_conn
7 *33:s *69:6 62  // $metal1_conn
8 *30:d *69:8 62  // $metal1_conn

*END

*D_NET *67 5.6045e-16

*CONN
*I *78:d B *C 0.9200 0.4825 
*I *1:d B *C 0.9200 0.4825 
*I *12:g B *C 2.7525 0.4825 
*I *24:d B *C 1.2000 1.1625 
*I *25:d B *C 1.2000 1.1625 
*I *30:g B *C 2.5175 1.0075 
*N *67:3 *C 2.0800 1.2900 
*N *67:5 *C 1.1500 1.1950 

*CAP
0 *30:g 1.06416e-16
1 *24:d 1.32545e-16
2 *12:g 5.92268e-17
3 *78:d 1.25126e-16
4 *67:3 1.37136e-16

*RES
0 *12:g *30:g 136.889923  // $poly_conn
1 *30:g *67:3 194.675369  // $poly_conn
2 *67:3 *67:5 0.740682  // $metal1_conn
3 *67:5 *78:d 75.645432  // $metal1_conn
4 *24:d *67:5 62  // $metal1_conn

*END

*D_NET *66 9.2777e-16

*CONN
*I *68:g B *C 4.7575 0.4075 
*I *11:g B *C 2.4125 0.4825 
*I *14:d B *C 3.4300 0.4825 
*I *16:g B *C 4.9175 1.1975 
*I *29:g B *C 2.4125 1.0075 
*I *32:d B *C 3.5800 0.9600 
*N *66:1 *C 2.6100 0.2800 
*N *66:5 *C 4.7300 0.7350 
*N *66:8 *C 3.4400 0.4700 

*CAP
0 *32:d 9.42108e-17
1 *29:g 7.88858e-17
2 *16:g 7.83837e-17
3 *14:d 2.15393e-16
4 *11:g 4.54434e-17
5 *68:g 4.06629e-17
6 *66:1 1.20707e-16
7 *66:5 2.54083e-16

*RES
0 *66:1 *11:g 107.49588  // $poly_conn
1 *11:g *29:g 88.46154  // $poly_conn
2 *16:g *66:5 114.087357  // $poly_conn
3 *66:5 *68:g 53.709526  // $poly_conn
4 *66:5 *66:8 46.324959  // $metal1_conn
5 *66:8 *66:1 0.750114  // $metal1_conn
6 *66:8 *32:d 62.506725  // $metal1_conn
7 *14:d *66:8 75  // $metal1_conn

*END

*D_NET *65 1.99323e-16

*CONN
*I *11:s B *C 2.2950 0.4825 
*I *12:s B *C 2.9125 0.4825 
*I *13:d B *C 2.9125 0.4825 

*CAP
0 *12:s 1.00551e-16
1 *11:s 9.87719e-17

*RES
0 *12:s *11:s 150.625229  // $metal1_conn

*END

*D_NET *64 5.75003e-16

*CONN
*I *52:d B *C 4.0900 0.5575 
*I *73:g B *C 5.3875 0.4375 
*I *74:g B *C 5.5925 0.4375 
*I *15:d B *C 4.0900 0.5575 
*I *54:d B *C 4.1700 1.1025 
*I *19:g B *C 5.4725 1.1500 
*I *20:g B *C 5.6775 1.1500 
*I *33:d B *C 4.1700 1.1025 
*N *64:8 *C 4.1200 0.8950 
*N *64:10 *C 4.0900 0.5700 

*CAP
0 *20:g 3.19376e-16
1 *54:d 3.71511e-17
2 *52:d 5.34983e-17
3 *64:8 1.64977e-16

*RES
0 *52:d *64:10 75  // $metal1_conn
1 *64:8 *54:d 62.153103  // $metal1_conn
2 *20:g *64:8 45.965462  // $metal1_conn
3 *64:8 *64:10 0.249085  // $metal1_conn

*END

*D_NET *63 1.86781e-16

*CONN
*I *54:s B *C 4.3150 1.1025 
*I *17:d B *C 5.1250 1.1975 
*I *18:d B *C 5.1250 1.1975 

*CAP
0 *17:d 1.02234e-16
1 *54:s 8.45464e-17

*RES
0 *54:s *17:d 124.633553  // $metal1_conn

*END

*D_NET *62 1.5195e-16

*CONN
*I *68:s B *C 4.6625 0.4075 
*I *70:s B *C 5.0800 0.4075 
*I *72:d B *C 5.0800 0.4075 

*CAP
0 *70:s 6.96532e-17
1 *68:s 8.22967e-17

*RES
0 *70:s *68:s 150.526443  // $metal1_conn

*END

*D_NET *61 1.52672e-16

*CONN
*I *52:s B *C 4.3575 0.5575 
*I *68:d B *C 4.8675 0.4075 
*I *70:d B *C 4.8675 0.4075 

*CAP
0 *68:d 7.48525e-17
1 *52:s 7.78194e-17

*RES
0 *68:d *52:s 150.31366  // $metal1_conn

*END

*D_NET *60 1.22894e-15

*CONN
*I *35:g B *C 6.1775 0.4100 
*I *36:g B *C 6.4425 0.4100 
*I *38:g B *C 6.6475 0.4100 
*I *50:g B *C 7.9375 0.4100 
*I *70:g B *C 4.9775 0.4075 
*I *73:d B *C 5.4900 0.4375 
*I *74:d B *C 5.4900 0.4375 
*I *75:g B *C 5.9725 0.4100 
*I *37:g B *C 6.1925 1.1100 
*I *40:g B *C 6.4225 1.1100 
*I *43:g B *C 6.6475 1.1100 
*I *53:g B *C 7.7875 1.1100 
*I *17:g B *C 5.0225 1.1975 
*I *19:d B *C 5.5750 1.1500 
*I *20:d B *C 5.5750 1.1500 
*I *21:g B *C 5.9725 1.1100 
*N *60:2 *C 5.0500 0.6150 
*N *60:10 *C 5.9000 0.8150 
*N *60:19 *C 7.8250 0.6650 
*N *60:21 *C 5.5750 0.8150 
*N *60:22 *C 5.5750 0.6150 
*N *60:23 *C 7.8250 0.6650 
*N *60:25 *C 5.4900 0.6150 

*CAP
0 *19:d 5.40639e-17
1 *17:g 8.68804e-17
2 *53:g 5.08778e-17
3 *43:g 2.23915e-16
4 *73:d 1.92157e-17
5 *70:g 3.8744e-17
6 *50:g 2.67781e-17
7 *60:25 2.49745e-17
8 *60:22 2.09277e-16
9 *60:21 3.12422e-17
10 *60:2 1.22595e-16
11 *60:10 3.45605e-17
12 *60:19 3.05813e-16

*RES
0 *60:19 *53:g 54.61676  // $poly_conn
1 *17:g *60:2 110.119789  // $poly_conn
2 *50:g *60:19 36.257053  // $poly_conn
3 *60:2 *70:g 28.189922  // $poly_conn
4 *43:g *60:10 49.756718  // $poly_conn
5 *60:19 *60:23 45  // $metal1_conn
6 *60:10 *60:21 0.232625  // $metal1_conn
7 *60:25 *60:2 45.319115  // $metal1_conn
8 *60:25 *73:d 75.070404  // $metal1_conn
9 *60:21 *19:d 31.250277  // $metal1_conn
10 *60:21 *60:22 0.129576  // $metal1_conn
11 *60:22 *60:23 2.113847  // $metal1_conn
12 *60:22 *60:25 0.076075  // $metal1_conn

*END

*D_NET *34 4.21456e-16

*CONN
*I *41:g B *C 6.9125 0.4100 
*I *44:g B *C 7.1175 0.4100 
*I *46:g B *C 7.3825 0.4100 
*I *48:g B *C 7.6825 0.4100 
*I *50:d B *C 8.0300 0.4100 
*I *45:g B *C 6.9125 1.1100 
*I *47:g B *C 7.1175 1.1100 
*I *49:g B *C 7.3525 1.1100 
*I *51:g B *C 7.5825 1.1100 
*I *53:d B *C 7.8800 1.1100 
*N *34:16 *C 7.8900 0.8250 
*N *34:18 *C 8.0400 0.4800 

*CAP
0 *53:d 3.96358e-17
1 *51:g 3.07415e-16
2 *50:d 3.29015e-17
3 *34:16 4.15044e-17

*RES
0 *34:16 *51:g 45.194542  // $metal1_conn
1 *53:d *34:16 20.842709  // $metal1_conn
2 *50:d *34:18 75  // $metal1_conn
3 *34:16 *34:18 0.322723  // $metal1_conn

*END

