*SPEF "IEEE 1481-1999"
*DESIGN  "DFFTRX1"
*DATE "Mon Sep 27 09:39:04 2010"
*VENDOR "Cadence Design Systems"
*PROGRAM "Assura RCX"
*VERSION "3.2 Red Hat Linux release 7.2 (Enigma) - (09/09/2009-10:39)"
*DESIGN_FLOW "Physical Verification"
*DIVIDER /
*DELIMITER :
*BUS_DELIMITER []
*T_UNIT 1 PS
*C_UNIT 1e15 FF
*R_UNIT 1 OHM
*L_UNIT 1 MH
// DeviceFingerDelim "@"
// MATCHED
// caps2d version: 10

*NAME_MAP
*1 Q
*2 VDD
*3 mp40
*4 mp30
*5 qint
*6 mp35
*7 mout
*8 mp36
*9 mp25
*10 mp21
*11 mp0
*12 mp1
*13 mp56
*14 mp57
*15 mp55
*16 mp20
*17 mp45
*18 mp50
*19 mp51
*20 CK
*21 mn56
*22 QN
*23 mn55
*24 mn20
*25 mn45
*26 mn50
*27 mn51
*28 VSS
*29 RN
*30 n20
*31 n30
*32 Db
*33 mn40
*34 qbint
*35 mn30
*36 CKbb
*37 mn35
*38 CKb
*39 mn36
*40 n36
*41 mn25
*42 n26
*43 mn21
*44 n35
*45 D
*46 mn0
*47 n25
*48 mn1
*49 mn57
*50 n0

*GROUND_NETS VSS

*PORTS
*2 I
*28 I
*20 I
*45 I
*29 I
*1 O
*22 O

*D_NET *2 6.29133e-16

*CONN
*P *2 I *C 0.1000 1.7100 
*I *4:s B *C 3.1650 1.1475 
*I *6:s B *C 3.1650 1.1475 
*I *10:s B *C 4.2350 1.1375 
*I *11:s B *C 4.2350 1.1375 
*I *12:s B *C 4.6450 1.1375 
*I *14:s B *C 0.5625 1.0075 
*I *13:s B *C 0.5625 1.0075 
*I *15:s B *C 1.2450 1.0575 
*I *16:s B *C 1.2450 1.0575 
*I *17:s B *C 2.1750 1.1475 
*I *18:s B *C 2.1750 1.1475 
*N *2:2 *C 4.1350 1.7100 
*N *2:3 *C 3.6000 1.7100 
*N *2:4 *C 3.6000 1.7100 
*N *2:5 *C 3.0500 1.7100 
*N *2:6 *C 2.0600 1.7100 
*N *2:7 *C 1.2000 1.7100 
*N *2:8 *C 1.1350 1.7100 
*N *2:9 *C 0.5000 1.7100 

*CAP
0 *17:s 2.13663e-17
1 *15:s 4.36206e-17
2 *14:s 5.10309e-17
3 *12:s 3.82278e-17
4 *10:s 1.17254e-17
5 *4:s 2.23095e-17
6 *2:9 1.26347e-17
7 *2:8 2.66531e-17
8 *2:6 3.94028e-17
9 *2:5 3.16251e-17
10 *2:2 3.00496e-17
11 *2:3 2.9343e-16
12 *2 7.05728e-18

*RES
0 *12:s *2:2 62.621223  // $metal1_conn
1 *2:2 *2:4 0.267918  // $metal1_conn
2 *2:4 *2:5 0.275436  // $metal1_conn
3 *2:5 *2:6 0.495745  // $metal1_conn
4 *2:6 *2:7 0.430792  // $metal1_conn
5 *2:7 *2:8 0.032446  // $metal1_conn
6 *2:8 *2:9 0.317837  // $metal1_conn
7 *2:9 *2 0.200013  // $metal1_conn
8 *2:2 *10:s 62.074203  // $metal1_conn
9 *2:5 *4:s 62.097115  // $metal1_conn
10 *2:6 *17:s 62.097115  // $metal1_conn
11 *2:8 *15:s 62.271049  // $metal1_conn
12 *2:9 *14:s 62.433247  // $metal1_conn
13 *2:3 *2:4 6.25  // $metal1_conn
14 *2:3 *2:7 6.25  // $metal1_conn

*END

*D_NET *28 0

*CONN
*P *28 I *C 0.1000 0.0000 
*I *35:s B *C 3.1650 0.5625 
*I *37:s B *C 3.1650 0.5625 
*I *43:s B *C 4.1850 0.5875 
*I *46:s B *C 4.1850 0.5875 
*I *49:s B *C 0.5625 0.5875 
*I *21:s B *C 0.5625 0.5875 
*I *23:s B *C 1.2525 0.5875 
*I *24:s B *C 1.2525 0.5875 
*I *25:s B *C 2.0900 0.5625 
*I *26:s B *C 2.0900 0.5625 
*N *28:2 *C 3.6000 0.0000 
*N *28:3 *C 3.6000 0.0000 
*N *28:4 *C 3.0800 0.0000 
*N *28:5 *C 2.0600 0.0000 
*N *28:6 *C 1.2000 0.0000 
*N *28:7 *C 0.5300 0.0000 


*RES
0 *43:s *28:3 75.707375  // $metal1_conn
1 *28:3 *28:4 0.259452  // $metal1_conn
2 *28:4 *28:5 0.50983  // $metal1_conn
3 *28:5 *28:6 0.430792  // $metal1_conn
4 *28:6 *28:7 0.335573  // $metal1_conn
5 *28:7 *28 0.215047  // $metal1_conn
6 *28:4 *35:s 75.045784  // $metal1_conn
7 *28:5 *25:s 75.358047  // $metal1_conn
8 *28:6 *23:s 75.303757  // $metal1_conn
9 *28:7 *49:s 75.074203  // $metal1_conn
10 *28:2 *28:3 5.166667  // $metal1_conn
11 *28:2 *28:6 5.166667  // $metal1_conn

*END

*D_NET *20 1.98312e-16

*CONN
*P *20 I *C 1.1000 1.0450 
*I *24:g B *C 1.3175 0.5875 
*I *16:g B *C 1.3175 1.0575 
*N *20:2 *C 1.2900 0.8400 

*CAP
0 *16:g 2.73412e-17
1 *24:g 3.90471e-17
2 *20:2 8.82076e-17
3 *20 4.37161e-17

*RES
0 *16:g *20:2 19.691952  // $poly_conn
1 *20:2 *24:g 37.640671  // $poly_conn
2 *20:2 *20 45.207256  // $metal1_conn

*END

*D_NET *45 1.82388e-16

*CONN
*P *45 I *C 4.5000 0.4750 
*I *48:g B *C 4.4825 0.5875 
*I *12:g B *C 4.5525 1.1375 
*N *45:2 *C 4.5100 0.8050 

*CAP
0 *12:g 2.95425e-17
1 *48:g 2.4232e-17
2 *45:2 8.21956e-17
3 *45 4.64176e-17

*RES
0 *12:g *45:2 48.284863  // $poly_conn
1 *45:2 *48:g 25.504398  // $poly_conn
2 *45 *45:2 45.197525  // $metal1_conn

*END

*D_NET *29 2.00505e-16

*CONN
*P *29 I *C 4.1000 0.8550 
*I *46:g B *C 4.2975 0.5875 
*I *11:g B *C 4.2975 1.1375 
*N *29:2 *C 4.2700 0.7950 

*CAP
0 *11:g 4.18716e-17
1 *46:g 2.79692e-17
2 *29:2 8.15769e-17
3 *29 4.90871e-17

*RES
0 *11:g *29:2 51.743229  // $poly_conn
1 *29:2 *46:g 26.102209  // $poly_conn
2 *29:2 *29 45.092941  // $metal1_conn

*END

*D_NET *1 1.69064e-16

*CONN
*P *1 O *C 0.9000 0.4750 
*I *23:d B *C 0.9550 0.5300 
*I *15:d B *C 0.9400 1.1450 

*CAP
0 *15:d 8.60808e-17
1 *1 8.29835e-17

*RES
0 *15:d *1 21.175684  // $metal1_conn
1 *1 *23:d 75.002655  // $metal1_conn

*END

*D_NET *22 9.38867e-17

*CONN
*P *22 O *C 0.1000 0.6650 
*I *49:d B *C 0.3050 0.5300 
*I *14:d B *C 0.3050 1.0950 
*N *22:3 *C 0.2950 0.6000 

*CAP
0 *14:d 4.41502e-17
1 *49:d 2.6769e-17
2 *22 2.29675e-17

*RES
0 *14:d *22:3 20.971601  // $metal1_conn
1 *22:3 *22 0.092795  // $metal1_conn
2 *49:d *22:3 75  // $metal1_conn

*END

*D_NET *50 0

*CONN
*I *46:d B *C 4.3900 0.5875 
*I *48:s B *C 4.3900 0.5875 


*RES
0 *48:s *46:d 0.001  // $mwires

*END

*D_NET *47 0

*CONN
*I *37:d B *C 3.2650 0.5625 
*I *39:s B *C 3.2650 0.5625 


*RES
0 *39:s *37:d 0.001  // $mwires

*END

*D_NET *44 0

*CONN
*I *26:d B *C 2.3075 0.5625 
*I *27:s B *C 2.3075 0.5625 


*RES
0 *27:s *26:d 0.001  // $mwires

*END

*D_NET *42 0

*CONN
*I *6:d B *C 3.2750 1.1475 
*I *8:s B *C 3.2750 1.1475 


*RES
0 *8:s *6:d 0.001  // $mwires

*END

*D_NET *40 2.60637e-18

*CONN
*I *18:d B *C 2.3225 1.1475 
*I *19:s B *C 2.3225 1.1475 

*CAP
0 *18:d 2.60637e-18

*RES
0 *19:s *18:d 0.001  // $mwires

*END

*D_NET *38 8.50661e-16

*CONN
*I *41:g B *C 3.5225 0.5625 
*I *43:g B *C 4.0725 0.5875 
*I *24:d B *C 1.4350 0.5875 
*I *27:g B *C 2.3925 0.5625 
*I *3:g B *C 2.6275 1.1475 
*I *8:g B *C 3.3375 1.1475 
*I *10:g B *C 4.0025 1.1375 
*I *16:d B *C 1.4350 1.0575 
*N *38:1 *C 2.5900 1.3550 
*N *38:5 *C 4.0025 0.7450 
*N *38:6 *C 3.5225 0.7325 
*N *38:10 *C 3.3750 1.3550 
*N *38:12 *C 1.4700 1.0100 

*CAP
0 *16:d 1.27625e-16
1 *10:g 4.14617e-17
2 *8:g 6.69315e-17
3 *3:g 6.14313e-17
4 *27:g 7.05439e-17
5 *24:d 5.85574e-17
6 *43:g 1.89079e-17
7 *41:g 2.62703e-17
8 *38:6 6.07052e-17
9 *38:5 3.88463e-17
10 *38:1 1.74811e-16
11 *38:10 1.0457e-16

*RES
0 *38:1 *3:g 61.15522  // $poly_conn
1 *3:g *27:g 140.446503  // $poly_conn
2 *43:g *38:5 25.955446  // $poly_conn
3 *38:5 *38:6 121.088455  // $poly_conn
4 *38:6 *8:g 107.387993  // $poly_conn
5 *38:5 *10:g 66.211128  // $poly_conn
6 *38:6 *41:g 20.300484  // $poly_conn
7 *8:g *38:10 61.15522  // $poly_conn
8 *38:10 *38:1 0.52972  // $metal1_conn
9 *38:1 *38:12 0.984941  // $metal1_conn
10 *38:12 *24:d 75.272049  // $metal1_conn
11 *16:d *38:12 62  // $metal1_conn

*END

*D_NET *36 9.57332e-16

*CONN
*I *33:g B *C 2.6875 0.5625 
*I *39:g B *C 3.3175 0.5625 
*I *43:d B *C 3.9800 0.5875 
*I *9:g B *C 3.5425 1.1475 
*I *10:d B *C 3.9100 1.1375 
*I *19:g B *C 2.4225 1.1475 
*N *36:2 *C 2.4500 0.8750 
*N *36:4 *C 2.7150 0.7650 
*N *36:6 *C 3.3450 0.3050 
*N *36:8 *C 3.5800 0.8650 
*N *36:11 *C 3.9700 0.5750 
*N *36:12 *C 3.6100 0.3850 
*N *36:13 *C 3.3450 0.3850 
*N *36:14 *C 2.6550 0.7900 

*CAP
0 *19:g 5.47188e-17
1 *10:d 7.15808e-17
2 *9:g 4.31746e-17
3 *43:d 1.22408e-16
4 *39:g 8.51711e-17
5 *33:g 3.59875e-17
6 *36:14 1.13658e-16
7 *36:13 8.73213e-17
8 *36:12 6.28331e-17
9 *36:2 8.38771e-17
10 *36:4 3.63289e-17
11 *36:6 4.37386e-17
12 *36:8 1.16534e-16

*RES
0 *19:g *36:2 78.794518  // $poly_conn
1 *33:g *36:4 69.82016  // $poly_conn
2 *39:g *36:6 83.922722  // $poly_conn
3 *9:g *36:8 80.385986  // $poly_conn
4 *10:d *36:11 62.490837  // $metal1_conn
5 *36:11 *36:12 0.366778  // $metal1_conn
6 *36:12 *36:13 0.212459  // $metal1_conn
7 *36:13 *36:14 0.730784  // $metal1_conn
8 *36:14 *36:2 0.160932  // $metal1_conn
9 *36:12 *36:8 0.351283  // $metal1_conn
10 *36:13 *36:6 0.025052  // $metal1_conn
11 *36:14 *36:4 0.02992  // $metal1_conn
12 *43:d *36:11 75  // $metal1_conn

*END

*D_NET *34 6.69728e-16

*CONN
*I *21:g B *C 0.6275 0.5875 
*I *23:g B *C 1.0475 0.5300 
*I *25:d B *C 1.8650 0.5625 
*I *26:g B *C 2.2225 0.5625 
*I *13:g B *C 0.6275 1.0075 
*I *15:g B *C 1.0325 1.1450 
*I *17:d B *C 1.8650 1.1475 
*I *18:g B *C 2.2225 1.1475 
*N *34:2 *C 1.0400 0.7600 
*N *34:3 *C 0.6275 0.7575 
*N *34:6 *C 1.1000 0.7600 
*N *34:9 *C 2.2225 0.7400 
*N *34:10 *C 2.1000 0.7400 
*N *34:12 *C 1.7700 0.7400 
*N *34:14 *C 1.8550 0.5500 

*CAP
0 *18:g 5.42533e-17
1 *17:d 5.59166e-17
2 *15:g 3.97368e-17
3 *13:g 3.11068e-17
4 *26:g 2.73685e-17
5 *25:d 7.46056e-17
6 *23:g 2.78012e-17
7 *21:g 2.69792e-17
8 *34:12 4.06548e-17
9 *34:9 2.50299e-17
10 *34:3 2.65619e-17
11 *34:2 3.1974e-17
12 *34:6 1.27687e-16
13 *34:10 8.00529e-17

*RES
0 *23:g *34:2 24.984648  // $poly_conn
1 *34:2 *34:3 98.357018  // $poly_conn
2 *34:3 *21:g 23.465221  // $poly_conn
3 *34:2 *15:g 48.061569  // $poly_conn
4 *34:2 *34:6 48.402832  // $poly_conn
5 *34:3 *13:g 35.003685  // $poly_conn
6 *18:g *34:9 74.168388  // $poly_conn
7 *34:9 *34:10 52.613522  // $poly_conn
8 *34:9 *26:g 24.16839  // $poly_conn
9 *34:10 *34:12 0.232903  // $metal1_conn
10 *34:12 *34:14 0.170355  // $metal1_conn
11 *34:14 *34:6 0.812091  // $metal1_conn
12 *34:12 *17:d 62.324966  // $metal1_conn
13 *25:d *34:14 75  // $metal1_conn

*END

*D_NET *32 4.44238e-16

*CONN
*I *41:s B *C 3.6875 0.5625 
*I *48:d B *C 4.6175 0.5875 
*I *9:s B *C 3.6350 1.1475 
*I *11:d B *C 4.4250 1.1375 
*I *12:d B *C 4.4250 1.1375 
*N *32:3 *C 4.4500 1.0900 
*N *32:5 *C 3.6450 1.1000 

*CAP
0 *11:d 1.43479e-16
1 *9:s 1.49291e-16
2 *48:d 6.13045e-17
3 *41:s 9.01644e-17

*RES
0 *48:d *32:3 75.4907  // $metal1_conn
1 *32:3 *32:5 0.891409  // $metal1_conn
2 *32:5 *41:s 75.486275  // $metal1_conn
3 *11:d *32:3 62  // $metal1_conn
4 *9:s *32:5 62  // $metal1_conn

*END

*D_NET *31 3.1882e-16

*CONN
*I *33:d B *C 2.5400 0.5625 
*I *25:g B *C 1.9575 0.5625 
*I *27:d B *C 2.5400 0.5625 
*I *3:d B *C 2.5250 1.1475 
*I *17:g B *C 1.9575 1.1475 
*I *19:d B *C 2.5250 1.1475 
*N *31:2 *C 1.9300 0.9300 
*N *31:5 *C 2.2900 0.9000 

*CAP
0 *17:g 3.04271e-17
1 *3:d 4.11276e-17
2 *25:g 3.50197e-17
3 *33:d 5.95615e-17
4 *31:5 7.2805e-17
5 *31:2 7.98795e-17

*RES
0 *17:g *31:2 19.691952  // $poly_conn
1 *31:2 *25:g 67.127846  // $poly_conn
2 *3:d *31:5 62.301422  // $metal1_conn
3 *31:5 *31:2 45.236088  // $metal1_conn
4 *31:5 *33:d 75.374252  // $metal1_conn

*END

*D_NET *30 3.03846e-16

*CONN
*I *35:g B *C 2.9475 0.5625 
*I *39:d B *C 3.4200 0.5625 
*I *41:d B *C 3.4200 0.5625 
*I *4:g B *C 2.9475 1.1475 
*I *8:d B *C 3.4400 1.1475 
*I *9:d B *C 3.4400 1.1475 
*N *30:1 *C 3.0650 0.8950 
*N *30:2 *C 2.9475 0.8950 
*N *30:5 *C 3.3900 0.8950 

*CAP
0 *8:d 3.57288e-17
1 *4:g 3.90944e-17
2 *39:d 4.73874e-17
3 *35:g 4.6088e-17
4 *30:5 4.50177e-17
5 *30:2 2.22268e-17
6 *30:1 6.83025e-17

*RES
0 *30:1 *30:2 52.081608  // $poly_conn
1 *30:2 *35:g 61.589127  // $poly_conn
2 *30:2 *4:g 32.101944  // $poly_conn
3 *30:1 *30:5 0.215577  // $metal1_conn
4 *30:5 *39:d 75.236031  // $metal1_conn
5 *30:5 *8:d 62.155746  // $metal1_conn

*END

*D_NET *7 3.3899e-16

*CONN
*I *33:s B *C 2.8175 0.5625 
*I *35:d B *C 2.8175 0.5625 
*I *37:g B *C 3.2125 0.5625 
*I *3:s B *C 2.7875 1.1475 
*I *4:d B *C 2.7875 1.1475 
*I *6:g B *C 3.2125 1.1475 
*N *7:2 *C 3.1750 0.7350 
*N *7:4 *C 2.8750 0.7350 

*CAP
0 *6:g 7.5106e-17
1 *3:s 3.37915e-17
2 *37:g 5.20118e-17
3 *33:s 3.18249e-17
4 *7:4 4.95338e-17
5 *7:2 9.67221e-17

*RES
0 *6:g *7:2 68.719322  // $poly_conn
1 *7:2 *37:g 16.15522  // $poly_conn
2 *7:2 *7:4 45.19899  // $metal1_conn
3 *7:4 *33:s 75.103645  // $metal1_conn
4 *7:4 *3:s 62.255569  // $metal1_conn

*END

*D_NET *5 2.10639e-16

*CONN
*I *49:g B *C 0.3975 0.5300 
*I *21:d B *C 0.7200 0.5875 
*I *14:g B *C 0.3975 1.0950 
*I *13:d B *C 0.7200 1.0075 
*N *5:1 *C 0.4850 0.8000 
*N *5:2 *C 0.3975 0.8000 
*N *5:6 *C 0.7200 0.8100 

*CAP
0 *13:d 2.64194e-17
1 *14:g 4.05624e-17
2 *21:d 2.77724e-17
3 *49:g 3.69866e-17
4 *5:6 2.74814e-17
5 *5:2 6.49634e-18
6 *5:1 4.49202e-17

*RES
0 *5:1 *5:2 48.890118  // $poly_conn
1 *5:2 *49:g 30.819893  // $poly_conn
2 *5:2 *14:g 20.563484  // $poly_conn
3 *13:d *5:6 62.093479  // $metal1_conn
4 *5:6 *5:1 0.122162  // $metal1_conn
5 *5:6 *21:d 75.129395  // $metal1_conn

*END

