*SPEF "IEEE 1481-1999"
*DESIGN  "DFFTRX2"
*DATE "Mon Sep 27 09:39:27 2010"
*VENDOR "Cadence Design Systems"
*PROGRAM "Assura RCX"
*VERSION "3.2 Red Hat Linux release 7.2 (Enigma) - (09/09/2009-10:39)"
*DESIGN_FLOW "Physical Verification"
*DIVIDER /
*DELIMITER :
*BUS_DELIMITER []
*T_UNIT 1 PS
*C_UNIT 1e15 FF
*R_UNIT 1 OHM
*L_UNIT 1 MH
// DeviceFingerDelim "@"
// MATCHED
// caps2d version: 10

*NAME_MAP
*1 VDD
*2 n35
*3 VSS
*4 qint
*5 n20
*6 QN
*7 mn50
*8 mn45
*9 mn20
*10 mp1
*11 mn55
*12 mp0
*13 mn55\@1
*14 mp21
*15 mp51
*16 mn57
*17 mp25
*18 mp50
*19 mn57\@1
*20 mp36
*21 mp45
*22 mn1
*23 mn56
*24 mp35
*25 mp20
*26 mn0
*27 mn51
*28 mp30
*29 mp55
*30 mn21
*31 mp40
*32 mp55\@1
*33 mn25
*34 RN
*35 mp57
*36 mn36
*37 mp57\@1
*38 mn35
*39 mp56
*40 mn30
*41 mn40
*42 CK
*43 D
*44 mout
*45 n30
*46 Db
*47 CKbb
*48 CKb
*49 qbint
*50 n26
*51 n36
*52 Q
*53 n0
*54 n25

*GROUND_NETS VSS

*PORTS
*1 I
*3 I
*42 I
*43 I
*34 I
*52 O
*6 O

*D_NET *1 7.29557e-16

*CONN
*P *1 I *C 0.1000 1.7100 
*I *18:s B *C 2.7750 1.2150 
*I *21:s B *C 2.7750 1.2150 
*I *25:s B *C 3.5550 1.0950 
*I *29:s B *C 3.5550 1.0950 
*I *32:s B *C 3.9550 1.0950 
*I *35:s B *C 3.9550 1.0950 
*I *37:s B *C 4.4500 1.0075 
*I *39:s B *C 4.4500 1.0075 
*I *10:s B *C 0.1350 1.1275 
*I *12:s B *C 0.5950 1.4650 
*I *14:s B *C 0.5950 1.4650 
*I *24:s B *C 1.7250 1.1675 
*I *28:s B *C 1.7250 1.1675 
*N *1:3 *C 3.6000 1.7100 
*N *1:5 *C 2.6600 1.7100 
*N *1:6 *C 1.6400 1.7100 
*N *1:7 *C 1.2000 1.7100 
*N *1:8 *C 0.5700 1.7100 

*CAP
0 *24:s 1.68327e-17
1 *12:s 1.77159e-17
2 *10:s 3.55754e-17
3 *37:s 2.30996e-16
4 *18:s 2.35074e-17
5 *1:8 1.70718e-17
6 *1:6 3.14367e-17
7 *1:5 4.29965e-17
8 *1:3 3.05448e-16
9 *1 7.97636e-18

*RES
0 *1 *10:s 62.350803  // $metal1_conn
1 *1:8 *1 0.235808  // $metal1_conn
2 *1:3 *37:s 6.25  // $metal1_conn
3 *1:3 *1:7 6.25  // $metal1_conn
4 *1:5 *18:s 62.097305  // $metal1_conn
5 *1:6 *24:s 62.045818  // $metal1_conn
6 *1:8 *12:s 62.144691  // $metal1_conn
7 *37:s *1:5 0.471198  // $metal1_conn
8 *1:5 *1:6 0.510171  // $metal1_conn
9 *1:6 *1:7 0.219507  // $metal1_conn
10 *1:7 *1:8 0.315738  // $metal1_conn

*END

*D_NET *3 0

*CONN
*P *3 I *C 0.1000 0.0000 
*I *7:s B *C 2.6600 0.5575 
*I *8:s B *C 2.6600 0.5575 
*I *9:s B *C 3.5700 0.5300 
*I *11:s B *C 3.5700 0.5300 
*I *13:s B *C 4.0400 0.5300 
*I *16:s B *C 4.0400 0.5300 
*I *19:s B *C 4.5100 0.5875 
*I *23:s B *C 4.5100 0.5875 
*I *26:s B *C 0.5050 0.4275 
*I *30:s B *C 0.5050 0.4275 
*I *38:s B *C 1.7250 0.5875 
*I *40:s B *C 1.7250 0.5875 
*N *3:3 *C 3.6000 0.0000 
*N *3:6 *C 2.6500 0.0000 
*N *3:7 *C 1.6100 0.0000 
*N *3:8 *C 1.2000 0.0000 
*N *3:9 *C 0.5050 0.0000 


*RES
0 *3:9 *3 0.202654  // $metal1_conn
1 *3:3 *19:s 5.166667  // $metal1_conn
2 *3:3 *3:8 5.166667  // $metal1_conn
3 *3:6 *7:s 75.346733  // $metal1_conn
4 *3:7 *38:s 75.097305  // $metal1_conn
5 *3:9 *26:s 75.260727  // $metal1_conn
6 *19:s *3:6 0.417396  // $metal1_conn
7 *3:6 *3:7 0.52115  // $metal1_conn
8 *3:7 *3:8 0.205412  // $metal1_conn
9 *3:8 *3:9 0.348335  // $metal1_conn

*END

*D_NET *42 2.0115e-16

*CONN
*P *42 I *C 3.3000 0.6650 
*I *9:g B *C 3.3025 0.5875 
*I *25:g B *C 3.3775 1.0075 
*N *42:2 *C 3.3400 0.8000 

*CAP
0 *25:g 2.50359e-17
1 *9:g 3.15915e-17
2 *42:2 9.50805e-17
3 *42 4.94425e-17

*RES
0 *25:g *42:2 18.425531  // $poly_conn
1 *42:2 *9:g 28.681942  // $poly_conn
2 *42 *42:2 45.081505  // $metal1_conn

*END

*D_NET *43 2.21314e-16

*CONN
*P *43 I *C 0.1000 0.6650 
*I *22:g B *C 0.2975 0.4275 
*I *10:g B *C 0.2275 1.1275 
*N *43:2 *C 0.2275 0.6350 
*N *43:3 *C 0.1700 0.6350 

*CAP
0 *10:g 3.82188e-17
1 *22:g 4.48234e-17
2 *43:2 3.06776e-17
3 *43:3 9.08182e-17
4 *43 1.67759e-17

*RES
0 *22:g *43:2 38.134598  // $poly_conn
1 *43:2 *43:3 48.026802  // $poly_conn
2 *43:2 *10:g 86.820755  // $poly_conn
3 *43 *43:3 0.01946  // $metal1_conn

*END

*D_NET *34 2.84913e-16

*CONN
*P *34 I *C 0.5000 1.0450 
*I *26:g B *C 0.4025 0.4275 
*I *12:g B *C 0.4375 1.1275 
*N *34:1 *C 0.4900 0.9200 
*N *34:2 *C 0.4375 0.9200 

*CAP
0 *12:g 3.99814e-17
1 *26:g 7.60108e-17
2 *34:1 1.37776e-16
3 *34 3.11447e-17

*RES
0 *34:1 *34:2 45.294373  // $poly_conn
1 *34:2 *26:g 106.556107  // $poly_conn
2 *34:2 *12:g 20.563484  // $poly_conn
3 *34 *34:1 0.077649  // $metal1_conn

*END

*D_NET *52 1.55454e-16

*CONN
*P *52 O *C 3.7000 0.6650 
*I *11:d B *C 3.7200 0.5300 
*I *13:d B *C 3.7200 0.5300 
*I *29:d B *C 3.7500 1.0950 
*I *32:d B *C 3.7500 1.0950 

*CAP
0 *29:d 8.87016e-17
1 *11:d 3.42898e-17
2 *52 3.24624e-17

*RES
0 *52 *11:d 75.033264  // $metal1_conn
1 *29:d *52 21.00606  // $metal1_conn

*END

*D_NET *6 1.61064e-16

*CONN
*P *6 O *C 4.1000 0.6650 
*I *16:d B *C 4.1900 0.5300 
*I *19:d B *C 4.1900 0.5300 
*I *35:d B *C 4.1600 1.0950 
*I *37:d B *C 4.1600 1.0950 
*N *6:2 *C 4.1900 0.6000 

*CAP
0 *35:d 8.50329e-17
1 *16:d 3.68732e-17
2 *6 3.91581e-17

*RES
0 *6 *35:d 20.920197  // $metal1_conn
1 *6:2 *6 0.027137  // $metal1_conn
2 *16:d *6:2 75  // $metal1_conn

*END

*D_NET *2 0

*CONN
*I *7:d B *C 2.4650 0.5875 
*I *27:s B *C 2.4650 0.5875 


*RES
0 *27:s *7:d 0.001  // $mwires

*END

*D_NET *54 0

*CONN
*I *36:s B *C 1.4525 0.5875 
*I *38:d B *C 1.4525 0.5875 


*RES
0 *38:d *36:s 0.001  // $mwires

*END

*D_NET *53 1.48018e-18

*CONN
*I *22:s B *C 0.3500 0.4275 
*I *26:d B *C 0.3500 0.4275 

*CAP
0 *22:s 1.48018e-18

*RES
0 *26:d *22:s 0.001  // $mwires

*END

*D_NET *51 1.99551e-18

*CONN
*I *15:s B *C 2.4800 1.1675 
*I *18:d B *C 2.4800 1.1675 

*CAP
0 *15:s 1.99551e-18

*RES
0 *18:d *15:s 0.001  // $mwires

*END

*D_NET *50 0

*CONN
*I *20:s B *C 1.4500 1.1675 
*I *24:d B *C 1.4500 1.1675 


*RES
0 *24:d *20:s 0.001  // $mwires

*END

*D_NET *49 9.85668e-16

*CONN
*I *7:g B *C 2.5175 0.5875 
*I *8:d B *C 2.8450 0.5575 
*I *11:g B *C 3.6175 0.5300 
*I *13:g B *C 3.8225 0.5300 
*I *23:g B *C 4.5575 0.5875 
*I *18:g B *C 2.5575 1.1675 
*I *21:d B *C 2.9150 1.2150 
*I *29:g B *C 3.6475 1.0950 
*I *32:g B *C 3.8525 1.0950 
*I *39:g B *C 4.4975 1.0075 
*N *49:1 *C 2.6900 0.9500 
*N *49:2 *C 2.5575 0.9500 
*N *49:13 *C 4.6150 0.4050 
*N *49:19 *C 2.8550 0.5150 
*N *49:20 *C 2.8900 0.9800 

*CAP
0 *39:g 4.20203e-17
1 *32:g 4.18625e-16
2 *21:d 3.62127e-17
3 *18:g 4.66916e-17
4 *23:g 2.58135e-17
5 *8:d 1.03955e-16
6 *7:g 8.27476e-17
7 *49:20 5.33651e-17
8 *49:2 3.00411e-17
9 *49:1 6.57464e-17
10 *49:13 8.04505e-17

*RES
0 *23:g *39:g 65.095047  // $poly_conn
1 *49:2 *18:g 21.534737  // $poly_conn
2 *49:13 *23:g 66.323036  // $poly_conn
3 *49:2 *7:g 67.694748  // $poly_conn
4 *49:1 *49:2 52.24773  // $poly_conn
5 *49:13 *32:g 0.497296  // $metal1_conn
6 *49:20 *49:1 0.118797  // $metal1_conn
7 *8:d *49:19 75  // $metal1_conn
8 *49:20 *21:d 62.146797  // $metal1_conn
9 *32:g *49:19 0.550781  // $metal1_conn
10 *49:19 *49:20 0.402866  // $metal1_conn

*END

*D_NET *48 9.48572e-16

*CONN
*I *9:d B *C 3.1600 0.5875 
*I *27:g B *C 2.4125 0.5875 
*I *30:g B *C 0.6075 0.4275 
*I *33:g B *C 1.0125 0.5875 
*I *25:d B *C 3.2850 1.0075 
*I *14:g B *C 0.6325 1.1275 
*I *20:g B *C 1.3925 1.1675 
*I *31:g B *C 2.1975 1.1675 
*N *48:1 *C 1.3550 1.3750 
*N *48:3 *C 1.0125 0.7575 
*N *48:4 *C 0.6425 0.7575 
*N *48:10 *C 2.1600 1.3750 
*N *48:12 *C 3.2750 1.0550 

*CAP
0 *31:g 6.57214e-17
1 *20:g 8.49672e-17
2 *14:g 5.26688e-17
3 *25:d 1.43819e-16
4 *33:g 2.08122e-17
5 *30:g 3.49559e-17
6 *27:g 8.48046e-17
7 *9:d 1.02351e-16
8 *48:4 4.22132e-17
9 *48:3 5.16777e-17
10 *48:1 9.59536e-17
11 *48:10 1.68627e-16

*RES
0 *48:1 *20:g 61.15522  // $poly_conn
1 *20:g *48:3 156.105957  // $poly_conn
2 *48:3 *48:4 93.13652  // $poly_conn
3 *48:4 *30:g 77.522041  // $poly_conn
4 *48:3 *33:g 20.300484  // $poly_conn
5 *48:4 *14:g 66.241226  // $poly_conn
6 *27:g *31:g 145.864273  // $poly_conn
7 *31:g *48:10 61.15522  // $poly_conn
8 *48:10 *48:1 0.549799  // $metal1_conn
9 *48:10 *48:12 0.984023  // $metal1_conn
10 *48:12 *9:d 75.472641  // $metal1_conn
11 *25:d *48:12 62  // $metal1_conn

*END

*D_NET *47 9.28956e-16

*CONN
*I *30:d B *C 0.7000 0.4275 
*I *36:g B *C 1.3975 0.5875 
*I *41:g B *C 2.0925 0.5875 
*I *15:g B *C 2.4025 1.1675 
*I *14:d B *C 0.7250 1.1275 
*I *17:g B *C 1.1875 1.1675 
*N *47:2 *C 1.1000 0.9000 
*N *47:4 *C 1.3600 0.3350 
*N *47:6 *C 2.0650 0.8200 
*N *47:8 *C 2.3400 0.9200 
*N *47:9 *C 2.1500 0.8200 
*N *47:10 *C 1.3600 0.4100 
*N *47:11 *C 1.0700 0.4100 
*N *47:13 *C 0.7100 0.4400 

*CAP
0 *17:g 3.98773e-17
1 *14:d 8.06746e-17
2 *15:g 5.25151e-17
3 *41:g 3.0986e-17
4 *36:g 7.85114e-17
5 *30:d 7.56933e-17
6 *47:11 6.19938e-17
7 *47:10 9.31218e-17
8 *47:9 1.15532e-16
9 *47:2 1.10662e-16
10 *47:4 3.8337e-17
11 *47:6 5.80324e-17
12 *47:8 9.30188e-17

*RES
0 *17:g *47:2 86.983063  // $poly_conn
1 *36:g *47:4 81.668037  // $poly_conn
2 *41:g *47:6 77.512466  // $poly_conn
3 *15:g *47:8 75.913002  // $poly_conn
4 *47:8 *47:9 0.22213  // $metal1_conn
5 *47:9 *47:10 0.887738  // $metal1_conn
6 *47:10 *47:11 0.232204  // $metal1_conn
7 *47:11 *47:13 0.257325  // $metal1_conn
8 *47:9 *47:6 0.027577  // $metal1_conn
9 *47:10 *47:4 0.022563  // $metal1_conn
10 *47:11 *47:2 0.361623  // $metal1_conn
11 *47:13 *14:d 62.505375  // $metal1_conn
12 *30:d *47:13 75  // $metal1_conn

*END

*D_NET *46 4.30663e-16

*CONN
*I *22:d B *C 0.2050 0.4275 
*I *33:s B *C 0.9200 0.5875 
*I *10:d B *C 0.3325 1.1275 
*I *12:d B *C 0.3325 1.1275 
*I *17:s B *C 1.0950 1.1675 
*N *46:2 *C 0.9100 1.2275 
*N *46:4 *C 0.3300 1.0900 

*CAP
0 *17:s 3.095e-17
1 *10:d 1.36046e-16
2 *33:s 8.82548e-17
3 *22:d 8.47111e-17
4 *46:2 9.07016e-17

*RES
0 *33:s *46:2 75.415665  // $metal1_conn
1 *46:2 *46:4 0.549665  // $metal1_conn
2 *46:4 *22:d 75.54966  // $metal1_conn
3 *46:2 *17:s 62.074226  // $metal1_conn
4 *10:d *46:4 62  // $metal1_conn

*END

*D_NET *45 3.43651e-16

*CONN
*I *8:g B *C 2.7525 0.5575 
*I *27:d B *C 2.2525 0.5875 
*I *41:d B *C 2.2525 0.5875 
*I *15:d B *C 2.3000 1.1675 
*I *21:g B *C 2.8225 1.2150 
*I *31:d B *C 2.3000 1.1675 
*N *45:2 *C 2.7525 0.7600 
*N *45:3 *C 2.7000 0.7600 
*N *45:5 *C 2.5300 0.7600 

*CAP
0 *21:g 6.17985e-17
1 *15:d 5.93067e-17
2 *27:d 5.96185e-17
3 *8:g 3.1721e-17
4 *45:5 4.80094e-17
5 *45:3 8.31967e-17

*RES
0 *21:g *45:2 82.256866  // $poly_conn
1 *45:2 *45:3 47.900734  // $poly_conn
2 *45:2 *8:g 15.826773  // $poly_conn
3 *45:3 *45:5 0.132019  // $metal1_conn
4 *45:5 *15:d 62.372955  // $metal1_conn
5 *45:5 *27:d 75.275703  // $metal1_conn

*END

*D_NET *44 3.52014e-16

*CONN
*I *38:g B *C 1.5075 0.5875 
*I *40:d B *C 1.9325 0.5875 
*I *41:s B *C 1.9325 0.5875 
*I *24:g B *C 1.5075 1.1675 
*I *28:d B *C 1.9850 1.1675 
*I *31:s B *C 1.9850 1.1675 
*N *44:2 *C 1.5450 0.9600 
*N *44:5 *C 1.9050 0.9600 

*CAP
0 *28:d 2.09602e-17
1 *24:g 5.84091e-17
2 *40:d 6.16028e-17
3 *38:g 7.21567e-17
4 *44:5 4.98854e-17
5 *44:2 8.90002e-17

*RES
0 *24:g *44:2 16.15522  // $poly_conn
1 *44:2 *38:g 67.437271  // $poly_conn
2 *40:d *44:5 75.29409  // $metal1_conn
3 *44:5 *44:2 45.243332  // $metal1_conn
4 *44:5 *28:d 62.109665  // $metal1_conn

*END

*D_NET *5 2.985e-16

*CONN
*I *33:d B *C 1.2050 0.5875 
*I *36:d B *C 1.2050 0.5875 
*I *40:g B *C 1.7725 0.5875 
*I *17:d B *C 1.2900 1.1675 
*I *20:d B *C 1.2900 1.1675 
*I *28:g B *C 1.7725 1.1675 
*N *5:2 *C 1.7725 0.7700 
*N *5:3 *C 1.7150 0.7700 
*N *5:5 *C 1.2900 0.7700 

*CAP
0 *28:g 4.78119e-17
1 *17:d 3.72309e-17
2 *40:g 3.22238e-17
3 *33:d 3.95011e-17
4 *5:5 5.09967e-17
5 *5:2 2.55331e-17
6 *5:3 6.52022e-17

*RES
0 *28:g *5:2 71.047935  // $poly_conn
1 *5:2 *5:3 45.778431  // $poly_conn
2 *5:2 *40:g 24.894089  // $poly_conn
3 *5:3 *5:5 0.287983  // $metal1_conn
4 *5:5 *33:d 75.118095  // $metal1_conn
5 *5:5 *17:d 62.250706  // $metal1_conn

*END

*D_NET *4 2.65336e-16

*CONN
*I *16:g B *C 4.0875 0.5300 
*I *19:g B *C 4.2925 0.5300 
*I *23:d B *C 4.6500 0.5875 
*I *35:g B *C 4.0575 1.0950 
*I *37:g B *C 4.2625 1.0950 
*I *39:d B *C 4.5900 1.0075 
*N *4:8 *C 4.6000 0.7800 

*CAP
0 *39:d 1.66834e-17
1 *37:g 1.99137e-16
2 *23:d 2.40869e-17
3 *4:8 2.54289e-17

*RES
0 *4:8 *37:g 45.195412  // $metal1_conn
1 *4:8 *39:d 62.101551  // $metal1_conn
2 *23:d *4:8 75.16819  // $metal1_conn

*END

