*SPEF "IEEE 1481-1999"
*DESIGN  "DFFTRX4"
*DATE "Mon Sep 27 09:39:49 2010"
*VENDOR "Cadence Design Systems"
*PROGRAM "Assura RCX"
*VERSION "3.2 Red Hat Linux release 7.2 (Enigma) - (09/09/2009-10:39)"
*DESIGN_FLOW "Physical Verification"
*DIVIDER /
*DELIMITER :
*BUS_DELIMITER []
*T_UNIT 1 PS
*C_UNIT 1e15 FF
*R_UNIT 1 OHM
*L_UNIT 1 MH
// DeviceFingerDelim "@"
// MATCHED
// caps2d version: 10

*NAME_MAP
*1 VSS
*2 mp55
*3 mp55\@1
*4 mp57
*5 mp57\@1
*6 mp57\@2
*7 mp57\@3
*8 mp56
*9 mp40
*10 mp51
*11 CK
*12 mp50
*13 mn55
*14 mp45
*15 mn57
*16 mp45\@1
*17 mn57\@1
*18 mp55\@2
*19 mn57\@2
*20 mp55\@3
*21 mn57\@3
*22 mp0
*23 mn56
*24 n30
*25 mp1
*26 mn51
*27 CKb
*28 mp20
*29 mn50
*30 qint
*31 mp21
*32 mn45
*33 CKbb
*34 QN
*35 mp25
*36 Db
*37 qbint
*38 n26
*39 n36
*40 D
*41 n0
*42 n25
*43 mp36
*44 mp35
*45 mp30
*46 n20
*47 VDD
*48 mout
*49 n35
*50 Q
*51 RN
*52 mn45\@1
*53 mn55\@1
*54 mn55\@2
*55 mn55\@3
*56 mn0
*57 mn1
*58 mn20
*59 mn21
*60 mn25
*61 mn36
*62 mn35
*63 mn30
*64 mn40

*GROUND_NETS VSS

*PORTS
*47 I
*1 I
*11 I
*40 I
*51 I
*50 O
*34 O

*D_NET *47 8.69362e-16

*CONN
*P *47 I *C 0.1000 1.7100 
*I *2:s B *C 4.4950 1.0950 
*I *3:s B *C 4.9050 1.0950 
*I *4:s B *C 4.9050 1.0950 
*I *5:s B *C 5.3150 1.0950 
*I *6:s B *C 5.3150 1.0950 
*I *7:s B *C 5.7500 1.0950 
*I *8:s B *C 5.7500 1.0950 
*I *12:s B *C 3.6550 1.1350 
*I *14:s B *C 3.6550 1.1350 
*I *16:s B *C 4.0950 1.0950 
*I *18:s B *C 4.0950 1.0950 
*I *20:s B *C 4.4950 1.0950 
*I *22:s B *C 0.1850 1.5700 
*I *25:s B *C 0.5850 1.3750 
*I *28:s B *C 1.5850 1.3750 
*I *31:s B *C 1.5850 1.3750 
*I *44:s B *C 2.5900 1.0875 
*I *45:s B *C 2.5900 1.0875 
*N *47:2 *C 5.3000 1.7100 
*N *47:8 *C 3.2000 1.7100 
*N *47:9 *C 2.5750 1.7100 
*N *47:10 *C 1.5600 1.7100 
*N *47:11 *C 1.1000 1.7100 
*N *47:12 *C 0.5600 1.7100 
*N *47:13 *C 0.1600 1.7100 

*CAP
0 *44:s 3.99705e-17
1 *28:s 1.81874e-17
2 *25:s 2.1063e-17
3 *22:s 6.18056e-18
4 *7:s 4.14257e-16
5 *47:13 5.07749e-18
6 *47:12 1.16553e-17
7 *47:10 2.19186e-17
8 *47:9 2.06061e-17
9 *47:2 3.0824e-16
10 *47 2.20653e-18

*RES
0 *47:13 *47 0.029621  // $metal1_conn
1 *47:2 *7:s 6.818182  // $metal1_conn
2 *47:2 *47:8 7.5  // $metal1_conn
3 *47:2 *47:11 6.818182  // $metal1_conn
4 *47:9 *44:s 62.363354  // $metal1_conn
5 *47:10 *28:s 62.20388  // $metal1_conn
6 *47:12 *25:s 62.20388  // $metal1_conn
7 *47:13 *22:s 62.074306  // $metal1_conn
8 *7:s *47:8 0.222852  // $metal1_conn
9 *47:8 *47:9 0.313074  // $metal1_conn
10 *47:9 *47:10 0.508358  // $metal1_conn
11 *47:10 *47:11 0.230371  // $metal1_conn
12 *47:11 *47:12 0.270469  // $metal1_conn
13 *47:12 *47:13 0.200101  // $metal1_conn

*END

*D_NET *1 0

*CONN
*P *1 I *C 0.1000 0.0000 
*I *13:s B *C 4.9800 0.4450 
*I *15:s B *C 4.9800 0.4450 
*I *17:s B *C 5.4500 0.4450 
*I *19:s B *C 5.4500 0.4450 
*I *21:s B *C 5.9000 0.4450 
*I *23:s B *C 5.9000 0.4450 
*I *29:s B *C 3.5450 0.4725 
*I *32:s B *C 3.5450 0.4725 
*I *52:s B *C 4.0400 0.4450 
*I *53:s B *C 4.0400 0.4450 
*I *54:s B *C 4.5100 0.4450 
*I *55:s B *C 4.5100 0.4450 
*I *56:s B *C 0.1550 0.5425 
*I *58:s B *C 1.4725 0.3175 
*I *59:s B *C 1.4725 0.3175 
*I *62:s B *C 2.6400 0.5025 
*I *63:s B *C 2.6400 0.5025 
*N *1:2 *C 5.3000 0.0000 
*N *1:8 *C 3.2000 0.0000 
*N *1:9 *C 2.6050 0.0000 
*N *1:10 *C 1.4550 0.0000 
*N *1:11 *C 1.1000 0.0000 
*N *1:12 *C 0.1450 0.0000 


*RES
0 *1:12 *1 0.022104  // $metal1_conn
1 *1:2 *21:s 5.636364  // $metal1_conn
2 *1:2 *1:8 6.2  // $metal1_conn
3 *1:2 *1:11 5.636364  // $metal1_conn
4 *1:9 *62:s 75.045792  // $metal1_conn
5 *1:10 *58:s 75.184418  // $metal1_conn
6 *1:12 *56:s 75.33345  // $metal1_conn
7 *21:s *1:8 0.157692  // $metal1_conn
8 *1:8 *1:9 0.297088  // $metal1_conn
9 *1:9 *1:10 0.575075  // $metal1_conn
10 *1:10 *1:11 0.177741  // $metal1_conn
11 *1:11 *1:12 0.47848  // $metal1_conn

*END

*D_NET *11 2.45071e-16

*CONN
*P *11 I *C 1.3000 0.8550 
*I *58:g B *C 1.3525 0.3175 
*I *28:g B *C 1.4275 1.0075 
*N *11:2 *C 1.3900 0.6850 

*CAP
0 *28:g 4.11315e-17
1 *58:g 3.10031e-17
2 *11:2 1.07891e-16
3 *11 6.50454e-17

*RES
0 *28:g *11:2 47.912708  // $poly_conn
1 *11:2 *58:g 68.425529  // $poly_conn
2 *11:2 *11 45.036327  // $metal1_conn

*END

*D_NET *40 2.45742e-16

*CONN
*P *40 I *C 0.5000 0.8550 
*I *57:g B *C 0.3525 0.5425 
*I *25:g B *C 0.4275 1.1375 
*N *40:2 *C 0.3900 0.8500 

*CAP
0 *25:g 3.26663e-17
1 *57:g 4.5822e-17
2 *40:2 1.20386e-16
3 *40 4.68679e-17

*RES
0 *25:g *40:2 38.938351  // $poly_conn
1 *40:2 *57:g 53.040916  // $poly_conn
2 *40 *40:2 45.026493  // $metal1_conn

*END

*D_NET *51 2.04546e-16

*CONN
*P *51 I *C 0.1000 1.0450 
*I *56:g B *C 0.2475 0.5425 
*I *22:g B *C 0.2225 1.1375 
*N *51:2 *C 0.1950 0.7550 

*CAP
0 *22:g 3.429e-17
1 *56:g 4.21336e-17
2 *51:2 9.05662e-17
3 *51 3.75562e-17

*RES
0 *56:g *51:2 32.107338  // $poly_conn
1 *51:2 *22:g 58.837734  // $poly_conn
2 *51:2 *51 45.017159  // $metal1_conn

*END

*D_NET *50 2.82651e-16

*CONN
*P *50 O *C 4.3000 0.8550 
*I *13:d B *C 4.6600 0.4450 
*I *53:d B *C 4.1900 0.4450 
*I *54:d B *C 4.1900 0.4450 
*I *55:d B *C 4.6600 0.4450 
*I *2:d B *C 4.7000 1.0950 
*I *3:d B *C 4.7000 1.0950 
*I *18:d B *C 4.2900 1.0950 
*I *20:d B *C 4.2900 1.0950 

*CAP
0 *2:d 1.43763e-16
1 *13:d 1.18364e-16
2 *50 2.05234e-17

*RES
0 *2:d *50 0.048432  // $metal1_conn
1 *50 *13:d 0.219077  // $metal1_conn

*END

*D_NET *34 2.88438e-16

*CONN
*P *34 O *C 5.1000 0.8550 
*I *15:d B *C 5.1300 0.4450 
*I *17:d B *C 5.1300 0.4450 
*I *19:d B *C 5.6225 0.4450 
*I *21:d B *C 5.6225 0.4450 
*I *4:d B *C 5.1100 1.0950 
*I *5:d B *C 5.1100 1.0950 
*I *6:d B *C 5.5325 1.0950 
*I *7:d B *C 5.5325 1.0950 

*CAP
0 *6:d 1.54894e-16
1 *15:d 1.16026e-16
2 *34 1.75179e-17

*RES
0 *15:d *34 0.216911  // $metal1_conn
1 *34 *6:d 0.047915  // $metal1_conn

*END

*D_NET *49 0

*CONN
*I *26:s B *C 3.3525 0.5025 
*I *29:d B *C 3.3525 0.5025 


*RES
0 *29:d *26:s 0.001  // $mwires

*END

*D_NET *42 0

*CONN
*I *61:s B *C 2.4200 0.5025 
*I *62:d B *C 2.4200 0.5025 


*RES
0 *62:d *61:s 0.001  // $mwires

*END

*D_NET *41 0

*CONN
*I *56:d B *C 0.3000 0.5425 
*I *57:s B *C 0.3000 0.5425 


*RES
0 *57:s *56:d 0.001  // $mwires

*END

*D_NET *39 5.2437e-18

*CONN
*I *10:s B *C 3.4175 1.0875 
*I *12:d B *C 3.4175 1.0875 

*CAP
0 *10:s 5.2437e-18

*RES
0 *12:d *10:s 0.001  // $mwires

*END

*D_NET *38 0

*CONN
*I *43:s B *C 2.4200 1.0875 
*I *44:d B *C 2.4200 1.0875 


*RES
0 *44:d *43:s 0.001  // $mwires

*END

*D_NET *37 1.14963e-15

*CONN
*I *13:g B *C 4.7625 0.4450 
*I *23:g B *C 6.0525 0.4450 
*I *29:g B *C 3.4125 0.5025 
*I *32:d B *C 3.7200 0.4725 
*I *52:d B *C 3.7200 0.4725 
*I *53:g B *C 4.0875 0.4450 
*I *54:g B *C 4.2925 0.4450 
*I *55:g B *C 4.5575 0.4450 
*I *2:g B *C 4.5975 1.0950 
*I *3:g B *C 4.8025 1.0950 
*I *8:g B *C 5.8525 1.0950 
*I *12:g B *C 3.5125 1.0875 
*I *14:d B *C 3.8500 1.1350 
*I *16:d B *C 3.8500 1.1350 
*I *18:g B *C 4.1875 1.0950 
*I *20:g B *C 4.3925 1.0950 
*N *37:1 *C 3.6150 0.8700 
*N *37:2 *C 3.5125 0.8700 
*N *37:21 *C 5.9000 0.7000 
*N *37:24 *C 3.7200 0.4300 
*N *37:25 *C 3.9750 0.8200 
*N *37:26 *C 3.8500 0.8400 

*CAP
0 *14:d 5.60345e-17
1 *12:g 3.87407e-17
2 *8:g 4.71219e-17
3 *3:g 2.75738e-16
4 *32:d 2.14599e-16
5 *29:g 6.11968e-17
6 *23:g 3.03068e-17
7 *37:26 2.19234e-17
8 *37:25 2.67118e-17
9 *37:2 3.42248e-17
10 *37:1 7.09911e-17
11 *37:21 2.72037e-16

*RES
0 *37:21 *8:g 41.796242  // $poly_conn
1 *37:2 *12:g 21.534737  // $poly_conn
2 *23:g *37:21 46.513458  // $poly_conn
3 *37:2 *29:g 82.78363  // $poly_conn
4 *37:1 *37:2 49.61615  // $poly_conn
5 *37:21 *37:24 46.87373  // $metal1_conn
6 *37:26 *37:1 0.178924  // $metal1_conn
7 *32:d *37:24 75  // $metal1_conn
8 *37:26 *14:d 31.199564  // $metal1_conn
9 *37:25 *3:g 45.068295  // $metal1_conn
10 *37:24 *37:25 0.431737  // $metal1_conn
11 *37:25 *37:26 0.102175  // $metal1_conn

*END

*D_NET *36 5.12217e-16

*CONN
*I *57:d B *C 0.4450 0.5425 
*I *60:s B *C 1.9975 0.5025 
*I *22:d B *C 0.3250 1.1375 
*I *25:d B *C 0.3250 1.1375 
*I *35:s B *C 2.0200 1.0875 
*N *36:2 *C 0.6700 1.1850 
*N *36:4 *C 1.8700 1.1450 

*CAP
0 *35:s 2.18882e-17
1 *22:d 3.74559e-17
2 *60:s 9.99558e-17
3 *57:d 6.96831e-17
4 *36:4 1.26749e-16
5 *36:2 1.56485e-16

*RES
0 *57:d *36:2 75.558693  // $metal1_conn
1 *36:2 *22:d 62.257935  // $metal1_conn
2 *36:2 *36:4 0.866138  // $metal1_conn
3 *36:4 *60:s 75.462311  // $metal1_conn
4 *36:4 *35:s 62.062222  // $metal1_conn

*END

*D_NET *33 9.29896e-16

*CONN
*I *59:d B *C 1.6875 0.3175 
*I *61:g B *C 2.3675 0.5025 
*I *64:g B *C 3.0025 0.5025 
*I *10:g B *C 3.3225 1.0875 
*I *31:d B *C 1.7150 1.0075 
*I *35:g B *C 2.1125 1.0875 
*N *33:2 *C 2.0750 0.8050 
*N *33:4 *C 2.3400 0.2450 
*N *33:6 *C 3.0300 0.6850 
*N *33:8 *C 3.2950 0.8700 
*N *33:9 *C 2.0750 0.3000 
*N *33:11 *C 1.7000 0.3300 

*CAP
0 *35:g 3.29112e-17
1 *31:d 7.42927e-17
2 *10:g 5.17375e-17
3 *64:g 3.29152e-17
4 *61:g 8.28993e-17
5 *59:d 8.38331e-17
6 *33:9 5.96102e-17
7 *33:2 1.23672e-16
8 *33:4 1.36764e-16
9 *33:6 1.54694e-16
10 *33:8 9.65673e-17

*RES
0 *35:g *33:2 80.385986  // $poly_conn
1 *61:g *33:4 83.922722  // $poly_conn
2 *64:g *33:6 64.691956  // $poly_conn
3 *10:g *33:8 64.691956  // $poly_conn
4 *33:4 *33:9 0.186144  // $metal1_conn
5 *33:9 *33:11 0.258668  // $metal1_conn
6 *33:4 *33:6 0.756837  // $metal1_conn
7 *33:6 *33:8 0.301653  // $metal1_conn
8 *33:9 *33:2 0.368067  // $metal1_conn
9 *33:11 *31:d 62.475227  // $metal1_conn
10 *59:d *33:11 75  // $metal1_conn

*END

*D_NET *30 4.09639e-16

*CONN
*I *15:g B *C 5.0275 0.4450 
*I *17:g B *C 5.2325 0.4450 
*I *19:g B *C 5.4975 0.4450 
*I *21:g B *C 5.7475 0.4450 
*I *23:d B *C 6.1450 0.4450 
*I *4:g B *C 5.0075 1.0950 
*I *5:g B *C 5.2125 1.0950 
*I *6:g B *C 5.4175 1.0950 
*I *7:g B *C 5.6475 1.0950 
*I *8:d B *C 5.9450 1.0950 
*N *30:16 *C 5.9550 0.8900 

*CAP
0 *8:d 3.3568e-17
1 *7:g 3.01637e-16
2 *23:d 4.13443e-17
3 *30:16 3.309e-17

*RES
0 *30:16 *7:g 45.200962  // $metal1_conn
1 *30:16 *8:d 20.794527  // $metal1_conn
2 *23:d *30:16 75.348114  // $metal1_conn

*END

*D_NET *27 8.22638e-16

*CONN
*I *26:g B *C 3.2925 0.5025 
*I *58:d B *C 1.1325 0.3175 
*I *59:g B *C 1.5925 0.3175 
*I *60:g B *C 2.1625 0.5025 
*I *9:g B *C 3.1175 1.0875 
*I *28:d B *C 1.3550 1.0075 
*I *31:g B *C 1.6225 1.0075 
*I *43:g B *C 2.3675 1.0875 
*N *27:4 *C 2.1625 0.6725 
*N *27:5 *C 1.6300 0.6725 
*N *27:6 *C 1.5650 0.6350 
*N *27:10 *C 0.9950 0.4950 

*CAP
0 *43:g 1.1275e-16
1 *31:g 4.60725e-17
2 *28:d 1.18739e-16
3 *9:g 9.88157e-17
4 *60:g 2.72135e-17
5 *59:g 2.50542e-17
6 *58:d 1.72195e-17
7 *26:g 7.52822e-17
8 *27:10 1.01152e-16
9 *27:4 7.39909e-17
10 *27:6 1.26348e-16

*RES
0 *26:g *9:g 125.061882  // $poly_conn
1 *9:g *43:g 272.497803  // $poly_conn
2 *43:g *27:4 112.516212  // $poly_conn
3 *27:4 *27:5 134.665192  // $poly_conn
4 *27:5 *27:6 9.839872  // $poly_conn
5 *27:4 *60:g 20.300484  // $poly_conn
6 *27:5 *31:g 55.849598  // $poly_conn
7 *27:6 *59:g 53.483669  // $poly_conn
8 *27:6 *27:10 45.491665  // $metal1_conn
9 *27:10 *58:d 75.110451  // $metal1_conn
10 *27:10 *28:d 62.637447  // $metal1_conn

*END

*D_NET *24 4.49961e-16

*CONN
*I *26:d B *C 3.1475 0.5025 
*I *32:g B *C 3.6175 0.4725 
*I *52:g B *C 3.8225 0.4725 
*I *64:d B *C 3.1475 0.5025 
*I *9:d B *C 3.2200 1.0875 
*I *10:d B *C 3.2200 1.0875 
*I *14:g B *C 3.7475 1.1350 
*I *16:g B *C 3.9525 1.1350 
*N *24:6 *C 3.4550 0.6800 

*CAP
0 *16:g 2.56608e-16
1 *9:d 5.07846e-17
2 *26:d 6.34295e-17
3 *24:6 7.91388e-17

*RES
0 *16:g *24:6 45.257984  // $metal1_conn
1 *24:6 *26:d 75.311447  // $metal1_conn
2 *24:6 *9:d 62.419701  // $metal1_conn

*END

*D_NET *48 3.52319e-16

*CONN
*I *62:g B *C 2.4725 0.5025 
*I *63:d B *C 2.8550 0.5025 
*I *64:s B *C 2.8550 0.5025 
*I *9:s B *C 2.9125 1.0875 
*I *44:g B *C 2.4725 1.0875 
*I *45:d B *C 2.9125 1.0875 
*N *48:2 *C 2.5100 0.8450 
*N *48:5 *C 2.8700 0.8450 

*CAP
0 *44:g 6.28929e-17
1 *9:s 1.72481e-17
2 *63:d 4.85558e-17
3 *62:g 7.12226e-17
4 *48:5 5.21697e-17
5 *48:2 1.0023e-16

*RES
0 *44:g *48:2 25.129578  // $poly_conn
1 *48:2 *62:g 59.744961  // $poly_conn
2 *9:s *48:5 62.132862  // $metal1_conn
3 *48:5 *48:2 45.242298  // $metal1_conn
4 *48:5 *63:d 75.257706  // $metal1_conn

*END

*D_NET *46 2.92942e-16

*CONN
*I *60:d B *C 2.2650 0.5025 
*I *61:d B *C 2.2650 0.5025 
*I *63:g B *C 2.7075 0.5025 
*I *35:d B *C 2.2400 1.0875 
*I *43:d B *C 2.2400 1.0875 
*I *45:g B *C 2.7075 1.0875 
*N *46:2 *C 2.6800 0.6850 
*N *46:4 *C 2.2650 0.6850 

*CAP
0 *45:g 5.2417e-17
1 *35:d 2.64963e-17
2 *63:g 3.33286e-17
3 *60:d 3.58799e-17
4 *46:4 5.17094e-17
5 *46:2 9.31107e-17

*RES
0 *45:g *46:2 67.127846  // $poly_conn
1 *46:2 *63:g 19.691952  // $poly_conn
2 *46:2 *46:4 45.28233  // $metal1_conn
3 *46:4 *60:d 75.117676  // $metal1_conn
4 *46:4 *35:d 62.252949  // $metal1_conn

*END

