*SPEF "IEEE 1481-1999"
*DESIGN  "DFFTRXL"
*DATE "Mon Sep 27 09:40:12 2010"
*VENDOR "Cadence Design Systems"
*PROGRAM "Assura RCX"
*VERSION "3.2 Red Hat Linux release 7.2 (Enigma) - (09/09/2009-10:39)"
*DESIGN_FLOW "Physical Verification"
*DIVIDER /
*DELIMITER :
*BUS_DELIMITER []
*T_UNIT 1 PS
*C_UNIT 1e15 FF
*R_UNIT 1 OHM
*L_UNIT 1 MH
// DeviceFingerDelim "@"
// MATCHED
// caps2d version: 10

*NAME_MAP
*1 Q
*2 VDD
*3 mp40
*4 mp30
*5 qint
*6 mp35
*7 mout
*8 mp36
*9 mp25
*10 mp21
*11 mp0
*12 mp1
*13 mp56
*14 mp57
*15 mp55
*16 mp20
*17 mp45
*18 mp50
*19 mp51
*20 CK
*21 mn57
*22 QN
*23 mn56
*24 mn55
*25 mn20
*26 mn45
*27 mn50
*28 VSS
*29 RN
*30 n20
*31 n30
*32 qbint
*33 mn40
*34 Db
*35 mn30
*36 CKbb
*37 mn35
*38 CKb
*39 mn36
*40 n36
*41 mn25
*42 n26
*43 mn21
*44 n35
*45 D
*46 mn0
*47 n25
*48 mn1
*49 mn51
*50 n0

*GROUND_NETS VSS

*PORTS
*2 I
*28 I
*20 I
*45 I
*29 I
*1 O
*22 O

*D_NET *2 5.06817e-16

*CONN
*P *2 I *C 0.1000 1.7100 
*I *4:s B *C 3.0800 1.1975 
*I *6:s B *C 3.0800 1.1975 
*I *10:s B *C 4.1150 1.3450 
*I *11:s B *C 4.1150 1.3450 
*I *12:s B *C 4.4700 1.1525 
*I *14:s B *C 0.5900 1.3450 
*I *13:s B *C 0.5900 1.3450 
*I *15:s B *C 1.1850 1.1575 
*I *16:s B *C 1.1850 1.1575 
*I *17:s B *C 2.0400 1.1975 
*I *18:s B *C 2.0400 1.1975 
*N *2:2 *C 4.0900 1.7100 
*N *2:3 *C 3.5000 1.7100 
*N *2:4 *C 3.5000 1.7100 
*N *2:5 *C 2.9650 1.7100 
*N *2:6 *C 1.9250 1.7100 
*N *2:7 *C 1.2000 1.7100 
*N *2:8 *C 1.1000 1.7100 
*N *2:9 *C 0.5650 1.7100 

*CAP
0 *17:s 2.25632e-17
1 *15:s 1.04143e-17
2 *14:s 9.38956e-18
3 *12:s 1.33517e-17
4 *10:s 1.86558e-17
5 *4:s 2.26024e-17
6 *2:9 7.89008e-18
7 *2:8 6.68855e-18
8 *2:6 3.75263e-17
9 *2:5 3.65804e-17
10 *2:2 1.59134e-17
11 *2:3 2.98957e-16
12 *2 6.28432e-18

*RES
0 *12:s *2:2 62.4081  // $metal1_conn
1 *2:2 *2:4 0.295088  // $metal1_conn
2 *2:4 *2:5 0.267561  // $metal1_conn
3 *2:5 *2:6 0.520108  // $metal1_conn
4 *2:6 *2:7 0.362652  // $metal1_conn
5 *2:7 *2:8 0.049852  // $metal1_conn
6 *2:8 *2:9 0.267365  // $metal1_conn
7 *2:9 *2 0.232277  // $metal1_conn
8 *2:2 *10:s 62.222866  // $metal1_conn
9 *2:5 *4:s 62.09692  // $metal1_conn
10 *2:6 *17:s 62.09692  // $metal1_conn
11 *2:8 *15:s 62.073994  // $metal1_conn
12 *2:9 *14:s 62.222866  // $metal1_conn
13 *2:3 *2:4 6.818182  // $metal1_conn
14 *2:3 *2:7 6.25  // $metal1_conn

*END

*D_NET *28 0

*CONN
*P *28 I *C 0.1000 0.0000 
*I *35:s B *C 3.0600 0.5825 
*I *37:s B *C 3.0600 0.5825 
*I *43:s B *C 4.1350 0.5875 
*I *46:s B *C 4.1350 0.5875 
*I *21:s B *C 0.5800 0.5875 
*I *23:s B *C 0.5800 0.5875 
*I *24:s B *C 1.2275 0.5875 
*I *25:s B *C 1.2275 0.5875 
*I *26:s B *C 1.9825 0.5825 
*I *27:s B *C 1.9825 0.5825 
*N *28:2 *C 3.5000 0.0000 
*N *28:3 *C 3.5000 0.0000 
*N *28:4 *C 2.9750 0.0000 
*N *28:5 *C 1.9800 0.0000 
*N *28:6 *C 1.2000 0.0000 
*N *28:7 *C 1.1100 0.0000 
*N *28:8 *C 0.5650 0.0000 


*RES
0 *43:s *28:3 75.424706  // $metal1_conn
1 *28:3 *28:4 0.261609  // $metal1_conn
2 *28:4 *28:5 0.496638  // $metal1_conn
3 *28:5 *28:6 0.390179  // $metal1_conn
4 *28:6 *28:7 0.044949  // $metal1_conn
5 *28:7 *28:8 0.27237  // $metal1_conn
6 *28:8 *28 0.232277  // $metal1_conn
7 *28:4 *35:s 75.045723  // $metal1_conn
8 *28:5 *26:s 75.37027  // $metal1_conn
9 *28:7 *24:s 75.07399  // $metal1_conn
10 *28:8 *21:s 75.07399  // $metal1_conn
11 *28:2 *28:3 5.636364  // $metal1_conn
12 *28:2 *28:6 5.166667  // $metal1_conn

*END

*D_NET *20 2.22026e-16

*CONN
*P *20 I *C 1.1000 1.2350 
*I *25:g B *C 1.3075 0.5875 
*I *16:g B *C 1.2325 1.1575 
*N *20:2 *C 1.2700 0.9500 

*CAP
0 *16:g 3.01894e-17
1 *25:g 3.89768e-17
2 *20:2 1.07868e-16
3 *20 4.49917e-17

*RES
0 *25:g *20:2 67.143478  // $poly_conn
1 *20:2 *16:g 18.425531  // $poly_conn
2 *20:2 *20 45.240131  // $metal1_conn

*END

*D_NET *45 2.19056e-16

*CONN
*P *45 I *C 4.3000 0.4750 
*I *48:g B *C 4.3125 0.5875 
*I *12:g B *C 4.3725 1.0075 
*N *45:2 *C 4.3400 0.7700 

*CAP
0 *12:g 3.07051e-17
1 *48:g 2.87041e-17
2 *45:2 1.02039e-16
3 *45 5.76081e-17

*RES
0 *12:g *45:2 22.522278  // $poly_conn
1 *45:2 *48:g 16.530039  // $poly_conn
2 *45:2 *45 45.173187  // $metal1_conn

*END

*D_NET *29 2.36287e-16

*CONN
*P *29 I *C 4.1000 0.4750 
*I *46:g B *C 4.1825 0.5875 
*I *11:g B *C 4.1675 1.0075 
*N *29:2 *C 4.1750 0.7850 
*N *29:3 *C 4.1300 0.7850 

*CAP
0 *11:g 4.36166e-17
1 *46:g 3.89312e-17
2 *29:3 9.35564e-17
3 *29 6.01824e-17

*RES
0 *46:g *29:2 31.394903  // $poly_conn
1 *29:2 *29:3 46.980618  // $poly_conn
2 *29:2 *11:g 28.830799  // $poly_conn
3 *29 *29:3 0.185897  // $metal1_conn

*END

*D_NET *1 1.43815e-16

*CONN
*P *1 O *C 0.9000 0.8550 
*I *24:d B *C 0.9550 0.5875 
*I *15:d B *C 0.9425 1.1575 
*N *1:2 *C 0.9450 0.5850 

*CAP
0 *15:d 4.6149e-17
1 *24:d 4.89134e-17
2 *1 4.8753e-17

*RES
0 *1:2 *1 0.15859  // $metal1_conn
1 *1 *15:d 62.150669  // $metal1_conn
2 *24:d *1:2 75  // $metal1_conn

*END

*D_NET *22 7.12548e-17

*CONN
*P *22 O *C 0.1000 0.6650 
*I *21:d B *C 0.3225 0.5875 
*I *14:d B *C 0.3225 1.0075 
*N *22:3 *C 0.2950 0.6000 

*CAP
0 *14:d 1.51577e-17
1 *21:d 3.31227e-17
2 *22 2.29744e-17

*RES
0 *14:d *22:3 62.223843  // $metal1_conn
1 *22:3 *22 0.092702  // $metal1_conn
2 *21:d *22:3 75  // $metal1_conn

*END

*D_NET *50 7.73859e-19

*CONN
*I *46:d B *C 4.2475 0.5875 
*I *48:s B *C 4.2475 0.5875 

*CAP
0 *46:d 7.73859e-19

*RES
0 *48:s *46:d 0.001  // $mwires

*END

*D_NET *47 0

*CONN
*I *37:d B *C 3.1600 0.5825 
*I *39:s B *C 3.1600 0.5825 


*RES
0 *39:s *37:d 0.001  // $mwires

*END

*D_NET *44 5.0888e-18

*CONN
*I *49:s B *C 2.2200 0.5825 
*I *27:d B *C 2.2200 0.5825 

*CAP
0 *49:s 5.0888e-18

*RES
0 *27:d *49:s 0.001  // $mwires

*END

*D_NET *42 0

*CONN
*I *6:d B *C 3.1800 1.1975 
*I *8:s B *C 3.1800 1.1975 


*RES
0 *8:s *6:d 0.001  // $mwires

*END

*D_NET *40 1.63392e-18

*CONN
*I *18:d B *C 2.1825 1.1975 
*I *19:s B *C 2.1825 1.1975 

*CAP
0 *18:d 1.63392e-18

*RES
0 *19:s *18:d 0.001  // $mwires

*END

*D_NET *38 8.86107e-16

*CONN
*I *41:g B *C 3.4175 0.5825 
*I *43:g B *C 3.9875 0.5875 
*I *49:g B *C 2.3525 0.5825 
*I *25:d B *C 1.4100 0.5875 
*I *3:g B *C 2.4825 1.1975 
*I *8:g B *C 3.2325 1.1975 
*I *10:g B *C 3.9575 1.0075 
*I *16:d B *C 1.3250 1.1575 
*N *38:3 *C 2.5200 1.4050 
*N *38:5 *C 3.9500 0.7550 
*N *38:6 *C 3.4175 0.7525 
*N *38:10 *C 3.2700 1.4050 
*N *38:13 *C 1.3350 1.1700 
*N *38:14 *C 2.5200 1.3525 

*CAP
0 *16:d 1.40603e-16
1 *10:g 4.3278e-17
2 *8:g 7.39466e-17
3 *3:g 4.38326e-17
4 *25:d 7.33867e-17
5 *49:g 7.82602e-17
6 *43:g 2.38281e-17
7 *41:g 2.75624e-17
8 *38:14 1.54655e-16
9 *38:6 6.67871e-17
10 *38:5 3.62418e-17
11 *38:3 2.03988e-17
12 *38:10 1.03326e-16

*RES
0 *49:g *3:g 133.043762  // $poly_conn
1 *3:g *38:3 61.15522  // $poly_conn
2 *43:g *38:5 31.352329  // $poly_conn
3 *38:5 *38:6 134.630432  // $poly_conn
4 *38:6 *8:g 115.080315  // $poly_conn
5 *38:5 *10:g 34.229755  // $poly_conn
6 *38:6 *41:g 20.300484  // $poly_conn
7 *8:g *38:10 61.15522  // $poly_conn
8 *25:d *38:13 75.47197  // $metal1_conn
9 *38:13 *38:14 0.979795  // $metal1_conn
10 *38:14 *38:3 0.015011  // $metal1_conn
11 *38:14 *38:10 0.555911  // $metal1_conn
12 *16:d *38:13 62  // $metal1_conn

*END

*D_NET *36 8.61769e-16

*CONN
*I *33:g B *C 2.5875 0.5825 
*I *39:g B *C 3.2125 0.5825 
*I *43:d B *C 3.8950 0.5875 
*I *9:g B *C 3.4375 1.1975 
*I *10:d B *C 3.8650 1.0075 
*I *19:g B *C 2.2775 1.1975 
*N *36:1 *C 2.3400 0.9050 
*N *36:4 *C 2.6150 0.7850 
*N *36:6 *C 3.2400 0.3550 
*N *36:8 *C 3.4750 0.8850 
*N *36:11 *C 3.8850 0.5750 
*N *36:12 *C 3.5050 0.4050 

*CAP
0 *19:g 4.2364e-17
1 *10:d 5.69235e-17
2 *9:g 3.67017e-17
3 *43:d 6.83307e-17
4 *39:g 9.12031e-17
5 *33:g 3.6341e-17
6 *36:12 6.34753e-17
7 *36:1 1.08188e-16
8 *36:4 1.25154e-16
9 *36:6 1.21615e-16
10 *36:8 1.11472e-16

*RES
0 *36:1 *19:g 88.026947  // $poly_conn
1 *33:g *36:4 69.82016  // $poly_conn
2 *39:g *36:6 76.230415  // $poly_conn
3 *9:g *36:8 88.078293  // $poly_conn
4 *10:d *36:11 62.300625  // $metal1_conn
5 *36:11 *36:12 0.390263  // $metal1_conn
6 *36:12 *36:6 0.186376  // $metal1_conn
7 *36:6 *36:4 0.665882  // $metal1_conn
8 *36:4 *36:1 0.249836  // $metal1_conn
9 *36:12 *36:8 0.350292  // $metal1_conn
10 *43:d *36:11 75  // $metal1_conn

*END

*D_NET *34 3.24433e-16

*CONN
*I *41:s B *C 3.5825 0.5825 
*I *48:d B *C 4.4475 0.5875 
*I *9:s B *C 3.5300 1.1975 
*I *11:d B *C 4.2700 1.0075 
*I *12:d B *C 4.2700 1.0075 
*N *34:3 *C 4.2700 1.0400 
*N *34:4 *C 3.6650 1.1200 

*CAP
0 *11:d 8.95591e-17
1 *9:s 2.00553e-17
2 *48:d 7.10762e-17
3 *41:s 7.19442e-17
4 *34:4 7.17986e-17

*RES
0 *48:d *34:3 75.446465  // $metal1_conn
1 *34:3 *34:4 0.47444  // $metal1_conn
2 *34:4 *9:s 62.087429  // $metal1_conn
3 *34:4 *41:s 75.391983  // $metal1_conn
4 *11:d *34:3 62  // $metal1_conn

*END

*D_NET *32 6.50028e-16

*CONN
*I *23:g B *C 0.6275 0.5875 
*I *24:g B *C 1.0475 0.5875 
*I *26:d B *C 1.7850 0.5825 
*I *27:g B *C 2.0875 0.5825 
*I *13:g B *C 0.6275 1.0075 
*I *15:g B *C 1.0375 1.1575 
*I *17:d B *C 1.7300 1.1975 
*I *18:g B *C 2.0875 1.1975 
*N *32:2 *C 1.0425 0.7700 
*N *32:3 *C 0.6275 0.7375 
*N *32:6 *C 1.1000 0.7700 
*N *32:9 *C 2.0875 0.7900 
*N *32:10 *C 2.0200 0.7900 
*N *32:12 *C 1.6600 0.8200 
*N *32:14 *C 1.7750 0.5700 

*CAP
0 *18:g 5.41307e-17
1 *17:d 4.47469e-17
2 *15:g 3.8102e-17
3 *13:g 3.42654e-17
4 *27:g 2.66116e-17
5 *26:d 8.42651e-17
6 *24:g 1.60983e-17
7 *23:g 2.50572e-17
8 *32:12 4.28952e-17
9 *32:9 3.03415e-17
10 *32:3 2.97449e-17
11 *32:2 3.63874e-17
12 *32:6 1.02883e-16
13 *32:10 8.44987e-17

*RES
0 *24:g *32:2 25.944057  // $poly_conn
1 *32:2 *32:3 97.551445  // $poly_conn
2 *32:3 *23:g 18.337015  // $poly_conn
3 *32:2 *15:g 69.533806  // $poly_conn
4 *32:2 *32:6 47.615551  // $poly_conn
5 *32:3 *13:g 40.131889  // $poly_conn
6 *18:g *32:9 74.168388  // $poly_conn
7 *32:9 *32:10 46.794373  // $poly_conn
8 *32:9 *27:g 31.860699  // $poly_conn
9 *32:10 *32:12 0.249093  // $metal1_conn
10 *32:12 *32:14 0.242355  // $metal1_conn
11 *32:14 *32:6 0.80023  // $metal1_conn
12 *32:12 *17:d 62.284279  // $metal1_conn
13 *26:d *32:14 75  // $metal1_conn

*END

*D_NET *31 3.49596e-16

*CONN
*I *33:d B *C 2.4700 0.5825 
*I *49:d B *C 2.4700 0.5825 
*I *26:g B *C 1.8775 0.5825 
*I *3:d B *C 2.3800 1.1975 
*I *17:g B *C 1.8225 1.1975 
*I *19:d B *C 2.3800 1.1975 
*N *31:2 *C 1.8500 0.9800 
*N *31:5 *C 2.1800 0.9800 

*CAP
0 *17:g 2.99764e-17
1 *3:d 4.01843e-17
2 *26:g 3.99964e-17
3 *33:d 7.17556e-17
4 *31:5 8.05366e-17
5 *31:2 8.71464e-17

*RES
0 *26:g *31:2 74.820152  // $poly_conn
1 *31:2 *17:g 19.691952  // $poly_conn
2 *33:d *31:5 75.464722  // $metal1_conn
3 *31:5 *31:2 45.219215  // $metal1_conn
4 *31:5 *3:d 62.270798  // $metal1_conn

*END

*D_NET *30 3.0844e-16

*CONN
*I *35:g B *C 2.9125 0.5825 
*I *39:d B *C 3.3150 0.5825 
*I *41:d B *C 3.3150 0.5825 
*I *4:g B *C 2.8625 1.1975 
*I *8:d B *C 3.3350 1.1975 
*I *9:d B *C 3.3350 1.1975 
*N *30:2 *C 2.9125 0.9150 
*N *30:4 *C 2.9650 0.9150 
*N *30:5 *C 3.2850 0.9150 

*CAP
0 *8:d 3.4274e-17
1 *4:g 3.66971e-17
2 *39:d 4.79654e-17
3 *35:g 4.93622e-17
4 *30:5 4.67413e-17
5 *30:4 9.33995e-17

*RES
0 *35:g *30:2 56.895031  // $poly_conn
1 *30:2 *4:g 44.992142  // $poly_conn
2 *30:2 *30:4 47.815495  // $poly_conn
3 *30:4 *30:5 0.211293  // $metal1_conn
4 *30:5 *39:d 75.235367  // $metal1_conn
5 *30:5 *8:d 62.176262  // $metal1_conn

*END

*D_NET *7 3.64125e-16

*CONN
*I *33:s B *C 2.7500 0.5825 
*I *35:d B *C 2.7500 0.5825 
*I *37:g B *C 3.1075 0.5825 
*I *3:s B *C 2.6725 1.1975 
*I *4:d B *C 2.6725 1.1975 
*I *6:g B *C 3.1275 1.1975 
*N *7:2 *C 3.0700 0.7550 
*N *7:4 *C 2.8050 0.7550 

*CAP
0 *6:g 8.4467e-17
1 *3:s 3.52438e-17
2 *37:g 5.48003e-17
3 *33:s 3.6155e-17
4 *7:4 5.16441e-17
5 *7:2 1.01815e-16

*RES
0 *6:g *7:2 74.092888  // $poly_conn
1 *7:2 *37:g 16.15522  // $poly_conn
2 *7:2 *7:4 45.165298  // $metal1_conn
3 *7:4 *3:s 62.281193  // $metal1_conn
4 *7:4 *33:s 75.082062  // $metal1_conn

*END

*D_NET *5 2.16864e-16

*CONN
*I *21:g B *C 0.4325 0.5875 
*I *23:d B *C 0.7200 0.5875 
*I *14:g B *C 0.4325 1.0075 
*I *13:d B *C 0.7200 1.0075 
*N *5:1 *C 0.4850 0.7600 
*N *5:2 *C 0.4325 0.7600 
*N *5:6 *C 0.7200 0.7700 

*CAP
0 *13:d 3.2408e-17
1 *14:g 3.68628e-17
2 *23:d 3.11391e-17
3 *21:g 3.03109e-17
4 *5:6 3.19095e-17
5 *5:1 5.42336e-17

*RES
0 *5:1 *5:2 45.294373  // $poly_conn
1 *5:2 *21:g 20.563484  // $poly_conn
2 *5:2 *14:g 30.819893  // $poly_conn
3 *13:d *5:6 62.117271  // $metal1_conn
4 *5:6 *5:1 0.122006  // $metal1_conn
5 *5:6 *23:d 75.10923  // $metal1_conn

*END

