*SPEF "IEEE 1481-1999"
*DESIGN  "DFFX4"
*DATE "Mon Sep 27 09:41:19 2010"
*VENDOR "Cadence Design Systems"
*PROGRAM "Assura RCX"
*VERSION "3.2 Red Hat Linux release 7.2 (Enigma) - (09/09/2009-10:39)"
*DESIGN_FLOW "Physical Verification"
*DIVIDER /
*DELIMITER :
*BUS_DELIMITER []
*T_UNIT 1 PS
*C_UNIT 1e15 FF
*R_UNIT 1 OHM
*L_UNIT 1 MH
// DeviceFingerDelim "@"
// MATCHED
// caps2d version: 10

*NAME_MAP
*1 mp57\@3
*2 mn50
*3 mp56
*4 mp50
*5 CK
*6 mp20
*7 mp21
*8 mp25
*9 mp26
*10 mp36
*11 mp35
*12 mp30
*13 mp40
*14 mp51
*15 VDD
*16 mn45
*17 mn55
*18 mn55\@1
*19 mn55\@2
*20 QN
*21 mn55\@3
*22 mn57
*23 mn57\@1
*24 mp45
*25 mn57\@2
*26 mp45\@1
*27 mn57\@3
*28 mp55
*29 mp55\@1
*30 mp55\@2
*31 mp55\@3
*32 mp57
*33 mp57\@1
*34 mp57\@2
*35 qint
*36 CKbb
*37 CKb
*38 qbint
*39 n22
*40 n26
*41 n36
*42 D
*43 n21
*44 n25
*45 n35
*46 Q
*47 mn56
*48 mn45\@1
*49 mn20
*50 mn21
*51 mn25
*52 mn26
*53 VSS
*54 mn36
*55 mn35
*56 n20
*57 mn30
*58 n30
*59 mn40
*60 mout
*61 mn51

*GROUND_NETS VSS

*PORTS
*15 I
*53 I
*5 I
*42 I
*46 O
*20 O

*D_NET *15 9.40001e-16

*CONN
*P *15 I *C 0.1000 1.7100 
*I *24:s B *C 2.6600 1.2500 
*I *26:s B *C 3.1000 1.2100 
*I *28:s B *C 3.1000 1.2100 
*I *29:s B *C 3.5000 1.2100 
*I *30:s B *C 3.5000 1.2100 
*I *31:s B *C 3.9100 1.2100 
*I *32:s B *C 3.9100 1.2100 
*I *33:s B *C 4.3200 1.2100 
*I *34:s B *C 4.3200 1.2100 
*I *1:s B *C 4.7300 1.2100 
*I *3:s B *C 4.7300 1.2100 
*I *4:s B *C 2.6600 1.2500 
*I *6:s B *C 0.1100 1.0775 
*I *7:s B *C 0.8350 1.2975 
*I *8:s B *C 0.8350 1.2975 
*I *11:s B *C 1.7400 1.2975 
*I *12:s B *C 1.7400 1.2975 
*N *15:2 *C 4.5000 1.7100 
*N *15:9 *C 1.6550 1.7100 
*N *15:10 *C 0.9000 1.7100 
*N *15:11 *C 0.8350 1.7100 

*CAP
0 *11:s 2.52585e-17
1 *7:s 3.42881e-17
2 *6:s 2.62197e-17
3 *1:s 4.51937e-16
4 *15:11 3.59334e-17
5 *15:9 4.65851e-17
6 *15:2 3.11665e-16
7 *15 8.11518e-18

*RES
0 *15 *6:s 62.381676  // $metal1_conn
1 *15:11 *15 0.368507  // $metal1_conn
2 *15:2 *1:s 8.333333  // $metal1_conn
3 *15:2 *1:s 8.333333  // $metal1_conn
4 *15:2 *15:10 8.333333  // $metal1_conn
5 *15:9 *11:s 62.045826  // $metal1_conn
6 *15:11 *7:s 62.228783  // $metal1_conn
7 *1:s *15:9 0.522991  // $metal1_conn
8 *15:9 *15:10 0.377537  // $metal1_conn
9 *15:10 *15:11 0.03246  // $metal1_conn

*END

*D_NET *53 0

*CONN
*P *53 I *C 0.1000 0.0000 
*I *16:s B *C 3.0450 0.5300 
*I *17:s B *C 3.0450 0.5300 
*I *18:s B *C 3.5150 0.5300 
*I *19:s B *C 3.5150 0.5300 
*I *21:s B *C 3.9850 0.5300 
*I *22:s B *C 3.9850 0.5300 
*I *23:s B *C 4.4550 0.5300 
*I *25:s B *C 4.4550 0.5300 
*I *27:s B *C 4.8900 0.5300 
*I *47:s B *C 4.8900 0.5300 
*I *48:s B *C 2.5750 0.5575 
*I *49:s B *C 0.1100 0.4175 
*I *50:s B *C 0.8900 0.5875 
*I *51:s B *C 0.8900 0.5875 
*I *55:s B *C 1.6525 0.5875 
*I *57:s B *C 1.6525 0.5875 
*I *2:s B *C 2.5750 0.5575 
*N *53:2 *C 4.5000 0.0000 
*N *53:10 *C 1.5500 0.0000 
*N *53:11 *C 0.9650 0.0000 
*N *53:12 *C 0.9000 0.0000 


*RES
0 *53 *49:s 75.261391  // $metal1_conn
1 *53:12 *53 0.401305  // $metal1_conn
2 *53:2 *27:s 6.888889  // $metal1_conn
3 *53:2 *27:s 6.888889  // $metal1_conn
4 *53:2 *53:12 6.888889  // $metal1_conn
5 *53:10 *55:s 75.07473  // $metal1_conn
6 *53:11 *50:s 75.07473  // $metal1_conn
7 *27:s *53:10 0.47108  // $metal1_conn
8 *53:10 *53:11 0.293024  // $metal1_conn
9 *53:11 *53:12 0.0324  // $metal1_conn

*END

*D_NET *5 1.54647e-16

*CONN
*P *5 I *C 0.1000 0.6650 
*I *49:g B *C 0.2025 0.4175 
*I *6:g B *C 0.2025 1.0775 
*N *5:2 *C 0.1650 0.6250 

*CAP
0 *6:g 2.26443e-17
1 *49:g 1.84599e-17
2 *5:2 2.20348e-17
3 *5 9.15077e-17

*RES
0 *6:g *5:2 78.975731  // $poly_conn
1 *5:2 *49:g 25.129578  // $poly_conn
2 *5 *5:2 45.022499  // $metal1_conn

*END

*D_NET *42 2.43214e-16

*CONN
*P *42 I *C 0.9000 0.6650 
*I *51:g B *C 0.9375 0.5875 
*I *8:g B *C 0.9375 1.2975 
*N *42:2 *C 0.9100 0.7700 

*CAP
0 *8:g 7.21153e-17
1 *51:g 4.24235e-17
2 *42:2 9.68151e-17
3 *42 3.18597e-17

*RES
0 *8:g *42:2 99.179131  // $poly_conn
1 *42:2 *51:g 19.691952  // $poly_conn
2 *42 *42:2 45.063049  // $metal1_conn

*END

*D_NET *46 2.9711e-16

*CONN
*P *46 O *C 3.3000 0.6650 
*I *17:d B *C 3.1950 0.5300 
*I *18:d B *C 3.1950 0.5300 
*I *19:d B *C 3.6650 0.5300 
*I *21:d B *C 3.6650 0.5300 
*I *28:d B *C 3.2950 1.2100 
*I *29:d B *C 3.2950 1.2100 
*I *30:d B *C 3.7050 1.2100 
*I *31:d B *C 3.7050 1.2100 

*CAP
0 *30:d 1.67109e-16
1 *17:d 9.55694e-17
2 *46 3.44324e-17

*RES
0 *30:d *46 0.238541  // $metal1_conn
1 *46 *17:d 0.109615  // $metal1_conn

*END

*D_NET *20 2.58627e-16

*CONN
*P *20 O *C 4.1000 0.8550 
*I *22:d B *C 4.1350 0.5300 
*I *23:d B *C 4.1350 0.5300 
*I *25:d B *C 4.6125 0.5300 
*I *27:d B *C 4.6125 0.5300 
*I *32:d B *C 4.1150 1.2100 
*I *33:d B *C 4.1150 1.2100 
*I *34:d B *C 4.5250 1.2100 
*I *1:d B *C 4.5250 1.2100 

*CAP
0 *34:d 1.68597e-16
1 *22:d 7.15255e-17
2 *20 1.85042e-17

*RES
0 *22:d *20 0.169255  // $metal1_conn
1 *20 *34:d 0.116362  // $metal1_conn

*END

*D_NET *45 0

*CONN
*I *61:s B *C 2.3750 0.5875 
*I *2:d B *C 2.3750 0.5875 


*RES
0 *2:d *61:s 0.001  // $mwires

*END

*D_NET *44 6.26296e-20

*CONN
*I *54:s B *C 1.3600 0.5875 
*I *55:d B *C 1.3600 0.5875 

*CAP
0 *54:s 6.26296e-20

*RES
0 *55:d *54:s 0.001  // $mwires

*END

*D_NET *43 0

*CONN
*I *51:d B *C 1.0175 0.5875 
*I *52:s B *C 1.0175 0.5875 


*RES
0 *52:s *51:d 0.001  // $mwires

*END

*D_NET *41 4.50932e-21

*CONN
*I *4:d B *C 2.4650 1.2975 
*I *14:s B *C 2.4650 1.2975 

*CAP
0 *4:d 4.50932e-21

*RES
0 *14:s *4:d 0.001  // $mwires

*END

*D_NET *40 2.66873e-18

*CONN
*I *10:s B *C 1.4425 1.2975 
*I *11:d B *C 1.4425 1.2975 

*CAP
0 *10:s 2.66873e-18

*RES
0 *11:d *10:s 0.001  // $mwires

*END

*D_NET *39 2.69352e-19

*CONN
*I *8:d B *C 1.0175 1.2975 
*I *9:s B *C 1.0175 1.2975 

*CAP
0 *8:d 2.69352e-19

*RES
0 *9:s *8:d 0.001  // $mwires

*END

*D_NET *38 1.21262e-15

*CONN
*I *16:d B *C 2.7250 0.5575 
*I *17:g B *C 3.0925 0.5300 
*I *18:g B *C 3.2975 0.5300 
*I *19:g B *C 3.5625 0.5300 
*I *21:g B *C 3.7675 0.5300 
*I *47:g B *C 5.0575 0.5300 
*I *48:d B *C 2.7250 0.5575 
*I *2:g B *C 2.4275 0.5875 
*I *24:d B *C 2.8550 1.2500 
*I *26:d B *C 2.8550 1.2500 
*I *28:g B *C 3.1925 1.2100 
*I *29:g B *C 3.3975 1.2100 
*I *30:g B *C 3.6025 1.2100 
*I *31:g B *C 3.8075 1.2100 
*I *3:g B *C 4.8325 1.2100 
*I *4:g B *C 2.5175 1.2975 
*N *38:2 *C 2.5175 0.9300 
*N *38:4 *C 2.5750 0.9300 
*N *38:21 *C 4.8700 0.7850 
*N *38:23 *C 2.8850 0.5450 
*N *38:24 *C 2.8700 0.9300 
*N *38:25 *C 2.8400 0.9300 

*CAP
0 *4:g 6.7169e-17
1 *3:g 4.67751e-17
2 *31:g 3.00369e-16
3 *24:d 5.8975e-17
4 *2:g 7.22936e-17
5 *47:g 2.82776e-17
6 *16:d 1.84002e-17
7 *38:25 3.80565e-17
8 *38:23 2.03848e-16
9 *38:2 5.49519e-17
10 *38:4 5.90205e-17
11 *38:21 2.64483e-16

*RES
0 *38:21 *3:g 49.488552  // $poly_conn
1 *4:g *38:2 54.797909  // $poly_conn
2 *47:g *38:21 55.48782  // $poly_conn
3 *38:2 *2:g 77.82132  // $poly_conn
4 *38:2 *38:4 47.969933  // $poly_conn
5 *38:21 *38:23 46.899799  // $metal1_conn
6 *38:25 *38:4 0.200106  // $metal1_conn
7 *38:23 *16:d 75.083191  // $metal1_conn
8 *38:25 *24:d 31.243999  // $metal1_conn
9 *38:24 *31:g 45.19632  // $metal1_conn
10 *38:23 *38:24 0.277361  // $metal1_conn
11 *38:24 *38:25 0.045003  // $metal1_conn

*END

*D_NET *37 1.10308e-15

*CONN
*I *49:d B *C 0.3275 0.4175 
*I *50:g B *C 0.7325 0.5875 
*I *52:g B *C 1.0975 0.5875 
*I *61:g B *C 2.3225 0.5875 
*I *6:d B *C 0.4500 1.0300 
*I *7:g B *C 0.7325 1.2975 
*I *10:g B *C 1.3625 1.2975 
*I *13:g B *C 2.1375 1.2975 
*N *37:3 *C 0.7050 0.2350 
*N *37:4 *C 1.1550 0.2950 
*N *37:7 *C 1.3900 1.0450 
*N *37:9 *C 2.0300 1.0500 
*N *37:11 *C 2.2950 0.2700 
*N *37:12 *C 2.0300 0.3300 
*N *37:13 *C 1.3900 0.3300 
*N *37:15 *C 0.3700 0.4050 

*CAP
0 *13:g 2.95557e-17
1 *10:g 4.74133e-17
2 *7:g 4.86378e-17
3 *6:d 5.45372e-17
4 *61:g 7.21009e-17
5 *52:g 5.12651e-17
6 *50:g 4.77905e-17
7 *49:d 9.39802e-17
8 *37:13 8.35751e-17
9 *37:12 8.98062e-17
10 *37:3 9.31842e-17
11 *37:4 7.25042e-17
12 *37:7 1.26543e-16
13 *37:9 1.2267e-16
14 *37:11 6.9513e-17

*RES
0 *7:g *50:g 135.89743  // $poly_conn
1 *50:g *37:3 108.281693  // $poly_conn
2 *37:4 *52:g 94.528168  // $poly_conn
3 *10:g *37:7 73.666313  // $poly_conn
4 *13:g *37:9 83.446335  // $poly_conn
5 *61:g *37:11 99.307335  // $poly_conn
6 *37:9 *37:12 0.55087  // $metal1_conn
7 *37:12 *37:13 0.45265  // $metal1_conn
8 *37:13 *37:4 0.166492  // $metal1_conn
9 *37:4 *37:3 0.372024  // $metal1_conn
10 *37:3 *37:15 0.371466  // $metal1_conn
11 *37:12 *37:11 0.198945  // $metal1_conn
12 *37:13 *37:7 0.511166  // $metal1_conn
13 *37:15 *6:d 62.453888  // $metal1_conn
14 *49:d *37:15 75  // $metal1_conn

*END

*D_NET *36 8.92358e-16

*CONN
*I *50:d B *C 0.6100 0.5875 
*I *54:g B *C 1.3025 0.5875 
*I *59:g B *C 2.1175 0.5875 
*I *7:d B *C 0.6400 1.2975 
*I *9:g B *C 1.0975 1.2975 
*I *14:g B *C 2.4125 1.2975 
*N *36:2 *C 1.0700 1.0800 
*N *36:5 *C 2.3850 1.0600 
*N *36:7 *C 1.0700 1.1550 
*N *36:8 *C 0.6150 1.1550 

*CAP
0 *14:g 4.80856e-17
1 *9:g 3.42077e-17
2 *7:d 1.76334e-17
3 *59:g 5.53553e-17
4 *54:g 7.6283e-17
5 *50:d 9.60889e-17
6 *36:8 5.17433e-17
7 *36:7 1.80652e-16
8 *36:2 8.31492e-17
9 *36:5 2.4916e-16

*RES
0 *54:g *36:2 139.915207  // $poly_conn
1 *36:2 *9:g 19.691952  // $poly_conn
2 *14:g *36:5 23.255589  // $poly_conn
3 *36:5 *59:g 132.779449  // $poly_conn
4 *36:5 *36:7 46.452114  // $metal1_conn
5 *36:7 *36:8 0.283626  // $metal1_conn
6 *36:8 *50:d 75.385994  // $metal1_conn
7 *36:7 *36:2 45.064266  // $metal1_conn
8 *36:8 *7:d 62.05724  // $metal1_conn

*END

*D_NET *35 4.3485e-16

*CONN
*I *22:g B *C 4.0325 0.5300 
*I *23:g B *C 4.2375 0.5300 
*I *25:g B *C 4.5025 0.5300 
*I *27:g B *C 4.7225 0.5300 
*I *47:d B *C 5.1500 0.5300 
*I *32:g B *C 4.0125 1.2100 
*I *33:g B *C 4.2175 1.2100 
*I *34:g B *C 4.4225 1.2100 
*I *1:g B *C 4.6275 1.2100 
*I *3:d B *C 4.9250 1.2100 
*N *35:16 *C 4.9350 0.9750 

*CAP
0 *3:d 3.74614e-17
1 *1:g 3.09473e-16
2 *47:d 4.78838e-17
3 *35:16 4.0032e-17

*RES
0 *35:16 *1:g 45.223003  // $metal1_conn
1 *35:16 *3:d 20.81753  // $metal1_conn
2 *47:d *35:16 75.367386  // $metal1_conn

*END

*D_NET *60 4.13333e-16

*CONN
*I *55:g B *C 1.4175 0.5875 
*I *57:d B *C 1.9175 0.5875 
*I *59:s B *C 1.9175 0.5875 
*I *11:g B *C 1.5225 1.2975 
*I *12:d B *C 1.9625 1.2975 
*I *13:s B *C 1.9625 1.2975 
*N *60:2 *C 1.5600 0.7850 
*N *60:5 *C 1.8700 0.8150 
*N *60:7 *C 2.0350 1.2500 

*CAP
0 *12:d 7.30192e-17
1 *11:g 8.2371e-17
2 *57:d 3.60221e-17
3 *55:g 5.26135e-17
4 *60:5 6.63096e-17
5 *60:2 1.02997e-16

*RES
0 *11:g *60:2 94.360344  // $poly_conn
1 *60:2 *55:g 44.574535  // $poly_conn
2 *57:d *60:5 75.168221  // $metal1_conn
3 *60:5 *60:7 0.432467  // $metal1_conn
4 *60:5 *60:2 45.189507  // $metal1_conn
5 *12:d *60:7 62  // $metal1_conn

*END

*D_NET *58 4.05719e-16

*CONN
*I *16:g B *C 2.8275 0.5575 
*I *48:g B *C 2.6225 0.5575 
*I *59:d B *C 2.2200 0.5875 
*I *61:d B *C 2.2200 0.5875 
*I *24:g B *C 2.7525 1.2500 
*I *26:g B *C 2.9575 1.2500 
*I *13:d B *C 2.2750 1.2975 
*I *14:d B *C 2.2750 1.2975 
*N *58:8 *C 2.2375 0.7600 

*CAP
0 *13:d 7.44762e-17
1 *26:g 2.46693e-16
2 *59:d 2.95011e-17
3 *58:8 5.5049e-17

*RES
0 *58:8 *59:d 75.096016  // $metal1_conn
1 *58:8 *13:d 62.34893  // $metal1_conn
2 *26:g *58:8 45.27692  // $metal1_conn

*END

*D_NET *56 3.77696e-16

*CONN
*I *52:d B *C 1.2000 0.5875 
*I *54:d B *C 1.2000 0.5875 
*I *57:g B *C 1.7175 0.5875 
*I *9:d B *C 1.2300 1.2975 
*I *10:d B *C 1.2300 1.2975 
*I *12:g B *C 1.7875 1.2975 
*N *56:2 *C 1.6800 1.0650 
*N *56:5 *C 1.2600 1.2500 

*CAP
0 *12:g 3.33427e-17
1 *9:d 1.10559e-16
2 *57:g 4.88844e-17
3 *52:d 7.31962e-17
4 *56:2 1.11713e-16

*RES
0 *12:g *56:2 35.600178  // $poly_conn
1 *56:2 *57:g 94.360344  // $poly_conn
2 *56:2 *56:5 45.410946  // $metal1_conn
3 *56:5 *52:d 75.476257  // $metal1_conn
4 *9:d *56:5 62  // $metal1_conn

*END

