*SPEF "IEEE 1481-1999"
*DESIGN  "DFFX1"
*DATE "Mon Sep 27 09:40:33 2010"
*VENDOR "Cadence Design Systems"
*PROGRAM "Assura RCX"
*VERSION "3.2 Red Hat Linux release 7.2 (Enigma) - (09/09/2009-10:39)"
*DESIGN_FLOW "Physical Verification"
*DIVIDER /
*DELIMITER :
*BUS_DELIMITER []
*T_UNIT 1 PS
*C_UNIT 1e15 FF
*R_UNIT 1 OHM
*L_UNIT 1 MH
// DeviceFingerDelim "@"
// MATCHED
// caps2d version: 10

*NAME_MAP
*1 CK
*2 VSS
*3 mn51
*4 mn40
*5 mn56
*6 mn30
*7 Q
*8 mn55
*9 mn35
*10 mn20
*11 mn36
*12 mn45
*13 mn26
*14 mn50
*15 mn25
*16 mn21
*17 mn57
*18 qint
*19 n30
*20 n20
*21 VDD
*22 mp56
*23 mp55
*24 QN
*25 mp20
*26 mp45
*27 mp50
*28 mout
*29 qbint
*30 CKbb
*31 CKb
*32 n36
*33 n26
*34 n22
*35 n35
*36 mp51
*37 n25
*38 mp40
*39 n21
*40 mp30
*41 mp35
*42 mp36
*43 mp26
*44 mp25
*45 mp21
*46 mp57
*47 D

*GROUND_NETS VSS

*PORTS
*21 I
*2 I
*1 I
*47 I
*7 O
*24 O

*D_NET *21 4.43551e-16

*CONN
*P *21 I *C 0.1000 1.7100 
*I *40:s B *C 2.9150 1.1975 
*I *41:s B *C 2.9150 1.1975 
*I *44:s B *C 3.6950 1.1975 
*I *45:s B *C 3.6950 1.1975 
*I *46:s B *C 0.5150 1.3450 
*I *22:s B *C 0.5150 1.3450 
*I *23:s B *C 1.1700 1.5700 
*I *25:s B *C 1.1700 1.5700 
*I *26:s B *C 1.9350 1.1975 
*I *27:s B *C 1.9350 1.1975 
*N *21:2 *C 3.2000 1.7100 
*N *21:3 *C 3.2000 1.7100 
*N *21:4 *C 2.8300 1.7100 
*N *21:5 *C 1.8500 1.7100 
*N *21:6 *C 1.1000 1.7100 
*N *21:7 *C 0.4900 1.7100 

*CAP
0 *26:s 1.32563e-17
1 *23:s 1.17735e-17
2 *46:s 1.87252e-17
3 *44:s 4.11451e-17
4 *40:s 1.32665e-17
5 *21:7 8.45929e-18
6 *21:5 3.16436e-17
7 *21:4 2.40969e-17
8 *21:2 2.72934e-16
9 *21 8.25045e-18

*RES
0 *44:s *21:3 62.577385  // $metal1_conn
1 *21:3 *21:4 0.184311  // $metal1_conn
2 *21:4 *21:5 0.488917  // $metal1_conn
3 *21:5 *21:6 0.375392  // $metal1_conn
4 *21:6 *21:7 0.305555  // $metal1_conn
5 *21:7 *21 0.195034  // $metal1_conn
6 *21:4 *40:s 62.045795  // $metal1_conn
7 *21:5 *26:s 62.045795  // $metal1_conn
8 *21:6 *23:s 62.082367  // $metal1_conn
9 *21:7 *46:s 62.223812  // $metal1_conn
10 *21:2 *21:3 7.5  // $metal1_conn
11 *21:2 *21:6 6.818182  // $metal1_conn

*END

*D_NET *2 0

*CONN
*P *2 I *C 0.1000 0.0000 
*I *6:s B *C 3.0300 0.5575 
*I *9:s B *C 3.0300 0.5575 
*I *15:s B *C 3.7600 0.5575 
*I *16:s B *C 3.7600 0.5575 
*I *17:s B *C 0.5225 0.5875 
*I *5:s B *C 0.5225 0.5875 
*I *8:s B *C 1.2000 0.5875 
*I *10:s B *C 1.2000 0.5875 
*I *12:s B *C 1.8775 0.5575 
*I *14:s B *C 1.8775 0.5575 
*N *2:2 *C 3.2000 0.0000 
*N *2:3 *C 3.2000 0.0000 
*N *2:4 *C 2.9150 0.0000 
*N *2:5 *C 1.8750 0.0000 
*N *2:6 *C 1.1000 0.0000 
*N *2:7 *C 0.4900 0.0000 


*RES
0 *15:s *2:3 75.535698  // $metal1_conn
1 *2:3 *2:4 0.142655  // $metal1_conn
2 *2:4 *2:5 0.520889  // $metal1_conn
3 *2:5 *2:6 0.388259  // $metal1_conn
4 *2:6 *2:7 0.305555  // $metal1_conn
5 *2:7 *2 0.195034  // $metal1_conn
6 *2:4 *6:s 75.09716  // $metal1_conn
7 *2:5 *12:s 75.356064  // $metal1_conn
8 *2:6 *8:s 75.310219  // $metal1_conn
9 *2:7 *17:s 75.07431  // $metal1_conn
10 *2:2 *2:3 6.2  // $metal1_conn
11 *2:2 *2:6 5.636364  // $metal1_conn

*END

*D_NET *1 2.0004e-16

*CONN
*P *1 I *C 1.1000 1.0450 
*I *10:g B *C 1.2675 0.5875 
*I *25:g B *C 1.2675 1.0575 
*N *1:2 *C 1.2400 0.8400 

*CAP
0 *25:g 3.00487e-17
1 *10:g 3.38292e-17
2 *1:2 9.74515e-17
3 *1 3.87105e-17

*RES
0 *25:g *1:2 19.691952  // $poly_conn
1 *1:2 *10:g 37.640671  // $poly_conn
2 *1 *1:2 45.155373  // $metal1_conn

*END

*D_NET *47 2.69719e-16

*CONN
*P *47 I *C 3.7000 1.0450 
*I *15:g B *C 3.5425 0.5575 
*I *44:g B *C 3.5925 1.1975 
*N *47:2 *C 3.6650 0.9550 

*CAP
0 *44:g 3.04838e-17
1 *15:g 7.92535e-17
2 *47:2 8.04167e-17
3 *47 7.95647e-17

*RES
0 *44:g *47:2 28.189922  // $poly_conn
1 *47:2 *15:g 84.189178  // $poly_conn
2 *47:2 *47 45.036171  // $metal1_conn

*END

*D_NET *7 1.24666e-16

*CONN
*P *7 O *C 0.9000 0.6650 
*I *8:d B *C 0.9000 0.5300 
*I *23:d B *C 0.9200 1.1450 

*CAP
0 *23:d 6.80094e-17
1 *8:d 2.2995e-17
2 *7 3.36615e-17

*RES
0 *23:d *7 21.036613  // $metal1_conn
1 *7 *8:d 75.043259  // $metal1_conn

*END

*D_NET *24 8.04637e-17

*CONN
*P *24 O *C 0.1000 0.6650 
*I *17:d B *C 0.2650 0.5300 
*I *46:d B *C 0.2650 1.0950 
*N *24:3 *C 0.2550 0.6000 

*CAP
0 *46:d 3.34659e-17
1 *17:d 2.58228e-17
2 *24 2.1175e-17

*RES
0 *46:d *24:3 20.971796  // $metal1_conn
1 *24:3 *24 0.07344  // $metal1_conn
2 *17:d *24:3 75  // $metal1_conn

*END

*D_NET *39 4.68681e-19

*CONN
*I *13:s B *C 3.4900 0.5575 
*I *15:d B *C 3.4900 0.5575 

*CAP
0 *13:s 4.68681e-19

*RES
0 *15:d *13:s 0.001  // $mwires

*END

*D_NET *37 1.60249e-18

*CONN
*I *9:d B *C 3.1550 0.5575 
*I *11:s B *C 3.1550 0.5575 

*CAP
0 *9:d 1.60249e-18

*RES
0 *11:s *9:d 0.001  // $mwires

*END

*D_NET *35 2.55595e-18

*CONN
*I *3:s B *C 2.0625 0.5575 
*I *14:d B *C 2.0625 0.5575 

*CAP
0 *3:s 2.55595e-18

*RES
0 *14:d *3:s 0.001  // $mwires

*END

*D_NET *34 7.32139e-19

*CONN
*I *43:s B *C 3.4625 1.1975 
*I *44:d B *C 3.4625 1.1975 

*CAP
0 *43:s 7.32139e-19

*RES
0 *44:d *43:s 0.001  // $mwires

*END

*D_NET *33 8.70796e-19

*CONN
*I *41:d B *C 3.0175 1.1975 
*I *42:s B *C 3.0175 1.1975 

*CAP
0 *41:d 8.70796e-19

*RES
0 *42:s *41:d 0.001  // $mwires

*END

*D_NET *32 1.1262e-18

*CONN
*I *36:s B *C 2.0475 1.1975 
*I *27:d B *C 2.0475 1.1975 

*CAP
0 *36:s 1.1262e-18

*RES
0 *27:d *36:s 0.001  // $mwires

*END

*D_NET *31 1.17956e-15

*CONN
*I *3:g B *C 2.1425 0.5575 
*I *13:g B *C 3.4375 0.5575 
*I *16:g B *C 3.8075 0.5575 
*I *10:d B *C 1.3825 0.5875 
*I *38:g B *C 2.3675 1.1975 
*I *42:g B *C 3.0725 1.1975 
*I *45:g B *C 3.7975 1.1975 
*I *25:d B *C 1.3825 1.0575 
*N *31:2 *C 2.4050 0.9900 
*N *31:4 *C 3.1900 0.9600 
*N *31:7 *C 3.4750 0.8600 
*N *31:9 *C 3.8250 0.7600 
*N *31:11 *C 3.3650 0.9900 
*N *31:12 *C 2.4050 1.3100 
*N *31:14 *C 1.4150 1.1050 

*CAP
0 *25:d 1.42849e-16
1 *45:g 4.4362e-17
2 *42:g 5.19045e-17
3 *38:g 2.24046e-17
4 *10:d 8.07049e-17
5 *16:g 2.81855e-17
6 *13:g 7.10583e-17
7 *3:g 5.62456e-17
8 *31:12 1.72712e-16
9 *31:11 9.52574e-17
10 *31:2 1.10385e-16
11 *31:4 8.48832e-17
12 *31:7 1.18288e-16
13 *31:9 1.00317e-16

*RES
0 *38:g *31:2 16.15522  // $poly_conn
1 *31:2 *3:g 128.686157  // $poly_conn
2 *31:4 *42:g 79.711609  // $poly_conn
3 *13:g *31:7 94.488556  // $poly_conn
4 *16:g *31:9 22.52688  // $poly_conn
5 *31:9 *45:g 73.808937  // $poly_conn
6 *31:9 *31:7 45.298012  // $metal1_conn
7 *31:7 *31:11 0.099645  // $metal1_conn
8 *31:11 *31:12 0.907296  // $metal1_conn
9 *31:12 *31:14 0.834163  // $metal1_conn
10 *31:14 *10:d 75.372841  // $metal1_conn
11 *31:11 *31:4 0.093948  // $metal1_conn
12 *31:12 *31:2 45.210548  // $metal1_conn
13 *25:d *31:14 62  // $metal1_conn

*END

*D_NET *30 8.24342e-16

*CONN
*I *4:g B *C 2.4725 0.5575 
*I *11:g B *C 3.2325 0.5575 
*I *16:d B *C 3.9000 0.5575 
*I *36:g B *C 2.1125 1.1975 
*I *43:g B *C 3.3325 1.1975 
*I *45:d B *C 3.9450 1.1975 
*N *30:1 *C 2.2350 0.9550 
*N *30:4 *C 2.5000 0.7700 
*N *30:7 *C 3.2200 0.3800 
*N *30:9 *C 3.9100 0.5700 
*N *30:10 *C 2.4350 0.7700 

*CAP
0 *45:d 4.26514e-17
1 *43:g 7.05427e-17
2 *36:g 4.82367e-17
3 *16:d 1.26659e-16
4 *11:g 6.14783e-17
5 *4:g 3.74373e-17
6 *30:10 9.92703e-17
7 *30:1 1.06826e-16
8 *30:4 5.77852e-17
9 *30:7 1.73455e-16

*RES
0 *30:1 *36:g 86.010437  // $poly_conn
1 *4:g *30:4 72.384262  // $poly_conn
2 *43:g *11:g 131.761719  // $poly_conn
3 *11:g *30:7 62.437271  // $poly_conn
4 *30:9 *30:7 0.678138  // $metal1_conn
5 *30:7 *30:10 0.821555  // $metal1_conn
6 *30:10 *30:1 0.263621  // $metal1_conn
7 *30:9 *45:d 62.434589  // $metal1_conn
8 *30:10 *30:4 0.03464  // $metal1_conn
9 *16:d *30:9 75  // $metal1_conn

*END

*D_NET *29 7.19948e-16

*CONN
*I *5:g B *C 0.5875 0.5875 
*I *8:g B *C 0.9925 0.5300 
*I *12:d B *C 1.6800 0.5575 
*I *14:g B *C 1.9825 0.5575 
*I *22:g B *C 0.5875 1.0075 
*I *23:g B *C 1.0125 1.1450 
*I *26:d B *C 1.6250 1.1975 
*I *27:g B *C 1.9825 1.1975 
*N *29:2 *C 1.0025 0.7600 
*N *29:3 *C 0.5875 0.7375 
*N *29:6 *C 1.0700 0.7600 
*N *29:9 *C 1.9825 0.7650 
*N *29:10 *C 1.9150 0.7650 
*N *29:13 *C 1.6700 0.5450 
*N *29:14 *C 1.5750 0.7350 

*CAP
0 *27:g 6.71293e-17
1 *26:d 6.40431e-17
2 *23:g 4.39336e-17
3 *22:g 3.22065e-17
4 *14:g 3.3357e-17
5 *12:d 7.22434e-17
6 *8:g 2.89862e-17
7 *5:g 2.62667e-17
8 *29:14 5.9451e-17
9 *29:9 3.26268e-17
10 *29:3 2.99406e-17
11 *29:2 3.63967e-17
12 *29:6 1.17615e-16
13 *29:10 7.57523e-17

*RES
0 *23:g *29:2 49.812347  // $poly_conn
1 *29:2 *29:3 102.421524  // $poly_conn
2 *29:3 *5:g 18.337015  // $poly_conn
3 *29:2 *8:g 26.735422  // $poly_conn
4 *29:2 *29:6 49.31871  // $poly_conn
5 *29:3 *22:g 40.131889  // $poly_conn
6 *27:g *29:9 80.578644  // $poly_conn
7 *29:9 *29:10 46.794373  // $poly_conn
8 *29:9 *14:g 31.860699  // $poly_conn
9 *29:6 *29:13 0.742837  // $metal1_conn
10 *29:13 *29:14 0.188829  // $metal1_conn
11 *29:14 *26:d 62.319187  // $metal1_conn
12 *29:14 *29:10 0.23236  // $metal1_conn
13 *12:d *29:13 75  // $metal1_conn

*END

*D_NET *28 3.8317e-16

*CONN
*I *4:s B *C 2.5850 0.5575 
*I *6:d B *C 2.5850 0.5575 
*I *9:g B *C 3.0775 0.5575 
*I *38:s B *C 2.5325 1.1975 
*I *40:d B *C 2.5325 1.1975 
*I *41:g B *C 2.9625 1.1975 
*N *28:2 *C 2.9625 0.7550 
*N *28:3 *C 2.8400 0.7550 
*N *28:5 *C 2.6600 0.7550 

*CAP
0 *41:g 7.96093e-17
1 *38:s 6.23669e-17
2 *9:g 5.10785e-17
3 *4:s 4.20198e-17
4 *28:5 4.78216e-17
5 *28:2 3.73794e-17
6 *28:3 6.28945e-17

*RES
0 *9:g *28:2 48.923527  // $poly_conn
1 *28:2 *28:3 55.219883  // $poly_conn
2 *28:2 *41:g 76.083183  // $poly_conn
3 *28:3 *28:5 0.104357  // $metal1_conn
4 *28:5 *4:s 75.16275  // $metal1_conn
5 *28:5 *38:s 62.325882  // $metal1_conn

*END

*D_NET *20 3.92969e-16

*CONN
*I *6:g B *C 2.6975 0.5575 
*I *11:d B *C 3.3350 0.5575 
*I *13:d B *C 3.3350 0.5575 
*I *40:g B *C 2.6975 1.1975 
*I *42:d B *C 3.2025 1.1975 
*I *43:d B *C 3.2025 1.1975 
*N *20:1 *C 2.8200 0.9450 
*N *20:2 *C 2.6975 0.9450 
*N *20:6 *C 3.0300 0.9150 

*CAP
0 *42:d 6.03941e-17
1 *40:g 3.69936e-17
2 *11:d 8.1373e-17
3 *6:g 5.06226e-17
4 *20:6 5.91752e-17
5 *20:2 3.26865e-17
6 *20:1 7.17241e-17

*RES
0 *20:1 *20:2 52.613522  // $poly_conn
1 *20:2 *6:g 75.691689  // $poly_conn
2 *20:2 *40:g 32.101944  // $poly_conn
3 *11:d *20:6 75.434402  // $metal1_conn
4 *20:6 *20:1 0.125676  // $metal1_conn
5 *20:6 *42:d 62.275913  // $metal1_conn

*END

*D_NET *19 3.41547e-16

*CONN
*I *3:d B *C 2.3075 0.5575 
*I *4:d B *C 2.3075 0.5575 
*I *12:g B *C 1.7725 0.5575 
*I *36:d B *C 2.2400 1.1975 
*I *38:d B *C 2.2400 1.1975 
*I *26:g B *C 1.7175 1.1975 
*N *19:2 *C 1.7350 0.9250 
*N *19:5 *C 2.0750 0.9550 

*CAP
0 *26:g 3.91387e-17
1 *36:d 5.74761e-17
2 *12:g 3.9804e-17
3 *3:d 4.98763e-17
4 *19:5 6.84277e-17
5 *19:2 8.68243e-17

*RES
0 *12:g *19:2 66.15522  // $poly_conn
1 *19:2 *26:g 32.821884  // $poly_conn
2 *3:d *19:5 75.390602  // $metal1_conn
3 *19:5 *19:2 45.221653  // $metal1_conn
4 *19:5 *36:d 62.241859  // $metal1_conn

*END

*D_NET *18 1.92935e-16

*CONN
*I *17:g B *C 0.3575 0.5300 
*I *5:d B *C 0.6800 0.5875 
*I *46:g B *C 0.3575 1.0950 
*I *22:d B *C 0.6800 1.0075 
*N *18:1 *C 0.4450 0.7600 
*N *18:2 *C 0.3575 0.7600 
*N *18:6 *C 0.6800 0.7700 

*CAP
0 *22:d 2.32499e-17
1 *46:g 4.28038e-17
2 *5:d 2.18078e-17
3 *17:g 3.49747e-17
4 *18:6 2.19735e-17
5 *18:2 6.36527e-18
6 *18:1 4.17604e-17

*RES
0 *18:1 *18:2 48.890118  // $poly_conn
1 *18:2 *17:g 20.563484  // $poly_conn
2 *18:2 *46:g 30.819893  // $poly_conn
3 *22:d *18:6 62.117496  // $metal1_conn
4 *18:6 *18:1 0.12224  // $metal1_conn
5 *18:6 *5:d 75.109505  // $metal1_conn

*END

