*SPEF "IEEE 1481-1999"
*DESIGN  "DLY1X4"
*DATE "Mon Sep 27 09:42:26 2010"
*VENDOR "Cadence Design Systems"
*PROGRAM "Assura RCX"
*VERSION "3.2 Red Hat Linux release 7.2 (Enigma) - (09/09/2009-10:39)"
*DESIGN_FLOW "Physical Verification"
*DIVIDER /
*DELIMITER :
*BUS_DELIMITER []
*T_UNIT 1 PS
*C_UNIT 1e15 FF
*R_UNIT 1 OHM
*L_UNIT 1 MH
// DeviceFingerDelim "@"
// MATCHED
// caps2d version: 10

*NAME_MAP
*1 mp1
*2 mn4\@3
*3 mp2
*4 mp3
*5 VDD
*6 mp4
*7 mp4\@1
*8 mp4\@2
*9 mp4\@3
*10 Y
*11 n2
*12 n1
*13 n0
*14 n5
*15 n4
*16 A
*17 VSS
*18 mn0
*19 mn1
*20 mn2
*21 mn3
*22 mn4
*23 mn4\@1
*24 mp0
*25 mn4\@2

*GROUND_NETS VSS

*PORTS
*5 I
*17 I
*16 I
*10 O

*D_NET *5 5.3894e-16

*CONN
*P *5 I *C 0.1000 1.7100 
*I *20:g B *C 0.5525 0.4675 
*I *24:s B *C 0.4000 1.2575 
*I *1:s B *C 0.4000 1.2575 
*I *4:s B *C 1.2600 1.0950 
*I *6:s B *C 1.2600 1.0950 
*I *7:s B *C 1.6700 1.0950 
*I *8:s B *C 1.6700 1.0950 
*I *9:s B *C 2.0700 1.0950 
*N *5:2 *C 0.5750 0.8350 
*N *5:6 *C 1.1000 1.7100 
*N *5:7 *C 1.1000 1.7100 
*N *5:8 *C 0.5750 1.7100 
*N *5:9 *C 0.4000 1.7100 

*CAP
0 *9:s 1.75221e-16
1 *24:s 2.31505e-17
2 *20:g 6.26184e-17
3 *5:9 3.35752e-18
4 *5:8 2.39628e-17
5 *5:6 1.10115e-16
6 *5:2 1.28568e-16
7 *5 1.19467e-17

*RES
0 *20:g *5:2 109.834572  // $poly_conn
1 *5:9 *5 0.150048  // $metal1_conn
2 *5:8 *5:2 0.630095  // $metal1_conn
3 *5:6 *5:7 6.818182  // $metal1_conn
4 *5:9 *24:s 62.283405  // $metal1_conn
5 *9:s *5:7 0.080068  // $metal1_conn
6 *5:7 *5:8 0.26317  // $metal1_conn
7 *5:8 *5:9 0.087397  // $metal1_conn

*END

*D_NET *17 0

*CONN
*P *17 I *C 0.1000 0.0000 
*I *18:s B *C 0.3450 0.4675 
*I *19:s B *C 0.3450 0.4675 
*I *21:s B *C 1.2600 0.5100 
*I *22:s B *C 1.2600 0.5100 
*I *23:s B *C 1.6700 0.5100 
*I *25:s B *C 1.6700 0.5100 
*I *2:s B *C 2.0700 0.5100 
*I *3:g B *C 0.6225 1.2575 
*N *17:1 *C 0.7350 1.0150 
*N *17:6 *C 1.1000 0.0000 
*N *17:7 *C 1.1000 0.0000 
*N *17:8 *C 0.5750 0.0000 
*N *17:9 *C 0.3450 0.0000 


*RES
0 *17:1 *3:g 83.446335  // $poly_conn
1 *17:9 *17 0.122457  // $metal1_conn
2 *17:8 *17:1 0.818456  // $metal1_conn
3 *17:6 *17:7 5.636364  // $metal1_conn
4 *17:9 *18:s 75.310738  // $metal1_conn
5 *2:s *17:7 0.080068  // $metal1_conn
6 *17:7 *17:8 0.26317  // $metal1_conn
7 *17:8 *17:9 0.114987  // $metal1_conn

*END

*D_NET *16 2.42272e-16

*CONN
*P *16 I *C 0.3000 0.8550 
*I *18:g B *C 0.2425 0.4675 
*I *24:g B *C 0.2975 1.2575 
*N *16:2 *C 0.2700 0.8350 

*CAP
0 *24:g 3.93051e-17
1 *18:g 4.24549e-17
2 *16:2 1.60512e-16

*RES
0 *24:g *16:2 72.256058  // $poly_conn
1 *16:2 *18:g 67.127846  // $poly_conn
2 *16 *16:2 45.005295  // $metal1_conn

*END

*D_NET *10 2.28159e-16

*CONN
*P *10 O *C 1.5000 0.8550 
*I *22:d B *C 1.4650 0.5100 
*I *23:d B *C 1.4650 0.5100 
*I *25:d B *C 1.8750 0.5100 
*I *2:d B *C 1.8750 0.5100 
*I *6:d B *C 1.4650 1.0950 
*I *7:d B *C 1.4650 1.0950 
*I *8:d B *C 1.8750 1.0950 
*I *9:d B *C 1.8750 1.0950 

*CAP
0 *8:d 1.43302e-16
1 *22:d 6.34961e-17
2 *10 2.1361e-17

*RES
0 *10 *22:d 0.205382  // $metal1_conn
1 *8:d *10 0.046621  // $metal1_conn

*END

*D_NET *15 0

*CONN
*I *19:d B *C 0.5000 0.4675 
*I *20:s B *C 0.5000 0.4675 


*RES
0 *20:s *19:d 0.001  // $mwires

*END

*D_NET *14 9.53257e-19

*CONN
*I *1:d B *C 0.5625 1.2575 
*I *3:s B *C 0.5625 1.2575 

*CAP
0 *1:d 9.53257e-19

*RES
0 *3:s *1:d 0.001  // $mwires

*END

*D_NET *13 4.01412e-16

*CONN
*I *18:d B *C 0.1500 0.4675 
*I *19:g B *C 0.4475 0.4675 
*I *24:d B *C 0.2050 1.2575 
*I *1:g B *C 0.5025 1.2575 
*N *13:2 *C 0.3850 0.6450 
*N *13:4 *C 0.1050 0.6450 
*N *13:6 *C 0.1400 0.4550 

*CAP
0 *1:g 7.906e-17
1 *24:d 6.55424e-17
2 *19:g 4.53225e-17
3 *18:d 2.86624e-17
4 *13:4 5.45122e-17
5 *13:2 1.28312e-16

*RES
0 *1:g *13:2 140.340851  // $poly_conn
1 *13:2 *19:g 29.653391  // $poly_conn
2 *13:2 *13:4 45.194  // $metal1_conn
3 *13:4 *13:6 0.127394  // $metal1_conn
4 *13:4 *24:d 62.543591  // $metal1_conn
5 *18:d *13:6 75  // $metal1_conn

*END

*D_NET *12 3.70339e-16

*CONN
*I *20:d B *C 0.6850 0.4675 
*I *21:g B *C 1.1575 0.5100 
*I *3:d B *C 0.7200 1.2575 
*I *4:g B *C 1.1575 1.0950 
*N *12:2 *C 1.1150 0.7900 
*N *12:4 *C 0.8950 0.7900 

*CAP
0 *4:g 4.12325e-17
1 *3:d 7.93561e-17
2 *21:g 2.76454e-17
3 *20:d 6.13246e-17
4 *12:4 8.26433e-17
5 *12:2 7.81375e-17

*RES
0 *4:g *12:2 17.398676  // $poly_conn
1 *12:2 *21:g 27.655087  // $poly_conn
2 *12:2 *12:4 45.14957  // $metal1_conn
3 *12:4 *20:d 75.343849  // $metal1_conn
4 *12:4 *3:d 62.42741  // $metal1_conn

*END

*D_NET *11 4.23154e-16

*CONN
*I *21:d B *C 1.0650 0.5100 
*I *22:g B *C 1.3625 0.5100 
*I *23:g B *C 1.5675 0.5100 
*I *25:g B *C 1.7725 0.5100 
*I *2:g B *C 1.9775 0.5100 
*I *4:d B *C 1.0650 1.0950 
*I *6:g B *C 1.3625 1.0950 
*I *7:g B *C 1.5675 1.0950 
*I *8:g B *C 1.7725 1.0950 
*I *9:g B *C 1.9775 1.0950 
*N *11:6 *C 1.3050 0.7400 

*CAP
0 *9:g 1.85818e-16
1 *4:d 9.25716e-17
2 *21:d 4.99442e-17
3 *11:6 9.48198e-17

*RES
0 *9:g *11:6 48.256718  // $poly_conn
1 *4:d *11:6 21.113325  // $metal1_conn
2 *11:6 *21:d 75.2481  // $metal1_conn

*END

