*SPEF "IEEE 1481-1999"
*DESIGN  "DLY1X1"
*DATE "Mon Sep 27 09:42:03 2010"
*VENDOR "Cadence Design Systems"
*PROGRAM "Assura RCX"
*VERSION "3.2 Red Hat Linux release 7.2 (Enigma) - (09/09/2009-10:39)"
*DESIGN_FLOW "Physical Verification"
*DIVIDER /
*DELIMITER :
*BUS_DELIMITER []
*T_UNIT 1 PS
*C_UNIT 1e15 FF
*R_UNIT 1 OHM
*L_UNIT 1 MH
// DeviceFingerDelim "@"
// MATCHED
// caps2d version: 10

*NAME_MAP
*1 mp3
*2 mp4
*3 mn0
*4 Y
*5 mn1
*6 mn2
*7 mn3
*8 n2
*9 mn4
*10 n0
*11 n1
*12 A
*13 VDD
*14 n5
*15 n4
*16 VSS
*17 mp0
*18 mp1
*19 mp2

*GROUND_NETS VSS

*PORTS
*13 I
*16 I
*12 I
*4 O

*D_NET *13 3.57726e-16

*CONN
*P *13 I *C 0.1000 1.7100 
*I *6:g B *C 0.6625 0.3075 
*I *17:s B *C 0.3850 1.0525 
*I *18:s B *C 0.3850 1.0525 
*I *1:s B *C 1.4950 1.0950 
*I *2:s B *C 1.4950 1.0950 
*N *13:2 *C 0.7000 0.6600 
*N *13:4 *C 0.9000 1.7100 
*N *13:5 *C 0.9000 1.7100 
*N *13:6 *C 0.6700 1.7100 
*N *13:7 *C 0.3850 1.7100 

*CAP
0 *1:s 5.16874e-17
1 *17:s 1.84797e-17
2 *6:g 4.52341e-17
3 *13:7 5.41014e-18
4 *13:6 6.10253e-18
5 *13:4 8.05932e-17
6 *13:2 1.47347e-16
7 *13 2.87261e-18

*RES
0 *6:g *13:2 107.309067  // $poly_conn
1 *1:s *13:5 62.661514  // $metal1_conn
2 *13:5 *13:6 0.115087  // $metal1_conn
3 *13:6 *13:7 0.142459  // $metal1_conn
4 *13:7 *13 0.142404  // $metal1_conn
5 *13:6 *13:2 0.717398  // $metal1_conn
6 *13:7 *17:s 62.386608  // $metal1_conn
7 *13:4 *13:5 8.333333  // $metal1_conn

*END

*D_NET *16 0

*CONN
*P *16 I *C 0.1000 0.0000 
*I *3:s B *C 0.3850 0.3075 
*I *5:s B *C 0.3850 0.3075 
*I *7:s B *C 1.4950 0.5100 
*I *9:s B *C 1.4950 0.5100 
*I *19:g B *C 0.7275 1.0525 
*N *16:1 *C 0.8600 0.8200 
*N *16:4 *C 0.9000 0.0000 
*N *16:5 *C 0.9000 0.0000 
*N *16:6 *C 0.6700 0.0000 
*N *16:7 *C 0.3850 0.0000 


*RES
0 *16:1 *19:g 89.547165  // $poly_conn
1 *7:s *16:5 75.597282  // $metal1_conn
2 *16:5 *16:6 0.115087  // $metal1_conn
3 *16:6 *16:7 0.142459  // $metal1_conn
4 *16:7 *16 0.142404  // $metal1_conn
5 *16:6 *16:1 0.733324  // $metal1_conn
6 *16:7 *3:s 75.17865  // $metal1_conn
7 *16:4 *16:5 6.888889  // $metal1_conn

*END

*D_NET *12 2.19738e-16

*CONN
*P *12 I *C 0.5000 0.8550 
*I *3:g B *C 0.2825 0.3075 
*I *17:g B *C 0.2825 1.0525 
*N *12:2 *C 0.3100 0.8350 

*CAP
0 *17:g 2.66613e-17
1 *3:g 4.705e-17
2 *12:2 6.74965e-17
3 *12 7.85305e-17

*RES
0 *17:g *12:2 19.691952  // $poly_conn
1 *12:2 *3:g 108.153488  // $poly_conn
2 *12:2 *12 45.086315  // $metal1_conn

*END

*D_NET *4 9.5653e-17

*CONN
*P *4 O *C 1.7000 0.6650 
*I *9:d B *C 1.6800 0.5100 
*I *2:d B *C 1.6800 1.0950 

*CAP
0 *2:d 5.7909e-17
1 *9:d 1.16899e-17
2 *4 2.60542e-17

*RES
0 *4 *9:d 75.050911  // $metal1_conn
1 *4 *2:d 20.924213  // $metal1_conn

*END

*D_NET *15 0

*CONN
*I *5:d B *C 0.5750 0.3075 
*I *6:s B *C 0.5750 0.3075 


*RES
0 *6:s *5:d 0.001  // $mwires

*END

*D_NET *14 2.82027e-18

*CONN
*I *18:d B *C 0.6075 1.0525 
*I *19:s B *C 0.6075 1.0525 

*CAP
0 *18:d 2.82027e-18

*RES
0 *19:s *18:d 0.001  // $mwires

*END

*D_NET *11 3.41104e-16

*CONN
*I *6:d B *C 0.7875 0.3075 
*I *7:g B *C 1.3525 0.5675 
*I *19:d B *C 0.8200 1.0525 
*I *1:g B *C 1.3525 1.0075 
*N *11:2 *C 1.3250 0.7900 
*N *11:4 *C 1.0500 0.7900 

*CAP
0 *1:g 3.76751e-17
1 *19:d 4.02269e-17
2 *7:g 2.95109e-17
3 *6:d 7.18875e-17
4 *11:4 8.85559e-17
5 *11:2 7.32481e-17

*RES
0 *1:g *11:2 19.691952  // $poly_conn
1 *11:2 *7:g 29.94836  // $poly_conn
2 *11:2 *11:4 45.18755  // $metal1_conn
3 *11:4 *6:d 75.485756  // $metal1_conn
4 *11:4 *19:d 62.283092  // $metal1_conn

*END

*D_NET *10 2.71854e-16

*CONN
*I *3:d B *C 0.1750 0.3075 
*I *5:g B *C 0.4875 0.3075 
*I *17:d B *C 0.1750 1.0525 
*I *18:g B *C 0.4875 1.0525 
*N *10:2 *C 0.4600 0.4900 
*N *10:4 *C 0.1500 0.4900 

*CAP
0 *18:g 5.74333e-17
1 *17:d 3.75729e-17
2 *5:g 2.98462e-17
3 *3:d 2.08195e-17
4 *10:4 3.32093e-17
5 *10:2 9.29724e-17

*RES
0 *18:g *10:2 108.153488  // $poly_conn
1 *10:2 *5:g 19.691952  // $poly_conn
2 *10:2 *10:4 45.197796  // $metal1_conn
3 *10:4 *3:d 75.115059  // $metal1_conn
4 *10:4 *17:d 62.359264  // $metal1_conn

*END

*D_NET *8 2.83823e-16

*CONN
*I *7:d B *C 1.2600 0.5675 
*I *9:g B *C 1.5875 0.5100 
*I *1:d B *C 1.2600 1.0075 
*I *2:g B *C 1.5875 1.0950 
*N *8:2 *C 1.5875 0.7400 
*N *8:3 *C 1.5300 0.7400 

*CAP
0 *2:g 4.4256e-17
1 *1:d 5.09704e-17
2 *9:g 3.23437e-17
3 *7:d 4.84885e-17
4 *8:2 1.27978e-17
5 *8:3 9.4967e-17

*RES
0 *2:g *8:2 38.270954  // $poly_conn
1 *8:2 *8:3 45.794373  // $poly_conn
2 *8:2 *9:g 22.886339  // $poly_conn
3 *7:d *8:3 75.267387  // $metal1_conn
4 *8:3 *1:d 62.349087  // $metal1_conn

*END

