*SPEF "IEEE 1481-1999"
*DESIGN  "DLY3X1"
*DATE "Mon Sep 27 09:43:35 2010"
*VENDOR "Cadence Design Systems"
*PROGRAM "Assura RCX"
*VERSION "3.2 Red Hat Linux release 7.2 (Enigma) - (09/09/2009-10:39)"
*DESIGN_FLOW "Physical Verification"
*DIVIDER /
*DELIMITER :
*BUS_DELIMITER []
*T_UNIT 1 PS
*C_UNIT 1e15 FF
*R_UNIT 1 OHM
*L_UNIT 1 MH
// DeviceFingerDelim "@"
// MATCHED
// caps2d version: 10

*NAME_MAP
*1 VSS
*2 mn12
*3 mn7
*4 mn4
*5 mn8
*6 mn0
*7 mn11
*8 mn5
*9 mn9
*10 mn6
*11 mn10
*12 mn2
*13 mn1
*14 mn3
*15 n5
*16 n1
*17 n6
*18 Y
*19 n2
*20 n4
*21 VDD
*22 mp4
*23 mp0
*24 mp5
*25 mp6
*26 n0
*27 n3
*28 n8
*29 n10
*30 n12
*31 n14
*32 n16
*33 n7
*34 mp12
*35 n9
*36 mp7
*37 n11
*38 mp8
*39 mp11
*40 mp9
*41 mp10
*42 mp2
*43 mp1
*44 mp3
*45 n13
*46 n15
*47 A

*GROUND_NETS VSS

*PORTS
*21 I
*1 I
*47 I
*18 O

*D_NET *21 1.38237e-15

*CONN
*P *21 I *C 0.1000 1.7100 
*I *5:g B *C 3.4825 0.4775 
*I *11:g B *C 4.4525 0.3925 
*I *12:g B *C 0.5525 0.3175 
*I *4:g B *C 1.0575 0.3175 
*I *10:g B *C 2.1825 0.4525 
*I *34:s B *C 3.1500 1.0075 
*I *36:s B *C 3.1500 1.0075 
*I *39:s B *C 4.1450 1.1275 
*I *40:s B *C 4.1450 1.1275 
*I *43:s B *C 0.7600 1.0875 
*I *44:s B *C 0.7600 1.0875 
*I *23:s B *C 1.8500 1.1775 
*I *24:s B *C 1.8500 1.1775 
*N *21:2 *C 0.5150 0.6550 
*N *21:4 *C 1.0200 0.6550 
*N *21:6 *C 2.0950 0.7900 
*N *21:8 *C 3.9350 0.7300 
*N *21:10 *C 4.3900 0.7300 
*N *21:11 *C 3.9050 1.7100 
*N *21:12 *C 3.6000 1.7100 
*N *21:13 *C 3.6000 1.7100 
*N *21:14 *C 3.0950 1.7100 
*N *21:15 *C 2.0650 1.7100 
*N *21:16 *C 1.8500 1.7100 
*N *21:17 *C 1.2000 1.7100 
*N *21:18 *C 0.8150 1.7100 
*N *21:22 *C 0.8150 1.2100 

*CAP
0 *23:s 3.79239e-17
1 *43:s 1.86148e-17
2 *39:s 1.9584e-17
3 *34:s 3.36088e-17
4 *10:g 3.53751e-17
5 *4:g 3.42372e-17
6 *12:g 5.26568e-17
7 *11:g 5.02136e-17
8 *5:g 3.45155e-17
9 *21:22 5.29211e-17
10 *21:18 1.08566e-17
11 *21:16 1.43381e-17
12 *21:15 2.12704e-17
13 *21:14 1.94445e-17
14 *21:11 2.64087e-17
15 *21:12 2.6416e-16
16 *21:2 1.03901e-16
17 *21:4 1.14589e-16
18 *21:6 1.28504e-16
19 *21:8 1.75709e-16
20 *21:10 1.24434e-16
21 *21 9.10674e-18

*RES
0 *12:g *21:2 103.462914  // $poly_conn
1 *4:g *21:4 103.462914  // $poly_conn
2 *10:g *21:6 113.906143  // $poly_conn
3 *5:g *21:8 176.250275  // $poly_conn
4 *11:g *21:10 105.808708  // $poly_conn
5 *21:10 *21:8 0.365763  // $metal1_conn
6 *21:8 *21:11 0.690133  // $metal1_conn
7 *21:11 *21:13 0.152447  // $metal1_conn
8 *21:13 *21:14 0.253222  // $metal1_conn
9 *21:14 *21:15 0.51648  // $metal1_conn
10 *21:15 *21:16 0.107498  // $metal1_conn
11 *21:16 *21:17 0.325986  // $metal1_conn
12 *21:17 *21:18 0.193004  // $metal1_conn
13 *21:18 *21 0.358353  // $metal1_conn
14 *21:11 *39:s 62.511684  // $metal1_conn
15 *21:14 *34:s 62.300705  // $metal1_conn
16 *21:15 *21:6 0.636496  // $metal1_conn
17 *21:16 *23:s 62.354591  // $metal1_conn
18 *21:18 *21:22 0.331983  // $metal1_conn
19 *21:22 *43:s 62.055641  // $metal1_conn
20 *21:22 *21:4 0.490673  // $metal1_conn
21 *21:4 *21:2 0.354926  // $metal1_conn
22 *21:12 *21:13 6.25  // $metal1_conn
23 *21:12 *21:17 6.25  // $metal1_conn

*END

*D_NET *1 0

*CONN
*P *1 I *C 0.1000 0.0000 
*I *2:s B *C 3.1250 0.4775 
*I *3:s B *C 3.1250 0.4775 
*I *7:s B *C 4.1800 0.3925 
*I *9:s B *C 4.1800 0.3925 
*I *13:s B *C 0.7600 0.3175 
*I *14:s B *C 0.7600 0.3175 
*I *6:s B *C 1.8500 0.4525 
*I *8:s B *C 1.8500 0.4525 
*I *38:g B *C 3.3125 1.0075 
*I *41:g B *C 4.3525 1.1275 
*I *42:g B *C 0.5525 1.0875 
*I *22:g B *C 1.1825 1.0875 
*I *25:g B *C 2.1225 1.1775 
*N *1:2 *C 0.5150 0.8150 
*N *1:4 *C 1.2100 0.7600 
*N *1:5 *C 2.3150 0.9450 
*N *1:8 *C 3.3500 0.7800 
*N *1:9 *C 4.4650 0.9200 
*N *1:11 *C 4.1200 0.0000 
*N *1:12 *C 3.6000 0.0000 
*N *1:13 *C 3.6000 0.0000 
*N *1:14 *C 3.4250 0.0000 
*N *1:15 *C 3.0450 0.0000 
*N *1:16 *C 2.2850 0.0000 
*N *1:17 *C 1.8500 0.0000 
*N *1:18 *C 1.2000 0.0000 
*N *1:19 *C 0.7600 0.0000 
*N *1:20 *C 0.3250 0.0000 


*RES
0 *42:g *1:2 77.821884  // $poly_conn
1 *22:g *1:4 92.897079  // $poly_conn
2 *1:5 *25:g 104.931778  // $poly_conn
3 *38:g *1:8 66.283424  // $poly_conn
4 *1:9 *41:g 71.487389  // $poly_conn
5 *1:9 *1:11 0.993276  // $metal1_conn
6 *1:11 *1:13 0.260749  // $metal1_conn
7 *1:13 *1:14 0.087622  // $metal1_conn
8 *1:14 *1:15 0.190298  // $metal1_conn
9 *1:15 *1:16 0.380989  // $metal1_conn
10 *1:16 *1:17 0.217898  // $metal1_conn
11 *1:17 *1:18 0.325986  // $metal1_conn
12 *1:18 *1:19 0.220604  // $metal1_conn
13 *1:19 *1:20 0.217898  // $metal1_conn
14 *1:20 *1 0.112462  // $metal1_conn
15 *1:11 *7:s 75.276634  // $metal1_conn
16 *1:14 *1:8 0.629967  // $metal1_conn
17 *1:15 *2:s 75.30233  // $metal1_conn
18 *1:16 *1:5 0.701371  // $metal1_conn
19 *1:17 *6:s 75.30864  // $metal1_conn
20 *1:18 *1:4 0.591374  // $metal1_conn
21 *1:19 *13:s 75.185783  // $metal1_conn
22 *1:20 *1:2 0.714324  // $metal1_conn
23 *1:12 *1:13 5.166667  // $metal1_conn
24 *1:12 *1:18 5.166667  // $metal1_conn

*END

*D_NET *47 2.34495e-16

*CONN
*P *47 I *C 1.7000 0.8550 
*I *6:g B *C 1.7475 0.4525 
*I *23:g B *C 1.7475 1.1775 
*N *47:2 *C 1.7850 0.9700 

*CAP
0 *23:g 2.797e-17
1 *6:g 3.92925e-17
2 *47:2 1.13746e-16
3 *47 5.34863e-17

*RES
0 *23:g *47:2 16.15522  // $poly_conn
1 *47:2 *6:g 104.61676  // $poly_conn
2 *47 *47:2 45.01939  // $metal1_conn

*END

*D_NET *18 1.58538e-16

*CONN
*P *18 O *C 2.7000 0.8550 
*I *2:d B *C 2.7450 0.5300 
*I *34:d B *C 2.8700 1.0950 

*CAP
0 *34:d 6.34987e-17
1 *2:d 5.518e-17
2 *18 3.98593e-17

*RES
0 *34:d *18 20.926304  // $metal1_conn
1 *18 *2:d 75.185722  // $metal1_conn

*END

*D_NET *46 1.41579e-18

*CONN
*I *9:d B *C 4.3675 0.3925 
*I *11:s B *C 4.3675 0.3925 

*CAP
0 *9:d 1.41579e-18

*RES
0 *11:s *9:d 0.001  // $mwires

*END

*D_NET *45 4.18378e-18

*CONN
*I *3:d B *C 3.3400 0.4775 
*I *5:s B *C 3.3400 0.4775 

*CAP
0 *3:d 4.18378e-18

*RES
0 *5:s *3:d 0.001  // $mwires

*END

*D_NET *37 1.53359e-18

*CONN
*I *8:d B *C 2.0675 0.4525 
*I *10:s B *C 2.0675 0.4525 

*CAP
0 *8:d 1.53359e-18

*RES
0 *10:s *8:d 0.001  // $mwires

*END

*D_NET *35 0

*CONN
*I *14:d B *C 0.9600 0.3175 
*I *4:s B *C 0.9600 0.3175 


*RES
0 *4:s *14:d 0.001  // $mwires

*END

*D_NET *33 0

*CONN
*I *12:s B *C 0.6050 0.3175 
*I *13:d B *C 0.6050 0.3175 


*RES
0 *13:d *12:s 0.001  // $mwires

*END

*D_NET *32 1.92136e-18

*CONN
*I *40:d B *C 4.3000 1.1275 
*I *41:s B *C 4.3000 1.1275 

*CAP
0 *40:d 1.92136e-18

*RES
0 *41:s *40:d 0.001  // $mwires

*END

*D_NET *31 1.00262e-18

*CONN
*I *36:d B *C 3.2550 1.0075 
*I *38:s B *C 3.2550 1.0075 

*CAP
0 *36:d 1.00262e-18

*RES
0 *38:s *36:d 0.001  // $mwires

*END

*D_NET *30 2.28512e-18

*CONN
*I *24:d B *C 2.0375 1.1775 
*I *25:s B *C 2.0375 1.1775 

*CAP
0 *24:d 2.28512e-18

*RES
0 *25:s *24:d 0.001  // $mwires

*END

*D_NET *29 3.22047e-18

*CONN
*I *44:d B *C 1.0225 1.0875 
*I *22:s B *C 1.0225 1.0875 

*CAP
0 *44:d 3.22047e-18

*RES
0 *22:s *44:d 0.001  // $mwires

*END

*D_NET *28 1.53039e-18

*CONN
*I *42:s B *C 0.6050 1.0875 
*I *43:d B *C 0.6050 1.0875 

*CAP
0 *42:s 1.53039e-18

*RES
0 *43:d *42:s 0.001  // $mwires

*END

*D_NET *27 5.32886e-16

*CONN
*I *3:g B *C 3.1975 0.4775 
*I *10:d B *C 2.3550 0.4525 
*I *36:g B *C 3.1975 1.0075 
*I *25:d B *C 2.2150 1.1775 
*N *27:3 *C 3.2350 0.3050 
*N *27:5 *C 2.4450 0.4400 

*CAP
0 *25:d 8.28011e-17
1 *36:g 9.64003e-17
2 *10:d 1.89014e-16
3 *3:g 2.64265e-17
4 *27:3 1.38244e-16

*RES
0 *36:g *3:g 89.743584  // $poly_conn
1 *3:g *27:3 61.15522  // $poly_conn
2 *27:3 *27:5 0.930495  // $metal1_conn
3 *27:5 *25:d 62.734341  // $metal1_conn
4 *10:d *27:5 75  // $metal1_conn

*END

*D_NET *26 5.6212e-16

*CONN
*I *13:g B *C 0.6575 0.3175 
*I *6:d B *C 1.5975 0.4525 
*I *43:g B *C 0.6575 1.0875 
*I *23:d B *C 1.6550 1.1775 
*N *26:1 *C 1.0050 1.3700 
*N *26:6 *C 1.6450 1.2250 

*CAP
0 *23:d 1.22023e-16
1 *43:g 1.34338e-16
2 *6:d 1.1747e-16
3 *13:g 9.7564e-17
4 *26:1 9.07257e-17

*RES
0 *26:1 *43:g 171.59845  // $poly_conn
1 *43:g *13:g 151.282059  // $poly_conn
2 *6:d *26:6 75.603477  // $metal1_conn
3 *26:6 *26:1 0.542332  // $metal1_conn
4 *23:d *26:6 62  // $metal1_conn

*END

*D_NET *20 6.87991e-16

*CONN
*I *5:d B *C 3.5750 0.4775 
*I *9:g B *C 4.2825 0.3925 
*I *38:d B *C 3.4050 1.0075 
*I *40:g B *C 4.2475 1.1275 
*N *20:3 *C 4.3100 0.1900 
*N *20:5 *C 3.5850 0.4650 

*CAP
0 *40:g 1.09575e-16
1 *38:d 8.42525e-17
2 *9:g 7.00387e-17
3 *5:d 2.17054e-16
4 *20:3 2.07071e-16

*RES
0 *40:g *9:g 146.249054  // $poly_conn
1 *9:g *20:3 68.847527  // $poly_conn
2 *20:3 *20:5 1.321786  // $metal1_conn
3 *20:5 *38:d 62.500885  // $metal1_conn
4 *5:d *20:5 75  // $metal1_conn

*END

*D_NET *19 5.58216e-16

*CONN
*I *4:d B *C 1.2350 0.3175 
*I *8:g B *C 1.9525 0.4525 
*I *22:d B *C 1.3175 1.0875 
*I *24:g B *C 1.9525 1.1775 
*N *19:1 *C 2.0400 0.2800 
*N *19:6 *C 1.3300 0.3050 

*CAP
0 *24:g 7.71685e-17
1 *22:d 8.65422e-17
2 *8:g 4.75371e-17
3 *4:d 1.88695e-16
4 *19:1 1.58273e-16

*RES
0 *19:1 *8:g 69.181  // $poly_conn
1 *8:g *24:g 139.743591  // $poly_conn
2 *22:d *19:6 62.577347  // $metal1_conn
3 *19:6 *19:1 0.984433  // $metal1_conn
4 *4:d *19:6 75  // $metal1_conn

*END

*D_NET *17 4.45105e-16

*CONN
*I *2:g B *C 2.9075 0.5300 
*I *7:d B *C 3.8975 0.3925 
*I *34:g B *C 2.9625 1.0950 
*I *39:d B *C 3.8375 1.1275 
*N *17:1 *C 3.0500 0.8000 
*N *17:2 *C 2.9625 0.8150 
*N *17:6 *C 3.7150 1.1600 

*CAP
0 *39:d 1.30925e-16
1 *34:g 4.19771e-17
2 *7:d 1.16078e-16
3 *2:g 3.48963e-17
4 *17:2 9.72583e-18
5 *17:1 1.11503e-16

*RES
0 *17:1 *17:2 53.582073  // $poly_conn
1 *17:2 *2:g 43.890556  // $poly_conn
2 *17:2 *34:g 14.929076  // $poly_conn
3 *17:1 *17:6 0.682789  // $metal1_conn
4 *17:6 *7:d 75.606522  // $metal1_conn
5 *39:d *17:6 62  // $metal1_conn

*END

*D_NET *16 3.84098e-16

*CONN
*I *12:d B *C 0.3175 0.3175 
*I *14:g B *C 0.8625 0.3175 
*I *42:d B *C 0.4600 1.0875 
*I *44:g B *C 0.8625 1.0875 
*N *16:2 *C 0.8625 0.8800 
*N *16:3 *C 0.8000 0.8800 
*N *16:5 *C 0.4500 0.9750 

*CAP
0 *44:g 3.85113e-17
1 *42:d 8.13701e-18
2 *14:g 5.9898e-17
3 *12:d 8.35402e-17
4 *16:5 7.76631e-17
5 *16:2 4.19061e-17
6 *16:3 7.44421e-17

*RES
0 *44:g *16:2 22.886339  // $poly_conn
1 *16:2 *16:3 46.294373  // $poly_conn
2 *16:2 *14:g 122.886337  // $poly_conn
3 *16:3 *16:5 0.315101  // $metal1_conn
4 *16:5 *12:d 75.679955  // $metal1_conn
5 *16:5 *42:d 62.029591  // $metal1_conn

*END

*D_NET *15 3.92554e-16

*CONN
*I *7:g B *C 4.0775 0.3925 
*I *11:d B *C 4.5975 0.3925 
*I *39:g B *C 4.0425 1.1275 
*I *41:d B *C 4.4450 1.1275 
*N *15:2 *C 4.0950 0.8950 
*N *15:6 *C 4.4550 1.1100 

*CAP
0 *41:d 9.26449e-17
1 *39:g 2.60852e-17
2 *11:d 1.02563e-16
3 *7:g 4.58629e-17
4 *15:2 1.25398e-16

*RES
0 *7:g *15:2 101.449295  // $poly_conn
1 *15:2 *39:g 34.174942  // $poly_conn
2 *11:d *15:6 75.752312  // $metal1_conn
3 *15:6 *15:2 45.399372  // $metal1_conn
4 *41:d *15:6 62  // $metal1_conn

*END

