*SPEF "IEEE 1481-1999"
*DESIGN  "DLY4X4"
*DATE "Mon Sep 27 09:44:44 2010"
*VENDOR "Cadence Design Systems"
*PROGRAM "Assura RCX"
*VERSION "3.2 Red Hat Linux release 7.2 (Enigma) - (09/09/2009-10:39)"
*DESIGN_FLOW "Physical Verification"
*DIVIDER /
*DELIMITER :
*BUS_DELIMITER []
*T_UNIT 1 PS
*C_UNIT 1e15 FF
*R_UNIT 1 OHM
*L_UNIT 1 MH
// DeviceFingerDelim "@"
// MATCHED
// caps2d version: 10

*NAME_MAP
*1 VDD
*2 mn0
*3 mn15
*4 net361
*5 mn16
*6 net369
*7 mp8
*8 mn16\@1
*9 net385
*10 mp7
*11 mn16\@2
*12 net397
*13 mp9
*14 mn16\@3
*15 net333
*16 mp10
*17 mn13
*18 mp6
*19 mn14
*20 mp5
*21 mn11
*22 mn9
*23 mp3
*24 mn12
*25 mn7
*26 mp4
*27 mn8
*28 mp2
*29 mn6
*30 mn5
*31 mn3
*32 mn4
*33 mn2
*34 mn1
*35 mn10
*36 mp1
*37 A
*38 mp0
*39 mp15
*40 mp16
*41 mp16\@1
*42 mp16\@2
*43 mp16\@3
*44 mp13
*45 mp14
*46 mp11
*47 net393
*48 net377
*49 net353
*50 net345
*51 net276
*52 net284
*53 net300
*54 mp12
*55 net292
*56 net308
*57 VSS
*58 net316
*59 Y
*60 net324
*61 net341
*62 net349
*63 net357
*64 net365
*65 net373
*66 net381
*67 net389

*GROUND_NETS VSS

*PORTS
*1 I
*57 I
*37 I
*59 O

*D_NET *1 1.43234e-15

*CONN
*P *1 I *C 0.1000 1.7100 
*I *27:g B *C 3.9075 0.4475 
*I *29:g B *C 4.5025 0.4725 
*I *32:g B *C 5.1275 0.4725 
*I *33:g B *C 5.5325 0.4525 
*I *19:g B *C 1.6325 0.4225 
*I *24:g B *C 2.3875 0.4475 
*I *35:g B *C 2.8425 0.4475 
*I *10:s B *C 3.5975 1.1825 
*I *13:s B *C 3.5975 1.1825 
*I *20:s B *C 4.8000 1.0225 
*I *23:s B *C 4.8000 1.0225 
*I *36:s B *C 5.9500 1.0425 
*I *38:s B *C 5.9500 1.0425 
*I *39:s B *C 0.4550 1.0950 
*I *40:s B *C 0.4550 1.0950 
*I *41:s B *C 0.9500 1.0950 
*I *42:s B *C 0.9500 1.0950 
*I *43:s B *C 1.4225 1.0075 
*I *44:s B *C 1.4225 1.0075 
*I *46:s B *C 2.0200 1.3025 
*N *1:2 *C 1.9250 0.6200 
*N *1:4 *C 2.6925 0.7275 
*N *1:5 *C 2.3875 0.7275 
*N *1:6 *C 2.2100 0.7550 
*N *1:7 *C 2.7200 1.1100 
*N *1:11 *C 4.5300 0.6550 
*N *1:13 *C 5.1350 0.6225 
*N *1:14 *C 5.0700 0.6600 
*N *1:17 *C 5.2000 1.7100 
*N *1:18 *C 5.2000 1.7100 
*N *1:19 *C 4.7650 1.7100 
*N *1:20 *C 4.5400 1.7100 
*N *1:21 *C 3.5100 1.7100 
*N *1:22 *C 3.2000 1.7100 
*N *1:23 *C 2.7200 1.7100 
*N *1:24 *C 1.9050 1.7100 

*CAP
0 *46:s 2.18871e-17
1 *43:s 1.15782e-16
2 *36:s 2.74117e-17
3 *20:s 2.40886e-17
4 *10:s 1.7035e-17
5 *35:g 2.8652e-17
6 *24:g 5.40592e-17
7 *19:g 4.77654e-17
8 *33:g 4.89727e-17
9 *32:g 3.17193e-17
10 *29:g 4.6021e-17
11 *27:g 3.89304e-17
12 *1:24 2.32003e-17
13 *1:23 1.6109e-17
14 *1:21 1.8831e-17
15 *1:20 1.97661e-17
16 *1:19 5.27557e-18
17 *1:5 2.04907e-17
18 *1:4 2.80924e-17
19 *1:17 2.8107e-16
20 *1:2 9.4868e-17
21 *1:6 8.36759e-17
22 *1:7 6.54744e-17
23 *1:11 1.44097e-16
24 *1:14 1.23204e-16
25 *1 5.86334e-18

*RES
0 *33:g *1:13 120.287796  // $poly_conn
1 *1:13 *32:g 17.388056  // $poly_conn
2 *27:g *29:g 197.146317  // $poly_conn
3 *29:g *1:11 64.691956  // $poly_conn
4 *35:g *1:4 84.600647  // $poly_conn
5 *1:5 *24:g 48.505615  // $poly_conn
6 *19:g *1:2 130.572815  // $poly_conn
7 *1:13 *1:14 54.839874  // $poly_conn
8 *1:4 *1:7 129.864227  // $poly_conn
9 *1:5 *1:6 80.847641  // $poly_conn
10 *1:4 *1:5 75.901115  // $poly_conn
11 *43:s *1 0.119849  // $metal1_conn
12 *1:11 *1:14 0.373837  // $metal1_conn
13 *1:20 *1:11 0.748574  // $metal1_conn
14 *1:23 *1:7 0.389931  // $metal1_conn
15 *1:6 *1:2 0.237107  // $metal1_conn
16 *1:17 *1:18 7.5  // $metal1_conn
17 *1:17 *1:22 7.5  // $metal1_conn
18 *1:17 *43:s 6.818182  // $metal1_conn
19 *36:s *1:18 62.441761  // $metal1_conn
20 *1:19 *20:s 62.442345  // $metal1_conn
21 *1:21 *10:s 62.09716  // $metal1_conn
22 *1:24 *46:s 62.166992  // $metal1_conn
23 *1:18 *1:19 0.21784  // $metal1_conn
24 *1:19 *1:20 0.112385  // $metal1_conn
25 *1:20 *1:21 0.515877  // $metal1_conn
26 *1:21 *1:22 0.155186  // $metal1_conn
27 *1:22 *1:23 0.240395  // $metal1_conn
28 *1:23 *1:24 0.408112  // $metal1_conn
29 *1:24 *43:s 0.28531  // $metal1_conn

*END

*D_NET *57 0

*CONN
*P *57 I *C 0.1000 0.0000 
*I *22:s B *C 3.5925 0.4475 
*I *25:s B *C 3.5925 0.4475 
*I *30:s B *C 4.8850 0.4725 
*I *31:s B *C 4.8850 0.4725 
*I *34:s B *C 5.8550 0.4525 
*I *2:s B *C 5.8550 0.4525 
*I *3:s B *C 0.4850 0.4800 
*I *5:s B *C 0.4850 0.4800 
*I *8:s B *C 0.8950 0.4800 
*I *11:s B *C 0.8950 0.4800 
*I *14:s B *C 1.3875 0.4225 
*I *17:s B *C 1.3875 0.4225 
*I *21:s B *C 2.1900 0.4475 
*I *7:g B *C 3.2425 1.1825 
*I *16:g B *C 3.7825 1.1825 
*I *18:g B *C 4.4625 1.0225 
*I *26:g B *C 5.0425 1.0225 
*I *28:g B *C 5.6275 1.0425 
*I *45:g B *C 1.6675 1.0075 
*I *54:g B *C 2.1725 1.3025 
*N *57:2 *C 1.6050 0.7350 
*N *57:4 *C 2.2100 0.9850 
*N *57:6 *C 2.9300 0.9200 
*N *57:8 *C 3.8200 0.7500 
*N *57:10 *C 4.3600 0.7700 
*N *57:12 *C 5.5900 0.7900 
*N *57:15 *C 5.5900 0.0000 
*N *57:16 *C 5.2000 0.0000 
*N *57:17 *C 5.2000 0.0000 
*N *57:18 *C 4.7950 0.0000 
*N *57:19 *C 4.3650 0.0000 
*N *57:20 *C 3.8500 0.0000 
*N *57:21 *C 3.4600 0.0000 
*N *57:22 *C 3.2000 0.0000 
*N *57:23 *C 2.9000 0.0000 
*N *57:24 *C 2.3400 0.0000 
*N *57:25 *C 2.1800 0.0000 
*N *57:26 *C 1.5450 0.0000 


*RES
0 *28:g *57:12 27.69368  // $poly_conn
1 *57:12 *26:g 147.795517  // $poly_conn
2 *18:g *57:10 86.983063  // $poly_conn
3 *16:g *57:8 118.847527  // $poly_conn
4 *7:g *57:6 143.393311  // $poly_conn
5 *54:g *57:4 89.360352  // $poly_conn
6 *45:g *57:2 84.919266  // $poly_conn
7 *14:s *57 0.192528  // $metal1_conn
8 *57:15 *57:12 45.55051  // $metal1_conn
9 *57:19 *57:10 0.547018  // $metal1_conn
10 *57:20 *57:8 0.537621  // $metal1_conn
11 *57:23 *57:6 0.60776  // $metal1_conn
12 *57:24 *57:4 0.805365  // $metal1_conn
13 *57:26 *57:2 0.503132  // $metal1_conn
14 *57:16 *57:17 6.2  // $metal1_conn
15 *57:16 *57:22 6.2  // $metal1_conn
16 *57:16 *14:s 5.636364  // $metal1_conn
17 *34:s *57:15 75.431488  // $metal1_conn
18 *57:18 *30:s 75.07431  // $metal1_conn
19 *57:21 *22:s 75.286018  // $metal1_conn
20 *57:25 *21:s 75.298012  // $metal1_conn
21 *57:15 *57:17 0.195284  // $metal1_conn
22 *57:17 *57:18 0.202803  // $metal1_conn
23 *57:18 *57:19 0.215351  // $metal1_conn
24 *57:19 *57:20 0.257854  // $metal1_conn
25 *57:20 *57:21 0.195088  // $metal1_conn
26 *57:21 *57:22 0.130124  // $metal1_conn
27 *57:22 *57:23 0.150174  // $metal1_conn
28 *57:23 *57:24 0.280298  // $metal1_conn
29 *57:24 *57:25 0.079805  // $metal1_conn
30 *57:25 *57:26 0.31789  // $metal1_conn
31 *57:26 *14:s 0.119904  // $metal1_conn

*END

*D_NET *37 1.91118e-16

*CONN
*P *37 I *C 5.9000 1.0450 
*I *2:g B *C 5.9575 0.4525 
*I *38:g B *C 5.9975 1.0425 
*N *37:2 *C 5.9400 0.8250 

*CAP
0 *38:g 2.31334e-17
1 *2:g 3.66488e-17
2 *37:2 8.14251e-17
3 *37 4.99105e-17

*RES
0 *38:g *37:2 22.663601  // $poly_conn
1 *37:2 *2:g 65.072327  // $poly_conn
2 *37:2 *37 45.128597  // $metal1_conn

*END

*D_NET *59 1.64316e-16

*CONN
*P *59 O *C 0.7000 0.6650 
*I *5:d B *C 0.6900 0.4800 
*I *8:d B *C 0.6900 0.4800 
*I *11:d B *C 1.1000 0.4800 
*I *14:d B *C 1.1000 0.4800 
*I *40:d B *C 0.6175 1.0950 
*I *41:d B *C 0.6175 1.0950 
*I *42:d B *C 1.1000 1.0950 
*I *43:d B *C 1.1000 1.0950 

*CAP
0 *59 1.64316e-16


*END

*D_NET *67 1.61555e-18

*CONN
*I *33:s B *C 5.6425 0.4525 
*I *34:d B *C 5.6425 0.4525 

*CAP
0 *33:s 1.61555e-18

*RES
0 *34:d *33:s 0.001  // $mwires

*END

*D_NET *66 0

*CONN
*I *31:d B *C 5.0325 0.4725 
*I *32:s B *C 5.0325 0.4725 


*RES
0 *32:s *31:d 0.001  // $mwires

*END

*D_NET *65 0

*CONN
*I *29:s B *C 4.5825 0.4725 
*I *30:d B *C 4.5825 0.4725 


*RES
0 *30:d *29:s 0.001  // $mwires

*END

*D_NET *64 1.51928e-18

*CONN
*I *25:d B *C 3.7975 0.4475 
*I *27:s B *C 3.7975 0.4475 

*CAP
0 *25:d 1.51928e-18

*RES
0 *27:s *25:d 0.001  // $mwires

*END

*D_NET *63 2.10811e-18

*CONN
*I *22:d B *C 3.0375 0.4475 
*I *35:s B *C 3.0375 0.4475 

*CAP
0 *22:d 2.10811e-18

*RES
0 *35:s *22:d 0.001  // $mwires

*END

*D_NET *62 7.21012e-19

*CONN
*I *21:d B *C 2.3350 0.4475 
*I *24:s B *C 2.3350 0.4475 

*CAP
0 *21:d 7.21012e-19

*RES
0 *24:s *21:d 0.001  // $mwires

*END

*D_NET *61 1.40262e-18

*CONN
*I *17:d B *C 1.5525 0.4225 
*I *19:s B *C 1.5525 0.4225 

*CAP
0 *17:d 1.40262e-18

*RES
0 *19:s *17:d 0.001  // $mwires

*END

*D_NET *60 0

*CONN
*I *28:s B *C 5.6800 1.0425 
*I *36:d B *C 5.6800 1.0425 


*RES
0 *36:d *28:s 0.001  // $mwires

*END

*D_NET *58 0

*CONN
*I *23:d B *C 4.9900 1.0225 
*I *26:s B *C 4.9900 1.0225 


*RES
0 *26:s *23:d 0.001  // $mwires

*END

*D_NET *56 2.81714e-18

*CONN
*I *18:s B *C 4.5625 1.0225 
*I *20:d B *C 4.5625 1.0225 

*CAP
0 *18:s 2.81714e-18

*RES
0 *20:d *18:s 0.001  // $mwires

*END

*D_NET *55 2.32516e-18

*CONN
*I *13:d B *C 3.7300 1.1825 
*I *16:s B *C 3.7300 1.1825 

*CAP
0 *13:d 2.32516e-18

*RES
0 *16:s *13:d 0.001  // $mwires

*END

*D_NET *53 2.11386e-18

*CONN
*I *7:s B *C 3.2950 1.1825 
*I *10:d B *C 3.2950 1.1825 

*CAP
0 *7:s 2.11386e-18

*RES
0 *10:d *7:s 0.001  // $mwires

*END

*D_NET *52 1.38779e-18

*CONN
*I *46:d B *C 2.1200 1.3025 
*I *54:s B *C 2.1200 1.3025 

*CAP
0 *46:d 1.38779e-18

*RES
0 *54:s *46:d 0.001  // $mwires

*END

*D_NET *51 1.91875e-18

*CONN
*I *44:d B *C 1.5700 1.0075 
*I *45:s B *C 1.5700 1.0075 

*CAP
0 *44:d 1.91875e-18

*RES
0 *45:s *44:d 0.001  // $mwires

*END

*D_NET *50 5.01205e-16

*CONN
*I *3:g B *C 0.3825 0.4800 
*I *19:d B *C 1.7250 0.4225 
*I *39:g B *C 0.2375 1.0950 
*I *45:d B *C 1.7600 1.0075 
*N *50:2 *C 0.3700 0.7900 
*N *50:6 *C 1.7700 0.9650 

*CAP
0 *45:d 1.69623e-16
1 *39:g 3.98521e-17
2 *19:d 6.74958e-17
3 *3:g 3.38515e-17
4 *50:2 1.90382e-16

*RES
0 *3:g *50:2 34.303097  // $poly_conn
1 *50:2 *39:g 43.574535  // $poly_conn
2 *19:d *50:6 75.366997  // $metal1_conn
3 *50:6 *50:2 46.289753  // $metal1_conn
4 *45:d *50:6 62  // $metal1_conn

*END

*D_NET *49 4.50212e-16

*CONN
*I *17:g B *C 1.4725 0.4225 
*I *24:d B *C 2.5000 0.4475 
*I *44:g B *C 1.4725 1.0075 
*I *54:d B *C 2.2650 1.3025 
*N *49:1 *C 1.5250 1.2150 
*N *49:6 *C 2.2750 1.2550 

*CAP
0 *54:d 1.44769e-16
1 *44:g 4.81222e-17
2 *24:d 1.14182e-16
3 *17:g 5.69664e-17
4 *49:1 8.6173e-17

*RES
0 *49:1 *44:g 65.232071  // $poly_conn
1 *44:g *17:g 103.846146  // $poly_conn
2 *24:d *49:6 75.756645  // $metal1_conn
3 *49:6 *49:1 0.527715  // $metal1_conn
4 *54:d *49:6 62  // $metal1_conn

*END

*D_NET *48 6.91617e-16

*CONN
*I *25:g B *C 3.6875 0.4475 
*I *29:d B *C 4.3150 0.4725 
*I *10:g B *C 3.3475 1.1825 
*I *18:d B *C 4.3650 1.0225 
*N *48:1 *C 3.4600 0.9750 
*N *48:4 *C 3.6500 0.1900 
*N *48:6 *C 4.2050 1.0700 

*CAP
0 *18:d 2.58814e-17
1 *10:g 6.63773e-17
2 *29:d 9.95125e-17
3 *25:g 3.44364e-17
4 *48:6 9.78942e-17
5 *48:1 2.30502e-16
6 *48:4 1.37013e-16

*RES
0 *48:1 *10:g 73.08725  // $poly_conn
1 *25:g *48:4 82.950089  // $poly_conn
2 *18:d *48:6 62.09827  // $metal1_conn
3 *48:6 *48:1 0.644369  // $metal1_conn
4 *48:6 *29:d 75.446808  // $metal1_conn
5 *48:1 *48:4 0.610652  // $metal1_conn

*END

*D_NET *47 3.84578e-16

*CONN
*I *31:g B *C 4.9375 0.4725 
*I *33:d B *C 5.4400 0.4525 
*I *23:g B *C 4.9375 1.0225 
*I *28:d B *C 5.5350 1.0425 
*N *47:3 *C 4.9850 0.2950 
*N *47:5 *C 5.4300 0.4650 

*CAP
0 *28:d 6.68491e-17
1 *23:g 7.50171e-17
2 *33:d 1.03983e-16
3 *31:g 5.11717e-17
4 *47:3 8.75566e-17

*RES
0 *23:g *31:g 94.871796  // $poly_conn
1 *31:g *47:3 62.437271  // $poly_conn
2 *47:3 *47:5 0.420674  // $metal1_conn
3 *47:5 *28:d 62.427349  // $metal1_conn
4 *33:d *47:5 75  // $metal1_conn

*END

*D_NET *15 3.95316e-16

*CONN
*I *3:d B *C 0.2900 0.4800 
*I *5:g B *C 0.5875 0.4800 
*I *8:g B *C 0.7925 0.4800 
*I *11:g B *C 0.9975 0.4800 
*I *14:g B *C 1.2025 0.4800 
*I *39:d B *C 0.1450 1.0950 
*I *40:g B *C 0.5025 1.0950 
*I *41:g B *C 0.7325 1.0950 
*I *42:g B *C 0.9975 1.0950 
*I *43:g B *C 1.2025 1.0950 
*N *15:16 *C 0.2800 0.5500 

*CAP
0 *43:g 2.97947e-16
1 *39:d 4.01855e-17
2 *3:d 5.71835e-17

*RES
0 *43:g *15:16 45.272076  // $metal1_conn
1 *15:16 *39:d 21.103882  // $metal1_conn
2 *3:d *15:16 75  // $metal1_conn

*END

*D_NET *12 2.82389e-16

*CONN
*I *34:g B *C 5.7525 0.4525 
*I *2:d B *C 6.0500 0.4525 
*I *36:g B *C 5.7325 1.0425 
*I *38:d B *C 6.0900 1.0425 
*N *12:2 *C 5.7800 0.6350 
*N *12:5 *C 6.0600 0.6350 

*CAP
0 *38:d 3.89052e-17
1 *36:g 7.16978e-17
2 *2:d 1.89886e-17
3 *34:g 2.55865e-17
4 *12:5 3.89793e-17
5 *12:2 8.82318e-17

*RES
0 *34:g *12:2 19.691952  // $poly_conn
1 *12:2 *36:g 66.091164  // $poly_conn
2 *38:d *12:5 62.311462  // $metal1_conn
3 *12:5 *12:2 45.207134  // $metal1_conn
4 *12:5 *2:d 75.095467  // $metal1_conn

*END

*D_NET *9 3.13534e-16

*CONN
*I *30:g B *C 4.6625 0.4725 
*I *32:d B *C 5.2200 0.4725 
*I *20:g B *C 4.6625 1.0225 
*I *26:d B *C 5.1350 1.0225 
*N *9:2 *C 4.7000 0.8150 
*N *9:5 *C 5.1450 0.8500 

*CAP
0 *26:d 1.73663e-17
1 *20:g 2.84843e-17
2 *32:d 4.91999e-17
3 *30:g 5.61006e-17
4 *9:5 6.4567e-17
5 *9:2 9.7816e-17

*RES
0 *20:g *9:2 16.15522  // $poly_conn
1 *9:2 *30:g 59.744961  // $poly_conn
2 *32:d *9:5 75.343285  // $metal1_conn
3 *9:5 *9:2 45.331234  // $metal1_conn
4 *9:5 *26:d 62.067326  // $metal1_conn

*END

*D_NET *6 5.25822e-16

*CONN
*I *22:g B *C 3.2325 0.4475 
*I *27:d B *C 4.0000 0.4475 
*I *7:d B *C 3.1500 1.1825 
*I *13:g B *C 3.6775 1.1825 
*N *6:2 *C 3.6500 0.9100 
*N *6:3 *C 3.2325 0.8150 
*N *6:4 *C 3.1400 0.8150 

*CAP
0 *13:g 6.27486e-17
1 *7:d 4.20663e-17
2 *27:d 9.50558e-17
3 *22:g 2.36562e-17
4 *6:3 4.04238e-17
5 *6:4 9.50068e-17
6 *6:2 1.66864e-16

*RES
0 *13:g *6:2 33.794518  // $poly_conn
1 *6:2 *6:3 103.492683  // $poly_conn
2 *6:3 *6:4 52.028393  // $poly_conn
3 *6:3 *22:g 65.826767  // $poly_conn
4 *7:d *6:4 62.191662  // $metal1_conn
5 *27:d *6:2 120.631462  // $metal1_conn

*END

*D_NET *4 7.61013e-16

*CONN
*I *21:g B *C 2.2825 0.4475 
*I *35:d B *C 2.7500 0.4475 
*I *16:d B *C 3.8750 1.1825 
*I *46:g B *C 2.0675 1.3025 
*N *4:3 *C 2.5750 0.2000 
*N *4:4 *C 3.0900 0.2000 

*CAP
0 *46:g 1.04879e-16
1 *16:d 1.76515e-16
2 *35:d 4.84275e-17
3 *21:g 1.1687e-16
4 *4:3 9.13059e-17
5 *4:4 2.23015e-16

*RES
0 *46:g *21:g 216.377106  // $poly_conn
1 *21:g *4:3 112.495888  // $poly_conn
2 *4:3 *4:4 160.024933  // $poly_conn
3 *35:d *4:3 120.21315  // $metal1_conn
4 *16:d *4:4 63.310905  // $metal1_conn

*END

