*SPEF "IEEE 1481-1999"
*DESIGN  "DLY4X1"
*DATE "Mon Sep 27 09:44:21 2010"
*VENDOR "Cadence Design Systems"
*PROGRAM "Assura RCX"
*VERSION "3.2 Red Hat Linux release 7.2 (Enigma) - (09/09/2009-10:39)"
*DESIGN_FLOW "Physical Verification"
*DIVIDER /
*DELIMITER :
*BUS_DELIMITER []
*T_UNIT 1 PS
*C_UNIT 1e15 FF
*R_UNIT 1 OHM
*L_UNIT 1 MH
// DeviceFingerDelim "@"
// MATCHED
// caps2d version: 10

*NAME_MAP
*1 mn11
*2 mn12
*3 mn10
*4 mn9
*5 mp7
*6 mp16
*7 mp15
*8 mp13
*9 mp14
*10 mp11
*11 mp12
*12 mp8
*13 net393
*14 mp9
*15 net397
*16 mp10
*17 net377
*18 mp6
*19 net353
*20 mp5
*21 net276
*22 mp3
*23 net284
*24 mp4
*25 net300
*26 mp2
*27 net292
*28 mp1
*29 net308
*30 mp0
*31 net316
*32 net324
*33 net341
*34 net349
*35 net357
*36 net365
*37 net373
*38 net381
*39 net389
*40 VSS
*41 A
*42 mn7
*43 mn8
*44 mn6
*45 mn5
*46 mn3
*47 VDD
*48 mn4
*49 net361
*50 mn2
*51 net369
*52 mn1
*53 net385
*54 mn0
*55 net345
*56 net333
*57 Y
*58 mn16
*59 mn15
*60 mn13
*61 mn14

*GROUND_NETS VSS

*PORTS
*47 I
*40 I
*41 I
*57 O

*D_NET *47 1.56116e-15

*CONN
*P *47 I *C 0.1000 1.7100 
*I *43:g B *C 3.5425 0.5375 
*I *44:g B *C 4.1775 0.5375 
*I *48:g B *C 4.7575 0.5375 
*I *50:g B *C 5.1725 0.3775 
*I *61:g B *C 1.3675 0.5675 
*I *2:g B *C 2.1025 0.5375 
*I *3:g B *C 2.5075 0.5375 
*I *14:s B *C 3.2325 1.2725 
*I *20:s B *C 4.5400 1.5700 
*I *22:s B *C 4.5400 1.5700 
*I *28:s B *C 5.4650 1.3025 
*I *30:s B *C 5.4650 1.3025 
*I *5:s B *C 3.2325 1.2725 
*I *6:s B *C 0.2700 1.0950 
*I *7:s B *C 1.1300 1.1125 
*I *8:s B *C 1.1300 1.1125 
*I *10:s B *C 1.8950 1.2625 
*N *47:2 *C 1.3300 0.7450 
*N *47:4 *C 2.4050 0.7350 
*N *47:8 *C 4.2150 0.7100 
*N *47:10 *C 4.7100 0.7250 
*N *47:13 *C 4.8000 1.7100 
*N *47:14 *C 4.8000 1.7100 
*N *47:15 *C 4.5150 1.7100 
*N *47:16 *C 4.2450 1.7100 
*N *47:17 *C 3.1150 1.7100 
*N *47:18 *C 2.9000 1.7100 
*N *47:19 *C 2.4350 1.7100 
*N *47:20 *C 1.8400 1.7100 
*N *47:21 *C 1.0000 1.7100 
*N *47:22 *C 0.2600 1.7100 
*N *47:27 *C 1.0350 1.5700 

*CAP
0 *10:s 3.38159e-17
1 *7:s 6.62335e-17
2 *6:s 5.15094e-17
3 *28:s 4.73421e-17
4 *20:s 4.25224e-18
5 *14:s 1.79685e-17
6 *3:g 2.54443e-17
7 *2:g 4.92329e-17
8 *61:g 3.99764e-17
9 *50:g 5.7959e-17
10 *48:g 3.18461e-17
11 *44:g 3.66033e-17
12 *43:g 3.37678e-17
13 *47:22 7.15873e-18
14 *47:20 2.38256e-17
15 *47:19 4.45657e-17
16 *47:17 2.37123e-17
17 *47:16 3.35903e-17
18 *47:15 3.7549e-18
19 *47:13 3.60451e-16
20 *47:2 1.8329e-16
21 *47:4 1.43971e-16
22 *47:8 1.23132e-16
23 *47:10 1.17759e-16

*RES
0 *61:g *47:2 62.437271  // $poly_conn
1 *3:g *47:4 36.854862  // $poly_conn
2 *47:4 *2:g 88.136909  // $poly_conn
3 *43:g *44:g 200.992493  // $poly_conn
4 *44:g *47:8 61.15522  // $poly_conn
5 *50:g *47:10 164.087372  // $poly_conn
6 *47:10 *48:g 21.316093  // $poly_conn
7 *28:s *47:14 62.590355  // $metal1_conn
8 *47:14 *47:15 0.142703  // $metal1_conn
9 *47:15 *47:16 0.134986  // $metal1_conn
10 *47:16 *47:17 0.56524  // $metal1_conn
11 *47:17 *47:18 0.106655  // $metal1_conn
12 *47:18 *47:19 0.232955  // $metal1_conn
13 *47:19 *47:20 0.29794  // $metal1_conn
14 *47:20 *47:21 0.421951  // $metal1_conn
15 *47:21 *47:22 0.37263  // $metal1_conn
16 *47:22 *47 0.079777  // $metal1_conn
17 *47:15 *20:s 62.074516  // $metal1_conn
18 *47:16 *47:8 0.666945  // $metal1_conn
19 *47:8 *47:10 45.354469  // $metal1_conn
20 *47:17 *14:s 62.045811  // $metal1_conn
21 *47:19 *47:4 45.691528  // $metal1_conn
22 *47:20 *10:s 62.194122  // $metal1_conn
23 *47:21 *47:27 0.033001  // $metal1_conn
24 *47:27 *47:2 0.907924  // $metal1_conn
25 *47:22 *6:s 21.072144  // $metal1_conn
26 *47:13 *47:14 7.5  // $metal1_conn
27 *47:13 *47:18 8.333333  // $metal1_conn
28 *47:13 *47:21 7.5  // $metal1_conn
29 *7:s *47:27 62  // $metal1_conn

*END

*D_NET *40 0

*CONN
*P *40 I *C 0.1000 0.0000 
*I *42:s B *C 3.1250 0.5375 
*I *45:s B *C 4.5300 0.5375 
*I *46:s B *C 4.5300 0.5375 
*I *52:s B *C 5.4650 0.3775 
*I *54:s B *C 5.4650 0.3775 
*I *58:s B *C 0.2125 0.5300 
*I *59:s B *C 1.0850 0.5675 
*I *60:s B *C 1.0850 0.5675 
*I *1:s B *C 1.8950 0.5375 
*I *4:s B *C 3.1250 0.5375 
*I *16:g B *C 3.4175 1.2725 
*I *18:g B *C 4.1575 1.1125 
*I *24:g B *C 4.6825 1.1125 
*I *26:g B *C 5.2575 1.3025 
*I *9:g B *C 1.3475 1.1125 
*I *11:g B *C 2.0475 1.2625 
*I *12:g B *C 2.8775 1.2725 
*N *40:1 *C 1.5200 0.8700 
*N *40:4 *C 2.0850 1.0550 
*N *40:6 *C 2.5950 1.0400 
*N *40:8 *C 3.4550 0.8400 
*N *40:10 *C 3.9950 0.8800 
*N *40:12 *C 5.2200 0.8800 
*N *40:15 *C 5.2250 0.0000 
*N *40:16 *C 4.8000 0.0000 
*N *40:17 *C 4.8000 0.0000 
*N *40:18 *C 4.4250 0.0000 
*N *40:19 *C 4.0250 0.0000 
*N *40:20 *C 3.4850 0.0000 
*N *40:21 *C 2.9900 0.0000 
*N *40:22 *C 2.9000 0.0000 
*N *40:23 *C 2.5950 0.0000 
*N *40:24 *C 2.0450 0.0000 
*N *40:25 *C 1.8100 0.0000 
*N *40:26 *C 1.5200 0.0000 
*N *40:27 *C 1.0850 0.0000 
*N *40:28 *C 1.0000 0.0000 
*N *40:29 *C 0.1450 0.0000 


*RES
0 *40:1 *9:g 98.830948  // $poly_conn
1 *11:g *40:4 61.15522  // $poly_conn
2 *12:g *40:6 128.008698  // $poly_conn
3 *16:g *40:8 118.847527  // $poly_conn
4 *18:g *40:10 97.239471  // $poly_conn
5 *26:g *40:12 71.283424  // $poly_conn
6 *40:12 *24:g 145.2314  // $poly_conn
7 *52:s *40:15 75.381157  // $metal1_conn
8 *40:15 *40:17 0.21301  // $metal1_conn
9 *40:17 *40:18 0.187829  // $metal1_conn
10 *40:18 *40:19 0.200168  // $metal1_conn
11 *40:19 *40:20 0.270363  // $metal1_conn
12 *40:20 *40:21 0.247801  // $metal1_conn
13 *40:21 *40:22 0.044922  // $metal1_conn
14 *40:22 *40:23 0.152731  // $metal1_conn
15 *40:23 *40:24 0.275377  // $metal1_conn
16 *40:24 *40:25 0.117437  // $metal1_conn
17 *40:25 *40:26 0.145014  // $metal1_conn
18 *40:26 *40:27 0.217717  // $metal1_conn
19 *40:27 *40:28 0.042415  // $metal1_conn
20 *40:28 *40:29 0.4285  // $metal1_conn
21 *40:29 *40 0.022112  // $metal1_conn
22 *40:15 *40:12 45.632805  // $metal1_conn
23 *40:18 *45:s 75.074516  // $metal1_conn
24 *40:19 *40:10 0.607728  // $metal1_conn
25 *40:20 *40:8 0.56099  // $metal1_conn
26 *40:21 *42:s 75.074516  // $metal1_conn
27 *40:23 *40:6 0.765082  // $metal1_conn
28 *40:24 *40:4 0.722769  // $metal1_conn
29 *40:25 *1:s 75.077621  // $metal1_conn
30 *40:26 *40:1 0.592427  // $metal1_conn
31 *40:27 *59:s 75.364014  // $metal1_conn
32 *40:29 *58:s 75.293678  // $metal1_conn
33 *40:16 *40:17 6.2  // $metal1_conn
34 *40:16 *40:22 6.888889  // $metal1_conn
35 *40:16 *40:28 6.2  // $metal1_conn

*END

*D_NET *41 2.48934e-16

*CONN
*P *41 I *C 5.5000 0.8550 
*I *54:g B *C 5.5675 0.3775 
*I *30:g B *C 5.5675 1.3025 
*N *41:2 *C 5.5675 0.7500 
*N *41:3 *C 5.5100 0.7500 

*CAP
0 *30:g 4.26488e-17
1 *54:g 3.76734e-17
2 *41:2 3.72894e-17
3 *41:3 5.43895e-17
4 *41 7.69332e-17

*RES
0 *30:g *41:2 110.791527  // $poly_conn
1 *41:2 *41:3 45.778431  // $poly_conn
2 *41:2 *54:g 73.612038  // $poly_conn
3 *41 *41:3 0.06297  // $metal1_conn

*END

*D_NET *57 1.57103e-16

*CONN
*P *57 O *C 0.5000 0.6650 
*I *58:d B *C 0.4550 0.5300 
*I *6:d B *C 0.4550 1.0950 

*CAP
0 *6:d 7.01296e-17
1 *58:d 2.53116e-18
2 *57 8.44428e-17

*RES
0 *6:d *57 20.927208  // $metal1_conn
1 *57 *58:d 75.041649  // $metal1_conn

*END

*D_NET *39 1.75696e-18

*CONN
*I *50:s B *C 5.2675 0.3775 
*I *52:d B *C 5.2675 0.3775 

*CAP
0 *50:s 1.75696e-18

*RES
0 *52:d *50:s 0.001  // $mwires

*END

*D_NET *38 0

*CONN
*I *46:d B *C 4.6675 0.5375 
*I *48:s B *C 4.6675 0.5375 


*RES
0 *48:s *46:d 0.001  // $mwires

*END

*D_NET *37 0

*CONN
*I *44:s B *C 4.2800 0.5375 
*I *45:d B *C 4.2800 0.5375 


*RES
0 *45:d *44:s 0.001  // $mwires

*END

*D_NET *36 1.66931e-18

*CONN
*I *42:d B *C 3.3825 0.5375 
*I *43:s B *C 3.3825 0.5375 

*CAP
0 *42:d 1.66931e-18

*RES
0 *43:s *42:d 0.001  // $mwires

*END

*D_NET *35 5.91864e-18

*CONN
*I *3:s B *C 2.7175 0.5375 
*I *4:d B *C 2.7175 0.5375 

*CAP
0 *3:s 5.91864e-18

*RES
0 *4:d *3:s 0.001  // $mwires

*END

*D_NET *34 1.45304e-18

*CONN
*I *1:d B *C 2.0225 0.5375 
*I *2:s B *C 2.0225 0.5375 

*CAP
0 *1:d 1.45304e-18

*RES
0 *2:s *1:d 0.001  // $mwires

*END

*D_NET *33 0

*CONN
*I *60:d B *C 1.2775 0.5675 
*I *61:s B *C 1.2775 0.5675 


*RES
0 *61:s *60:d 0.001  // $mwires

*END

*D_NET *32 0

*CONN
*I *26:s B *C 5.3100 1.3025 
*I *28:d B *C 5.3100 1.3025 


*RES
0 *28:d *26:s 0.001  // $mwires

*END

*D_NET *31 0

*CONN
*I *22:d B *C 4.6300 1.1125 
*I *24:s B *C 4.6300 1.1125 


*RES
0 *24:s *22:d 0.001  // $mwires

*END

*D_NET *29 2.78988e-18

*CONN
*I *18:s B *C 4.2700 1.1125 
*I *20:d B *C 4.2700 1.1125 

*CAP
0 *18:s 2.78988e-18

*RES
0 *20:d *18:s 0.001  // $mwires

*END

*D_NET *27 2.21505e-18

*CONN
*I *14:d B *C 3.3650 1.2725 
*I *16:s B *C 3.3650 1.2725 

*CAP
0 *14:d 2.21505e-18

*RES
0 *16:s *14:d 0.001  // $mwires

*END

*D_NET *25 1.91562e-18

*CONN
*I *5:d B *C 2.9300 1.2725 
*I *12:s B *C 2.9300 1.2725 

*CAP
0 *5:d 1.91562e-18

*RES
0 *12:s *5:d 0.001  // $mwires

*END

*D_NET *23 1.60862e-18

*CONN
*I *10:d B *C 1.9950 1.2625 
*I *11:s B *C 1.9950 1.2625 

*CAP
0 *10:d 1.60862e-18

*RES
0 *11:s *10:d 0.001  // $mwires

*END

*D_NET *21 1.31251e-18

*CONN
*I *8:d B *C 1.2675 1.1125 
*I *9:s B *C 1.2675 1.1125 

*CAP
0 *8:d 1.31251e-18

*RES
0 *9:s *8:d 0.001  // $mwires

*END

*D_NET *19 5.04422e-16

*CONN
*I *60:g B *C 1.1875 0.5675 
*I *2:d B *C 2.1950 0.5375 
*I *8:g B *C 1.1875 1.1125 
*I *11:d B *C 2.1400 1.2625 
*N *19:3 *C 1.2050 1.3200 
*N *19:6 *C 2.1500 1.2550 

*CAP
0 *11:d 1.5057e-16
1 *8:g 5.84973e-17
2 *2:d 1.11856e-16
3 *60:g 6.63715e-17
4 *19:3 1.17128e-16

*RES
0 *8:g *60:g 93.589745  // $poly_conn
1 *8:g *19:3 61.15522  // $poly_conn
2 *2:d *19:6 75.635643  // $metal1_conn
3 *19:6 *19:3 0.707723  // $metal1_conn
4 *11:d *19:6 62  // $metal1_conn

*END

*D_NET *17 6.48036e-16

*CONN
*I *42:g B *C 3.2225 0.5375 
*I *44:d B *C 3.9800 0.5375 
*I *18:d B *C 4.0650 1.1125 
*I *5:g B *C 2.9825 1.2725 
*N *17:1 *C 3.0950 1.0300 
*N *17:4 *C 3.1800 0.1900 
*N *17:6 *C 3.8050 1.1600 

*CAP
0 *5:g 6.14922e-17
1 *18:d 3.47631e-17
2 *44:d 9.47064e-17
3 *42:g 3.60083e-17
4 *17:6 1.0944e-16
5 *17:1 2.05962e-16
6 *17:4 1.05664e-16

*RES
0 *17:1 *5:g 83.446335  // $poly_conn
1 *42:g *17:4 106.027016  // $poly_conn
2 *18:d *17:6 62.177368  // $metal1_conn
3 *17:6 *17:1 0.64678  // $metal1_conn
4 *17:6 *44:d 75.464973  // $metal1_conn
5 *17:1 *17:4 0.590241  // $metal1_conn

*END

*D_NET *15 3.84198e-16

*CONN
*I *52:g B *C 5.3625 0.3775 
*I *54:d B *C 5.6600 0.3775 
*I *28:g B *C 5.3625 1.3025 
*I *30:d B *C 5.6600 1.3025 
*N *15:1 *C 5.4200 0.5600 
*N *15:2 *C 5.3625 0.5600 
*N *15:6 *C 5.6700 0.5600 

*CAP
0 *30:d 6.24735e-17
1 *28:g 9.85548e-17
2 *54:d 2.03477e-17
3 *52:g 2.81567e-17
4 *15:6 5.86731e-17
5 *15:2 7.90301e-17
6 *15:1 3.69622e-17

*RES
0 *15:1 *15:2 45.778431  // $poly_conn
1 *15:2 *52:g 21.534737  // $poly_conn
2 *15:2 *28:g 156.150116  // $poly_conn
3 *30:d *15:6 62.541641  // $metal1_conn
4 *15:6 *15:1 0.16367  // $metal1_conn
5 *15:6 *54:d 75.118683  // $metal1_conn

*END

*D_NET *13 4.4234e-16

*CONN
*I *46:g B *C 4.5775 0.5375 
*I *50:d B *C 5.0800 0.3775 
*I *22:g B *C 4.5775 1.1125 
*I *26:d B *C 5.1650 1.3025 
*N *13:3 *C 4.6150 0.3600 
*N *13:5 *C 5.0700 0.3900 

*CAP
0 *26:d 9.26181e-17
1 *22:g 9.60427e-17
2 *50:d 1.27341e-16
3 *46:g 5.72437e-17
4 *13:3 6.90945e-17

*RES
0 *22:g *46:g 101.282051  // $poly_conn
1 *46:g *13:3 62.437271  // $poly_conn
2 *13:3 *13:5 0.308376  // $metal1_conn
3 *13:5 *26:d 62.656666  // $metal1_conn
4 *50:d *13:5 75  // $metal1_conn

*END

*D_NET *56 3.59606e-16

*CONN
*I *58:g B *C 0.3625 0.5300 
*I *59:d B *C 0.8900 0.5675 
*I *6:g B *C 0.3625 1.0950 
*I *7:d B *C 0.7575 1.1125 
*N *56:2 *C 0.3625 0.7600 
*N *56:3 *C 0.2750 0.7600 
*N *56:7 *C 0.8800 0.5550 

*CAP
0 *7:d 8.56879e-17
1 *6:g 2.89518e-17
2 *59:d 1.12771e-16
3 *58:g 1.60872e-17
4 *56:2 6.8953e-18
5 *56:3 1.09213e-16

*RES
0 *6:g *56:2 33.14275  // $poly_conn
1 *56:2 *56:3 48.890118  // $poly_conn
2 *56:2 *58:g 22.886339  // $poly_conn
3 *7:d *56:7 62.476784  // $metal1_conn
4 *56:7 *56:3 0.744123  // $metal1_conn
5 *59:d *56:7 75  // $metal1_conn

*END

*D_NET *55 3.46818e-16

*CONN
*I *59:g B *C 0.9825 0.5675 
*I *61:d B *C 1.5650 0.5675 
*I *7:g B *C 0.9025 1.1125 
*I *9:d B *C 1.4400 1.1125 
*N *55:2 *C 0.9725 0.8925 
*N *55:4 *C 1.0450 0.9050 
*N *55:7 *C 1.4500 1.0650 

*CAP
0 *9:d 1.12265e-16
1 *7:g 3.78246e-17
2 *61:d 7.2196e-17
3 *59:g 3.12022e-17
4 *55:2 4.08486e-17
5 *55:4 5.24822e-17

*RES
0 *59:g *55:2 60.127151  // $poly_conn
1 *55:2 *7:g 38.791843  // $poly_conn
2 *55:2 *55:4 52.236061  // $poly_conn
3 *61:d *55:7 75.519974  // $metal1_conn
4 *55:7 *55:4 0.396536  // $metal1_conn
5 *9:d *55:7 62  // $metal1_conn

*END

*D_NET *53 3.09826e-16

*CONN
*I *45:g B *C 4.3825 0.5375 
*I *48:d B *C 4.8550 0.5375 
*I *20:g B *C 4.3825 1.1125 
*I *24:d B *C 4.7750 1.1125 
*N *53:1 *C 4.4350 0.9050 
*N *53:2 *C 4.3825 0.9050 
*N *53:6 *C 4.7850 0.9150 

*CAP
0 *24:d 1.92147e-17
1 *20:g 3.8581e-17
2 *48:d 5.30526e-17
3 *45:g 5.29414e-17
4 *53:6 6.11564e-17
5 *53:1 8.48798e-17

*RES
0 *53:1 *53:2 45.294373  // $poly_conn
1 *53:2 *45:g 70.563484  // $poly_conn
2 *53:2 *20:g 20.563484  // $poly_conn
3 *48:d *53:6 75.343796  // $metal1_conn
4 *53:6 *53:1 0.269476  // $metal1_conn
5 *53:6 *24:d 62.080025  // $metal1_conn

*END

*D_NET *51 5.43171e-16

*CONN
*I *43:d B *C 3.6350 0.5375 
*I *4:g B *C 2.9275 0.5375 
*I *14:g B *C 3.3125 1.2725 
*I *12:d B *C 2.7850 1.2725 
*N *51:2 *C 3.2850 1.0000 
*N *51:3 *C 2.9275 0.8525 
*N *51:4 *C 2.7750 0.8800 

*CAP
0 *12:d 5.84039e-17
1 *14:g 5.9912e-17
2 *4:g 2.75798e-17
3 *43:d 1.00345e-16
4 *51:3 3.72668e-17
5 *51:4 8.99539e-17
6 *51:2 1.6971e-16

*RES
0 *14:g *51:2 33.794518  // $poly_conn
1 *51:2 *51:3 95.084427  // $poly_conn
2 *51:3 *51:4 74.437386  // $poly_conn
3 *51:3 *4:g 57.479973  // $poly_conn
4 *12:d *51:4 62.22789  // $metal1_conn
5 *43:d *51:2 120.633255  // $metal1_conn

*END

*D_NET *49 6.51261e-16

*CONN
*I *1:g B *C 1.9425 0.5375 
*I *3:d B *C 2.4150 0.5375 
*I *16:d B *C 3.5100 1.2725 
*I *10:g B *C 1.9425 1.2625 
*N *49:3 *C 2.2450 0.2900 
*N *49:4 *C 2.7850 0.2900 

*CAP
0 *10:g 8.81549e-17
1 *16:d 1.64252e-16
2 *3:d 5.25643e-17
3 *1:g 4.8704e-17
4 *49:3 8.49787e-17
5 *49:4 2.12607e-16

*RES
0 *10:g *1:g 139.743591  // $poly_conn
1 *1:g *49:3 115.05999  // $poly_conn
2 *49:3 *49:4 166.435181  // $poly_conn
3 *49:3 *3:d 120.203918  // $metal1_conn
4 *16:d *49:4 63.255863  // $metal1_conn

*END

