*SPEF "IEEE 1481-1999"
*DESIGN  "EDFFX4"
*DATE "Mon Sep 27 09:48:55 2010"
*VENDOR "Cadence Design Systems"
*PROGRAM "Assura RCX"
*VERSION "3.2 Red Hat Linux release 7.2 (Enigma) - (09/09/2009-10:39)"
*DESIGN_FLOW "Physical Verification"
*DIVIDER /
*DELIMITER :
*BUS_DELIMITER []
*T_UNIT 1 PS
*C_UNIT 1e15 FF
*R_UNIT 1 OHM
*L_UNIT 1 MH
// DeviceFingerDelim "@"
// MATCHED
// caps2d version: 10

*NAME_MAP
*1 mn40
*2 net411
*3 net415
*4 n0
*5 mn51
*6 mn50
*7 mn45
*8 mn45\@1
*9 mn2
*10 mp0
*11 mp55\@2
*12 mp55\@3
*13 mp2
*14 mp20
*15 mp21
*16 mp25
*17 mp36
*18 mp35
*19 mp30
*20 mp40
*21 mp51
*22 VDD
*23 mp50
*24 mp45
*25 mp45\@1
*26 n20
*27 n30
*28 mn55
*29 mn57
*30 mp55
*31 mn57\@1
*32 QN
*33 mp55\@1
*34 mn57\@2
*35 VSS
*36 mp57
*37 mn57\@3
*38 mp57\@1
*39 mn56
*40 mp57\@2
*41 mn3
*42 mp57\@3
*43 mn1
*44 mp56
*45 mn0
*46 mp3
*47 mp1
*48 D
*49 E
*50 CK
*51 Q
*52 mout
*53 qbint
*54 Eb
*55 qint
*56 Ckb
*57 CKbb
*58 Db
*59 net342
*60 mn55\@1
*61 net362
*62 mn55\@2
*63 n1
*64 mn55\@3
*65 mn20
*66 mn21
*67 mn25
*68 mn36
*69 mn35
*70 mn30

*GROUND_NETS VSS

*PORTS
*22 I
*35 I
*50 I
*48 I
*49 I
*51 O
*32 O

*D_NET *22 1.03681e-15

*CONN
*P *22 I *C 0.1000 1.7100 
*I *30:s B *C 4.6600 1.2450 
*I *33:s B *C 5.0700 1.2450 
*I *36:s B *C 5.0700 1.2450 
*I *38:s B *C 5.4800 1.2450 
*I *40:s B *C 5.4800 1.2450 
*I *42:s B *C 5.9100 1.2450 
*I *44:s B *C 5.9100 1.2450 
*I *10:s B *C 4.2400 1.2450 
*I *11:s B *C 4.2400 1.2450 
*I *12:s B *C 4.6600 1.2450 
*I *13:s B *C 3.1050 1.1675 
*I *14:s B *C 0.4025 1.3725 
*I *15:s B *C 0.4025 1.3725 
*I *18:s B *C 1.5600 1.1675 
*I *19:s B *C 1.5600 1.1675 
*I *23:s B *C 2.6350 1.2150 
*I *24:s B *C 2.6350 1.2150 
*I *25:s B *C 3.1050 1.1675 
*N *22:3 *C 5.3000 1.7100 
*N *22:8 *C 3.2000 1.7100 
*N *22:11 *C 1.5300 1.7100 
*N *22:12 *C 1.1000 1.7100 
*N *22:13 *C 0.4250 1.7100 

*CAP
0 *18:s 5.65728e-17
1 *14:s 2.33192e-17
2 *13:s 7.13197e-17
3 *42:s 3.50298e-16
4 *22:13 1.7927e-17
5 *22:11 3.05691e-17
6 *22:3 4.7269e-16
7 *22 1.41106e-17

*RES
0 *22:13 *22 0.162589  // $metal1_conn
1 *22:3 *42:s 6.818182  // $metal1_conn
2 *22:3 *22:8 7.5  // $metal1_conn
3 *22:3 *22:12 6.818182  // $metal1_conn
4 *22:11 *18:s 62.324612  // $metal1_conn
5 *22:13 *14:s 62.175217  // $metal1_conn
6 *42:s *22:8 0.516504  // $metal1_conn
7 *22:8 *13:s 0.10515  // $metal1_conn
8 *13:s *22:11 0.496242  // $metal1_conn
9 *22:11 *22:12 0.215514  // $metal1_conn
10 *22:12 *22:13 0.338418  // $metal1_conn

*END

*D_NET *35 0

*CONN
*P *35 I *C 0.1000 0.0000 
*I *28:s B *C 5.0100 0.5300 
*I *29:s B *C 5.0100 0.5300 
*I *31:s B *C 5.4800 0.5300 
*I *34:s B *C 5.4800 0.5300 
*I *37:s B *C 5.9450 0.5300 
*I *39:s B *C 5.9450 0.5300 
*I *45:s B *C 4.0700 0.5300 
*I *60:s B *C 4.0700 0.5300 
*I *62:s B *C 4.5400 0.5300 
*I *64:s B *C 4.5400 0.5300 
*I *65:s B *C 0.3950 0.4575 
*I *66:s B *C 0.3950 0.4575 
*I *69:s B *C 1.6450 0.5525 
*I *70:s B *C 1.6450 0.5525 
*I *6:s B *C 2.5800 0.5375 
*I *7:s B *C 2.5800 0.5375 
*I *8:s B *C 3.0125 0.5075 
*I *9:s B *C 3.0125 0.5075 
*N *35:3 *C 5.3000 0.0000 
*N *35:8 *C 3.2000 0.0000 
*N *35:11 *C 1.5300 0.0000 
*N *35:12 *C 1.1000 0.0000 
*N *35:13 *C 0.3950 0.0000 


*RES
0 *35:13 *35 0.14754  // $metal1_conn
1 *35:3 *37:s 5.636364  // $metal1_conn
2 *35:3 *35:8 6.2  // $metal1_conn
3 *35:3 *35:12 5.636364  // $metal1_conn
4 *35:11 *69:s 75.117203  // $metal1_conn
5 *35:13 *65:s 75.285774  // $metal1_conn
6 *37:s *35:8 0.39265  // $metal1_conn
7 *35:8 *8:s 0.1202  // $metal1_conn
8 *8:s *35:11 0.496242  // $metal1_conn
9 *35:11 *35:12 0.215514  // $metal1_conn
10 *35:12 *35:13 0.353467  // $metal1_conn

*END

*D_NET *50 2.23388e-16

*CONN
*P *50 I *C 0.3000 0.8550 
*I *65:g B *C 0.2925 0.4575 
*I *14:g B *C 0.2775 1.3725 
*N *50:2 *C 0.2900 0.8250 
*N *50:4 *C 0.2900 0.8250 

*CAP
0 *14:g 4.13659e-17
1 *65:g 3.62837e-17
2 *50:4 2.65531e-17
3 *50:2 4.83412e-17
4 *50 7.08438e-17

*RES
0 *65:g *50:2 66.15522  // $poly_conn
1 *50:2 *14:g 103.334709  // $poly_conn
2 *50:4 *50 0.018693  // $metal1_conn
3 *50:2 *50:4 45  // $metal1_conn

*END

*D_NET *48 2.79483e-16

*CONN
*P *48 I *C 3.1000 0.8550 
*I *9:g B *C 3.0675 0.5075 
*I *13:g B *C 3.1525 1.1675 
*N *48:2 *C 3.1050 0.9350 

*CAP
0 *13:g 6.77705e-17
1 *9:g 5.06911e-17
2 *48:2 1.02759e-16
3 *48 5.82624e-17

*RES
0 *13:g *48:2 23.864021  // $poly_conn
1 *48:2 *9:g 80.319344  // $poly_conn
2 *48:2 *48 45.035049  // $metal1_conn

*END

*D_NET *49 3.88431e-16

*CONN
*P *49 I *C 3.9000 0.8550 
*I *41:g B *C 3.2425 0.5075 
*I *45:g B *C 3.9225 0.5875 
*I *47:g B *C 3.5775 1.1675 
*I *10:g B *C 4.0975 1.1575 
*N *49:2 *C 3.5775 0.8450 
*N *49:4 *C 3.7050 0.8450 
*N *49:6 *C 3.8950 0.8650 
*N *49:8 *C 3.7050 0.8550 
*N *49:9 *C 3.8950 0.8550 
*N *49:10 *C 3.8950 0.8650 

*CAP
0 *10:g 5.16246e-17
1 *47:g 2.56328e-17
2 *45:g 3.67915e-17
3 *41:g 7.15662e-17
4 *49:9 1.96226e-17
5 *49:8 4.99414e-17
6 *49:2 3.81585e-17
7 *49:4 1.52146e-17
8 *49:6 2.73491e-17
9 *49 5.25293e-17

*RES
0 *47:g *49:2 45.356571  // $poly_conn
1 *49:2 *41:g 139.436661  // $poly_conn
2 *49:2 *49:4 55.666557  // $poly_conn
3 *10:g *49:6 68.620369  // $poly_conn
4 *49:6 *45:g 44.050926  // $poly_conn
5 *49:4 *49:8 0.001297  // $metal1_conn
6 *49:9 *49:10 0.001297  // $metal1_conn
7 *49:8 *49:9 0.11839  // $metal1_conn
8 *49:9 *49 0.003427  // $metal1_conn
9 *49:6 *49:10 45  // $metal1_conn

*END

*D_NET *51 3.07122e-16

*CONN
*P *51 O *C 4.5000 1.0450 
*I *28:d B *C 4.6900 0.5300 
*I *60:d B *C 4.2200 0.5300 
*I *62:d B *C 4.2200 0.5300 
*I *64:d B *C 4.6900 0.5300 
*I *30:d B *C 4.8650 1.2450 
*I *33:d B *C 4.8650 1.2450 
*I *11:d B *C 4.4450 1.2450 
*I *12:d B *C 4.4450 1.2450 

*CAP
0 *30:d 1.46866e-16
1 *28:d 1.29511e-16
2 *51 3.07461e-17

*RES
0 *30:d *51 0.003004  // $metal1_conn
1 *51 *28:d 0.314527  // $metal1_conn

*END

*D_NET *32 2.78732e-16

*CONN
*P *32 O *C 5.3000 1.0450 
*I *29:d B *C 5.1600 0.5300 
*I *31:d B *C 5.1600 0.5300 
*I *34:d B *C 5.6675 0.5300 
*I *37:d B *C 5.6675 0.5300 
*I *36:d B *C 5.2750 1.2450 
*I *38:d B *C 5.2750 1.2450 
*I *40:d B *C 5.6950 1.2450 
*I *42:d B *C 5.6950 1.2450 

*CAP
0 *40:d 1.38682e-16
1 *29:d 1.19697e-16
2 *32 2.03536e-17

*RES
0 *40:d *32 0.023351  // $metal1_conn
1 *32 *29:d 0.263265  // $metal1_conn

*END

*D_NET *4 1.04271e-18

*CONN
*I *41:s B *C 3.1550 0.5075 
*I *9:d B *C 3.1550 0.5075 

*CAP
0 *41:s 1.04271e-18

*RES
0 *9:d *41:s 0.001  // $mwires

*END

*D_NET *3 1.56785e-18

*CONN
*I *5:s B *C 2.3175 0.5525 
*I *6:d B *C 2.3175 0.5525 

*CAP
0 *5:s 1.56785e-18

*RES
0 *6:d *5:s 0.001  // $mwires

*END

*D_NET *2 0

*CONN
*I *68:s B *C 1.3725 0.5525 
*I *69:d B *C 1.3725 0.5525 


*RES
0 *69:d *68:s 0.001  // $mwires

*END

*D_NET *63 1.84799e-18

*CONN
*I *46:s B *C 3.2050 1.1675 
*I *13:d B *C 3.2050 1.1675 

*CAP
0 *46:s 1.84799e-18

*RES
0 *13:d *46:s 0.001  // $mwires

*END

*D_NET *61 4.78151e-18

*CONN
*I *21:s B *C 2.3275 1.1675 
*I *23:d B *C 2.3275 1.1675 

*CAP
0 *21:s 4.78151e-18

*RES
0 *23:d *21:s 0.001  // $mwires

*END

*D_NET *59 1.8359e-18

*CONN
*I *17:s B *C 1.3700 1.1675 
*I *18:d B *C 1.3700 1.1675 

*CAP
0 *17:s 1.8359e-18

*RES
0 *18:d *17:s 0.001  // $mwires

*END

*D_NET *58 7.78201e-16

*CONN
*I *41:d B *C 3.3450 0.5075 
*I *43:s B *C 3.3450 0.5075 
*I *67:d B *C 0.8400 0.5525 
*I *46:d B *C 3.4175 1.1675 
*I *47:s B *C 3.4175 1.1675 
*I *16:s B *C 1.0150 1.1675 
*N *58:3 *C 1.0050 1.2150 
*N *58:4 *C 3.2950 1.2150 

*CAP
0 *16:s 3.01387e-16
1 *46:d 2.9658e-17
2 *67:d 9.53578e-17
3 *41:d 8.5858e-17
4 *58:4 2.65941e-16

*RES
0 *67:d *58:3 75.607056  // $metal1_conn
1 *58:3 *58:4 2.12435  // $metal1_conn
2 *58:4 *41:d 75.472244  // $metal1_conn
3 *58:4 *46:d 62.03532  // $metal1_conn
4 *16:s *58:3 62  // $metal1_conn

*END

*D_NET *57 9.60934e-16

*CONN
*I *66:d B *C 0.6050 0.4575 
*I *68:g B *C 1.3175 0.5525 
*I *1:g B *C 2.0125 0.5525 
*I *15:d B *C 0.6200 1.3725 
*I *16:g B *C 1.1075 1.1675 
*I *21:g B *C 2.2375 1.1675 
*N *57:2 *C 1.0200 0.9000 
*N *57:4 *C 1.2900 0.3250 
*N *57:6 *C 2.0400 0.3250 
*N *57:8 *C 2.2750 0.9000 
*N *57:9 *C 0.9900 0.3750 
*N *57:11 *C 0.6300 0.4450 

*CAP
0 *21:g 5.0851e-17
1 *16:g 3.01831e-17
2 *15:d 8.14908e-17
3 *1:g 5.81212e-17
4 *68:g 8.23433e-17
5 *66:d 9.54957e-17
6 *57:9 6.89628e-17
7 *57:2 1.08151e-16
8 *57:4 1.06596e-16
9 *57:6 1.44169e-16
10 *57:8 1.34571e-16

*RES
0 *16:g *57:2 86.983063  // $poly_conn
1 *68:g *57:4 76.230415  // $poly_conn
2 *1:g *57:6 76.230415  // $poly_conn
3 *21:g *57:8 76.539833  // $poly_conn
4 *57:8 *57:6 0.540598  // $metal1_conn
5 *57:6 *57:4 0.507789  // $metal1_conn
6 *57:4 *57:9 0.226802  // $metal1_conn
7 *57:9 *57:11 0.30184  // $metal1_conn
8 *57:9 *57:2 0.398996  // $metal1_conn
9 *57:11 *15:d 62.644035  // $metal1_conn
10 *66:d *57:11 75  // $metal1_conn

*END

*D_NET *56 7.24779e-16

*CONN
*I *65:d B *C 0.2000 0.4575 
*I *66:g B *C 0.4975 0.4575 
*I *67:g B *C 0.9325 0.5525 
*I *5:g B *C 2.2175 0.5525 
*I *14:d B *C 0.1850 1.3725 
*I *15:g B *C 0.5275 1.3725 
*I *17:g B *C 1.3125 1.1675 
*I *20:g B *C 2.0325 1.1675 
*N *56:4 *C 0.9325 0.7225 
*N *56:5 *C 0.5350 0.7225 
*N *56:6 *C 0.4700 0.6850 
*N *56:11 *C 0.1900 0.6350 

*CAP
0 *20:g 1.18273e-16
1 *17:g 1.35189e-16
2 *15:g 4.94169e-17
3 *14:d 7.31006e-17
4 *5:g 7.45558e-17
5 *67:g 2.25972e-17
6 *66:g 2.15986e-17
7 *65:d 1.91811e-17
8 *56:11 7.00302e-17
9 *56:4 5.12294e-17
10 *56:6 8.96071e-17

*RES
0 *5:g *20:g 135.318283  // $poly_conn
1 *20:g *17:g 264.805481  // $poly_conn
2 *17:g *56:4 165.080307  // $poly_conn
3 *56:4 *56:5 100.049812  // $poly_conn
4 *56:5 *56:6 9.839872  // $poly_conn
5 *56:4 *67:g 20.300484  // $poly_conn
6 *56:5 *15:g 136.61882  // $poly_conn
7 *56:6 *66:g 30.406746  // $poly_conn
8 *65:d *56:11 75.093544  // $metal1_conn
9 *56:11 *14:d 62.643673  // $metal1_conn
10 *56:11 *56:6 45.200012  // $metal1_conn

*END

*D_NET *55 4.31757e-16

*CONN
*I *29:g B *C 5.0575 0.5300 
*I *31:g B *C 5.2625 0.5300 
*I *34:g B *C 5.5275 0.5300 
*I *37:g B *C 5.8075 0.5300 
*I *39:d B *C 6.1750 0.5300 
*I *36:g B *C 5.1725 1.2450 
*I *38:g B *C 5.3775 1.2450 
*I *40:g B *C 5.5825 1.2450 
*I *42:g B *C 5.8075 1.2450 
*I *44:d B *C 6.1050 1.2450 
*N *55:17 *C 6.1500 0.9500 

*CAP
0 *44:d 6.14225e-17
1 *42:g 3.03288e-16
2 *39:d 2.9067e-17
3 *55:17 3.79795e-17

*RES
0 *55:17 *42:g 45.259117  // $metal1_conn
1 *55:17 *44:d 20.811615  // $metal1_conn
2 *39:d *55:17 75.246803  // $metal1_conn

*END

*D_NET *54 5.12978e-16

*CONN
*I *43:g B *C 3.4475 0.5075 
*I *45:d B *C 3.8300 0.5875 
*I *46:g B *C 3.2575 1.1675 
*I *10:d B *C 4.0050 1.1575 
*N *54:1 *C 3.3350 1.4050 
*N *54:4 *C 3.4850 0.6850 
*N *54:6 *C 3.5200 1.3100 

*CAP
0 *10:d 6.6118e-17
1 *46:g 7.44693e-17
2 *45:d 6.66178e-17
3 *43:g 4.23485e-17
4 *54:6 9.86121e-17
5 *54:1 5.95968e-17
6 *54:4 1.05215e-16

*RES
0 *54:1 *46:g 75.456291  // $poly_conn
1 *43:g *54:4 62.437271  // $poly_conn
2 *10:d *54:6 62.383663  // $metal1_conn
3 *54:6 *54:1 0.196968  // $metal1_conn
4 *54:6 *54:4 0.468745  // $metal1_conn
5 *54:4 *45:d 75.302551  // $metal1_conn

*END

*D_NET *53 1.55437e-15

*CONN
*I *28:g B *C 4.7925 0.5300 
*I *39:g B *C 6.0825 0.5300 
*I *43:d B *C 3.5400 0.5075 
*I *60:g B *C 4.1175 0.5300 
*I *62:g B *C 4.3225 0.5300 
*I *64:g B *C 4.5875 0.5300 
*I *6:g B *C 2.4175 0.5525 
*I *7:d B *C 2.7550 0.5375 
*I *8:d B *C 2.7550 0.5375 
*I *30:g B *C 4.7625 1.2450 
*I *33:g B *C 4.9675 1.2450 
*I *44:g B *C 6.0125 1.2450 
*I *47:d B *C 3.6700 1.1675 
*I *11:g B *C 4.3325 1.2450 
*I *12:g B *C 4.5575 1.2450 
*I *23:g B *C 2.4175 1.1675 
*I *24:d B *C 2.7850 1.2150 
*I *25:d B *C 2.7850 1.2150 
*N *53:2 *C 2.4650 0.7400 
*N *53:18 *C 6.0250 0.7600 
*N *53:21 *C 4.8800 0.4400 
*N *53:23 *C 3.5500 0.4950 
*N *53:24 *C 2.7550 0.6825 
*N *53:25 *C 2.7550 0.7425 

*CAP
0 *24:d 5.50637e-17
1 *23:g 6.41934e-17
2 *47:d 1.16588e-16
3 *44:g 4.79868e-17
4 *33:g 3.8394e-16
5 *7:d 1.87965e-17
6 *6:g 3.23353e-17
7 *43:d 2.01921e-16
8 *39:g 2.1486e-17
9 *53:25 1.22528e-16
10 *53:21 2.08264e-16
11 *53:2 8.75445e-17
12 *53:18 1.93723e-16

*RES
0 *53:18 *44:g 64.873169  // $poly_conn
1 *23:g *53:2 72.565475  // $poly_conn
2 *39:g *53:18 18.790585  // $poly_conn
3 *53:2 *6:g 20.001371  // $poly_conn
4 *53:18 *53:21 46.049107  // $metal1_conn
5 *33:g *47:d 107.475731  // $metal1_conn
6 *53:21 *33:g 45.238731  // $metal1_conn
7 *53:25 *53:2 45.188152  // $metal1_conn
8 *43:d *53:23 75  // $metal1_conn
9 *53:25 *24:d 62.286835  // $metal1_conn
10 *53:24 *7:d 75.078529  // $metal1_conn
11 *53:21 *53:23 0.954332  // $metal1_conn
12 *53:23 *53:24 0.876423  // $metal1_conn
13 *53:24 *53:25 0.062327  // $metal1_conn

*END

*D_NET *52 3.82962e-16

*CONN
*I *69:g B *C 1.4275 0.5525 
*I *70:d B *C 1.8525 0.5525 
*I *1:d B *C 1.8525 0.5525 
*I *18:g B *C 1.4275 1.1675 
*I *19:d B *C 1.8625 1.1675 
*I *20:s B *C 1.8625 1.1675 
*N *52:2 *C 1.4550 0.7350 
*N *52:5 *C 1.9100 0.7350 

*CAP
0 *19:d 5.99819e-17
1 *18:g 7.29445e-17
2 *70:d 3.24855e-17
3 *69:g 5.09693e-17
4 *52:5 5.6448e-17
5 *52:2 1.10132e-16

*RES
0 *18:g *52:2 74.820152  // $poly_conn
1 *52:2 *69:g 19.691952  // $poly_conn
2 *19:d *52:5 62.309273  // $metal1_conn
3 *52:5 *52:2 45.310574  // $metal1_conn
4 *52:5 *70:d 75.126099  // $metal1_conn

*END

*D_NET *27 4.36458e-16

*CONN
*I *1:s B *C 2.1150 0.5525 
*I *5:d B *C 2.1150 0.5525 
*I *7:g B *C 2.6525 0.5375 
*I *8:g B *C 2.8575 0.5375 
*I *20:d B *C 2.1350 1.1675 
*I *21:d B *C 2.1350 1.1675 
*I *24:g B *C 2.6825 1.2150 
*I *25:g B *C 2.8875 1.2150 
*N *27:4 *C 2.5950 0.9300 
*N *27:9 *C 2.1400 1.0750 

*CAP
0 *25:g 9.17581e-17
1 *20:d 1.64801e-19
2 *7:g 8.85117e-17
3 *1:s 7.37843e-17
4 *27:9 9.49606e-17
5 *27:4 8.7279e-17

*RES
0 *25:g *27:4 51.496479  // $poly_conn
1 *25:g *7:g 21.071556  // $poly_conn
2 *27:4 *27:9 0.4477  // $metal1_conn
3 *27:9 *20:d 62.033779  // $metal1_conn
4 *27:9 *1:s 75.424187  // $metal1_conn

*END

*D_NET *26 3.38943e-16

*CONN
*I *67:s B *C 1.1250 0.5525 
*I *68:d B *C 1.1250 0.5525 
*I *70:g B *C 1.6925 0.5525 
*I *16:d B *C 1.2100 1.1675 
*I *17:d B *C 1.2100 1.1675 
*I *19:g B *C 1.6925 1.1675 
*N *26:2 *C 1.6650 0.8950 
*N *26:4 *C 1.2100 0.8950 

*CAP
0 *19:g 4.46346e-17
1 *16:d 3.78853e-17
2 *70:g 4.09817e-17
3 *67:s 4.94377e-17
4 *26:4 6.00973e-17
5 *26:2 1.05906e-16

*RES
0 *19:g *26:2 33.794518  // $poly_conn
1 *26:2 *70:g 60.71759  // $poly_conn
2 *26:2 *26:4 45.341042  // $metal1_conn
3 *26:4 *67:s 75.251068  // $metal1_conn
4 *26:4 *16:d 62.166267  // $metal1_conn

*END

