*SPEF "IEEE 1481-1999"
*DESIGN  "EDFFHQX2"
*DATE "Mon Sep 27 09:45:29 2010"
*VENDOR "Cadence Design Systems"
*PROGRAM "Assura RCX"
*VERSION "3.2 Red Hat Linux release 7.2 (Enigma) - (09/09/2009-10:39)"
*DESIGN_FLOW "Physical Verification"
*DIVIDER /
*DELIMITER :
*BUS_DELIMITER []
*T_UNIT 1 PS
*C_UNIT 1e15 FF
*R_UNIT 1 OHM
*L_UNIT 1 MH
// DeviceFingerDelim "@"
// MATCHED
// caps2d version: 10

*NAME_MAP
*1 Q
*2 VDD
*3 mp50
*4 qbint
*5 mp55
*6 mout
*7 mp55\@1
*8 n20
*9 mp45
*10 mp1
*11 mp3
*12 mp2
*13 mp0
*14 mp20
*15 mp51
*16 mp21
*17 mp25
*18 mp36
*19 mp35
*20 mp30
*21 CK
*22 mp40
*23 mn21
*24 mn25
*25 mn36
*26 mn35
*27 mn30
*28 mn40
*29 mn51
*30 VSS
*31 CKb
*32 Eb
*33 n30
*34 mn50
*35 CKbb
*36 mn55
*37 Db
*38 mn55\@1
*39 net309
*40 mn45
*41 net317
*42 mn1
*43 net328
*44 mn3
*45 net340
*46 D
*47 mn2
*48 net380
*49 E
*50 mn0
*51 mn20
*52 net333

*GROUND_NETS VSS

*PORTS
*2 I
*30 I
*21 I
*46 I
*49 I
*1 O

*D_NET *2 6.34101e-16

*CONN
*P *2 I *C 0.1000 1.7100 
*I *3:s B *C 2.9650 1.2150 
*I *5:s B *C 2.9650 1.2150 
*I *7:s B *C 3.4725 1.2150 
*I *9:s B *C 3.4725 1.2150 
*I *12:s B *C 4.7125 1.3025 
*I *13:s B *C 4.7125 1.3025 
*I *14:s B *C 0.3250 1.2425 
*I *16:s B *C 0.3250 1.2425 
*I *19:s B *C 1.7325 1.1750 
*I *20:s B *C 1.7325 1.1750 
*N *2:2 *C 4.3000 1.7100 
*N *2:3 *C 4.3000 1.7100 
*N *2:6 *C 2.6000 1.7100 
*N *2:7 *C 1.7150 1.7100 
*N *2:8 *C 0.9000 1.7100 
*N *2:9 *C 0.3250 1.7100 

*CAP
0 *19:s 4.93515e-17
1 *14:s 2.8384e-17
2 *12:s 3.124e-17
3 *7:s 1.08566e-16
4 *2:9 1.08357e-17
5 *2:7 3.29322e-17
6 *2:2 3.6731e-16
7 *2 5.48138e-18

*RES
0 *2:9 *2 0.112368  // $metal1_conn
1 *2:2 *2:3 8.333333  // $metal1_conn
2 *2:2 *2:6 9.375  // $metal1_conn
3 *2:2 *2:8 8.333333  // $metal1_conn
4 *12:s *2:3 62.393002  // $metal1_conn
5 *2:7 *19:s 62.270752  // $metal1_conn
6 *2:9 *14:s 62.261097  // $metal1_conn
7 *2:3 *7:s 0.491175  // $metal1_conn
8 *7:s *2:6 0.125154  // $metal1_conn
9 *2:6 *2:7 0.443542  // $metal1_conn
10 *2:7 *2:8 0.408444  // $metal1_conn
11 *2:8 *2:9 0.288109  // $metal1_conn

*END

*D_NET *30 0

*CONN
*P *30 I *C 0.1000 0.0000 
*I *34:s B *C 2.9300 0.5100 
*I *36:s B *C 2.9300 0.5100 
*I *38:s B *C 3.3875 0.5100 
*I *40:s B *C 3.3875 0.5100 
*I *47:s B *C 4.7125 0.4525 
*I *50:s B *C 4.7125 0.4525 
*I *51:s B *C 0.3250 0.4425 
*I *23:s B *C 0.3250 0.4425 
*I *26:s B *C 1.7325 0.4825 
*I *27:s B *C 1.7325 0.4825 
*N *30:2 *C 4.3000 0.0000 
*N *30:3 *C 4.3000 0.0000 
*N *30:6 *C 2.6000 0.0000 
*N *30:7 *C 1.6550 0.0000 
*N *30:8 *C 0.9000 0.0000 
*N *30:9 *C 0.2950 0.0000 


*RES
0 *30:9 *30 0.097326  // $metal1_conn
1 *30:2 *30:3 6.888889  // $metal1_conn
2 *30:2 *30:6 7.75  // $metal1_conn
3 *30:2 *30:8 6.888889  // $metal1_conn
4 *47:s *30:3 75.446312  // $metal1_conn
5 *30:7 *26:s 75.283249  // $metal1_conn
6 *30:9 *51:s 75.268906  // $metal1_conn
7 *30:3 *38:s 0.423486  // $metal1_conn
8 *38:s *30:6 0.077521  // $metal1_conn
9 *30:6 *30:7 0.473626  // $metal1_conn
10 *30:7 *30:8 0.37836  // $metal1_conn
11 *30:8 *30:9 0.30315  // $metal1_conn

*END

*D_NET *21 2.25658e-16

*CONN
*P *21 I *C 0.3000 1.0450 
*I *51:g B *C 0.2225 0.4425 
*I *14:g B *C 0.2225 1.2425 
*N *21:2 *C 0.2600 0.8050 

*CAP
0 *14:g 3.54517e-17
1 *51:g 4.11264e-17
2 *21:2 8.66345e-17
3 *21 6.24455e-17

*RES
0 *14:g *21:2 73.808937  // $poly_conn
1 *21:2 *51:g 63.552521  // $poly_conn
2 *21 *21:2 45.145992  // $metal1_conn

*END

*D_NET *46 2.22423e-16

*CONN
*P *46 I *C 4.5000 0.8550 
*I *47:g B *C 4.4625 0.5100 
*I *12:g B *C 4.4625 1.2150 
*N *46:2 *C 4.5100 0.7900 

*CAP
0 *12:g 4.76025e-17
1 *47:g 3.4173e-17
2 *46:2 1.04454e-16
3 *46 3.61932e-17

*RES
0 *12:g *46:2 49.488552  // $poly_conn
1 *46:2 *47:g 28.975733  // $poly_conn
2 *46 *46:2 45.023548  // $metal1_conn

*END

*D_NET *49 6.41827e-16

*CONN
*P *49 I *C 4.9000 0.6650 
*I *44:g B *C 4.1775 0.5100 
*I *50:g B *C 4.8625 0.4525 
*I *10:g B *C 3.8575 1.2150 
*I *13:g B *C 4.8625 1.3025 
*N *49:2 *C 3.8200 0.9200 
*N *49:4 *C 4.1400 0.7400 
*N *49:6 *C 4.8900 0.6600 
*N *49:8 *C 4.8900 0.6600 
*N *49:9 *C 4.2650 0.6300 

*CAP
0 *13:g 4.17836e-17
1 *10:g 3.63852e-17
2 *50:g 2.17801e-17
3 *44:g 3.7363e-17
4 *49:9 1.2405e-16
5 *49:2 1.81429e-16
6 *49:4 8.43294e-17
7 *49:6 3.87899e-17
8 *49 7.59163e-17

*RES
0 *10:g *49:2 61.15522  // $poly_conn
1 *44:g *49:4 61.15522  // $poly_conn
2 *13:g *49:6 128.666306  // $poly_conn
3 *49:6 *50:g 26.102209  // $poly_conn
4 *49 *49:8 0.00508  // $metal1_conn
5 *49:8 *49:9 0.463139  // $metal1_conn
6 *49:9 *49:2 0.950489  // $metal1_conn
7 *49:9 *49:4 0.170544  // $metal1_conn
8 *49:6 *49:8 45  // $metal1_conn

*END

*D_NET *1 1.64176e-16

*CONN
*P *1 O *C 2.9000 0.8550 
*I *36:d B *C 3.1100 0.5100 
*I *38:d B *C 3.1100 0.5100 
*I *5:d B *C 3.1150 1.2150 
*I *7:d B *C 3.1150 1.2150 
*N *1:1 *C 3.0850 0.8550 

*CAP
0 *5:d 3.96812e-17
1 *36:d 5.22448e-17
2 *1:1 3.56732e-17
3 *1 3.65765e-17

*RES
0 *1 *1:1 0.069922  // $metal1_conn
1 *1:1 *5:d 62.140461  // $metal1_conn
2 *1:1 *36:d 75.157669  // $metal1_conn

*END

*D_NET *52 5.79558e-18

*CONN
*I *44:s B *C 4.3200 0.5100 
*I *47:d B *C 4.3200 0.5100 

*CAP
0 *44:s 5.79558e-18

*RES
0 *47:d *44:s 0.001  // $mwires

*END

*D_NET *48 0

*CONN
*I *34:d B *C 2.5850 0.4825 
*I *29:s B *C 2.5850 0.4825 


*RES
0 *29:s *34:d 0.001  // $mwires

*END

*D_NET *45 2.80762e-18

*CONN
*I *25:s B *C 1.4625 0.4825 
*I *26:d B *C 1.4625 0.4825 

*CAP
0 *25:s 2.80762e-18

*RES
0 *26:d *25:s 0.001  // $mwires

*END

*D_NET *43 6.49602e-18

*CONN
*I *11:s B *C 4.2725 1.2150 
*I *12:d B *C 4.2725 1.2150 

*CAP
0 *11:s 6.49602e-18

*RES
0 *12:d *11:s 0.001  // $mwires

*END

*D_NET *41 3.54272e-18

*CONN
*I *3:d B *C 2.6000 1.1750 
*I *15:s B *C 2.6000 1.1750 

*CAP
0 *3:d 3.54272e-18

*RES
0 *15:s *3:d 0.001  // $mwires

*END

*D_NET *39 6.04646e-18

*CONN
*I *18:s B *C 1.4200 1.1750 
*I *19:d B *C 1.4200 1.1750 

*CAP
0 *18:s 6.04646e-18

*RES
0 *19:d *18:s 0.001  // $mwires

*END

*D_NET *37 8.15123e-16

*CONN
*I *42:s B *C 4.0750 0.5100 
*I *44:d B *C 4.0750 0.5100 
*I *24:s B *C 0.7550 0.4825 
*I *10:s B *C 3.9700 1.2150 
*I *11:d B *C 3.9700 1.2150 
*I *17:s B *C 0.9600 1.1750 
*N *37:3 *C 3.9800 1.2150 
*N *37:5 *C 0.9500 1.1600 

*CAP
0 *17:s 2.93535e-16
1 *10:s 3.15781e-16
2 *24:s 9.32603e-17
3 *42:s 1.12547e-16

*RES
0 *42:s *37:3 75.561806  // $metal1_conn
1 *37:3 *37:5 2.375886  // $metal1_conn
2 *37:5 *24:s 75.60434  // $metal1_conn
3 *10:s *37:3 20.666666  // $metal1_conn
4 *17:s *37:5 31  // $metal1_conn

*END

*D_NET *35 1.05173e-15

*CONN
*I *23:d B *C 0.5275 0.4425 
*I *25:g B *C 1.3425 0.4825 
*I *28:g B *C 2.2625 0.4825 
*I *15:g B *C 2.5475 1.1750 
*I *16:d B *C 0.5325 1.2425 
*I *17:g B *C 1.0525 1.1750 
*N *35:2 *C 0.9650 0.8900 
*N *35:4 *C 1.3150 0.6950 
*N *35:6 *C 2.2250 0.6850 
*N *35:8 *C 2.5100 0.8600 
*N *35:9 *C 1.3150 0.3650 
*N *35:10 *C 0.9350 0.3650 
*N *35:12 *C 0.5450 0.4300 

*CAP
0 *17:g 3.95544e-17
1 *16:d 7.24155e-17
2 *15:g 7.24576e-17
3 *28:g 3.3782e-17
4 *25:g 3.20368e-17
5 *23:d 9.59727e-17
6 *35:10 7.73639e-17
7 *35:9 1.59945e-16
8 *35:2 1.00072e-16
9 *35:4 7.96206e-17
10 *35:6 1.84332e-16
11 *35:8 1.04175e-16

*RES
0 *17:g *35:2 75.944641  // $poly_conn
1 *25:g *35:4 64.691956  // $poly_conn
2 *28:g *35:6 61.15522  // $poly_conn
3 *15:g *35:8 76.539833  // $poly_conn
4 *35:6 *35:9 1.245276  // $metal1_conn
5 *35:9 *35:10 0.283654  // $metal1_conn
6 *35:10 *35:12 0.313964  // $metal1_conn
7 *35:6 *35:8 0.275793  // $metal1_conn
8 *35:9 *35:4 0.240672  // $metal1_conn
9 *35:10 *35:2 0.393039  // $metal1_conn
10 *35:12 *16:d 62.570202  // $metal1_conn
11 *23:d *35:12 75  // $metal1_conn

*END

*D_NET *33 5.13616e-16

*CONN
*I *40:g B *C 3.5575 0.5100 
*I *28:s B *C 2.3900 0.4825 
*I *29:d B *C 2.3900 0.4825 
*I *9:g B *C 3.5575 1.2150 
*I *15:d B *C 2.4450 1.1750 
*I *22:s B *C 2.4450 1.1750 
*N *33:2 *C 3.5575 0.7400 
*N *33:3 *C 3.5000 0.7400 
*N *33:6 *C 2.6700 0.6300 

*CAP
0 *15:d 7.89524e-17
1 *9:g 5.68018e-17
2 *28:s 5.14787e-17
3 *40:g 1.89066e-17
4 *33:6 1.42971e-16
5 *33:2 2.06865e-17
6 *33:3 1.43819e-16

*RES
0 *9:g *33:2 69.040184  // $poly_conn
1 *33:2 *33:3 45.794373  // $poly_conn
2 *33:2 *40:g 22.886339  // $poly_conn
3 *28:s *33:6 75.260506  // $metal1_conn
4 *33:6 *15:d 62.44841  // $metal1_conn
5 *33:6 *33:3 0.934057  // $metal1_conn

*END

*D_NET *32 3.96972e-16

*CONN
*I *42:g B *C 3.9725 0.5100 
*I *50:d B *C 4.9550 0.4525 
*I *11:g B *C 4.0825 1.2150 
*I *13:d B *C 4.9550 1.3025 
*N *32:2 *C 4.0825 0.9200 
*N *32:4 *C 4.3200 0.9200 
*N *32:6 *C 4.9650 1.1600 

*CAP
0 *13:d 8.75113e-18
1 *11:g 3.21585e-17
2 *50:d 6.61969e-17
3 *42:g 5.88059e-17
4 *32:6 8.09218e-17
5 *32:2 3.889e-17
6 *32:4 1.11248e-16

*RES
0 *11:g *32:2 15.869391  // $poly_conn
1 *32:2 *42:g 84.491127  // $poly_conn
2 *32:2 *32:4 67.368683  // $poly_conn
3 *13:d *32:6 62.050648  // $metal1_conn
4 *32:6 *32:4 0.613806  // $metal1_conn
5 *32:6 *50:d 75.608398  // $metal1_conn

*END

*D_NET *31 6.54431e-16

*CONN
*I *51:d B *C 0.1200 0.4425 
*I *23:g B *C 0.4275 0.4425 
*I *24:g B *C 0.8475 0.4825 
*I *29:g B *C 2.5175 0.4825 
*I *14:d B *C 0.1200 1.2425 
*I *16:g B *C 0.4275 1.2425 
*I *18:g B *C 1.2575 1.1750 
*I *22:g B *C 2.3425 1.1750 
*N *31:4 *C 0.8475 0.6850 
*N *31:5 *C 0.4275 0.6850 
*N *31:6 *C 0.4275 0.6150 
*N *31:7 *C 0.3650 0.6150 
*N *31:11 *C 0.1000 0.6150 

*CAP
0 *22:g 1.01164e-16
1 *18:g 1.20649e-16
2 *16:g 4.79772e-17
3 *14:d 5.07649e-17
4 *29:g 8.43027e-17
5 *24:g 2.27179e-17
6 *23:g 2.21116e-17
7 *51:d 1.56662e-17
8 *31:11 4.34592e-17
9 *31:6 4.06795e-17
10 *31:4 4.45632e-17
11 *31:7 6.03756e-17

*RES
0 *29:g *22:g 141.773514  // $poly_conn
1 *22:g *18:g 370.223236  // $poly_conn
2 *18:g *31:4 172.963455  // $poly_conn
3 *31:4 *31:5 102.413841  // $poly_conn
4 *31:5 *31:6 15.345564  // $poly_conn
5 *31:6 *31:7 46.294373  // $poly_conn
6 *31:4 *24:g 21.44841  // $poly_conn
7 *31:5 *16:g 114.490868  // $poly_conn
8 *31:6 *23:g 23.931625  // $poly_conn
9 *31:7 *31:11 0.178088  // $metal1_conn
10 *31:11 *51:d 75.107574  // $metal1_conn
11 *31:11 *14:d 62.423218  // $metal1_conn

*END

*D_NET *8 3.94528e-16

*CONN
*I *24:d B *C 1.0950 0.4825 
*I *25:d B *C 1.0950 0.4825 
*I *27:g B *C 1.8825 0.4825 
*I *17:d B *C 1.1550 1.1750 
*I *18:d B *C 1.1550 1.1750 
*I *20:g B *C 1.8825 1.1750 
*N *8:2 *C 1.8450 0.7600 
*N *8:4 *C 1.1550 0.8850 

*CAP
0 *20:g 4.80898e-17
1 *17:d 3.30799e-17
2 *27:g 2.9898e-17
3 *24:d 7.02693e-17
4 *8:4 7.17751e-17
5 *8:2 1.41416e-16

*RES
0 *20:g *8:2 57.180859  // $poly_conn
1 *8:2 *27:g 35.385986  // $poly_conn
2 *8:2 *8:4 45.576752  // $metal1_conn
3 *8:4 *24:d 75.285164  // $metal1_conn
4 *8:4 *17:d 62.138535  // $metal1_conn

*END

*D_NET *6 3.37919e-16

*CONN
*I *26:g B *C 1.5825 0.4825 
*I *27:d B *C 2.0725 0.4825 
*I *28:d B *C 2.0725 0.4825 
*I *19:g B *C 1.5825 1.1750 
*I *20:d B *C 2.1125 1.1750 
*I *22:d B *C 2.1125 1.1750 
*N *6:1 *C 1.6650 0.9200 
*N *6:2 *C 1.5825 0.9200 
*N *6:6 *C 2.0350 0.9200 

*CAP
0 *20:d 3.37994e-17
1 *19:g 4.21286e-17
2 *27:d 7.11861e-17
3 *26:g 4.36828e-17
4 *6:6 4.84153e-17
5 *6:2 2.39837e-17
6 *6:1 7.4723e-17

*RES
0 *6:1 *6:2 48.358204  // $poly_conn
1 *6:2 *26:g 80.819893  // $poly_conn
2 *6:2 *19:g 20.563484  // $poly_conn
3 *20:d *6:6 62.109612  // $metal1_conn
4 *6:6 *6:1 0.272601  // $metal1_conn
5 *6:6 *27:d 75.299843  // $metal1_conn

*END

*D_NET *4 4.98051e-16

*CONN
*I *34:g B *C 2.6525 0.4825 
*I *36:g B *C 3.0025 0.5100 
*I *38:g B *C 3.2175 0.5100 
*I *40:d B *C 3.7650 0.5100 
*I *42:d B *C 3.7650 0.5100 
*I *3:g B *C 2.6525 1.1750 
*I *5:g B *C 3.0125 1.2150 
*I *7:g B *C 3.2175 1.2150 
*I *9:d B *C 3.7075 1.2150 
*I *10:d B *C 3.7075 1.2150 
*N *4:5 *C 2.6525 0.7225 
*N *4:12 *C 3.6600 0.9300 

*CAP
0 *9:d 3.90455e-17
1 *7:g 1.94561e-16
2 *3:g 7.43774e-17
3 *40:d 5.29483e-17
4 *34:g 3.62895e-17
5 *4:12 6.48853e-17
6 *4:5 3.59446e-17

*RES
0 *4:5 *3:g 76.029327  // $poly_conn
1 *4:5 *34:g 35.003685  // $poly_conn
2 *7:g *4:5 90.580833  // $poly_conn
3 *4:12 *7:g 45.270409  // $metal1_conn
4 *4:12 *9:d 62.128529  // $metal1_conn
5 *40:d *4:12 75.278801  // $metal1_conn

*END

