*SPEF "IEEE 1481-1999"
*DESIGN  "EDFFTRXL"
*DATE "Mon Sep 27 09:47:47 2010"
*VENDOR "Cadence Design Systems"
*PROGRAM "Assura RCX"
*VERSION "3.2 Red Hat Linux release 7.2 (Enigma) - (09/09/2009-10:39)"
*DESIGN_FLOW "Physical Verification"
*DIVIDER /
*DELIMITER :
*BUS_DELIMITER []
*T_UNIT 1 PS
*C_UNIT 1e15 FF
*R_UNIT 1 OHM
*L_UNIT 1 MH
// DeviceFingerDelim "@"
// MATCHED
// caps2d version: 10

*NAME_MAP
*1 mn25
*2 RN
*3 mn21
*4 mn2
*5 mn3
*6 mp25
*7 mn5
*8 mp21
*9 mn4
*10 mp2
*11 mn6
*12 mp3
*13 mn7
*14 mp5
*15 mn0
*16 mp4
*17 mp6
*18 mp7
*19 mp0
*20 VSS
*21 mp1
*22 mp50
*23 mp51
*24 mp40
*25 mp30
*26 mp35
*27 mp36
*28 mp26
*29 mp57
*30 mp56
*31 n3
*32 mp55
*33 Eb
*34 mp20
*35 n2
*36 mp45
*37 RNb
*38 Dp
*39 CKbb
*40 D
*41 mout
*42 E
*43 n20
*44 n30
*45 CKb
*46 qbint
*47 qint
*48 Q
*49 Db
*50 net411
*51 net427
*52 n22
*53 CK
*54 net496
*55 net516
*56 n21
*57 n0
*58 VDD
*59 n1
*60 mn1
*61 mn57
*62 mn56
*63 mn55
*64 mn20
*65 mn45
*66 mn50
*67 mn51
*68 QN
*69 mn40
*70 mn30
*71 mn35
*72 mn36
*73 mn26

*GROUND_NETS VSS

*PORTS
*58 I
*20 I
*53 I
*40 I
*42 I
*2 I
*48 O
*68 O

*D_NET *58 7.71332e-16

*CONN
*P *58 I *C 0.1000 1.7100 
*I *6:s B *C 3.6850 1.1375 
*I *8:s B *C 3.6850 1.1375 
*I *10:s B *C 4.4700 1.5700 
*I *12:s B *C 4.4700 1.5700 
*I *19:s B *C 6.4150 1.0075 
*I *21:s B *C 6.4150 1.0075 
*I *22:s B *C 1.7750 1.1375 
*I *25:s B *C 2.7950 1.1375 
*I *26:s B *C 2.7950 1.1375 
*I *29:s B *C 0.5500 1.3450 
*I *30:s B *C 0.5500 1.3450 
*I *32:s B *C 1.1600 1.3550 
*I *34:s B *C 1.1600 1.3550 
*I *36:s B *C 1.7750 1.1375 
*N *58:2 *C 5.7000 1.7100 
*N *58:3 *C 5.7000 1.7100 
*N *58:4 *C 4.4450 1.7100 
*N *58:5 *C 3.5700 1.7100 
*N *58:6 *C 3.5000 1.7100 
*N *58:7 *C 2.6800 1.7100 
*N *58:8 *C 1.6700 1.7100 
*N *58:9 *C 1.2000 1.7100 
*N *58:10 *C 0.5250 1.7100 

*CAP
0 *32:s 1.88907e-17
1 *29:s 5.18773e-18
2 *25:s 1.62835e-17
3 *22:s 6.73192e-17
4 *19:s 3.77408e-17
5 *10:s 1.32167e-17
6 *6:s 1.60614e-17
7 *58:10 8.06317e-18
8 *58:8 2.61274e-17
9 *58:7 3.51035e-17
10 *58:5 1.5162e-17
11 *58:4 4.25957e-17
12 *58:2 4.63846e-16
13 *58 5.73367e-18

*RES
0 *19:s *58:3 62.525043  // $metal1_conn
1 *58:3 *58:4 0.628955  // $metal1_conn
2 *58:4 *58:5 0.438259  // $metal1_conn
3 *58:5 *58:6 0.034889  // $metal1_conn
4 *58:6 *58:7 0.410883  // $metal1_conn
5 *58:7 *58:8 0.505937  // $metal1_conn
6 *58:8 *58:9 0.235422  // $metal1_conn
7 *58:9 *58:10 0.338192  // $metal1_conn
8 *58:10 *58 0.212612  // $metal1_conn
9 *58:4 *10:s 62.074413  // $metal1_conn
10 *58:5 *6:s 62.09721  // $metal1_conn
11 *58:7 *25:s 62.09721  // $metal1_conn
12 *58:8 *22:s 62.388386  // $metal1_conn
13 *58:9 *32:s 62.223003  // $metal1_conn
14 *58:10 *29:s 62.224129  // $metal1_conn
15 *58:2 *58:3 6.818182  // $metal1_conn
16 *58:2 *58:6 6.818182  // $metal1_conn
17 *58:2 *58:9 6.25  // $metal1_conn

*END

*D_NET *20 0

*CONN
*P *20 I *C 0.1000 0.0000 
*I *1:s B *C 3.6775 0.5875 
*I *3:s B *C 3.6775 0.5875 
*I *4:s B *C 4.4925 0.4125 
*I *5:s B *C 4.4925 0.4125 
*I *9:s B *C 5.1150 0.3700 
*I *11:s B *C 5.4000 0.3275 
*I *15:s B *C 6.3200 0.5875 
*I *60:s B *C 6.3200 0.5875 
*I *61:s B *C 0.5400 0.5875 
*I *62:s B *C 0.5400 0.5875 
*I *63:s B *C 1.1400 0.5875 
*I *64:s B *C 1.1400 0.5875 
*I *65:s B *C 1.8200 0.5875 
*I *66:s B *C 1.8200 0.5875 
*I *70:s B *C 2.8600 0.5875 
*I *71:s B *C 2.8600 0.5875 
*N *20:2 *C 5.7000 0.0000 
*N *20:3 *C 5.7000 0.0000 
*N *20:4 *C 5.3600 0.0000 
*N *20:5 *C 5.0850 0.0000 
*N *20:6 *C 4.6000 0.0000 
*N *20:7 *C 3.6550 0.0000 
*N *20:8 *C 3.5000 0.0000 
*N *20:9 *C 2.7450 0.0000 
*N *20:10 *C 1.8100 0.0000 
*N *20:11 *C 1.2000 0.0000 
*N *20:12 *C 1.1250 0.0000 
*N *20:13 *C 0.5250 0.0000 


*RES
0 *15:s *20:3 75.70961  // $metal1_conn
1 *20:3 *20:4 0.170251  // $metal1_conn
2 *20:4 *20:5 0.13747  // $metal1_conn
3 *20:5 *20:6 0.242746  // $metal1_conn
4 *20:6 *20:7 0.472402  // $metal1_conn
5 *20:7 *20:8 0.076559  // $metal1_conn
6 *20:8 *20:9 0.378297  // $metal1_conn
7 *20:9 *20:10 0.468338  // $metal1_conn
8 *20:10 *20:11 0.305606  // $metal1_conn
9 *20:11 *20:12 0.037475  // $metal1_conn
10 *20:12 *20:13 0.300397  // $metal1_conn
11 *20:13 *20 0.212612  // $metal1_conn
12 *20:4 *11:s 75.187195  // $metal1_conn
13 *20:5 *9:s 75.187195  // $metal1_conn
14 *20:6 *4:s 75.254196  // $metal1_conn
15 *20:7 *1:s 75.045799  // $metal1_conn
16 *20:9 *70:s 75.298004  // $metal1_conn
17 *20:10 *65:s 75.074409  // $metal1_conn
18 *20:12 *63:s 75.074409  // $metal1_conn
19 *20:13 *61:s 75.074409  // $metal1_conn
20 *20:2 *20:3 5.636364  // $metal1_conn
21 *20:2 *20:8 5.636364  // $metal1_conn
22 *20:2 *20:11 5.166667  // $metal1_conn

*END

*D_NET *53 2.20355e-16

*CONN
*P *53 I *C 1.1000 0.6650 
*I *64:g B *C 1.1875 0.5875 
*I *34:g B *C 1.1875 1.0075 
*N *53:2 *C 1.1875 0.7600 
*N *53:3 *C 1.1350 0.7600 

*CAP
0 *34:g 4.06216e-17
1 *64:g 2.75273e-17
2 *53:3 1.09798e-16
3 *53 4.24077e-17

*RES
0 *34:g *53:2 33.14275  // $poly_conn
1 *53:2 *53:3 45.294373  // $poly_conn
2 *53:2 *64:g 22.886339  // $poly_conn
3 *53:3 *53 0.053541  // $metal1_conn

*END

*D_NET *40 1.95969e-16

*CONN
*P *40 I *C 6.3000 1.0450 
*I *60:g B *C 6.4425 0.5875 
*I *21:g B *C 6.4625 1.0075 
*N *40:2 *C 6.4525 0.7950 
*N *40:3 *C 6.4050 0.7950 

*CAP
0 *21:g 2.66179e-17
1 *60:g 2.44026e-17
2 *40:3 8.92439e-17
3 *40 5.57048e-17

*RES
0 *21:g *40:2 28.017475  // $poly_conn
1 *40:2 *40:3 47.1161  // $poly_conn
2 *40:2 *60:g 35.709782  // $poly_conn
3 *40 *40:3 0.083157  // $metal1_conn

*END

*D_NET *42 4.36097e-16

*CONN
*P *42 I *C 5.9000 0.8550 
*I *11:g B *C 5.4925 0.3275 
*I *15:g B *C 6.1975 0.5875 
*I *17:g B *C 5.3875 1.0875 
*I *19:g B *C 6.1975 1.0075 
*N *42:2 *C 5.4650 0.7950 
*N *42:5 *C 6.1975 0.7675 
*N *42:6 *C 5.9050 0.7950 

*CAP
0 *19:g 3.72742e-17
1 *17:g 4.03398e-17
2 *15:g 2.49581e-17
3 *11:g 6.80687e-17
4 *42:5 1.95121e-17
5 *42:2 1.39209e-16
6 *42:6 8.34941e-17
7 *42 2.32413e-17

*RES
0 *11:g *42:2 89.606964  // $poly_conn
1 *42:2 *17:g 42.292484  // $poly_conn
2 *19:g *42:5 32.822353  // $poly_conn
3 *42:5 *42:6 106.787308  // $poly_conn
4 *42:5 *15:g 26.412098  // $poly_conn
5 *42 *42:6 0.029034  // $metal1_conn
6 *42:6 *42:2 45.268368  // $metal1_conn

*END

*D_NET *2 2.13677e-16

*CONN
*P *2 I *C 4.5000 1.0450 
*I *4:g B *C 4.3125 0.4125 
*I *10:g B *C 4.3125 1.0875 
*N *2:2 *C 4.3500 0.8800 

*CAP
0 *10:g 3.34034e-17
1 *4:g 3.36874e-17
2 *2:2 9.24907e-17
3 *2 5.40956e-17

*RES
0 *10:g *2:2 16.15522  // $poly_conn
1 *2:2 *4:g 91.796249  // $poly_conn
2 *2 *2:2 45.168335  // $metal1_conn

*END

*D_NET *48 1.11491e-16

*CONN
*P *48 O *C 0.9000 0.6650 
*I *63:d B *C 0.9000 0.5875 
*I *32:d B *C 0.9000 1.0075 

*CAP
0 *32:d 4.92213e-17
1 *63:d 3.12649e-17
2 *48 3.10051e-17

*RES
0 *48 *63:d 75.050941  // $metal1_conn
1 *48 *32:d 62.176804  // $metal1_conn

*END

*D_NET *68 6.80586e-17

*CONN
*P *68 O *C 0.1000 0.6650 
*I *61:d B *C 0.2825 0.5875 
*I *29:d B *C 0.2825 1.0075 
*N *68:3 *C 0.2550 0.6000 

*CAP
0 *29:d 1.51806e-17
1 *61:d 3.1703e-17
2 *68 2.1175e-17

*RES
0 *29:d *68:3 62.224415  // $metal1_conn
1 *68:3 *68 0.07344  // $metal1_conn
2 *61:d *68:3 75  // $metal1_conn

*END

*D_NET *59 9.66174e-19

*CONN
*I *11:d B *C 5.5450 0.3275 
*I *13:s B *C 5.5450 0.3275 

*CAP
0 *11:d 9.66174e-19

*RES
0 *13:s *11:d 0.001  // $mwires

*END

*D_NET *57 1.31823e-18

*CONN
*I *7:s B *C 4.9300 0.4125 
*I *9:d B *C 4.9300 0.4125 

*CAP
0 *7:s 1.31823e-18

*RES
0 *9:d *7:s 0.001  // $mwires

*END

*D_NET *56 0

*CONN
*I *1:d B *C 3.4325 0.5875 
*I *73:s B *C 3.4325 0.5875 


*RES
0 *73:s *1:d 0.001  // $mwires

*END

*D_NET *55 5.49529e-19

*CONN
*I *71:d B *C 2.9600 0.5875 
*I *72:s B *C 2.9600 0.5875 

*CAP
0 *71:d 5.49529e-19

*RES
0 *72:s *71:d 0.001  // $mwires

*END

*D_NET *54 0

*CONN
*I *66:d B *C 1.9200 0.5875 
*I *67:s B *C 1.9200 0.5875 


*RES
0 *67:s *66:d 0.001  // $mwires

*END

*D_NET *52 0

*CONN
*I *6:d B *C 3.3775 1.1375 
*I *28:s B *C 3.3775 1.1375 


*RES
0 *28:s *6:d 0.001  // $mwires

*END

*D_NET *51 9.65032e-19

*CONN
*I *26:d B *C 2.8950 1.1375 
*I *27:s B *C 2.8950 1.1375 

*CAP
0 *26:d 9.65032e-19

*RES
0 *27:s *26:d 0.001  // $mwires

*END

*D_NET *50 6.3426e-20

*CONN
*I *22:d B *C 1.9500 1.1375 
*I *23:s B *C 1.9500 1.1375 

*CAP
0 *22:d 6.3426e-20

*RES
0 *23:s *22:d 0.001  // $mwires

*END

*D_NET *47 1.94366e-16

*CONN
*I *61:g B *C 0.3925 0.5875 
*I *62:d B *C 0.6800 0.5875 
*I *29:g B *C 0.3925 1.0075 
*I *30:d B *C 0.6800 1.0075 
*N *47:1 *C 0.4450 0.7600 
*N *47:2 *C 0.3925 0.7600 
*N *47:6 *C 0.6800 0.7700 

*CAP
0 *30:d 2.24116e-17
1 *29:g 3.59739e-17
2 *62:d 2.51922e-17
3 *61:g 3.03001e-17
4 *47:6 2.63015e-17
5 *47:1 5.41864e-17

*RES
0 *47:1 *47:2 45.294373  // $poly_conn
1 *47:2 *61:g 20.563484  // $poly_conn
2 *47:2 *29:g 30.819893  // $poly_conn
3 *30:d *47:6 62.117573  // $metal1_conn
4 *47:6 *47:1 0.122318  // $metal1_conn
5 *47:6 *62:d 75.109558  // $metal1_conn

*END

*D_NET *46 1.23839e-15

*CONN
*I *7:g B *C 4.8775 0.4125 
*I *62:g B *C 0.5875 0.5875 
*I *63:g B *C 0.9925 0.5875 
*I *65:d B *C 1.5300 0.5875 
*I *66:g B *C 1.8675 0.5875 
*I *14:g B *C 4.7775 1.0875 
*I *22:g B *C 1.8975 1.1375 
*I *30:g B *C 0.5875 1.0075 
*I *32:g B *C 0.9925 1.0075 
*I *36:d B *C 1.5400 1.1375 
*N *46:2 *C 0.9925 0.7375 
*N *46:3 *C 0.5875 0.7375 
*N *46:6 *C 0.9550 1.2150 
*N *46:10 *C 1.8600 1.3450 
*N *46:13 *C 4.7350 1.3100 
*N *46:14 *C 1.9150 1.2975 
*N *46:15 *C 1.5000 0.9650 
*N *46:17 *C 1.5100 1.0900 

*CAP
0 *36:d 4.26591e-17
1 *32:g 2.38252e-17
2 *30:g 3.50499e-17
3 *22:g 6.1224e-17
4 *14:g 5.51839e-17
5 *66:g 8.20305e-17
6 *65:d 5.26345e-17
7 *63:g 2.44149e-17
8 *62:g 2.58379e-17
9 *7:g 1.01215e-16
10 *46:15 7.25055e-17
11 *46:3 2.97024e-17
12 *46:2 2.68738e-17
13 *46:6 7.89046e-17
14 *46:10 2.95634e-16
15 *46:13 2.30698e-16

*RES
0 *63:g *46:2 18.71979  // $poly_conn
1 *46:2 *46:3 94.638512  // $poly_conn
2 *46:3 *62:g 18.337015  // $poly_conn
3 *46:2 *32:g 40.514664  // $poly_conn
4 *32:g *46:6 61.15522  // $poly_conn
5 *46:3 *30:g 40.131889  // $poly_conn
6 *66:g *22:g 102.031418  // $poly_conn
7 *22:g *46:10 66.126205  // $poly_conn
8 *7:g *14:g 140.736069  // $poly_conn
9 *14:g *46:13 65.001373  // $poly_conn
10 *46:13 *46:14 1.957265  // $metal1_conn
11 *46:14 *46:15 0.542006  // $metal1_conn
12 *46:15 *46:17 0.078429  // $metal1_conn
13 *46:17 *46:6 0.426758  // $metal1_conn
14 *46:14 *46:10 0.039619  // $metal1_conn
15 *46:15 *65:d 75.277092  // $metal1_conn
16 *36:d *46:17 62  // $metal1_conn

*END

*D_NET *45 1.27123e-15

*CONN
*I *3:g B *C 3.7325 0.5875 
*I *64:d B *C 1.2800 0.5875 
*I *67:g B *C 1.9725 0.5875 
*I *73:g B *C 3.3425 0.5875 
*I *8:g B *C 3.7325 1.1375 
*I *24:g B *C 2.2275 1.1375 
*I *27:g B *C 2.9475 1.1375 
*I *34:d B *C 1.2825 1.0075 
*N *45:2 *C 2.0000 0.2950 
*N *45:4 *C 2.2650 0.8900 
*N *45:6 *C 2.9750 0.9000 
*N *45:8 *C 3.3800 0.7600 
*N *45:10 *C 3.6950 0.7600 
*N *45:12 *C 2.9750 0.6100 
*N *45:13 *C 2.2650 0.4100 
*N *45:14 *C 2.0000 0.4100 
*N *45:16 *C 1.2900 0.5750 

*CAP
0 *34:d 6.20622e-17
1 *27:g 6.23794e-17
2 *24:g 3.90647e-17
3 *8:g 4.75636e-17
4 *73:g 5.08575e-17
5 *67:g 7.90333e-17
6 *64:d 9.96375e-17
7 *3:g 3.19812e-17
8 *45:14 6.9641e-17
9 *45:13 9.25294e-17
10 *45:12 1.4073e-16
11 *45:2 5.19262e-17
12 *45:4 1.14008e-16
13 *45:6 1.03431e-16
14 *45:8 1.49936e-16
15 *45:10 7.64499e-17

*RES
0 *67:g *45:2 92.897079  // $poly_conn
1 *24:g *45:4 71.411629  // $poly_conn
2 *27:g *45:6 69.82016  // $poly_conn
3 *73:g *45:8 61.15522  // $poly_conn
4 *8:g *45:10 59.744961  // $poly_conn
5 *45:10 *3:g 16.15522  // $poly_conn
6 *45:10 *45:8 45.232895  // $metal1_conn
7 *45:8 *45:12 0.673851  // $metal1_conn
8 *45:12 *45:13 0.639764  // $metal1_conn
9 *45:13 *45:14 0.213061  // $metal1_conn
10 *45:14 *45:16 0.606165  // $metal1_conn
11 *45:12 *45:6 0.228499  // $metal1_conn
12 *45:13 *45:4 0.360937  // $metal1_conn
13 *45:14 *45:2 0.042612  // $metal1_conn
14 *45:16 *34:d 62.316113  // $metal1_conn
15 *64:d *45:16 75  // $metal1_conn

*END

*D_NET *44 2.8682e-16

*CONN
*I *65:g B *C 1.6525 0.5875 
*I *67:d B *C 2.0750 0.5875 
*I *69:d B *C 2.0750 0.5875 
*I *23:d B *C 2.1150 1.1375 
*I *24:d B *C 2.1150 1.1375 
*I *36:g B *C 1.6525 1.1375 
*N *44:2 *C 1.6800 0.7700 
*N *44:5 *C 2.1050 0.7700 

*CAP
0 *36:g 4.24095e-17
1 *23:d 4.90692e-17
2 *67:d 3.40342e-17
3 *65:g 3.45341e-17
4 *44:5 4.78717e-17
5 *44:2 7.89014e-17

*RES
0 *36:g *44:2 58.153492  // $poly_conn
1 *44:2 *65:g 19.691952  // $poly_conn
2 *23:d *44:5 62.246521  // $metal1_conn
3 *44:5 *44:2 45.292915  // $metal1_conn
4 *44:5 *67:d 75.120407  // $metal1_conn

*END

*D_NET *43 3.47655e-16

*CONN
*I *70:g B *C 2.5775 0.5875 
*I *72:d B *C 3.1775 0.5875 
*I *73:d B *C 3.1775 0.5875 
*I *25:g B *C 2.5775 1.1375 
*I *27:d B *C 3.1175 1.1375 
*I *28:d B *C 3.1175 1.1375 
*N *43:2 *C 2.6150 0.9300 
*N *43:6 *C 3.1350 1.1200 

*CAP
0 *27:d 8.08187e-17
1 *25:g 3.09092e-17
2 *72:d 7.68335e-17
3 *70:g 4.57776e-17
4 *43:2 1.13316e-16

*RES
0 *25:g *43:2 16.15522  // $poly_conn
1 *43:2 *70:g 59.744961  // $poly_conn
2 *72:d *43:6 75.395737  // $metal1_conn
3 *43:6 *43:2 45.480659  // $metal1_conn
4 *27:d *43:6 62  // $metal1_conn

*END

*D_NET *41 3.98677e-16

*CONN
*I *69:s B *C 2.3775 0.5875 
*I *70:d B *C 2.3775 0.5875 
*I *71:g B *C 2.9075 0.5875 
*I *24:s B *C 2.4025 1.1375 
*I *25:d B *C 2.4025 1.1375 
*I *26:g B *C 2.8425 1.1375 
*N *41:2 *C 2.8425 0.7700 
*N *41:3 *C 2.7850 0.7700 
*N *41:5 *C 2.4250 0.7700 

*CAP
0 *26:g 7.84381e-17
1 *24:s 4.79687e-17
2 *71:g 5.21958e-17
3 *69:s 4.12905e-17
4 *41:5 5.51731e-17
5 *41:2 4.21219e-17
6 *41:3 8.14895e-17

*RES
0 *71:g *41:2 25.744232  // $poly_conn
1 *41:2 *41:3 47.858013  // $poly_conn
2 *41:2 *26:g 55.022137  // $poly_conn
3 *41:3 *41:5 0.26517  // $metal1_conn
4 *41:5 *24:s 62.233932  // $metal1_conn
5 *41:5 *69:s 75.135384  // $metal1_conn

*END

*D_NET *39 5.98845e-16

*CONN
*I *3:d B *C 3.8250 0.5875 
*I *69:g B *C 2.1775 0.5875 
*I *72:g B *C 3.0125 0.5875 
*I *8:d B *C 3.8250 1.1375 
*I *23:g B *C 2.0025 1.1375 
*I *28:g B *C 3.2875 1.1375 
*N *39:2 *C 3.3250 0.9200 
*N *39:7 *C 3.8850 0.9200 

*CAP
0 *28:g 3.18347e-17
1 *23:g 1.00744e-16
2 *8:d 3.26934e-17
3 *72:g 1.0728e-16
4 *69:g 9.58761e-17
5 *3:d 4.46697e-17
6 *39:7 5.48e-17
7 *39:2 1.30947e-16

*RES
0 *28:g *39:2 18.719322  // $poly_conn
1 *39:2 *72:g 110.95163  // $poly_conn
2 *72:g *69:g 306.120697  // $poly_conn
3 *69:g *23:g 116.087532  // $poly_conn
4 *8:d *39:7 62.110588  // $metal1_conn
5 *39:7 *39:2 45.396427  // $metal1_conn
6 *39:7 *3:d 75.22213  // $metal1_conn

*END

*D_NET *38 9.37274e-16

*CONN
*I *1:g B *C 3.5225 0.5875 
*I *5:d B *C 4.7750 0.4125 
*I *7:d B *C 4.7750 0.4125 
*I *13:d B *C 5.6900 0.3275 
*I *6:g B *C 3.4675 1.1375 
*I *17:d B *C 5.2950 1.0875 
*I *18:d B *C 5.6950 1.0875 
*N *38:1 *C 3.4850 0.4150 
*N *38:6 *C 4.7750 0.4250 
*N *38:7 *C 4.7975 0.5600 
*N *38:8 *C 5.2800 0.9750 

*CAP
0 *18:d 7.85184e-17
1 *17:d 2.93925e-17
2 *6:g 7.70658e-17
3 *13:d 1.12232e-16
4 *5:d 9.38373e-17
5 *1:g 5.58383e-17
6 *38:8 1.15141e-16
7 *38:7 2.05237e-16
8 *38:1 1.70012e-16

*RES
0 *38:1 *1:g 61.15522  // $poly_conn
1 *1:g *6:g 97.146332  // $poly_conn
2 *13:d *38:6 75.733727  // $metal1_conn
3 *38:6 *38:7 0.077112  // $metal1_conn
4 *38:7 *38:1 1.224527  // $metal1_conn
5 *38:7 *38:8 0.65384  // $metal1_conn
6 *38:8 *17:d 62.049728  // $metal1_conn
7 *38:8 *18:d 62.318672  // $metal1_conn
8 *5:d *38:6 75  // $metal1_conn

*END

*D_NET *37 3.56966e-16

*CONN
*I *4:d B *C 4.2100 0.4125 
*I *5:g B *C 4.6725 0.4125 
*I *10:d B *C 4.1950 1.0875 
*I *12:g B *C 4.5725 1.0875 
*N *37:2 *C 4.6100 0.7200 
*N *37:4 *C 4.1600 0.7200 

*CAP
0 *12:g 5.50934e-17
1 *10:d 4.2821e-17
2 *5:g 3.48406e-17
3 *4:d 4.45647e-17
4 *37:4 5.62433e-17
5 *37:2 1.23404e-16

*RES
0 *5:g *37:2 62.630981  // $poly_conn
1 *37:2 *12:g 57.180859  // $poly_conn
2 *37:2 *37:4 45.328014  // $metal1_conn
3 *37:4 *10:d 62.227062  // $metal1_conn
4 *37:4 *4:d 75.210823  // $metal1_conn

*END

*D_NET *35 1.57528e-16

*CONN
*I *12:d B *C 4.6750 1.0875 
*I *14:s B *C 4.6750 1.0875 
*I *16:s B *C 5.0750 1.0875 

*CAP
0 *16:s 8.65973e-17
1 *12:d 7.09306e-17

*RES
0 *16:s *12:d 124.3097  // $metal1_conn

*END

*D_NET *33 4.65618e-16

*CONN
*I *9:g B *C 4.9825 0.4125 
*I *15:d B *C 6.1050 0.5875 
*I *16:g B *C 4.9825 1.0875 
*I *19:d B *C 6.1050 1.0075 
*N *33:2 *C 5.0100 0.6350 
*N *33:6 *C 6.0950 0.6000 

*CAP
0 *19:d 5.17997e-17
1 *16:g 4.82423e-17
2 *15:d 1.20594e-16
3 *9:g 4.7719e-17
4 *33:2 1.97263e-16

*RES
0 *16:g *33:2 79.948364  // $poly_conn
1 *33:2 *9:g 29.94836  // $poly_conn
2 *19:d *33:6 62.281746  // $metal1_conn
3 *33:6 *33:2 45.834797  // $metal1_conn
4 *15:d *33:6 75  // $metal1_conn

*END

*D_NET *31 1.59375e-16

*CONN
*I *14:d B *C 4.8800 1.0875 
*I *16:d B *C 4.8800 1.0875 
*I *17:s B *C 5.4925 1.0875 
*I *18:s B *C 5.4925 1.0875 

*CAP
0 *17:s 7.70092e-17
1 *14:d 8.23662e-17

*RES
0 *14:d *17:s 124.467369  // $metal1_conn

*END

*D_NET *49 3.91091e-16

*CONN
*I *13:g B *C 5.5975 0.3275 
*I *60:d B *C 6.5450 0.5875 
*I *18:g B *C 5.5975 1.0875 
*I *21:d B *C 6.5550 1.0075 
*N *49:3 *C 5.6350 1.2950 
*N *49:5 *C 6.5650 0.9600 

*CAP
0 *21:d 1.13355e-16
1 *18:g 6.17599e-17
2 *60:d 2.67014e-17
3 *13:g 8.08262e-17
4 *49:3 1.08449e-16

*RES
0 *18:g *13:g 148.717941  // $poly_conn
1 *18:g *49:3 61.15522  // $poly_conn
2 *49:5 *49:3 0.866994  // $metal1_conn
3 *49:5 *60:d 75.256187  // $metal1_conn
4 *21:d *49:5 62  // $metal1_conn

*END

