*SPEF "IEEE 1481-1999"
*DESIGN  "EDFFTRX1"
*DATE "Mon Sep 27 09:46:38 2010"
*VENDOR "Cadence Design Systems"
*PROGRAM "Assura RCX"
*VERSION "3.2 Red Hat Linux release 7.2 (Enigma) - (09/09/2009-10:39)"
*DESIGN_FLOW "Physical Verification"
*DIVIDER /
*DELIMITER :
*BUS_DELIMITER []
*T_UNIT 1 PS
*C_UNIT 1e15 FF
*R_UNIT 1 OHM
*L_UNIT 1 MH
// DeviceFingerDelim "@"
// MATCHED
// caps2d version: 10

*NAME_MAP
*1 CK
*2 VDD
*3 mn1
*4 mn26
*5 mn57
*6 mn56
*7 mn55
*8 mn20
*9 mn45
*10 mn50
*11 mn51
*12 mn40
*13 QN
*14 mn30
*15 n2
*16 mn35
*17 n3
*18 mn36
*19 Eb
*20 RNb
*21 CKbb
*22 Dp
*23 n20
*24 mout
*25 n30
*26 CKb
*27 RN
*28 mp1
*29 qbint
*30 mp50
*31 qint
*32 mp51
*33 net411
*34 mp40
*35 net427
*36 mp30
*37 n22
*38 mp35
*39 net496
*40 mp36
*41 net516
*42 D
*43 mp26
*44 n21
*45 E
*46 mp57
*47 n0
*48 mp56
*49 n1
*50 mp55
*51 VSS
*52 mp20
*53 mn25
*54 mp45
*55 mn21
*56 Q
*57 mp25
*58 mn2
*59 mp21
*60 mn3
*61 mp2
*62 mn5
*63 mp3
*64 mn4
*65 mp5
*66 mn6
*67 mp4
*68 mn7
*69 mp6
*70 mn0
*71 mp7
*72 mp0
*73 Db

*GROUND_NETS VSS

*PORTS
*2 I
*51 I
*1 I
*42 I
*45 I
*27 I
*56 O
*13 O

*D_NET *2 8.23092e-16

*CONN
*P *2 I *C 0.1000 1.7100 
*I *57:s B *C 4.0550 1.1375 
*I *59:s B *C 4.0550 1.1375 
*I *61:s B *C 4.9500 1.1125 
*I *63:s B *C 4.9500 1.1125 
*I *72:s B *C 6.9000 1.0075 
*I *28:s B *C 6.9000 1.0075 
*I *30:s B *C 2.1300 1.1375 
*I *36:s B *C 3.1300 1.1375 
*I *38:s B *C 3.1300 1.1375 
*I *46:s B *C 0.5550 1.3450 
*I *48:s B *C 0.5550 1.3450 
*I *50:s B *C 1.3000 1.0075 
*I *52:s B *C 1.3000 1.0075 
*I *54:s B *C 2.1300 1.1375 
*N *2:2 *C 6.0000 1.7100 
*N *2:3 *C 6.0000 1.7100 
*N *2:4 *C 4.8650 1.7100 
*N *2:5 *C 3.9400 1.7100 
*N *2:6 *C 3.6000 1.7100 
*N *2:7 *C 3.0450 1.7100 
*N *2:8 *C 1.9875 1.7100 
*N *2:9 *C 1.2000 1.7100 
*N *2:10 *C 0.5300 1.7100 

*CAP
0 *50:s 3.11911e-17
1 *46:s 1.57313e-17
2 *36:s 1.11194e-17
3 *30:s 7.02784e-17
4 *72:s 4.08095e-17
5 *61:s 1.11528e-17
6 *57:s 1.65045e-17
7 *2:10 8.54589e-18
8 *2:8 3.549e-17
9 *2:7 3.22342e-17
10 *2:5 2.1599e-17
11 *2:4 4.2476e-17
12 *2:2 4.77167e-16
13 *2 8.79271e-18

*RES
0 *72:s *2:3 62.618538  // $metal1_conn
1 *2:3 *2:4 0.568797  // $metal1_conn
2 *2:4 *2:5 0.463325  // $metal1_conn
3 *2:5 *2:6 0.170251  // $metal1_conn
4 *2:6 *2:7 0.278034  // $metal1_conn
5 *2:7 *2:8 0.530062  // $metal1_conn
6 *2:8 *2:9 0.394749  // $metal1_conn
7 *2:9 *2:10 0.335685  // $metal1_conn
8 *2:10 *2 0.215119  // $metal1_conn
9 *2:4 *61:s 62.074413  // $metal1_conn
10 *2:5 *57:s 62.09721  // $metal1_conn
11 *2:7 *36:s 62.074413  // $metal1_conn
12 *2:8 *30:s 62.376648  // $metal1_conn
13 *2:9 *50:s 62.145424  // $metal1_conn
14 *2:10 *46:s 62.224129  // $metal1_conn
15 *2:2 *2:3 6.25  // $metal1_conn
16 *2:2 *2:6 6.25  // $metal1_conn
17 *2:2 *2:9 6.25  // $metal1_conn

*END

*D_NET *51 0

*CONN
*P *51 I *C 0.1000 0.0000 
*I *53:s B *C 4.1350 0.5275 
*I *55:s B *C 4.1350 0.5275 
*I *58:s B *C 4.9125 0.3525 
*I *60:s B *C 4.9125 0.3525 
*I *64:s B *C 5.4950 0.3525 
*I *66:s B *C 5.7700 0.3525 
*I *70:s B *C 6.8150 0.5875 
*I *3:s B *C 6.8150 0.5875 
*I *5:s B *C 0.5625 0.5875 
*I *6:s B *C 0.5625 0.5875 
*I *7:s B *C 1.2375 0.5525 
*I *8:s B *C 1.2375 0.5525 
*I *9:s B *C 2.1300 0.5275 
*I *10:s B *C 2.1300 0.5275 
*I *14:s B *C 3.2150 0.5275 
*I *16:s B *C 3.2150 0.5275 
*N *51:2 *C 6.0000 0.0000 
*N *51:3 *C 6.0000 0.0000 
*N *51:4 *C 5.7300 0.0000 
*N *51:5 *C 5.4750 0.0000 
*N *51:6 *C 5.0200 0.0000 
*N *51:7 *C 4.0500 0.0000 
*N *51:8 *C 3.6000 0.0000 
*N *51:9 *C 3.1000 0.0000 
*N *51:10 *C 2.0800 0.0000 
*N *51:11 *C 1.2000 0.0000 
*N *51:12 *C 0.5300 0.0000 


*RES
0 *70:s *51:3 75.803261  // $metal1_conn
1 *51:3 *51:4 0.135159  // $metal1_conn
2 *51:4 *51:5 0.127443  // $metal1_conn
3 *51:5 *51:6 0.227707  // $metal1_conn
4 *51:6 *51:7 0.484935  // $metal1_conn
5 *51:7 *51:8 0.224447  // $metal1_conn
6 *51:8 *51:9 0.250462  // $metal1_conn
7 *51:9 *51:10 0.51095  // $metal1_conn
8 *51:10 *51:11 0.440962  // $metal1_conn
9 *51:11 *51:12 0.335685  // $metal1_conn
10 *51:12 *51 0.215119  // $metal1_conn
11 *51:4 *66:s 75.203827  // $metal1_conn
12 *51:5 *64:s 75.203827  // $metal1_conn
13 *51:6 *58:s 75.214272  // $metal1_conn
14 *51:7 *53:s 75.045799  // $metal1_conn
15 *51:9 *14:s 75.267319  // $metal1_conn
16 *51:10 *9:s 75.342178  // $metal1_conn
17 *51:11 *7:s 75.37043  // $metal1_conn
18 *51:12 *5:s 75.074409  // $metal1_conn
19 *51:2 *51:3 5.166667  // $metal1_conn
20 *51:2 *51:8 5.166667  // $metal1_conn
21 *51:2 *51:11 5.166667  // $metal1_conn

*END

*D_NET *1 1.91064e-16

*CONN
*P *1 I *C 1.3000 1.0450 
*I *8:g B *C 1.2925 0.5525 
*I *52:g B *C 1.3475 1.0075 
*N *1:2 *C 1.3200 0.7600 

*CAP
0 *52:g 1.84223e-17
1 *8:g 2.88088e-17
2 *1:2 7.55992e-17
3 *1 6.82333e-17

*RES
0 *52:g *1:2 27.384262  // $poly_conn
1 *1:2 *8:g 26.102209  // $poly_conn
2 *1 *1:2 45.168152  // $metal1_conn

*END

*D_NET *42 1.75467e-16

*CONN
*P *42 I *C 6.9000 1.0450 
*I *3:g B *C 6.9475 0.5875 
*I *28:g B *C 6.9475 1.0075 
*N *42:2 *C 6.9100 0.7950 

*CAP
0 *28:g 2.98273e-17
1 *3:g 2.31012e-17
2 *42:2 5.37628e-17
3 *42 6.8776e-17

*RES
0 *28:g *42:2 17.437269  // $poly_conn
1 *42:2 *3:g 25.129578  // $poly_conn
2 *42:2 *42 45.129879  // $metal1_conn

*END

*D_NET *45 4.27939e-16

*CONN
*P *45 I *C 6.3000 0.8550 
*I *66:g B *C 5.8625 0.3525 
*I *70:g B *C 6.6825 0.5875 
*I *69:g B *C 5.8125 1.1125 
*I *72:g B *C 6.6825 1.0075 
*N *45:2 *C 5.8900 0.8200 
*N *45:5 *C 6.6825 0.7925 
*N *45:6 *C 6.3050 0.8200 

*CAP
0 *72:g 3.43807e-17
1 *69:g 4.05371e-17
2 *70:g 2.48142e-17
3 *66:g 6.66958e-17
4 *45:5 2.05618e-17
5 *45:2 1.37627e-16
6 *45:6 1.03322e-16

*RES
0 *66:g *45:2 89.606964  // $poly_conn
1 *45:2 *69:g 42.292484  // $poly_conn
2 *72:g *45:5 26.412098  // $poly_conn
3 *45:5 *45:6 128.582184  // $poly_conn
4 *45:5 *70:g 32.822353  // $poly_conn
5 *45:2 *45 45.243866  // $metal1_conn
6 *45 *45:6 0.002305  // $metal1_conn

*END

*D_NET *27 2.17487e-16

*CONN
*P *27 I *C 4.9000 0.8550 
*I *58:g B *C 4.7325 0.3525 
*I *61:g B *C 4.7325 1.1125 
*N *27:2 *C 4.7700 0.8200 

*CAP
0 *61:g 3.76972e-17
1 *58:g 3.43766e-17
2 *27:2 6.58852e-17
3 *27 7.95276e-17

*RES
0 *61:g *27:2 37.950092  // $poly_conn
1 *27:2 *58:g 91.796249  // $poly_conn
2 *27:2 *27 45.07053  // $metal1_conn

*END

*D_NET *56 1.54861e-16

*CONN
*P *56 O *C 0.9000 0.6650 
*I *7:d B *C 0.9900 0.4950 
*I *50:d B *C 1.0100 1.0950 
*N *56:2 *C 0.9800 0.6650 

*CAP
0 *50:d 5.5776e-17
1 *7:d 2.09682e-17
2 *56 7.8117e-17

*RES
0 *50:d *56:2 62.438686  // $metal1_conn
1 *56:2 *56 0.023953  // $metal1_conn
2 *56:2 *7:d 75.179039  // $metal1_conn

*END

*D_NET *13 8.33018e-17

*CONN
*P *13 O *C 0.1000 0.6650 
*I *5:d B *C 0.3050 0.5300 
*I *46:d B *C 0.3050 1.0950 
*N *13:3 *C 0.2950 0.6000 

*CAP
0 *46:d 3.35824e-17
1 *5:d 2.67528e-17
2 *13 2.29667e-17

*RES
0 *46:d *13:3 20.971992  // $metal1_conn
1 *13:3 *13 0.092795  // $metal1_conn
2 *5:d *13:3 75  // $metal1_conn

*END

*D_NET *49 1.02185e-18

*CONN
*I *66:d B *C 5.9150 0.3525 
*I *68:s B *C 5.9150 0.3525 

*CAP
0 *66:d 1.02185e-18

*RES
0 *68:s *66:d 0.001  // $mwires

*END

*D_NET *47 0

*CONN
*I *62:s B *C 5.3500 0.3525 
*I *64:d B *C 5.3500 0.3525 


*RES
0 *64:d *62:s 0.001  // $mwires

*END

*D_NET *44 0

*CONN
*I *53:d B *C 3.7475 0.5275 
*I *4:s B *C 3.7475 0.5275 


*RES
0 *4:s *53:d 0.001  // $mwires

*END

*D_NET *41 7.19536e-19

*CONN
*I *16:d B *C 3.3150 0.5275 
*I *18:s B *C 3.3150 0.5275 

*CAP
0 *16:d 7.19536e-19

*RES
0 *18:s *16:d 0.001  // $mwires

*END

*D_NET *39 4.27756e-20

*CONN
*I *10:d B *C 2.2750 0.5275 
*I *11:s B *C 2.2750 0.5275 

*CAP
0 *10:d 4.27756e-20

*RES
0 *11:s *10:d 0.001  // $mwires

*END

*D_NET *37 0

*CONN
*I *57:d B *C 3.7350 1.1375 
*I *43:s B *C 3.7350 1.1375 


*RES
0 *43:s *57:d 0.001  // $mwires

*END

*D_NET *35 7.07753e-19

*CONN
*I *38:d B *C 3.2300 1.1375 
*I *40:s B *C 3.2300 1.1375 

*CAP
0 *38:d 7.07753e-19

*RES
0 *40:s *38:d 0.001  // $mwires

*END

*D_NET *33 0

*CONN
*I *30:d B *C 2.2850 1.1375 
*I *32:s B *C 2.2850 1.1375 


*RES
0 *32:s *30:d 0.001  // $mwires

*END

*D_NET *31 2.11082e-16

*CONN
*I *5:g B *C 0.3975 0.5300 
*I *6:d B *C 0.7200 0.5875 
*I *46:g B *C 0.3975 1.0950 
*I *48:d B *C 0.7700 0.9600 
*N *31:1 *C 0.4850 0.7600 
*N *31:2 *C 0.3975 0.7600 
*N *31:6 *C 0.7200 0.7500 

*CAP
0 *48:d 2.47213e-17
1 *46:g 4.45628e-17
2 *6:d 2.84429e-17
3 *5:g 3.61533e-17
4 *31:6 2.83338e-17
5 *31:2 7.08056e-18
6 *31:1 4.17875e-17

*RES
0 *31:1 *31:2 48.890118  // $poly_conn
1 *31:2 *5:g 20.563484  // $poly_conn
2 *31:2 *46:g 30.819893  // $poly_conn
3 *48:d *31:6 62.129559  // $metal1_conn
4 *31:6 *31:1 0.122318  // $metal1_conn
5 *31:6 *6:d 75.093597  // $metal1_conn

*END

*D_NET *29 1.3844e-15

*CONN
*I *62:g B *C 5.2975 0.3525 
*I *6:g B *C 0.6275 0.5875 
*I *7:g B *C 1.0825 0.4950 
*I *9:d B *C 1.7775 0.5575 
*I *10:g B *C 2.2225 0.5275 
*I *65:g B *C 5.2025 1.1125 
*I *30:g B *C 2.2225 1.1375 
*I *48:g B *C 0.6275 1.0075 
*I *50:g B *C 1.0825 1.0950 
*I *54:d B *C 1.8450 1.0900 
*N *29:2 *C 1.1300 0.8000 
*N *29:3 *C 0.6275 0.7725 
*N *29:8 *C 2.1850 1.3750 
*N *29:12 *C 5.1600 1.3200 
*N *29:13 *C 2.2150 1.3175 
*N *29:14 *C 1.8350 0.9950 
*N *29:16 *C 1.8350 1.1050 

*CAP
0 *54:d 8.55555e-17
1 *50:g 2.30009e-17
2 *48:g 3.17744e-17
3 *30:g 5.96953e-17
4 *65:g 5.67409e-17
5 *10:g 8.1317e-17
6 *9:d 6.59306e-17
7 *7:g 4.03314e-17
8 *6:g 2.75635e-17
9 *62:g 1.00556e-16
10 *29:14 8.15953e-17
11 *29:3 3.08906e-17
12 *29:2 1.96499e-16
13 *29:8 2.73082e-16
14 *29:12 2.29871e-16

*RES
0 *50:g *29:2 16.15522  // $poly_conn
1 *29:2 *29:3 111.724014  // $poly_conn
2 *29:3 *6:g 27.311375  // $poly_conn
3 *29:2 *7:g 35.385986  // $poly_conn
4 *29:3 *48:g 31.15753  // $poly_conn
5 *30:g *29:8 68.847527  // $poly_conn
6 *30:g *10:g 110.256416  // $poly_conn
7 *62:g *65:g 161.248901  // $poly_conn
8 *65:g *29:12 61.15522  // $poly_conn
9 *29:12 *29:13 2.000868  // $metal1_conn
10 *29:13 *29:14 0.530204  // $metal1_conn
11 *29:14 *29:16 0.059282  // $metal1_conn
12 *29:16 *29:2 46.00843  // $metal1_conn
13 *29:13 *29:8 0.041927  // $metal1_conn
14 *29:14 *9:d 75.38868  // $metal1_conn
15 *54:d *29:16 31  // $metal1_conn

*END

*D_NET *26 1.41112e-15

*CONN
*I *55:g B *C 4.1825 0.5275 
*I *4:g B *C 3.6575 0.5275 
*I *8:d B *C 1.3850 0.5525 
*I *11:g B *C 2.3275 0.5275 
*I *59:g B *C 4.1025 1.1375 
*I *34:g B *C 2.5525 1.1375 
*I *40:g B *C 3.2825 1.1375 
*I *52:d B *C 1.4700 1.0075 
*N *26:2 *C 2.3650 0.3050 
*N *26:4 *C 2.5900 0.8300 
*N *26:6 *C 3.3200 0.8300 
*N *26:8 *C 3.6950 0.7250 
*N *26:10 *C 4.0650 0.7250 
*N *26:12 *C 3.3200 0.5650 
*N *26:13 *C 2.6200 0.3500 
*N *26:15 *C 1.3950 0.5400 

*CAP
0 *52:d 6.39973e-17
1 *40:g 6.05368e-17
2 *34:g 3.63658e-17
3 *59:g 4.68703e-17
4 *11:g 8.75772e-17
5 *8:d 1.37462e-16
6 *4:g 4.78544e-17
7 *55:g 3.04079e-17
8 *26:13 9.5612e-17
9 *26:12 1.43206e-16
10 *26:2 2.15256e-16
11 *26:4 1.09202e-16
12 *26:6 9.91909e-17
13 *26:8 1.57825e-16
14 *26:10 7.97522e-17

*RES
0 *11:g *26:2 73.975731  // $poly_conn
1 *34:g *26:4 86.796242  // $poly_conn
2 *40:g *26:6 86.796242  // $poly_conn
3 *4:g *26:8 67.565475  // $poly_conn
4 *55:g *26:10 38.16428  // $poly_conn
5 *26:10 *59:g 68.719322  // $poly_conn
6 *26:10 *26:8 45.27356  // $metal1_conn
7 *26:8 *26:12 0.643537  // $metal1_conn
8 *26:12 *26:13 0.643461  // $metal1_conn
9 *26:13 *26:2 0.181291  // $metal1_conn
10 *26:2 *26:15 1.194013  // $metal1_conn
11 *26:12 *26:6 0.210016  // $metal1_conn
12 *26:13 *26:4 0.352279  // $metal1_conn
13 *26:15 *52:d 62.355347  // $metal1_conn
14 *8:d *26:15 75  // $metal1_conn

*END

*D_NET *25 3.06603e-16

*CONN
*I *9:g B *C 1.9375 0.5575 
*I *11:d B *C 2.4300 0.5275 
*I *12:d B *C 2.4300 0.5275 
*I *32:d B *C 2.4500 1.1375 
*I *34:d B *C 2.4500 1.1375 
*I *54:g B *C 1.9375 1.0900 
*N *25:2 *C 1.9750 0.8350 
*N *25:4 *C 2.4000 0.8350 

*CAP
0 *54:g 3.75845e-17
1 *32:d 4.00413e-17
2 *11:d 5.28272e-17
3 *9:g 3.22443e-17
4 *25:4 5.80021e-17
5 *25:2 8.59038e-17

*RES
0 *54:g *25:2 16.15522  // $poly_conn
1 *25:2 *9:g 35.385986  // $poly_conn
2 *25:2 *25:4 45.316925  // $metal1_conn
3 *25:4 *11:d 75.230698  // $metal1_conn
4 *25:4 *32:d 62.188843  // $metal1_conn

*END

*D_NET *24 3.93879e-16

*CONN
*I *12:s B *C 2.7325 0.5275 
*I *14:d B *C 2.7325 0.5275 
*I *16:g B *C 3.2625 0.5275 
*I *34:s B *C 2.7325 1.1375 
*I *36:d B *C 2.7325 1.1375 
*I *38:g B *C 3.1775 1.1375 
*N *24:2 *C 3.1300 0.7250 
*N *24:4 *C 2.7800 0.7250 

*CAP
0 *38:g 8.35619e-17
1 *34:s 3.15067e-17
2 *16:g 5.59569e-17
3 *12:s 4.34591e-17
4 *24:4 5.77443e-17
5 *24:2 1.2165e-16

*RES
0 *16:g *24:2 40.446331  // $poly_conn
1 *24:2 *38:g 68.719322  // $poly_conn
2 *24:2 *24:4 45.256851  // $metal1_conn
3 *24:4 *12:s 75.147858  // $metal1_conn
4 *24:4 *34:s 62.26329  // $metal1_conn

*END

*D_NET *23 3.43341e-16

*CONN
*I *4:d B *C 3.5125 0.5275 
*I *14:g B *C 2.9325 0.5275 
*I *18:d B *C 3.5125 0.5275 
*I *36:g B *C 2.9125 1.1375 
*I *40:d B *C 3.4575 1.1375 
*I *43:d B *C 3.4575 1.1375 
*N *23:2 *C 2.9225 0.9050 
*N *23:4 *C 2.9700 0.9050 
*N *23:6 *C 3.4800 1.0200 

*CAP
0 *40:d 1.86183e-17
1 *36:g 3.41847e-17
2 *14:g 4.96908e-17
3 *4:d 8.11416e-17
4 *23:6 5.73561e-17
5 *23:2 3.91022e-17
6 *23:4 6.32471e-17

*RES
0 *14:g *23:2 79.299522  // $poly_conn
1 *23:2 *36:g 33.145679  // $poly_conn
2 *23:2 *23:4 47.215244  // $poly_conn
3 *40:d *23:6 62.057339  // $metal1_conn
4 *23:6 *23:4 0.412744  // $metal1_conn
5 *23:6 *4:d 75.380989  // $metal1_conn

*END

*D_NET *22 9.41524e-16

*CONN
*I *53:g B *C 3.8375 0.5275 
*I *60:d B *C 5.1950 0.3525 
*I *62:d B *C 5.1950 0.3525 
*I *68:d B *C 6.0600 0.3525 
*I *57:g B *C 3.8375 1.1375 
*I *69:d B *C 5.7200 1.1125 
*I *71:d B *C 6.1200 1.1125 
*N *22:3 *C 3.8300 0.3550 
*N *22:5 *C 5.2200 0.5000 
*N *22:7 *C 5.7050 1.0000 

*CAP
0 *71:d 8.14753e-17
1 *69:d 2.93151e-17
2 *57:g 6.67665e-17
3 *68:d 1.04511e-16
4 *60:d 2.41477e-17
5 *53:g 5.62056e-17
6 *22:7 1.23029e-16
7 *22:5 2.73613e-16
8 *22:3 1.8246e-16

*RES
0 *57:g *53:g 110.256416  // $poly_conn
1 *53:g *22:3 61.15522  // $poly_conn
2 *68:d *22:5 75.727631  // $metal1_conn
3 *22:5 *22:3 1.329701  // $metal1_conn
4 *22:5 *60:d 75.085884  // $metal1_conn
5 *22:5 *22:7 0.713886  // $metal1_conn
6 *22:7 *69:d 62.049728  // $metal1_conn
7 *22:7 *71:d 62.318672  // $metal1_conn

*END

*D_NET *21 6.20853e-16

*CONN
*I *55:d B *C 4.2750 0.5275 
*I *12:g B *C 2.5325 0.5275 
*I *18:g B *C 3.3675 0.5275 
*I *59:d B *C 4.1950 1.1375 
*I *32:g B *C 2.3475 1.1375 
*I *43:g B *C 3.6325 1.1375 
*N *21:2 *C 3.6700 0.8850 
*N *21:7 *C 4.2550 0.8850 

*CAP
0 *43:g 3.11678e-17
1 *32:g 9.56847e-17
2 *59:d 3.26112e-17
3 *18:g 1.08323e-16
4 *12:g 1.11778e-16
5 *55:d 4.1367e-17
6 *21:7 6.03989e-17
7 *21:2 1.39522e-16

*RES
0 *43:g *21:2 27.69368  // $poly_conn
1 *21:2 *18:g 114.797783  // $poly_conn
2 *18:g *12:g 306.120697  // $poly_conn
3 *12:g *32:g 134.03624  // $poly_conn
4 *59:d *21:7 62.141167  // $metal1_conn
5 *21:7 *21:2 45.414909  // $metal1_conn
6 *21:7 *55:d 75.236664  // $metal1_conn

*END

*D_NET *20 3.60801e-16

*CONN
*I *58:d B *C 4.6300 0.3525 
*I *60:g B *C 5.0925 0.3525 
*I *61:d B *C 4.6150 1.1125 
*I *63:g B *C 4.9975 1.1125 
*N *20:2 *C 4.9600 0.6600 
*N *20:4 *C 4.5800 0.6600 

*CAP
0 *63:g 6.02032e-17
1 *61:d 4.43983e-17
2 *60:g 4.18633e-17
3 *58:d 4.63459e-17
4 *20:4 5.28839e-17
5 *20:2 1.15107e-16

*RES
0 *60:g *20:2 63.301548  // $poly_conn
1 *20:2 *63:g 78.975731  // $poly_conn
2 *20:2 *20:4 45.274414  // $metal1_conn
3 *20:4 *61:d 62.283623  // $metal1_conn
4 *20:4 *58:d 75.210823  // $metal1_conn

*END

*D_NET *19 4.54969e-16

*CONN
*I *64:g B *C 5.4025 0.3525 
*I *70:d B *C 6.5900 0.5875 
*I *67:g B *C 5.4075 1.1125 
*I *72:d B *C 6.5900 1.0075 
*N *19:2 *C 5.4350 0.6600 
*N *19:5 *C 6.5800 0.6600 

*CAP
0 *72:d 3.93601e-17
1 *67:g 4.86854e-17
2 *64:g 5.13752e-17
3 *19:5 1.09766e-16
4 *19:2 2.05782e-16

*RES
0 *67:g *19:2 76.786453  // $poly_conn
1 *19:2 *64:g 49.445354  // $poly_conn
2 *72:d *19:5 62.211811  // $metal1_conn
3 *19:5 *19:2 45.857872  // $metal1_conn
4 *19:5 *70:d 75.052902  // $metal1_conn

*END

*D_NET *17 1.65134e-16

*CONN
*I *65:d B *C 5.3050 1.1125 
*I *67:d B *C 5.3050 1.1125 
*I *69:s B *C 5.9175 1.1125 
*I *71:s B *C 5.9175 1.1125 

*CAP
0 *69:s 8.26322e-17
1 *65:d 8.25015e-17

*RES
0 *65:d *69:s 124.467949  // $metal1_conn

*END

*D_NET *15 1.55488e-16

*CONN
*I *63:d B *C 5.1000 1.1125 
*I *65:s B *C 5.1000 1.1125 
*I *67:s B *C 5.5000 1.1125 

*CAP
0 *67:s 8.66029e-17
1 *63:d 6.88848e-17

*RES
0 *67:s *63:d 124.3097  // $metal1_conn

*END

*D_NET *73 4.1658e-16

*CONN
*I *68:g B *C 5.9675 0.3525 
*I *3:d B *C 7.0500 0.5875 
*I *71:g B *C 6.0225 1.1125 
*I *28:d B *C 7.0500 1.0075 
*N *73:3 *C 6.0600 1.3200 
*N *73:5 *C 7.0700 0.9600 

*CAP
0 *28:d 1.19881e-16
1 *71:g 5.88504e-17
2 *3:d 3.18069e-17
3 *68:g 9.10697e-17
4 *73:3 1.14972e-16

*RES
0 *68:g *71:g 150.992477  // $poly_conn
1 *71:g *73:3 61.15522  // $poly_conn
2 *73:5 *73:3 0.907652  // $metal1_conn
3 *73:5 *3:d 75.256187  // $metal1_conn
4 *28:d *73:5 62  // $metal1_conn

*END

