*SPEF "IEEE 1481-1999"
*DESIGN  "EDFFHQX1"
*DATE "Mon Sep 27 09:45:06 2010"
*VENDOR "Cadence Design Systems"
*PROGRAM "Assura RCX"
*VERSION "3.2 Red Hat Linux release 7.2 (Enigma) - (09/09/2009-10:39)"
*DESIGN_FLOW "Physical Verification"
*DIVIDER /
*DELIMITER :
*BUS_DELIMITER []
*T_UNIT 1 PS
*C_UNIT 1e15 FF
*R_UNIT 1 OHM
*L_UNIT 1 MH
// DeviceFingerDelim "@"
// MATCHED
// caps2d version: 10

*NAME_MAP
*1 Q
*2 VDD
*3 mp51
*4 qbint
*5 mp50
*6 mout
*7 mp55
*8 n20
*9 mp45
*10 mp1
*11 mp3
*12 mp2
*13 mp0
*14 mp21
*15 mp20
*16 mp25
*17 mp36
*18 mp35
*19 mp30
*20 mp40
*21 CK
*22 mn21
*23 mn25
*24 mn36
*25 mn35
*26 mn30
*27 mn40
*28 VSS
*29 Eb
*30 CKb
*31 n30
*32 mn51
*33 CKbb
*34 mn50
*35 Db
*36 mn55
*37 net309
*38 mn45
*39 net317
*40 mn1
*41 net328
*42 mn3
*43 net340
*44 D
*45 mn2
*46 net380
*47 E
*48 mn0
*49 mn20
*50 net333

*GROUND_NETS VSS

*PORTS
*2 I
*28 I
*21 I
*44 I
*47 I
*1 O

*D_NET *2 6.09271e-16

*CONN
*P *2 I *C 0.1000 1.7100 
*I *5:s B *C 2.9700 1.1950 
*I *7:s B *C 2.9700 1.1950 
*I *9:s B *C 3.6400 1.2100 
*I *12:s B *C 4.5450 1.0825 
*I *13:s B *C 4.5450 1.0825 
*I *15:s B *C 0.3650 1.3425 
*I *14:s B *C 0.3650 1.3425 
*I *18:s B *C 1.7550 1.1550 
*I *19:s B *C 1.7550 1.1550 
*N *2:2 *C 4.2000 1.7100 
*N *2:3 *C 4.2000 1.7100 
*N *2:4 *C 3.5250 1.7100 
*N *2:5 *C 2.8550 1.7100 
*N *2:6 *C 2.6000 1.7100 
*N *2:7 *C 1.7100 1.7100 
*N *2:8 *C 0.9000 1.7100 
*N *2:9 *C 0.3650 1.7100 

*CAP
0 *18:s 4.17171e-17
1 *15:s 2.96613e-17
2 *12:s 3.00271e-17
3 *9:s 3.71201e-17
4 *5:s 3.55095e-17
5 *2:9 1.38009e-17
6 *2:7 3.39099e-17
7 *2:5 1.21949e-17
8 *2:4 1.89384e-17
9 *2:2 3.46524e-16
10 *2 9.86847e-18

*RES
0 *12:s *2:3 62.415619  // $metal1_conn
1 *2:3 *2:4 0.338248  // $metal1_conn
2 *2:4 *2:5 0.335545  // $metal1_conn
3 *2:5 *2:6 0.127661  // $metal1_conn
4 *2:6 *2:7 0.446049  // $metal1_conn
5 *2:7 *2:8 0.405937  // $metal1_conn
6 *2:8 *2:9 0.268053  // $metal1_conn
7 *2:9 *2 0.132424  // $metal1_conn
8 *2:4 *9:s 62.197453  // $metal1_conn
9 *2:5 *5:s 62.197453  // $metal1_conn
10 *2:7 *18:s 62.292751  // $metal1_conn
11 *2:9 *15:s 62.197426  // $metal1_conn
12 *2:2 *2:3 9.375  // $metal1_conn
13 *2:2 *2:6 9.375  // $metal1_conn
14 *2:2 *2:8 8.333333  // $metal1_conn

*END

*D_NET *28 0

*CONN
*P *28 I *C 0.1000 0.0000 
*I *34:s B *C 2.9450 0.5250 
*I *36:s B *C 2.9450 0.5250 
*I *38:s B *C 3.4800 0.4725 
*I *45:s B *C 4.5250 0.4775 
*I *48:s B *C 4.5250 0.4775 
*I *49:s B *C 0.4050 0.4175 
*I *22:s B *C 0.4050 0.4175 
*I *25:s B *C 1.8400 0.4975 
*I *26:s B *C 1.8400 0.4975 
*N *28:2 *C 4.2000 0.0000 
*N *28:3 *C 4.2000 0.0000 
*N *28:4 *C 3.4700 0.0000 
*N *28:5 *C 2.7500 0.0000 
*N *28:6 *C 2.6000 0.0000 
*N *28:7 *C 1.7100 0.0000 
*N *28:8 *C 0.9000 0.0000 
*N *28:9 *C 0.4050 0.0000 


*RES
0 *45:s *28:3 75.496666  // $metal1_conn
1 *28:3 *28:4 0.365825  // $metal1_conn
2 *28:4 *28:5 0.360615  // $metal1_conn
3 *28:5 *28:6 0.075014  // $metal1_conn
4 *28:6 *28:7 0.446049  // $metal1_conn
5 *28:7 *28:8 0.405937  // $metal1_conn
6 *28:8 *28:9 0.247997  // $metal1_conn
7 *28:9 *28 0.15248  // $metal1_conn
8 *28:4 *38:s 75.271835  // $metal1_conn
9 *28:5 *34:s 75.284454  // $metal1_conn
10 *28:7 *25:s 75.117203  // $metal1_conn
11 *28:9 *49:s 75.253693  // $metal1_conn
12 *28:2 *28:3 7.75  // $metal1_conn
13 *28:2 *28:6 7.75  // $metal1_conn
14 *28:2 *28:8 6.888889  // $metal1_conn

*END

*D_NET *21 2.45941e-16

*CONN
*P *21 I *C 0.3000 1.0450 
*I *49:g B *C 0.3025 0.4175 
*I *15:g B *C 0.2625 1.3425 
*N *21:2 *C 0.2900 1.0400 
*N *21:4 *C 0.2900 1.0400 

*CAP
0 *15:g 3.39104e-17
1 *49:g 5.09445e-17
2 *21:2 5.287e-17
3 *21 1.08216e-16

*RES
0 *49:g *21:2 130.219177  // $poly_conn
1 *21:2 *15:g 39.19355  // $poly_conn
2 *21:4 *21 0.003111  // $metal1_conn
3 *21:2 *21:4 45  // $metal1_conn

*END

*D_NET *44 3.28394e-16

*CONN
*P *44 I *C 4.5000 0.8550 
*I *45:g B *C 4.3575 0.4450 
*I *12:g B *C 4.3575 1.1700 
*N *44:2 *C 4.4050 0.8750 

*CAP
0 *12:g 5.42415e-17
1 *45:g 8.54834e-17
2 *44:2 1.03847e-16
3 *44 8.48217e-17

*RES
0 *12:g *44:2 16.15522  // $poly_conn
1 *44:2 *45:g 67.437271  // $poly_conn
2 *44 *44:2 45.039482  // $metal1_conn

*END

*D_NET *47 6.62757e-16

*CONN
*P *47 I *C 4.7000 0.6650 
*I *42:g B *C 4.2525 0.4450 
*I *48:g B *C 4.5925 0.4775 
*I *10:g B *C 3.9225 1.1700 
*I *13:g B *C 4.5925 1.0825 
*N *47:2 *C 3.8650 0.8450 
*N *47:4 *C 4.2150 0.6850 
*N *47:6 *C 4.6150 0.6850 
*N *47:8 *C 4.3300 0.6550 
*N *47:9 *C 4.6150 0.6850 

*CAP
0 *13:g 4.54914e-17
1 *10:g 5.46149e-17
2 *48:g 2.89654e-17
3 *42:g 6.71368e-17
4 *47:8 1.09858e-16
5 *47:2 1.75683e-16
6 *47:4 7.48468e-17
7 *47:6 7.0833e-17
8 *47 3.53266e-17

*RES
0 *10:g *47:2 76.023254  // $poly_conn
1 *42:g *47:4 63.719322  // $poly_conn
2 *13:g *47:6 63.552521  // $poly_conn
3 *47:6 *48:g 23.808931  // $poly_conn
4 *47:2 *47:8 0.90549  // $metal1_conn
5 *47:8 *47:4 0.083407  // $metal1_conn
6 *47:8 *47:9 0.22444  // $metal1_conn
7 *47:9 *47 0.053003  // $metal1_conn
8 *47:6 *47:9 45  // $metal1_conn

*END

*D_NET *1 1.25385e-16

*CONN
*P *1 O *C 3.1000 0.8550 
*I *36:d B *C 3.1150 0.5250 
*I *7:d B *C 3.1100 1.1950 

*CAP
0 *7:d 4.18217e-17
1 *36:d 5.7281e-17
2 *1 2.62819e-17

*RES
0 *36:d *1 75.155441  // $metal1_conn
1 *1 *7:d 62.104885  // $metal1_conn

*END

*D_NET *50 4.63542e-19

*CONN
*I *42:s B *C 4.3050 0.4450 
*I *45:d B *C 4.3050 0.4450 

*CAP
0 *42:s 4.63542e-19

*RES
0 *45:d *42:s 0.001  // $mwires

*END

*D_NET *46 1.32746e-18

*CONN
*I *32:s B *C 2.6250 0.4975 
*I *34:d B *C 2.6250 0.4975 

*CAP
0 *32:s 1.32746e-18

*RES
0 *34:d *32:s 0.001  // $mwires

*END

*D_NET *43 1.32881e-18

*CONN
*I *24:s B *C 1.5100 0.4975 
*I *25:d B *C 1.5100 0.4975 

*CAP
0 *24:s 1.32881e-18

*RES
0 *25:d *24:s 0.001  // $mwires

*END

*D_NET *41 4.71904e-18

*CONN
*I *11:s B *C 4.2675 1.1700 
*I *12:d B *C 4.2675 1.1700 

*CAP
0 *11:s 4.71904e-18

*RES
0 *12:d *11:s 0.001  // $mwires

*END

*D_NET *39 5.44987e-18

*CONN
*I *3:s B *C 2.6725 1.1550 
*I *5:d B *C 2.6725 1.1550 

*CAP
0 *3:s 5.44987e-18

*RES
0 *5:d *3:s 0.001  // $mwires

*END

*D_NET *37 4.00014e-18

*CONN
*I *17:s B *C 1.4950 1.1550 
*I *18:d B *C 1.4950 1.1550 

*CAP
0 *17:s 4.00014e-18

*RES
0 *18:d *17:s 0.001  // $mwires

*END

*D_NET *35 7.93603e-16

*CONN
*I *40:s B *C 4.1450 0.4450 
*I *42:d B *C 4.1450 0.4450 
*I *23:s B *C 0.8800 0.4975 
*I *10:s B *C 4.0500 1.1700 
*I *11:d B *C 4.0500 1.1700 
*I *16:s B *C 1.0850 1.1550 
*N *35:3 *C 4.0250 1.1700 
*N *35:5 *C 1.0750 1.1400 

*CAP
0 *16:s 2.81868e-16
1 *10:s 3.15238e-16
2 *23:s 8.96277e-17
3 *40:s 1.06869e-16

*RES
0 *40:s *35:3 75.529968  // $metal1_conn
1 *35:3 *35:5 2.418686  // $metal1_conn
2 *35:5 *23:s 75.537239  // $metal1_conn
3 *10:s *35:3 20.666666  // $metal1_conn
4 *16:s *35:5 31  // $metal1_conn

*END

*D_NET *33 9.47393e-16

*CONN
*I *22:d B *C 0.6300 0.4175 
*I *24:g B *C 1.4125 0.4975 
*I *27:g B *C 2.2525 0.4975 
*I *3:g B *C 2.5925 1.1550 
*I *14:d B *C 0.5600 1.3425 
*I *16:g B *C 1.1775 1.1550 
*N *33:2 *C 1.0900 0.8700 
*N *33:4 *C 1.4400 0.7100 
*N *33:6 *C 2.2800 0.7600 
*N *33:8 *C 2.5550 0.8400 
*N *33:9 *C 1.4400 0.3800 
*N *33:10 *C 1.0600 0.3800 
*N *33:12 *C 0.6700 0.4100 

*CAP
0 *16:g 3.51212e-17
1 *14:d 7.01511e-17
2 *3:g 5.26561e-17
3 *27:g 2.82375e-17
4 *24:g 3.61099e-17
5 *22:d 1.03582e-16
6 *33:10 7.29732e-17
7 *33:9 1.09029e-16
8 *33:2 1.01273e-16
9 *33:4 8.35087e-17
10 *33:6 1.47895e-16
11 *33:8 1.06856e-16

*RES
0 *16:g *33:2 75.944641  // $poly_conn
1 *24:g *33:4 64.691956  // $poly_conn
2 *27:g *33:6 77.512466  // $poly_conn
3 *3:g *33:8 76.539833  // $poly_conn
4 *33:8 *33:6 0.222227  // $metal1_conn
5 *33:6 *33:9 0.912964  // $metal1_conn
6 *33:9 *33:10 0.283654  // $metal1_conn
7 *33:10 *33:12 0.279541  // $metal1_conn
8 *33:12 *14:d 62.66333  // $metal1_conn
9 *33:9 *33:4 0.226326  // $metal1_conn
10 *33:10 *33:2 0.363886  // $metal1_conn
11 *22:d *33:12 75  // $metal1_conn

*END

*D_NET *31 5.20152e-16

*CONN
*I *32:d B *C 2.4125 0.4975 
*I *38:g B *C 3.5725 0.4725 
*I *27:s B *C 2.4125 0.4975 
*I *3:d B *C 2.4900 1.1550 
*I *9:g B *C 3.6875 1.2100 
*I *20:s B *C 2.4900 1.1550 
*N *31:2 *C 3.5725 0.6750 
*N *31:3 *C 3.5150 0.6750 
*N *31:5 *C 2.7150 0.6150 

*CAP
0 *9:g 6.72131e-17
1 *3:d 7.97153e-17
2 *38:g 2.01817e-17
3 *32:d 5.63771e-17
4 *31:5 1.30483e-16
5 *31:2 3.14007e-17
6 *31:3 1.34781e-16

*RES
0 *9:g *31:2 114.308136  // $poly_conn
1 *31:2 *31:3 48.400734  // $poly_conn
2 *31:2 *38:g 15.826773  // $poly_conn
3 *31:3 *31:5 0.907135  // $metal1_conn
4 *31:5 *32:d 75.230888  // $metal1_conn
5 *31:5 *3:d 62.43536  // $metal1_conn

*END

*D_NET *30 7.36125e-16

*CONN
*I *32:g B *C 2.5725 0.4975 
*I *49:d B *C 0.2100 0.4175 
*I *22:g B *C 0.5075 0.4175 
*I *23:g B *C 0.9725 0.4975 
*I *15:d B *C 0.1700 1.3425 
*I *14:g B *C 0.4675 1.3425 
*I *17:g B *C 1.3825 1.1550 
*I *20:g B *C 2.3875 1.1550 
*N *30:4 *C 0.9725 0.6975 
*N *30:5 *C 0.4875 0.6975 
*N *30:8 *C 0.4800 0.6000 
*N *30:10 *C 0.2000 0.6000 

*CAP
0 *20:g 1.01981e-16
1 *17:g 1.30784e-16
2 *14:g 5.79223e-17
3 *15:d 7.19395e-17
4 *23:g 2.23299e-17
5 *22:g 2.2207e-17
6 *49:d 1.97278e-17
7 *32:g 9.33519e-17
8 *30:10 7.57945e-17
9 *30:5 4.01488e-17
10 *30:4 4.6938e-17
11 *30:8 5.29995e-17

*RES
0 *32:g *20:g 135.363266  // $poly_conn
1 *20:g *17:g 349.710419  // $poly_conn
2 *17:g *30:4 163.798264  // $poly_conn
3 *30:4 *30:5 114.96125  // $poly_conn
4 *30:5 *14:g 137.453278  // $poly_conn
5 *30:4 *23:g 20.300484  // $poly_conn
6 *30:5 *30:8 7.92775  // $poly_conn
7 *30:8 *22:g 17.398676  // $poly_conn
8 *30:8 *30:10 45.207722  // $metal1_conn
9 *30:10 *15:d 62.681965  // $metal1_conn
10 *30:10 *49:d 75.095528  // $metal1_conn

*END

*D_NET *29 4.28541e-16

*CONN
*I *40:g B *C 4.0375 0.4450 
*I *48:d B *C 4.6850 0.4775 
*I *11:g B *C 4.1775 1.1700 
*I *13:d B *C 4.6850 1.0825 
*N *29:2 *C 4.2150 0.8750 
*N *29:6 *C 4.6950 1.1300 

*CAP
0 *13:d 1.10893e-16
1 *11:g 4.07874e-17
2 *48:d 8.06451e-17
3 *40:g 6.57784e-17
4 *29:2 1.30437e-16

*RES
0 *11:g *29:2 16.15522  // $poly_conn
1 *29:2 *40:g 90.144882  // $poly_conn
2 *48:d *29:6 75.685349  // $metal1_conn
3 *29:6 *29:2 45.484955  // $metal1_conn
4 *13:d *29:6 62  // $metal1_conn

*END

*D_NET *8 3.74891e-16

*CONN
*I *23:d B *C 1.1925 0.4975 
*I *24:d B *C 1.1925 0.4975 
*I *26:g B *C 1.9025 0.4975 
*I *16:d B *C 1.2800 1.1550 
*I *17:d B *C 1.2800 1.1550 
*I *19:g B *C 1.9025 1.1550 
*N *8:2 *C 1.9300 0.7100 
*N *8:5 *C 1.2800 0.9000 

*CAP
0 *19:g 5.28302e-17
1 *16:d 2.99833e-17
2 *26:g 3.28218e-17
3 *23:d 6.48841e-17
4 *8:5 8.08889e-17
5 *8:2 1.13483e-16

*RES
0 *19:g *8:2 65.845795  // $poly_conn
1 *8:2 *26:g 19.691952  // $poly_conn
2 *16:d *8:5 62.109612  // $metal1_conn
3 *8:5 *23:d 75.269203  // $metal1_conn
4 *8:5 *8:2 45.586243  // $metal1_conn

*END

*D_NET *6 3.5372e-16

*CONN
*I *25:g B *C 1.6075 0.4975 
*I *26:d B *C 2.0775 0.4975 
*I *27:d B *C 2.0775 0.4975 
*I *18:g B *C 1.6075 1.1550 
*I *19:d B *C 2.1450 1.1550 
*I *20:d B *C 2.1450 1.1550 
*N *6:1 *C 1.7600 0.8700 
*N *6:2 *C 1.6075 0.8700 
*N *6:6 *C 2.0900 0.9000 

*CAP
0 *19:d 3.88043e-17
1 *18:g 4.85987e-17
2 *26:d 5.20201e-17
3 *25:g 5.07911e-17
4 *6:6 4.59999e-17
5 *6:2 2.82903e-17
6 *6:1 8.92155e-17

*RES
0 *6:1 *6:2 55.805012  // $poly_conn
1 *6:2 *25:g 64.153229  // $poly_conn
2 *6:2 *18:g 28.255793  // $poly_conn
3 *19:d *6:6 62.111683  // $metal1_conn
4 *6:6 *6:1 0.230614  // $metal1_conn
5 *6:6 *26:d 75.263863  // $metal1_conn

*END

*D_NET *4 4.38152e-16

*CONN
*I *34:g B *C 2.6775 0.4975 
*I *36:g B *C 3.0175 0.5250 
*I *38:d B *C 3.9650 0.4450 
*I *40:d B *C 3.9650 0.4450 
*I *5:g B *C 2.7525 1.1550 
*I *7:g B *C 3.0175 1.1950 
*I *9:d B *C 3.8300 1.1700 
*I *10:d B *C 3.8300 1.1700 
*N *4:2 *C 3.0175 0.8075 
*N *4:3 *C 3.0175 0.7525 
*N *4:4 *C 2.7525 0.7525 
*N *4:6 *C 3.3400 0.8350 
*N *4:10 *C 3.7050 0.8350 

*CAP
0 *9:d 4.64366e-17
1 *7:g 3.47453e-17
2 *5:g 4.58507e-17
3 *38:d 5.47158e-17
4 *36:g 2.3828e-17
5 *34:g 4.59631e-17
6 *4:10 5.83613e-17
7 *4:4 3.79394e-17
8 *4:3 6.02346e-18
9 *4:2 1.06558e-17
10 *4:6 7.36327e-17

*RES
0 *7:g *4:2 48.20697  // $poly_conn
1 *4:2 *4:3 11.798554  // $poly_conn
2 *4:3 *4:4 58.741074  // $poly_conn
3 *4:4 *34:g 44.970528  // $poly_conn
4 *4:2 *4:6 114.479614  // $poly_conn
5 *4:3 *36:g 23.847994  // $poly_conn
6 *4:4 *5:g 61.926762  // $poly_conn
7 *9:d *4:10 62.238289  // $metal1_conn
8 *4:10 *4:6 0.246687  // $metal1_conn
9 *4:10 *38:d 75.24514  // $metal1_conn

*END

