*SPEF "IEEE 1481-1999"
*DESIGN  "EDFFX1"
*DATE "Mon Sep 27 09:48:09 2010"
*VENDOR "Cadence Design Systems"
*PROGRAM "Assura RCX"
*VERSION "3.2 Red Hat Linux release 7.2 (Enigma) - (09/09/2009-10:39)"
*DESIGN_FLOW "Physical Verification"
*DIVIDER /
*DELIMITER :
*BUS_DELIMITER []
*T_UNIT 1 PS
*C_UNIT 1e15 FF
*R_UNIT 1 OHM
*L_UNIT 1 MH
// DeviceFingerDelim "@"
// MATCHED
// caps2d version: 10

*NAME_MAP
*1 VDD
*2 net411
*3 net415
*4 n0
*5 VSS
*6 qint
*7 n20
*8 QN
*9 mn1
*10 mn3
*11 mn2
*12 mp21
*13 mn0
*14 mp25
*15 mn55
*16 mp36
*17 mp1
*18 mn56
*19 mp35
*20 mp3
*21 mn57
*22 mp30
*23 mp2
*24 mn21
*25 mn45
*26 mp40
*27 mp0
*28 mn25
*29 mn20
*30 mp51
*31 mp55
*32 mn36
*33 mp50
*34 mp56
*35 mn35
*36 mp57
*37 mn30
*38 mp45
*39 mn40
*40 mp20
*41 mn51
*42 mn50
*43 CK
*44 D
*45 E
*46 n30
*47 mout
*48 Ckb
*49 Eb
*50 CKbb
*51 qbint
*52 Db
*53 net342
*54 Q
*55 net362
*56 n1

*GROUND_NETS VSS

*PORTS
*1 I
*5 I
*43 I
*44 I
*45 I
*54 O
*8 O

*D_NET *1 6.85327e-16

*CONN
*P *1 I *C 0.1000 1.7100 
*I *23:s B *C 3.8250 1.2525 
*I *27:s B *C 3.8250 1.2525 
*I *31:s B *C 4.7800 1.0075 
*I *34:s B *C 4.7800 1.0075 
*I *36:s B *C 5.1350 1.0950 
*I *38:s B *C 2.7050 1.2050 
*I *40:s B *C 0.4150 1.2225 
*I *12:s B *C 0.4150 1.2225 
*I *19:s B *C 1.6850 1.1575 
*I *22:s B *C 1.6850 1.1575 
*I *33:s B *C 2.7050 1.2050 
*N *1:2 *C 4.7000 1.7100 
*N *1:3 *C 4.7000 1.7100 
*N *1:4 *C 3.6900 1.7100 
*N *1:5 *C 2.9000 1.7100 
*N *1:6 *C 2.5900 1.7100 
*N *1:7 *C 1.5700 1.7100 
*N *1:8 *C 1.0000 1.7100 
*N *1:9 *C 0.3950 1.7100 

*CAP
0 *19:s 3.84858e-17
1 *40:s 3.00275e-17
2 *38:s 2.15981e-17
3 *36:s 2.34287e-17
4 *31:s 6.59789e-17
5 *23:s 3.27623e-17
6 *1:9 1.10581e-17
7 *1:7 2.70801e-17
8 *1:6 2.27774e-17
9 *1:4 2.81343e-17
10 *1:2 3.79885e-16
11 *1 4.11125e-18

*RES
0 *36:s *1:3 62.535473  // $metal1_conn
1 *1:3 *1:4 0.505964  // $metal1_conn
2 *1:4 *1:5 0.395711  // $metal1_conn
3 *1:5 *1:6 0.15516  // $metal1_conn
4 *1:6 *1:7 0.510779  // $metal1_conn
5 *1:7 *1:8 0.285459  // $metal1_conn
6 *1:8 *1:9 0.302999  // $metal1_conn
7 *1:9 *1 0.147392  // $metal1_conn
8 *1:3 *31:s 21.080397  // $metal1_conn
9 *1:4 *23:s 62.253357  // $metal1_conn
10 *1:6 *38:s 62.097115  // $metal1_conn
11 *1:7 *19:s 62.226475  // $metal1_conn
12 *1:9 *40:s 62.273262  // $metal1_conn
13 *1:2 *1:3 8.333333  // $metal1_conn
14 *1:2 *1:5 8.333333  // $metal1_conn
15 *1:2 *1:8 7.5  // $metal1_conn

*END

*D_NET *5 0

*CONN
*P *5 I *C 0.1000 0.0000 
*I *11:s B *C 3.9100 0.5275 
*I *13:s B *C 3.9100 0.5275 
*I *15:s B *C 4.7800 0.5875 
*I *18:s B *C 4.7800 0.5875 
*I *21:s B *C 5.1600 0.5300 
*I *25:s B *C 2.6600 0.5575 
*I *29:s B *C 0.3950 0.4625 
*I *24:s B *C 0.3950 0.4625 
*I *35:s B *C 1.6850 0.5875 
*I *37:s B *C 1.6850 0.5875 
*I *42:s B *C 2.6600 0.5575 
*N *5:2 *C 4.8300 0.0000 
*N *5:3 *C 4.7000 0.0000 
*N *5:4 *C 4.7000 0.0000 
*N *5:5 *C 3.6900 0.0000 
*N *5:6 *C 2.9000 0.0000 
*N *5:7 *C 2.6500 0.0000 
*N *5:8 *C 1.6300 0.0000 
*N *5:9 *C 1.0000 0.0000 
*N *5:10 *C 0.3950 0.0000 


*RES
0 *21:s *5:2 75.230148  // $metal1_conn
1 *5:2 *5:4 0.064953  // $metal1_conn
2 *5:4 *5:5 0.505964  // $metal1_conn
3 *5:5 *5:6 0.395711  // $metal1_conn
4 *5:6 *5:7 0.125091  // $metal1_conn
5 *5:7 *5:8 0.510779  // $metal1_conn
6 *5:8 *5:9 0.315527  // $metal1_conn
7 *5:9 *5:10 0.302999  // $metal1_conn
8 *5:10 *5 0.147392  // $metal1_conn
9 *5:2 *15:s 75.075287  // $metal1_conn
10 *5:5 *11:s 75.117203  // $metal1_conn
11 *5:7 *25:s 75.329399  // $metal1_conn
12 *5:8 *35:s 75.097115  // $metal1_conn
13 *5:10 *29:s 75.282051  // $metal1_conn
14 *5:3 *5:4 6.888889  // $metal1_conn
15 *5:3 *5:6 6.888889  // $metal1_conn
16 *5:3 *5:9 6.2  // $metal1_conn

*END

*D_NET *43 2.05619e-16

*CONN
*P *43 I *C 0.5000 1.0450 
*I *29:g B *C 0.2925 0.4625 
*I *40:g B *C 0.2925 1.2225 
*N *43:2 *C 0.3300 0.8300 

*CAP
0 *40:g 3.11734e-17
1 *29:g 3.57526e-17
2 *43:2 7.8983e-17
3 *43 5.97099e-17

*RES
0 *40:g *43:2 63.591114  // $poly_conn
1 *43:2 *29:g 66.15522  // $poly_conn
2 *43:2 *43 45.189762  // $metal1_conn

*END

*D_NET *44 2.54065e-16

*CONN
*P *44 I *C 3.7000 0.8550 
*I *11:g B *C 3.5875 0.5275 
*I *23:g B *C 3.5875 1.2525 
*N *44:2 *C 3.6150 0.8350 

*CAP
0 *23:g 3.86082e-17
1 *11:g 4.23536e-17
2 *44:2 9.31132e-17
3 *44 7.99899e-17

*RES
0 *23:g *44:2 70.973999  // $poly_conn
1 *44:2 *11:g 51.743237  // $poly_conn
2 *44:2 *44 45.029083  // $metal1_conn

*END

*D_NET *45 5.66442e-16

*CONN
*P *45 I *C 4.1000 1.0450 
*I *10:g B *C 3.4275 0.5275 
*I *13:g B *C 4.0625 0.5275 
*I *17:g B *C 2.9875 1.2525 
*I *27:g B *C 4.0625 1.2525 
*N *45:2 *C 3.0250 1.4850 
*N *45:4 *C 3.2350 0.7250 
*N *45:6 *C 4.0900 1.0350 
*N *45:8 *C 3.2650 1.0950 

*CAP
0 *27:g 1.98798e-17
1 *17:g 3.84761e-17
2 *13:g 4.37717e-17
3 *10:g 4.89536e-17
4 *45:8 1.03458e-16
5 *45:2 8.47343e-17
6 *45:4 1.06977e-16
7 *45:6 2.65108e-17
8 *45 9.36819e-17

*RES
0 *17:g *45:2 67.565475  // $poly_conn
1 *10:g *45:4 104.931778  // $poly_conn
2 *27:g *45:6 19.691952  // $poly_conn
3 *45:6 *13:g 103.025291  // $poly_conn
4 *45:4 *45:8 0.284017  // $metal1_conn
5 *45:8 *45:2 0.45898  // $metal1_conn
6 *45:8 *45 0.619972  // $metal1_conn
7 *45 *45:6 45.005985  // $metal1_conn

*END

*D_NET *54 1.45911e-16

*CONN
*P *54 O *C 4.5000 0.8550 
*I *15:d B *C 4.5300 0.5300 
*I *31:d B *C 4.5000 1.0950 

*CAP
0 *31:d 7.29164e-17
1 *15:d 4.56538e-17
2 *54 2.7341e-17

*RES
0 *54 *31:d 20.810322  // $metal1_conn
1 *54 *15:d 75.152634  // $metal1_conn

*END

*D_NET *8 6.98494e-17

*CONN
*P *8 O *C 5.3000 0.6650 
*I *21:d B *C 5.3000 0.5300 
*I *36:d B *C 5.3100 1.0950 

*CAP
0 *36:d 3.75577e-17
1 *21:d 3.22917e-17

*RES
0 *36:d *8 20.96756  // $metal1_conn
1 *8 *21:d 75.053909  // $metal1_conn

*END

*D_NET *4 0

*CONN
*I *10:s B *C 3.5075 0.5275 
*I *11:d B *C 3.5075 0.5275 


*RES
0 *11:d *10:s 0.001  // $mwires

*END

*D_NET *3 0

*CONN
*I *41:s B *C 2.4300 0.5875 
*I *42:d B *C 2.4300 0.5875 


*RES
0 *42:d *41:s 0.001  // $mwires

*END

*D_NET *2 0

*CONN
*I *32:s B *C 1.4125 0.5875 
*I *35:d B *C 1.4125 0.5875 


*RES
0 *35:d *32:s 0.001  // $mwires

*END

*D_NET *56 0

*CONN
*I *20:s B *C 3.4875 1.2525 
*I *23:d B *C 3.4875 1.2525 


*RES
0 *23:d *20:s 0.001  // $mwires

*END

*D_NET *55 1.65776e-18

*CONN
*I *30:s B *C 2.4025 1.1575 
*I *33:d B *C 2.4025 1.1575 

*CAP
0 *30:s 1.65776e-18

*RES
0 *33:d *30:s 0.001  // $mwires

*END

*D_NET *53 1.45033e-18

*CONN
*I *16:s B *C 1.4100 1.1575 
*I *19:d B *C 1.4100 1.1575 

*CAP
0 *16:s 1.45033e-18

*RES
0 *19:d *16:s 0.001  // $mwires

*END

*D_NET *52 6.62939e-16

*CONN
*I *9:s B *C 3.2600 0.5275 
*I *10:d B *C 3.2600 0.5275 
*I *28:d B *C 0.9525 0.5875 
*I *17:s B *C 3.1875 1.2525 
*I *20:d B *C 3.1875 1.2525 
*I *14:s B *C 1.0550 1.1575 
*N *52:3 *C 3.0900 1.2700 
*N *52:5 *C 1.0450 1.2050 

*CAP
0 *14:s 2.23876e-16
1 *17:s 2.33418e-16
2 *28:d 9.17571e-17
3 *9:s 1.13888e-16

*RES
0 *9:s *52:3 75.624046  // $metal1_conn
1 *52:3 *52:5 1.651479  // $metal1_conn
2 *52:5 *28:d 75.564583  // $metal1_conn
3 *17:s *52:3 62  // $metal1_conn
4 *14:s *52:5 62  // $metal1_conn

*END

*D_NET *51 8.00661e-16

*CONN
*I *9:d B *C 2.9725 0.5275 
*I *15:g B *C 4.6325 0.5300 
*I *18:g B *C 4.8275 0.5875 
*I *25:d B *C 2.9725 0.5275 
*I *42:g B *C 2.4875 0.5875 
*I *17:d B *C 2.9400 1.2525 
*I *31:g B *C 4.5925 1.0950 
*I *34:g B *C 4.8275 1.0075 
*I *38:d B *C 2.9400 1.2525 
*I *33:g B *C 2.4875 1.1575 
*N *51:1 *C 2.6100 0.9500 
*N *51:2 *C 2.4875 0.9500 
*N *51:6 *C 4.8275 0.7575 
*N *51:7 *C 4.6700 0.7600 
*N *51:12 *C 2.8850 0.5150 
*N *51:13 *C 2.8250 0.9800 

*CAP
0 *33:g 4.599e-17
1 *34:g 2.11505e-17
2 *31:g 2.87367e-17
3 *17:d 3.8552e-17
4 *42:g 6.54675e-17
5 *18:g 1.6199e-17
6 *15:g 2.13186e-17
7 *9:d 2.18433e-16
8 *51:13 5.2313e-17
9 *51:6 1.13439e-17
10 *51:2 2.71307e-17
11 *51:1 6.75014e-17
12 *51:7 1.86525e-16

*RES
0 *51:1 *51:2 52.613522  // $poly_conn
1 *51:2 *42:g 69.281433  // $poly_conn
2 *51:2 *33:g 20.563484  // $poly_conn
3 *34:g *51:6 35.386456  // $poly_conn
4 *51:6 *51:7 23.834351  // $poly_conn
5 *51:7 *31:g 35.836624  // $poly_conn
6 *51:6 *18:g 23.847994  // $poly_conn
7 *51:7 *15:g 16.346052  // $poly_conn
8 *51:7 *51:12 46.640678  // $metal1_conn
9 *51:12 *51:13 0.391297  // $metal1_conn
10 *51:13 *51:1 0.158212  // $metal1_conn
11 *51:13 *17:d 62.08989  // $metal1_conn
12 *9:d *51:12 75  // $metal1_conn

*END

*D_NET *50 9.21977e-16

*CONN
*I *24:d B *C 0.6250 0.4625 
*I *32:g B *C 1.3575 0.5875 
*I *39:g B *C 2.0525 0.5875 
*I *12:d B *C 0.6450 1.2225 
*I *14:g B *C 1.1475 1.1575 
*I *30:g B *C 2.3175 1.1575 
*N *50:2 *C 1.0600 0.8900 
*N *50:4 *C 1.3200 0.3250 
*N *50:6 *C 2.0250 0.7950 
*N *50:8 *C 2.2900 0.9400 
*N *50:9 *C 2.1100 0.7950 
*N *50:10 *C 1.3200 0.3850 
*N *50:11 *C 1.0300 0.3850 
*N *50:13 *C 0.6700 0.4500 

*CAP
0 *30:g 5.24891e-17
1 *14:g 3.23351e-17
2 *12:d 8.19716e-17
3 *39:g 3.16476e-17
4 *32:g 8.10854e-17
5 *24:d 8.32008e-17
6 *50:11 6.26877e-17
7 *50:2 1.1539e-16
8 *50:4 1.25207e-16
9 *50:6 1.73463e-16
10 *50:8 8.24994e-17

*RES
0 *14:g *50:2 86.983063  // $poly_conn
1 *32:g *50:4 84.232147  // $poly_conn
2 *39:g *50:6 71.102211  // $poly_conn
3 *30:g *50:8 64.691956  // $poly_conn
4 *50:6 *50:9 0.027621  // $metal1_conn
5 *50:9 *50:10 0.868054  // $metal1_conn
6 *50:10 *50:11 0.23089  // $metal1_conn
7 *50:11 *50:13 0.294417  // $metal1_conn
8 *50:9 *50:8 0.207275  // $metal1_conn
9 *50:10 *50:4 0.015031  // $metal1_conn
10 *50:11 *50:2 0.369714  // $metal1_conn
11 *50:13 *12:d 62.527878  // $metal1_conn
12 *24:d *50:13 75  // $metal1_conn

*END

*D_NET *49 4.91669e-16

*CONN
*I *9:g B *C 3.0925 0.5275 
*I *13:d B *C 4.1550 0.5275 
*I *20:g B *C 3.3875 1.2525 
*I *27:d B *C 4.1975 1.2525 
*N *49:2 *C 3.4250 0.8300 
*N *49:5 *C 4.2700 0.6750 

*CAP
0 *27:d 6.69245e-17
1 *20:g 3.76405e-17
2 *13:d 4.33803e-17
3 *9:g 6.57219e-17
4 *49:5 9.85013e-17
5 *49:2 1.795e-16

*RES
0 *20:g *49:2 71.283424  // $poly_conn
1 *49:2 *9:g 134.31813  // $poly_conn
2 *13:d *49:5 75.203644  // $metal1_conn
3 *49:5 *49:2 45.69825  // $metal1_conn
4 *49:5 *27:d 62.475311  // $metal1_conn

*END

*D_NET *48 6.79279e-16

*CONN
*I *29:d B *C 0.1900 0.4625 
*I *24:g B *C 0.4975 0.4625 
*I *28:g B *C 1.1175 0.5875 
*I *41:g B *C 2.3725 0.5875 
*I *40:d B *C 0.1900 1.2225 
*I *12:g B *C 0.5375 1.2225 
*I *16:g B *C 1.3525 1.1575 
*I *26:g B *C 2.0525 1.1575 
*N *48:4 *C 1.1175 0.7575 
*N *48:5 *C 0.5375 0.7575 
*N *48:6 *C 0.5100 0.6700 
*N *48:11 *C 0.1700 0.6400 

*CAP
0 *26:g 1.23353e-16
1 *16:g 1.19575e-16
2 *12:g 3.7873e-17
3 *40:d 4.20235e-17
4 *41:g 8.07651e-17
5 *28:g 2.87785e-17
6 *24:g 2.27571e-17
7 *29:d 1.80983e-17
8 *48:11 4.5537e-17
9 *48:5 3.08642e-17
10 *48:4 6.52805e-17
11 *48:6 6.43732e-17

*RES
0 *41:g *26:g 158.395218  // $poly_conn
1 *26:g *16:g 259.677277  // $poly_conn
2 *16:g *48:4 116.362366  // $poly_conn
3 *48:4 *48:5 143.057816  // $poly_conn
4 *48:5 *48:6 10.094666  // $poly_conn
5 *48:6 *24:g 23.808931  // $poly_conn
6 *48:4 *28:g 20.300484  // $poly_conn
7 *48:5 *12:g 90.131889  // $poly_conn
8 *40:d *48:11 62.3871  // $metal1_conn
9 *48:11 *29:d 75.114807  // $metal1_conn
10 *48:11 *48:6 45.21867  // $metal1_conn

*END

*D_NET *47 3.82402e-16

*CONN
*I *35:g B *C 1.4675 0.5875 
*I *37:d B *C 1.8925 0.5875 
*I *39:d B *C 1.8925 0.5875 
*I *19:g B *C 1.4675 1.1575 
*I *22:d B *C 1.8925 1.1575 
*I *26:s B *C 1.8925 1.1575 
*N *47:2 *C 1.5050 0.9500 
*N *47:5 *C 1.8650 0.9850 

*CAP
0 *22:d 2.8582e-17
1 *19:g 6.18649e-17
2 *37:d 6.21609e-17
3 *35:g 7.14904e-17
4 *47:5 5.46937e-17
5 *47:2 1.0361e-16

*RES
0 *19:g *47:2 16.15522  // $poly_conn
1 *47:2 *35:g 64.873169  // $poly_conn
2 *22:d *47:5 62.14772  // $metal1_conn
3 *47:5 *47:2 45.282722  // $metal1_conn
4 *47:5 *37:d 75.301468  // $metal1_conn

*END

*D_NET *46 3.64093e-16

*CONN
*I *25:g B *C 2.7525 0.5575 
*I *39:s B *C 2.2125 0.5875 
*I *41:d B *C 2.2125 0.5875 
*I *38:g B *C 2.7525 1.2050 
*I *26:d B *C 2.1850 1.1575 
*I *30:d B *C 2.1850 1.1575 
*N *46:2 *C 2.7525 0.7600 
*N *46:3 *C 2.6950 0.7600 
*N *46:6 *C 2.4500 0.7550 

*CAP
0 *26:d 7.07017e-17
1 *38:g 7.63215e-17
2 *39:s 5.47412e-17
3 *25:g 2.97059e-17
4 *46:6 5.64776e-17
5 *46:2 2.11584e-17
6 *46:3 5.4987e-17

*RES
0 *38:g *46:2 71.604286  // $poly_conn
1 *46:2 *46:3 45.794373  // $poly_conn
2 *46:2 *25:g 22.886339  // $poly_conn
3 *39:s *46:6 75.235931  // $metal1_conn
4 *46:6 *26:d 62.420773  // $metal1_conn
5 *46:6 *46:3 0.168479  // $metal1_conn

*END

*D_NET *7 3.01771e-16

*CONN
*I *28:s B *C 1.2375 0.5875 
*I *32:d B *C 1.2375 0.5875 
*I *37:g B *C 1.7325 0.5875 
*I *14:d B *C 1.2500 1.1575 
*I *16:d B *C 1.2500 1.1575 
*I *22:g B *C 1.7325 1.1575 
*N *7:2 *C 1.7325 0.7700 
*N *7:3 *C 1.6750 0.7700 
*N *7:5 *C 1.2500 0.7700 

*CAP
0 *22:g 5.92196e-17
1 *14:d 3.40534e-17
2 *37:g 3.2005e-17
3 *28:s 3.66489e-17
4 *7:5 5.25337e-17
5 *7:2 2.40689e-17
6 *7:3 6.32413e-17

*RES
0 *22:g *7:2 68.483833  // $poly_conn
1 *7:2 *7:3 45.778431  // $poly_conn
2 *7:2 *37:g 24.894089  // $poly_conn
3 *7:3 *7:5 0.286354  // $metal1_conn
4 *7:5 *28:s 75.117943  // $metal1_conn
5 *7:5 *14:d 62.244072  // $metal1_conn

*END

*D_NET *6 1.57519e-16

*CONN
*I *18:d B *C 4.9200 0.5875 
*I *21:g B *C 5.2075 0.5300 
*I *34:d B *C 4.9700 0.9600 
*I *36:g B *C 5.2075 1.0950 
*N *6:2 *C 5.2075 0.7375 
*N *6:3 *C 5.0650 0.7650 
*N *6:5 *C 4.9400 0.7550 

*CAP
0 *36:g 3.55994e-17
1 *34:d 2.33074e-17
2 *21:g 2.72672e-17
3 *18:d 1.79217e-17
4 *6:5 1.41264e-17
5 *6:2 4.71687e-18
6 *6:3 3.45804e-17

*RES
0 *36:g *6:2 40.514664  // $poly_conn
1 *6:2 *6:3 68.325768  // $poly_conn
2 *6:2 *21:g 18.71979  // $poly_conn
3 *6:3 *6:5 0.057465  // $metal1_conn
4 *6:5 *18:d 75.095741  // $metal1_conn
5 *6:5 *34:d 62.124107  // $metal1_conn

*END

