*SPEF "IEEE 1481-1999"
*DESIGN  "HOLDX1"
*DATE "Mon Sep 27 09:50:07 2010"
*VENDOR "Cadence Design Systems"
*PROGRAM "Assura RCX"
*VERSION "3.2 Red Hat Linux release 7.2 (Enigma) - (09/09/2009-10:39)"
*DESIGN_FLOW "Physical Verification"
*DIVIDER /
*DELIMITER :
*BUS_DELIMITER []
*T_UNIT 1 PS
*C_UNIT 1e15 FF
*R_UNIT 1 OHM
*L_UNIT 1 MH
// DeviceFingerDelim "@"
// MATCHED
// caps2d version: 10

*NAME_MAP
*1 mp0
*2 mp3
*3 mp2
*4 mp1
*5 n0
*6 p1
*7 VSS
*8 p2
*9 n1
*10 n2
*11 mn0
*12 mn3
*13 VDD
*14 mn2
*15 Y
*16 mn1

*GROUND_NETS VSS

*PORTS
*13 I
*7 I
*15 B

*D_NET *13 7.95693e-17

*CONN
*P *13 I *C 0.1000 1.7100 
*I *1:s B *C 0.4900 1.3350 
*I *2:s B *C 0.4900 1.3350 
*N *13:2 *C 0.5000 1.7100 
*N *13:3 *C 0.5000 1.7100 

*CAP
0 *1:s 2.03395e-17
1 *13:2 5.42215e-17
2 *13 5.00831e-18

*RES
0 *1:s *13:3 62.211388  // $metal1_conn
1 *13:3 *13 0.197311  // $metal1_conn
2 *13:2 *13:3 15  // $metal1_conn

*END

*D_NET *7 0

*CONN
*P *7 I *C 0.1000 0.0000 
*I *11:s B *C 0.5100 0.5875 
*I *12:s B *C 0.5100 0.5875 
*N *7:2 *C 0.5000 0.0000 
*N *7:3 *C 0.5000 0.0000 


*RES
0 *11:s *7:3 75.05883  // $metal1_conn
1 *7:3 *7 0.197311  // $metal1_conn
2 *7:2 *7:3 12.4  // $metal1_conn

*END

*D_NET *15 2.33385e-16

*CONN
*P *15 B *C 0.9000 0.8550 
*I *11:g B *C 0.3325 0.5300 
*I *16:d B *C 0.8900 0.5875 
*I *1:g B *C 0.3325 1.0950 
*I *4:d B *C 0.8900 1.0075 
*N *15:2 *C 0.3700 0.8000 
*N *15:6 *C 0.9000 0.9600 

*CAP
0 *4:d 2.44236e-17
1 *1:g 3.79389e-17
2 *16:d 1.61797e-17
3 *11:g 3.61237e-17
4 *15:2 9.94883e-17
5 *15 1.92311e-17

*RES
0 *1:g *15:2 16.15522  // $poly_conn
1 *15:2 *11:g 26.411629  // $poly_conn
2 *16:d *15 75.158821  // $metal1_conn
3 *15 *15:6 0.066625  // $metal1_conn
4 *15:6 *15:2 45.444386  // $metal1_conn
5 *4:d *15:6 62  // $metal1_conn

*END

*D_NET *10 0

*CONN
*I *12:d B *C 0.6400 0.5875 
*I *14:s B *C 0.6400 0.5875 


*RES
0 *14:s *12:d 0.001  // $mwires

*END

*D_NET *9 0

*CONN
*I *14:d B *C 0.7450 0.5875 
*I *16:s B *C 0.7450 0.5875 


*RES
0 *16:s *14:d 0.001  // $mwires

*END

*D_NET *8 1.9089e-18

*CONN
*I *2:d B *C 0.6400 1.0075 
*I *3:s B *C 0.6400 1.0075 

*CAP
0 *2:d 1.9089e-18

*RES
0 *3:s *2:d 0.001  // $mwires

*END

*D_NET *6 1.9089e-18

*CONN
*I *3:d B *C 0.7450 1.0075 
*I *4:s B *C 0.7450 1.0075 

*CAP
0 *3:d 1.9089e-18

*RES
0 *4:s *3:d 0.001  // $mwires

*END

*D_NET *5 2.39513e-16

*CONN
*I *11:d B *C 0.2400 0.5300 
*I *12:g B *C 0.5875 0.5875 
*I *14:g B *C 0.6925 0.5875 
*I *16:g B *C 0.7975 0.5875 
*I *1:d B *C 0.2300 1.0950 
*I *2:g B *C 0.5875 1.0075 
*I *3:g B *C 0.6925 1.0075 
*I *4:g B *C 0.7975 1.0075 
*N *5:2 *C 0.7975 0.7375 
*N *5:3 *C 0.6925 0.7375 
*N *5:4 *C 0.5500 0.7600 
*N *5:11 *C 0.2300 0.5800 

*CAP
0 *4:g 1.5991e-17
1 *3:g 8.46808e-18
2 *2:g 2.5832e-17
3 *1:d 3.57652e-17
4 *16:g 1.15499e-17
5 *14:g 4.52231e-18
6 *12:g 1.92104e-17
7 *11:d 4.38556e-17
8 *5:3 2.58406e-18
9 *5:2 6.11842e-18
10 *5:4 6.56158e-17

*RES
0 *4:g *5:2 40.514664  // $poly_conn
1 *5:2 *5:3 20.057508  // $poly_conn
2 *5:3 *5:4 23.3225  // $poly_conn
3 *5:2 *16:g 18.71979  // $poly_conn
4 *5:3 *14:g 17.705742  // $poly_conn
5 *5:3 *3:g 39.500614  // $poly_conn
6 *5:4 *12:g 16.15522  // $poly_conn
7 *5:4 *2:g 26.411629  // $poly_conn
8 *5:4 *5:11 45.30463  // $metal1_conn
9 *5:11 *1:d 21.022638  // $metal1_conn
10 *11:d *5:11 75  // $metal1_conn

*END

