*SPEF "IEEE 1481-1999"
*DESIGN  "INVX12"
*DATE "Mon Sep 27 09:50:52 2010"
*VENDOR "Cadence Design Systems"
*PROGRAM "Assura RCX"
*VERSION "3.2 Red Hat Linux release 7.2 (Enigma) - (09/09/2009-10:39)"
*DESIGN_FLOW "Physical Verification"
*DIVIDER /
*DELIMITER :
*BUS_DELIMITER []
*T_UNIT 1 PS
*C_UNIT 1e15 FF
*R_UNIT 1 OHM
*L_UNIT 1 MH
// DeviceFingerDelim "@"
// MATCHED
// caps2d version: 10

*NAME_MAP
*1 VDD
*2 mn0
*3 mn0\@1
*4 mn0\@2
*5 mn0\@3
*6 mn0\@4
*7 VSS
*8 mp0\@9
*9 mn0\@5
*10 mn0\@6
*11 mn0\@7
*12 mn0\@8
*13 A
*14 Y
*15 mp0
*16 mp0\@1
*17 mp0\@2
*18 mp0\@3
*19 mp0\@4
*20 mp0\@5
*21 mp0\@6
*22 mp0\@7
*23 mp0\@8
*24 mn0\@9

*GROUND_NETS VSS

*PORTS
*1 I
*7 I
*13 I
*14 O

*D_NET *1 4.69227e-16

*CONN
*P *1 I *C 0.1000 1.7100 
*I *15:s B *C 0.1100 1.1350 
*I *16:s B *C 0.5100 1.1350 
*I *17:s B *C 0.5100 1.1350 
*I *18:s B *C 0.9200 1.1350 
*I *19:s B *C 0.9200 1.1350 
*I *20:s B *C 1.3300 1.1350 
*I *21:s B *C 1.3300 1.1350 
*I *22:s B *C 1.7400 1.1350 
*I *23:s B *C 1.7400 1.1350 
*I *8:s B *C 2.1400 1.1350 
*N *1:4 *C 1.1000 1.7100 

*CAP
0 *1:4 6.08825e-17
1 *1 4.08345e-16

*RES
0 *1:4 *1 6.818182  // $metal1_conn

*END

*D_NET *7 0

*CONN
*P *7 I *C 0.1000 0.0000 
*I *2:s B *C 0.1100 0.5050 
*I *3:s B *C 0.5100 0.5050 
*I *4:s B *C 0.5100 0.5050 
*I *5:s B *C 0.9200 0.5050 
*I *6:s B *C 0.9200 0.5050 
*I *9:s B *C 1.3300 0.5050 
*I *10:s B *C 1.3300 0.5050 
*I *11:s B *C 1.7400 0.5050 
*I *12:s B *C 1.7400 0.5050 
*I *24:s B *C 2.1400 0.5050 
*N *7:4 *C 1.1000 0.0000 


*RES
0 *7:4 *7 5.636364  // $metal1_conn

*END

*D_NET *13 8.6639e-16

*CONN
*P *13 I *C 0.1100 0.7600 
*I *2:g B *C 0.2025 0.5050 
*I *3:g B *C 0.4075 0.5050 
*I *4:g B *C 0.6125 0.5050 
*I *5:g B *C 0.8175 0.5050 
*I *6:g B *C 1.0225 0.5050 
*I *9:g B *C 1.2275 0.5050 
*I *10:g B *C 1.4325 0.5050 
*I *11:g B *C 1.6375 0.5050 
*I *12:g B *C 1.8425 0.5050 
*I *24:g B *C 2.0475 0.5050 
*I *15:g B *C 0.2025 1.1350 
*I *16:g B *C 0.4075 1.1350 
*I *17:g B *C 0.6125 1.1350 
*I *18:g B *C 0.8175 1.1350 
*I *19:g B *C 1.0225 1.1350 
*I *20:g B *C 1.2275 1.1350 
*I *21:g B *C 1.4325 1.1350 
*I *22:g B *C 1.6375 1.1350 
*I *23:g B *C 1.8425 1.1350 
*I *8:g B *C 2.0475 1.1350 

*CAP
0 *8:g 8.44881e-16
1 *13 2.15085e-17

*RES
0 *8:g *13 0.017289  // $metal1_conn

*END

*D_NET *14 1.13152e-15

*CONN
*P *14 O *C 2.1400 0.7600 
*I *2:d B *C 0.3050 0.5050 
*I *3:d B *C 0.3050 0.5050 
*I *4:d B *C 0.7150 0.5050 
*I *5:d B *C 0.7150 0.5050 
*I *6:d B *C 1.1250 0.5050 
*I *9:d B *C 1.1250 0.5050 
*I *10:d B *C 1.5350 0.5050 
*I *11:d B *C 1.5350 0.5050 
*I *12:d B *C 1.9450 0.5050 
*I *24:d B *C 1.9450 0.5050 
*I *15:d B *C 0.3050 1.1350 
*I *16:d B *C 0.3050 1.1350 
*I *17:d B *C 0.7150 1.1350 
*I *18:d B *C 0.7150 1.1350 
*I *19:d B *C 1.1250 1.1350 
*I *20:d B *C 1.1250 1.1350 
*I *21:d B *C 1.5350 1.1350 
*I *22:d B *C 1.5350 1.1350 
*I *23:d B *C 1.9450 1.1350 
*I *8:d B *C 1.9450 1.1350 
*N *14:3 *C 1.9450 0.7375 

*CAP
0 *23:d 6.06401e-16
1 *2:d 4.83488e-16
2 *14:3 1.23682e-17
3 *14 2.92615e-17

*RES
0 *14:3 *14 0.111558  // $metal1_conn
1 *23:d *14:3 0.158916  // $metal1_conn
2 *14:3 *2:d 0.074852  // $metal1_conn

*END

