*SPEF "IEEE 1481-1999"
*DESIGN  "INVX8"
*DATE "Mon Sep 27 09:53:32 2010"
*VENDOR "Cadence Design Systems"
*PROGRAM "Assura RCX"
*VERSION "3.2 Red Hat Linux release 7.2 (Enigma) - (09/09/2009-10:39)"
*DESIGN_FLOW "Physical Verification"
*DIVIDER /
*DELIMITER :
*BUS_DELIMITER []
*T_UNIT 1 PS
*C_UNIT 1e15 FF
*R_UNIT 1 OHM
*L_UNIT 1 MH
// DeviceFingerDelim "@"
// MATCHED
// caps2d version: 10

*NAME_MAP
*1 mp0
*2 mp0\@1
*3 mp0\@2
*4 mn0
*5 mp0\@3
*6 mn0\@1
*7 VSS
*8 mp0\@4
*9 mn0\@2
*10 mp0\@5
*11 mn0\@3
*12 mp0\@6
*13 mn0\@4
*14 mn0\@5
*15 mn0\@6
*16 Y
*17 A
*18 VDD

*GROUND_NETS VSS

*PORTS
*18 I
*7 I
*17 I
*16 O

*D_NET *18 3.19116e-16

*CONN
*P *18 I *C 0.1000 1.7100 
*I *1:s B *C 0.1100 1.1225 
*I *2:s B *C 0.5100 1.1225 
*I *3:s B *C 0.5100 1.1225 
*I *5:s B *C 0.9200 1.1225 
*I *8:s B *C 0.9200 1.1225 
*I *10:s B *C 1.3300 1.1225 
*I *12:s B *C 1.3300 1.1225 
*N *18:3 *C 0.8050 1.7100 

*CAP
0 *18:3 6.04826e-17
1 *18 2.58633e-16

*RES
0 *18:3 *18 9.375  // $metal1_conn

*END

*D_NET *7 0

*CONN
*P *7 I *C 0.1000 0.0000 
*I *4:s B *C 0.1100 0.5125 
*I *6:s B *C 0.5100 0.5125 
*I *9:s B *C 0.5100 0.5125 
*I *11:s B *C 0.9200 0.5125 
*I *13:s B *C 0.9200 0.5125 
*I *14:s B *C 1.3300 0.5125 
*I *15:s B *C 1.3300 0.5125 
*N *7:3 *C 0.8050 0.0000 


*RES
0 *7:3 *7 7.75  // $metal1_conn

*END

*D_NET *17 6.48782e-16

*CONN
*P *17 I *C 0.1100 0.7600 
*I *4:g B *C 0.2025 0.5125 
*I *6:g B *C 0.4075 0.5125 
*I *9:g B *C 0.6125 0.5125 
*I *11:g B *C 0.8175 0.5125 
*I *13:g B *C 1.0225 0.5125 
*I *14:g B *C 1.2275 0.5125 
*I *15:g B *C 1.4325 0.5125 
*I *1:g B *C 0.2025 1.1225 
*I *2:g B *C 0.4075 1.1225 
*I *3:g B *C 0.6125 1.1225 
*I *5:g B *C 0.8175 1.1225 
*I *8:g B *C 1.0225 1.1225 
*I *10:g B *C 1.2275 1.1225 
*I *12:g B *C 1.4325 1.1225 

*CAP
0 *12:g 5.8757e-16
1 *17 6.12124e-17

*RES
0 *12:g *17 0.026547  // $metal1_conn

*END

*D_NET *16 8.00923e-16

*CONN
*P *16 O *C 1.5250 0.7600 
*I *4:d B *C 0.3050 0.5125 
*I *6:d B *C 0.3050 0.5125 
*I *9:d B *C 0.7150 0.5125 
*I *11:d B *C 0.7150 0.5125 
*I *13:d B *C 1.1250 0.5125 
*I *14:d B *C 1.1250 0.5125 
*I *15:d B *C 1.5250 0.5125 
*I *1:d B *C 0.3050 1.1225 
*I *2:d B *C 0.3050 1.1225 
*I *3:d B *C 0.7150 1.1225 
*I *5:d B *C 0.7150 1.1225 
*I *8:d B *C 1.1250 1.1225 
*I *10:d B *C 1.1250 1.1225 
*I *12:d B *C 1.5250 1.1225 

*CAP
0 *12:d 4.28134e-16
1 *4:d 3.59022e-16
2 *16 1.37667e-17

*RES
0 *12:d *16 0.099239  // $metal1_conn
1 *16 *4:d 0.062816  // $metal1_conn

*END

