*SPEF "IEEE 1481-1999"
*DESIGN  "INVX3"
*DATE "Mon Sep 27 09:52:24 2010"
*VENDOR "Cadence Design Systems"
*PROGRAM "Assura RCX"
*VERSION "3.2 Red Hat Linux release 7.2 (Enigma) - (09/09/2009-10:39)"
*DESIGN_FLOW "Physical Verification"
*DIVIDER /
*DELIMITER :
*BUS_DELIMITER []
*T_UNIT 1 PS
*C_UNIT 1e15 FF
*R_UNIT 1 OHM
*L_UNIT 1 MH
// DeviceFingerDelim "@"
// MATCHED
// caps2d version: 10

*NAME_MAP
*1 mp0\@1
*2 mn0\@2
*3 VDD
*4 mp0\@2
*5 Y
*6 A
*7 mn0
*8 VSS
*9 mp0
*10 mn0\@1

*GROUND_NETS VSS

*PORTS
*3 I
*8 I
*6 I
*5 O

*D_NET *3 1.36604e-16

*CONN
*P *3 I *C 0.0850 1.7100 
*I *9:s B *C 0.1375 1.5450 
*I *1:s B *C 0.4950 1.0950 
*I *4:s B *C 0.4950 1.0950 
*N *3:2 *C 0.3850 1.7100 

*CAP
0 *3:2 4.94411e-17
1 *3 8.71633e-17

*RES
0 *3:2 *3 18.75  // $metal1_conn

*END

*D_NET *8 0

*CONN
*P *8 I *C 0.1100 0.0000 
*I *7:s B *C 0.1400 0.5300 
*I *10:s B *C 0.4950 0.5300 
*I *2:s B *C 0.4950 0.5300 
*N *8:2 *C 0.4100 0.0000 


*RES
0 *8:2 *8 15.5  // $metal1_conn

*END

*D_NET *6 1.89202e-16

*CONN
*P *6 I *C 0.0950 0.7600 
*I *7:g B *C 0.1875 0.5300 
*I *10:g B *C 0.3925 0.5300 
*I *2:g B *C 0.5975 0.5300 
*I *9:g B *C 0.1875 1.0950 
*I *1:g B *C 0.3925 1.0950 
*I *4:g B *C 0.5975 1.0950 
*N *6:5 *C 0.1300 0.7850 
*N *6:11 *C 0.0955 0.7725 
*N *6:12 *C 0.1300 0.7725 

*CAP
0 *4:g 1.34467e-16
1 *6:12 2.75306e-17
2 *6:11 1.87156e-17
3 *6:5 8.48883e-18

*RES
0 *4:g *6:5 47.696915  // $poly_conn
1 *6 *6:11 0.00669  // $metal1_conn
2 *6:12 *6:5 0.00669  // $metal1_conn
3 *6:11 *6:12 0.009722  // $metal1_conn

*END

*D_NET *5 2.25475e-16

*CONN
*P *5 O *C 0.6900 0.7600 
*I *7:d B *C 0.2900 0.5300 
*I *10:d B *C 0.2900 0.5300 
*I *2:d B *C 0.6900 0.5300 
*I *9:d B *C 0.2900 1.0950 
*I *1:d B *C 0.2900 1.0950 
*I *4:d B *C 0.6900 1.0950 

*CAP
0 *5 2.25475e-16


*END

