*SPEF "IEEE 1481-1999"
*DESIGN  "INVX2"
*DATE "Mon Sep 27 09:51:37 2010"
*VENDOR "Cadence Design Systems"
*PROGRAM "Assura RCX"
*VERSION "3.2 Red Hat Linux release 7.2 (Enigma) - (09/09/2009-10:39)"
*DESIGN_FLOW "Physical Verification"
*DIVIDER /
*DELIMITER :
*BUS_DELIMITER []
*T_UNIT 1 PS
*C_UNIT 1e15 FF
*R_UNIT 1 OHM
*L_UNIT 1 MH
// DeviceFingerDelim "@"
// MATCHED
// caps2d version: 10

*NAME_MAP
*1 A
*2 VDD
*3 mn0
*4 mp0
*5 mn0\@1
*6 mp0\@1
*7 VSS
*8 Y

*GROUND_NETS VSS

*PORTS
*2 I
*7 I
*1 I
*8 O

*D_NET *2 8.61774e-17

*CONN
*P *2 I *C 0.1000 1.7100 
*I *4:s B *C 0.1425 1.5450 
*I *6:s B *C 0.4900 1.0950 
*N *2:2 *C 0.3000 1.7100 

*CAP
0 *2:2 2.99569e-17
1 *2 5.62206e-17

*RES
0 *2:2 *2 25  // $metal1_conn

*END

*D_NET *7 0

*CONN
*P *7 I *C 0.1000 0.0000 
*I *3:s B *C 0.1450 0.5100 
*I *5:s B *C 0.4900 0.5100 
*N *7:2 *C 0.3000 0.0000 


*RES
0 *7:2 *7 20.666666  // $metal1_conn

*END

*D_NET *1 1.54737e-16

*CONN
*P *1 I *C 0.0850 0.7600 
*I *3:g B *C 0.1925 0.5100 
*I *5:g B *C 0.3975 0.5100 
*I *4:g B *C 0.1925 1.0950 
*I *6:g B *C 0.3975 1.0950 
*N *1:4 *C 0.1350 0.7400 
*N *1:8 *C 0.0855 0.7500 
*N *1:9 *C 0.1350 0.7500 

*CAP
0 *6:g 9.10534e-17
1 *1:9 3.92433e-17
2 *1:4 8.63067e-18
3 *1 1.581e-17

*RES
0 *6:g *1:4 47.869617  // $poly_conn
1 *1 *1:8 0.003971  // $metal1_conn
2 *1:4 *1:9 0.003971  // $metal1_conn
3 *1:8 *1:9 0.015699  // $metal1_conn

*END

*D_NET *8 1.51879e-16

*CONN
*P *8 O *C 0.4900 0.7600 
*I *3:d B *C 0.2950 0.5100 
*I *5:d B *C 0.2950 0.5100 
*I *4:d B *C 0.2950 1.0950 
*I *6:d B *C 0.2950 1.0950 
*N *8:1 *C 0.3000 0.7600 

*CAP
0 *4:d 4.27616e-17
1 *3:d 4.66489e-17
2 *8:1 3.29246e-17
3 *8 2.9544e-17

*RES
0 *8 *8:1 0.101915  // $metal1_conn
1 *8:1 *4:d 20.892118  // $metal1_conn
2 *8:1 *3:d 37.670612  // $metal1_conn

*END

