*SPEF "IEEE 1481-1999"
*DESIGN  "MDFFHQX1"
*DATE "Mon Sep 27 09:54:17 2010"
*VENDOR "Cadence Design Systems"
*PROGRAM "Assura RCX"
*VERSION "3.2 Red Hat Linux release 7.2 (Enigma) - (09/09/2009-10:39)"
*DESIGN_FLOW "Physical Verification"
*DIVIDER /
*DELIMITER :
*BUS_DELIMITER []
*T_UNIT 1 PS
*C_UNIT 1e15 FF
*R_UNIT 1 OHM
*L_UNIT 1 MH
// DeviceFingerDelim "@"
// MATCHED
// caps2d version: 10

*NAME_MAP
*1 mp55
*2 mp20
*3 mp45
*4 mp50
*5 mp51
*6 mp40
*7 mp30
*8 VDD
*9 mn35
*10 mn36
*11 mn25
*12 mn21
*13 mn11
*14 VSS
*15 mn12
*16 mp35
*17 mn14
*18 mp36
*19 mn13
*20 mp25
*21 mn10
*22 mp21
*23 D0
*24 mp11
*25 D1
*26 mp12
*27 n20
*28 mp14
*29 S0b
*30 mp13
*31 qbint
*32 mp10
*33 D0b
*34 CKbb
*35 S0
*36 CKb
*37 n36
*38 n26
*39 n11
*40 CK
*41 n13
*42 n35
*43 n25
*44 n10
*45 n12
*46 mn55
*47 mn20
*48 mn45
*49 mn50
*50 mn51
*51 mn40
*52 mn30
*53 mout
*54 n30
*55 Q

*GROUND_NETS VSS

*PORTS
*8 I
*14 I
*40 I
*23 I
*25 I
*35 I
*55 O

*D_NET *8 5.92728e-16

*CONN
*P *8 I *C 0.1000 1.7100 
*I *16:s B *C 2.5100 1.0800 
*I *22:s B *C 3.6550 1.2400 
*I *24:s B *C 3.6550 1.2400 
*I *30:s B *C 4.6025 1.1525 
*I *32:s B *C 4.6025 1.1525 
*I *1:s B *C 0.4250 1.3675 
*I *2:s B *C 0.4250 1.3675 
*I *3:s B *C 1.2550 1.0800 
*I *4:s B *C 1.2550 1.0800 
*I *7:s B *C 2.5100 1.0800 
*N *8:2 *C 4.2000 1.7100 
*N *8:3 *C 4.2000 1.7100 
*N *8:4 *C 3.6450 1.7100 
*N *8:5 *C 2.6000 1.7100 
*N *8:6 *C 2.3950 1.7100 
*N *8:7 *C 1.1400 1.7100 
*N *8:8 *C 0.9000 1.7100 
*N *8:9 *C 0.3750 1.7100 

*CAP
0 *3:s 4.02543e-17
1 *1:s 2.15804e-17
2 *30:s 3.29542e-17
3 *22:s 4.83839e-17
4 *16:s 3.32759e-17
5 *8:9 1.13526e-17
6 *8:7 2.28463e-17
7 *8:6 2.32257e-17
8 *8:4 2.60195e-17
9 *8:2 3.23508e-16
10 *8 9.32826e-18

*RES
0 *30:s *8:3 62.367092  // $metal1_conn
1 *8:3 *8:4 0.278127  // $metal1_conn
2 *8:4 *8:5 0.523854  // $metal1_conn
3 *8:5 *8:6 0.102608  // $metal1_conn
4 *8:6 *8:7 0.628969  // $metal1_conn
5 *8:7 *8:8 0.12016  // $metal1_conn
6 *8:8 *8:9 0.263082  // $metal1_conn
7 *8:9 *8 0.137461  // $metal1_conn
8 *8:4 *22:s 31.253128  // $metal1_conn
9 *8:6 *16:s 62.187725  // $metal1_conn
10 *8:7 *3:s 62.237774  // $metal1_conn
11 *8:9 *1:s 62.182507  // $metal1_conn
12 *8:2 *8:3 9.375  // $metal1_conn
13 *8:2 *8:5 9.375  // $metal1_conn
14 *8:2 *8:8 8.333333  // $metal1_conn

*END

*D_NET *14 0

*CONN
*P *14 I *C 0.1000 0.0000 
*I *9:s B *C 2.5100 0.4725 
*I *12:s B *C 3.6750 0.4250 
*I *13:s B *C 3.6750 0.4250 
*I *19:s B *C 4.6375 0.4775 
*I *21:s B *C 4.6375 0.4775 
*I *46:s B *C 0.4700 0.5875 
*I *47:s B *C 0.4700 0.5875 
*I *48:s B *C 1.1975 0.4725 
*I *49:s B *C 1.1975 0.4725 
*I *52:s B *C 2.5100 0.4725 
*N *14:2 *C 4.2000 0.0000 
*N *14:3 *C 4.2000 0.0000 
*N *14:4 *C 3.6450 0.0000 
*N *14:5 *C 2.6000 0.0000 
*N *14:6 *C 2.3950 0.0000 
*N *14:7 *C 1.1950 0.0000 
*N *14:8 *C 0.9000 0.0000 
*N *14:9 *C 0.3750 0.0000 


*RES
0 *19:s *14:3 75.48027  // $metal1_conn
1 *14:3 *14:4 0.278127  // $metal1_conn
2 *14:4 *14:5 0.523854  // $metal1_conn
3 *14:5 *14:6 0.102608  // $metal1_conn
4 *14:6 *14:7 0.601387  // $metal1_conn
5 *14:7 *14:8 0.147741  // $metal1_conn
6 *14:8 *14:9 0.263082  // $metal1_conn
7 *14:9 *14 0.137461  // $metal1_conn
8 *14:4 *12:s 75.220428  // $metal1_conn
9 *14:6 *9:s 75.117203  // $metal1_conn
10 *14:7 *48:s 75.271851  // $metal1_conn
11 *14:9 *46:s 75.29409  // $metal1_conn
12 *14:2 *14:3 7.75  // $metal1_conn
13 *14:2 *14:5 7.75  // $metal1_conn
14 *14:2 *14:8 6.888889  // $metal1_conn

*END

*D_NET *40 2.35991e-16

*CONN
*P *40 I *C 0.5000 0.8550 
*I *47:g B *C 0.5275 0.5875 
*I *2:g B *C 0.4775 1.3675 
*N *40:2 *C 0.5000 0.9750 

*CAP
0 *2:g 4.20471e-17
1 *47:g 4.69831e-17
2 *40:2 1.46961e-16

*RES
0 *47:g *40:2 69.962776  // $poly_conn
1 *40:2 *2:g 62.27047  // $poly_conn
2 *40 *40:2 45.000069  // $metal1_conn

*END

*D_NET *23 2.81993e-16

*CONN
*P *23 I *C 3.5000 0.6650 
*I *13:g B *C 3.7475 0.4250 
*I *24:g B *C 3.7475 1.2400 
*N *23:2 *C 3.7475 0.7100 
*N *23:3 *C 3.6450 0.7100 

*CAP
0 *24:g 8.83986e-17
1 *13:g 3.62773e-17
2 *23:2 2.7176e-17
3 *23:3 8.79381e-17
4 *23 4.2203e-17

*RES
0 *24:g *23:2 82.586395  // $poly_conn
1 *23:2 *23:3 49.61615  // $poly_conn
2 *23:2 *13:g 36.432549  // $poly_conn
3 *23:3 *23 0.075361  // $metal1_conn

*END

*D_NET *25 2.91764e-16

*CONN
*P *25 I *C 4.5000 0.8550 
*I *19:g B *C 4.4075 0.4250 
*I *30:g B *C 4.3525 1.2400 
*N *25:2 *C 4.3800 0.8450 

*CAP
0 *30:g 4.76574e-17
1 *19:g 7.65393e-17
2 *25:2 1.11421e-16
3 *25 5.61461e-17

*RES
0 *19:g *25:2 65.845795  // $poly_conn
1 *25:2 *30:g 42.768875  // $poly_conn
2 *25:2 *25 45.032532  // $metal1_conn

*END

*D_NET *35 5.24252e-16

*CONN
*P *35 I *C 4.7000 0.6650 
*I *17:g B *C 4.3025 0.4250 
*I *21:g B *C 4.7675 0.4775 
*I *26:g B *C 3.8725 1.2400 
*I *32:g B *C 4.7125 1.1525 
*N *35:1 *C 3.9650 0.8850 
*N *35:4 *C 4.2400 0.6750 
*N *35:6 *C 4.7400 0.6850 

*CAP
0 *32:g 3.93969e-17
1 *26:g 6.54102e-17
2 *21:g 2.30384e-17
3 *17:g 6.94901e-17
4 *35:1 1.18788e-16
5 *35:4 1.12103e-16
6 *35:6 5.17959e-17
7 *35 4.42284e-17

*RES
0 *35:1 *26:g 82.10408  // $poly_conn
1 *17:g *35:4 77.443558  // $poly_conn
2 *21:g *35:6 26.102209  // $poly_conn
3 *35:6 *32:g 83.79451  // $poly_conn
4 *35:1 *35:4 0.35346  // $metal1_conn
5 *35:4 *35 0.342486  // $metal1_conn
6 *35 *35:6 45.02116  // $metal1_conn

*END

*D_NET *55 1.18964e-16

*CONN
*P *55 O *C 0.1000 0.6650 
*I *46:d B *C 0.1800 0.5300 
*I *1:d B *C 0.1800 1.2800 
*N *55:3 *C 0.1700 0.6000 

*CAP
0 *1:d 5.41909e-17
1 *46:d 4.95049e-17
2 *55 1.52686e-17

*RES
0 *1:d *55:3 21.161903  // $metal1_conn
1 *55:3 *55 0.029041  // $metal1_conn
2 *46:d *55:3 75  // $metal1_conn

*END

*D_NET *45 0

*CONN
*I *17:s B *C 4.3550 0.4250 
*I *19:d B *C 4.3550 0.4250 


*RES
0 *19:d *17:s 0.001  // $mwires

*END

*D_NET *44 8.56395e-18

*CONN
*I *13:d B *C 3.9225 0.4250 
*I *15:s B *C 3.9225 0.4250 

*CAP
0 *13:d 8.56395e-18

*RES
0 *15:s *13:d 0.001  // $mwires

*END

*D_NET *43 4.73946e-19

*CONN
*I *9:d B *C 2.6100 0.4725 
*I *10:s B *C 2.6100 0.4725 

*CAP
0 *9:d 4.73946e-19

*RES
0 *10:s *9:d 0.001  // $mwires

*END

*D_NET *42 5.80694e-18

*CONN
*I *49:d B *C 1.4325 0.4725 
*I *50:s B *C 1.4325 0.4725 

*CAP
0 *49:d 5.80694e-18

*RES
0 *50:s *49:d 0.001  // $mwires

*END

*D_NET *41 6.13795e-18

*CONN
*I *28:s B *C 4.2250 1.2400 
*I *30:d B *C 4.2250 1.2400 

*CAP
0 *28:s 6.13795e-18

*RES
0 *30:d *28:s 0.001  // $mwires

*END

*D_NET *39 2.75259e-18

*CONN
*I *24:d B *C 3.8100 1.2400 
*I *26:s B *C 3.8100 1.2400 

*CAP
0 *24:d 2.75259e-18

*RES
0 *26:s *24:d 0.001  // $mwires

*END

*D_NET *38 5.40678e-18

*CONN
*I *16:d B *C 2.6575 1.0800 
*I *18:s B *C 2.6575 1.0800 

*CAP
0 *16:d 5.40678e-18

*RES
0 *18:s *16:d 0.001  // $mwires

*END

*D_NET *37 6.53225e-18

*CONN
*I *4:d B *C 1.4100 1.0800 
*I *5:s B *C 1.4100 1.0800 

*CAP
0 *4:d 6.53225e-18

*RES
0 *5:s *4:d 0.001  // $mwires

*END

*D_NET *36 9.85718e-16

*CONN
*I *11:g B *C 2.9325 0.4725 
*I *12:g B *C 3.5125 0.3675 
*I *47:d B *C 0.6525 0.5875 
*I *50:g B *C 1.5625 0.4725 
*I *18:g B *C 2.7575 1.0800 
*I *22:g B *C 3.5125 1.1525 
*I *2:d B *C 0.6275 1.3675 
*I *6:g B *C 1.8575 1.0800 
*N *36:2 *C 1.8575 0.8075 
*N *36:4 *C 2.0000 0.8250 
*N *36:6 *C 3.5125 0.6775 
*N *36:7 *C 2.9325 0.6775 
*N *36:9 *C 2.7200 1.3350 
*N *36:12 *C 2.0000 1.2350 
*N *36:13 *C 0.6950 1.1600 

*CAP
0 *6:g 2.09392e-17
1 *2:d 2.10475e-17
2 *22:g 4.51078e-17
3 *18:g 4.27035e-17
4 *50:g 6.59059e-17
5 *47:d 9.06601e-17
6 *12:g 3.23417e-17
7 *11:g 2.41992e-17
8 *36:13 1.64987e-16
9 *36:12 1.46437e-16
10 *36:7 6.11065e-17
11 *36:6 5.26787e-17
12 *36:2 4.36871e-17
13 *36:4 6.85096e-17
14 *36:9 1.05407e-16

*RES
0 *6:g *36:2 25.620075  // $poly_conn
1 *36:2 *50:g 115.979584  // $poly_conn
2 *36:2 *36:4 69.197235  // $poly_conn
3 *22:g *36:6 93.078766  // $poly_conn
4 *36:6 *36:7 142.866425  // $poly_conn
5 *36:7 *18:g 89.439293  // $poly_conn
6 *18:g *36:9 61.15522  // $poly_conn
7 *36:6 *12:g 59.745434  // $poly_conn
8 *36:7 *11:g 21.582537  // $poly_conn
9 *36:4 *36:12 0.281681  // $metal1_conn
10 *36:12 *36:13 0.967835  // $metal1_conn
11 *36:13 *47:d 75.421227  // $metal1_conn
12 *36:12 *36:9 0.542325  // $metal1_conn
13 *36:13 *2:d 62.111778  // $metal1_conn

*END

*D_NET *34 9.67948e-16

*CONN
*I *10:g B *C 2.6625 0.4725 
*I *12:d B *C 3.4200 0.3675 
*I *51:g B *C 1.8775 0.4725 
*I *20:g B *C 2.9825 1.0800 
*I *22:d B *C 3.4200 1.1525 
*I *5:g B *C 1.5175 1.0800 
*N *34:2 *C 1.5550 0.8100 
*N *34:4 *C 1.8400 0.6750 
*N *34:6 *C 2.7000 0.6750 
*N *34:8 *C 3.0200 0.8100 
*N *34:10 *C 3.0200 0.3225 
*N *34:11 *C 2.6400 0.3700 

*CAP
0 *5:g 3.38354e-17
1 *22:d 9.68901e-17
2 *20:g 3.77909e-17
3 *51:g 2.90802e-17
4 *12:d 4.00034e-17
5 *10:g 5.66702e-17
6 *34:11 9.48087e-17
7 *34:10 7.26984e-17
8 *34:2 8.94704e-17
9 *34:4 1.69679e-16
10 *34:6 9.46863e-17
11 *34:8 1.52336e-16

*RES
0 *5:g *34:2 65.001373  // $poly_conn
1 *51:g *34:4 61.15522  // $poly_conn
2 *10:g *34:6 61.15522  // $poly_conn
3 *20:g *34:8 65.001373  // $poly_conn
4 *22:d *34:8 62.630871  // $metal1_conn
5 *34:8 *34:10 0.338923  // $metal1_conn
6 *34:10 *34:11 0.312617  // $metal1_conn
7 *34:11 *34:4 0.543399  // $metal1_conn
8 *34:10 *12:d 75.276398  // $metal1_conn
9 *34:11 *34:6 0.253777  // $metal1_conn
10 *34:4 *34:2 0.258638  // $metal1_conn

*END

*D_NET *33 4.47469e-16

*CONN
*I *11:d B *C 3.1125 0.4725 
*I *15:d B *C 4.2000 0.4250 
*I *17:d B *C 4.2000 0.4250 
*I *20:s B *C 3.1225 1.0800 
*I *26:d B *C 3.9850 1.2400 
*I *28:d B *C 3.9850 1.2400 
*N *33:2 *C 3.8050 1.0275 
*N *33:3 *C 3.2400 1.0400 

*CAP
0 *26:d 6.38342e-17
1 *20:s 9.98195e-17
2 *15:d 8.63793e-17
3 *11:d 6.75901e-17
4 *33:2 1.29846e-16

*RES
0 *15:d *33:2 75.645477  // $metal1_conn
1 *33:2 *33:3 0.417914  // $metal1_conn
2 *33:3 *20:s 62.044289  // $metal1_conn
3 *33:2 *26:d 20.930849  // $metal1_conn
4 *33:3 *11:d 75.36718  // $metal1_conn

*END

*D_NET *31 6.18549e-16

*CONN
*I *46:g B *C 0.2725 0.5300 
*I *48:d B *C 1.0000 0.4725 
*I *49:g B *C 1.3025 0.4725 
*I *1:g B *C 0.2725 1.2800 
*I *3:d B *C 0.9650 1.0800 
*I *4:g B *C 1.3025 1.0800 
*N *31:1 *C 0.3300 0.7600 
*N *31:2 *C 0.2725 0.7600 
*N *31:6 *C 1.3025 0.8050 
*N *31:7 *C 1.2350 0.8050 
*N *31:9 *C 0.9225 0.6200 
*N *31:11 *C 0.9900 0.4400 

*CAP
0 *4:g 4.48403e-17
1 *3:d 6.85173e-17
2 *1:g 5.95333e-17
3 *49:g 3.62044e-17
4 *48:d 7.83049e-17
5 *46:g 2.81706e-17
6 *31:9 6.45597e-17
7 *31:6 2.4467e-17
8 *31:2 3.39637e-17
9 *31:1 9.25134e-17
10 *31:7 8.74744e-17

*RES
0 *31:1 *31:2 45.794373  // $poly_conn
1 *31:2 *46:g 20.563484  // $poly_conn
2 *31:2 *1:g 78.255791  // $poly_conn
3 *4:g *31:6 28.014544  // $poly_conn
4 *31:6 *31:7 46.794373  // $poly_conn
5 *31:6 *49:g 56.219673  // $poly_conn
6 *31:7 *31:9 0.315035  // $metal1_conn
7 *31:9 *31:11 0.060394  // $metal1_conn
8 *31:11 *31:1 0.692056  // $metal1_conn
9 *31:9 *3:d 62.321514  // $metal1_conn
10 *48:d *31:11 75  // $metal1_conn

*END

*D_NET *29 3.89891e-16

*CONN
*I *15:g B *C 4.0975 0.4250 
*I *21:d B *C 4.8750 0.4775 
*I *28:g B *C 4.0975 1.2400 
*I *32:d B *C 4.8050 1.1525 
*N *29:2 *C 4.1350 0.9450 
*N *29:6 *C 4.8150 1.2000 

*CAP
0 *32:d 9.98288e-17
1 *28:g 3.69218e-17
2 *21:d 4.94018e-17
3 *15:g 5.96964e-17
4 *29:2 1.44042e-16

*RES
0 *28:g *29:2 16.15522  // $poly_conn
1 *29:2 *15:g 90.514198  // $poly_conn
2 *21:d *29:6 75.512955  // $metal1_conn
3 *29:6 *29:2 45.639744  // $metal1_conn
4 *32:d *29:6 62  // $metal1_conn

*END

*D_NET *27 3.79023e-16

*CONN
*I *10:d B *C 2.7975 0.4725 
*I *11:s B *C 2.7975 0.4725 
*I *52:g B *C 2.2925 0.4725 
*I *18:d B *C 2.8700 1.0800 
*I *20:d B *C 2.8700 1.0800 
*I *7:g B *C 2.2925 1.0800 
*N *27:2 *C 2.3200 0.8150 
*N *27:5 *C 2.8600 0.9750 

*CAP
0 *7:g 3.69482e-17
1 *18:d 3.22407e-17
2 *52:g 3.88126e-17
3 *10:d 7.67903e-17
4 *27:5 7.36261e-17
5 *27:2 1.20605e-16

*RES
0 *7:g *27:2 19.691952  // $poly_conn
1 *27:2 *52:g 53.025284  // $poly_conn
2 *18:d *27:5 31.082712  // $metal1_conn
3 *27:5 *27:2 45.467278  // $metal1_conn
4 *27:5 *10:d 75.386368  // $metal1_conn

*END

*D_NET *54 3.8963e-16

*CONN
*I *48:g B *C 1.0925 0.4725 
*I *50:d B *C 1.7200 0.4725 
*I *51:s B *C 1.7200 0.4725 
*I *3:g B *C 1.0375 1.0800 
*I *5:d B *C 1.6875 1.0800 
*I *6:d B *C 1.6875 1.0800 
*N *54:2 *C 1.0650 0.8100 
*N *54:5 *C 1.3950 1.0000 

*CAP
0 *5:d 4.91429e-17
1 *3:g 3.84732e-17
2 *50:d 6.87611e-17
3 *48:g 3.05255e-17
4 *54:5 9.88654e-17
5 *54:2 1.03862e-16

*RES
0 *48:g *54:2 51.743229  // $poly_conn
1 *54:2 *3:g 20.974003  // $poly_conn
2 *50:d *54:5 75.497284  // $metal1_conn
3 *54:5 *54:2 45.380436  // $metal1_conn
4 *54:5 *5:d 62.167164  // $metal1_conn

*END

*D_NET *53 4.14727e-16

*CONN
*I *9:g B *C 2.5575 0.4725 
*I *51:d B *C 2.0850 0.4725 
*I *52:d B *C 2.0850 0.4725 
*I *16:g B *C 2.5575 1.0800 
*I *6:s B *C 2.0750 1.0800 
*I *7:d B *C 2.0750 1.0800 
*N *53:2 *C 2.5575 0.7850 
*N *53:3 *C 2.4800 0.7850 
*N *53:5 *C 2.1600 0.6250 

*CAP
0 *6:s 7.11655e-17
1 *16:g 5.78503e-17
2 *51:d 5.13273e-17
3 *9:g 6.62322e-17
4 *53:5 5.62305e-17
5 *53:2 3.0845e-17
6 *53:3 8.10765e-17

*RES
0 *16:g *53:2 32.586399  // $poly_conn
1 *53:2 *53:3 47.445099  // $poly_conn
2 *53:2 *9:g 50.535114  // $poly_conn
3 *53:3 *53:5 0.321013  // $metal1_conn
4 *53:5 *51:d 75.142906  // $metal1_conn
5 *53:5 *6:s 62.307041  // $metal1_conn

*END

