*SPEF "IEEE 1481-1999"
*DESIGN  "MDFFHQX2"
*DATE "Mon Sep 27 09:54:40 2010"
*VENDOR "Cadence Design Systems"
*PROGRAM "Assura RCX"
*VERSION "3.2 Red Hat Linux release 7.2 (Enigma) - (09/09/2009-10:39)"
*DESIGN_FLOW "Physical Verification"
*DIVIDER /
*DELIMITER :
*BUS_DELIMITER []
*T_UNIT 1 PS
*C_UNIT 1e15 FF
*R_UNIT 1 OHM
*L_UNIT 1 MH
// DeviceFingerDelim "@"
// MATCHED
// caps2d version: 10

*NAME_MAP
*1 VDD
*2 n35
*3 n25
*4 n10
*5 VSS
*6 n12
*7 mout
*8 n30
*9 S0
*10 mn35
*11 mn36
*12 mn25
*13 mp55
*14 mn21
*15 mp55\@1
*16 mn11
*17 mp20
*18 mp35
*19 mn12
*20 mp45
*21 mp36
*22 mn14
*23 mp50
*24 mp25
*25 mn55
*26 mn13
*27 mp51
*28 mp21
*29 mn55\@1
*30 mn10
*31 mp40
*32 mp11
*33 mn20
*34 D0
*35 mp30
*36 mp12
*37 mn45
*38 D1
*39 mp14
*40 mn50
*41 mp13
*42 mn51
*43 mp10
*44 mn40
*45 mn30
*46 CK
*47 n20
*48 S0b
*49 qbint
*50 D0b
*51 CKbb
*52 CKb
*53 n36
*54 n26
*55 Q
*56 n11
*57 n13

*GROUND_NETS VSS

*PORTS
*1 I
*5 I
*46 I
*34 I
*38 I
*9 I
*55 O

*D_NET *1 5.88853e-16

*CONN
*P *1 I *C 0.1000 1.7100 
*I *18:s B *C 2.7600 1.0550 
*I *28:s B *C 3.9150 1.1750 
*I *32:s B *C 3.9150 1.1750 
*I *41:s B *C 4.9000 1.0875 
*I *43:s B *C 4.9000 1.0875 
*I *13:s B *C 0.1350 1.1400 
*I *15:s B *C 0.5850 1.2275 
*I *17:s B *C 0.5850 1.2275 
*I *20:s B *C 1.4550 1.0550 
*I *23:s B *C 1.4550 1.0550 
*I *35:s B *C 2.7600 1.0550 
*N *1:2 *C 4.5000 1.7100 
*N *1:3 *C 4.5000 1.7100 
*N *1:4 *C 3.9050 1.7100 
*N *1:5 *C 2.7000 1.7100 
*N *1:6 *C 1.3700 1.7100 
*N *1:7 *C 0.9000 1.7100 

*CAP
0 *20:s 2.95996e-17
1 *41:s 3.77806e-17
2 *28:s 4.72686e-17
3 *18:s 3.40186e-17
4 *1:6 2.32098e-17
5 *1:4 2.53371e-17
6 *1:2 3.01302e-16
7 *1 9.03365e-17

*RES
0 *1:2 *1:3 8.333333  // $metal1_conn
1 *1:2 *1:5 8.333333  // $metal1_conn
2 *1:2 *1:7 8.333333  // $metal1_conn
3 *41:s *1:3 62.389858  // $metal1_conn
4 *1:4 *28:s 31.311005  // $metal1_conn
5 *1:5 *18:s 62.249279  // $metal1_conn
6 *1:6 *20:s 62.227459  // $metal1_conn
7 *1:3 *1:4 0.298087  // $metal1_conn
8 *1:4 *1:5 0.603889  // $metal1_conn
9 *1:5 *1:6 0.666554  // $metal1_conn
10 *1:6 *1:7 0.235422  // $metal1_conn
11 *1:7 *1 0.182784  // $metal1_conn

*END

*D_NET *5 0

*CONN
*P *5 I *C 0.1000 0.0000 
*I *10:s B *C 2.7600 0.4275 
*I *14:s B *C 3.9350 0.4100 
*I *16:s B *C 3.9350 0.4100 
*I *26:s B *C 4.9575 0.4675 
*I *30:s B *C 4.9575 0.4675 
*I *25:s B *C 0.1350 0.5300 
*I *29:s B *C 0.6200 0.5875 
*I *33:s B *C 0.6200 0.5875 
*I *37:s B *C 1.3975 0.4275 
*I *40:s B *C 1.3975 0.4275 
*I *45:s B *C 2.7600 0.4275 
*N *5:2 *C 4.5000 0.0000 
*N *5:3 *C 4.5000 0.0000 
*N *5:4 *C 3.9050 0.0000 
*N *5:5 *C 2.7000 0.0000 
*N *5:6 *C 1.3950 0.0000 
*N *5:7 *C 0.9000 0.0000 


*RES
0 *5:2 *5:3 6.888889  // $metal1_conn
1 *5:2 *5:5 6.888889  // $metal1_conn
2 *5:2 *5:7 6.888889  // $metal1_conn
3 *26:s *5:3 75.379135  // $metal1_conn
4 *5:4 *14:s 75.211929  // $metal1_conn
5 *5:5 *10:s 75.133652  // $metal1_conn
6 *5:6 *37:s 75.237808  // $metal1_conn
7 *5:3 *5:4 0.298087  // $metal1_conn
8 *5:4 *5:5 0.604247  // $metal1_conn
9 *5:5 *5:6 0.654277  // $metal1_conn
10 *5:6 *5:7 0.247955  // $metal1_conn
11 *5:7 *5 0.182784  // $metal1_conn

*END

*D_NET *46 2.30771e-16

*CONN
*P *46 I *C 0.5000 1.0450 
*I *33:g B *C 0.6675 0.5875 
*I *17:g B *C 0.6375 1.2275 
*N *46:2 *C 0.6650 0.9500 

*CAP
0 *17:g 3.66158e-17
1 *33:g 4.155e-17
2 *46:2 1.05666e-16
3 *46 4.6939e-17

*RES
0 *33:g *46:2 64.089172  // $poly_conn
1 *46:2 *17:g 35.076569  // $poly_conn
2 *46:2 *46 45.128044  // $metal1_conn

*END

*D_NET *34 2.59765e-16

*CONN
*P *34 I *C 3.7000 0.6650 
*I *16:g B *C 4.0075 0.4100 
*I *32:g B *C 4.0075 1.1750 
*N *34:2 *C 4.0075 0.7050 
*N *34:3 *C 3.9050 0.7050 

*CAP
0 *32:g 6.65941e-17
1 *16:g 4.15994e-17
2 *34:2 2.46615e-17
3 *34:3 7.04097e-17
4 *34 5.65004e-17

*RES
0 *32:g *34:2 67.758133  // $poly_conn
1 *34:2 *34:3 50.485863  // $poly_conn
2 *34:2 *16:g 39.553005  // $poly_conn
3 *34:3 *34 0.113546  // $metal1_conn

*END

*D_NET *38 2.74955e-16

*CONN
*P *38 I *C 4.7000 0.8550 
*I *26:g B *C 4.6625 0.4100 
*I *41:g B *C 4.6025 1.1750 
*N *38:2 *C 4.6900 0.8450 
*N *38:4 *C 4.6900 0.8450 

*CAP
0 *41:g 5.03398e-17
1 *26:g 7.32952e-17
2 *38:2 4.95765e-17
3 *38 1.01744e-16

*RES
0 *26:g *38:2 66.530037  // $poly_conn
1 *38:2 *41:g 32.036076  // $poly_conn
2 *38:4 *38 0.003482  // $metal1_conn
3 *38:2 *38:4 45  // $metal1_conn

*END

*D_NET *9 5.53166e-16

*CONN
*P *9 I *C 5.1000 0.8550 
*I *22:g B *C 4.5525 0.4100 
*I *30:g B *C 5.1125 0.4675 
*I *36:g B *C 4.1975 1.1750 
*I *43:g B *C 5.0575 1.0875 
*N *9:2 *C 4.2250 0.8200 
*N *9:4 *C 4.5000 0.6400 
*N *9:6 *C 5.0850 0.8450 
*N *9:8 *C 4.5000 0.5300 
*N *9:9 *C 5.0850 0.8450 

*CAP
0 *43:g 2.96061e-17
1 *36:g 4.86761e-17
2 *30:g 2.87525e-17
3 *22:g 6.38825e-17
4 *9:8 1.18854e-16
5 *9:2 9.09439e-17
6 *9:4 5.54838e-17
7 *9:6 1.16967e-16

*RES
0 *36:g *9:2 77.512466  // $poly_conn
1 *22:g *9:4 64.656593  // $poly_conn
2 *30:g *9:6 69.691948  // $poly_conn
3 *9:6 *43:g 26.102209  // $poly_conn
4 *9:4 *9:8 0.040105  // $metal1_conn
5 *9:8 *9:2 0.415989  // $metal1_conn
6 *9:8 *9:9 0.667691  // $metal1_conn
7 *9:9 *9 0.004558  // $metal1_conn
8 *9:6 *9:9 45  // $metal1_conn

*END

*D_NET *55 1.16135e-16

*CONN
*P *55 O *C 0.3000 0.8550 
*I *25:d B *C 0.3300 0.5300 
*I *29:d B *C 0.3300 0.5300 
*I *13:d B *C 0.3300 1.1400 
*I *15:d B *C 0.3300 1.1400 

*CAP
0 *13:d 7.43547e-17
1 *25:d 1.50003e-17
2 *55 2.67805e-17

*RES
0 *13:d *55 20.874565  // $metal1_conn
1 *55 *25:d 75.168808  // $metal1_conn

*END

*D_NET *6 1.47994e-18

*CONN
*I *22:s B *C 4.6075 0.4100 
*I *26:d B *C 4.6075 0.4100 

*CAP
0 *22:s 1.47994e-18

*RES
0 *26:d *22:s 0.001  // $mwires

*END

*D_NET *4 1.3381e-17

*CONN
*I *16:d B *C 4.1775 0.4100 
*I *19:s B *C 4.1775 0.4100 

*CAP
0 *16:d 1.3381e-17

*RES
0 *19:s *16:d 0.001  // $mwires

*END

*D_NET *3 1.65965e-18

*CONN
*I *10:d B *C 2.8650 0.4275 
*I *11:s B *C 2.8650 0.4275 

*CAP
0 *10:d 1.65965e-18

*RES
0 *11:s *10:d 0.001  // $mwires

*END

*D_NET *2 0

*CONN
*I *40:d B *C 1.6575 0.4275 
*I *42:s B *C 1.6575 0.4275 


*RES
0 *42:s *40:d 0.001  // $mwires

*END

*D_NET *57 3.95889e-18

*CONN
*I *39:s B *C 4.5125 1.1750 
*I *41:d B *C 4.5125 1.1750 

*CAP
0 *39:s 3.95889e-18

*RES
0 *41:d *39:s 0.001  // $mwires

*END

*D_NET *56 5.59536e-18

*CONN
*I *32:d B *C 4.1025 1.1750 
*I *36:s B *C 4.1025 1.1750 

*CAP
0 *32:d 5.59536e-18

*RES
0 *36:s *32:d 0.001  // $mwires

*END

*D_NET *54 6.07415e-18

*CONN
*I *18:d B *C 2.9275 1.0550 
*I *21:s B *C 2.9275 1.0550 

*CAP
0 *18:d 6.07415e-18

*RES
0 *21:s *18:d 0.001  // $mwires

*END

*D_NET *53 9.39004e-18

*CONN
*I *23:d B *C 1.6100 1.0550 
*I *27:s B *C 1.6100 1.0550 

*CAP
0 *23:d 9.39004e-18

*RES
0 *27:s *23:d 0.001  // $mwires

*END

*D_NET *52 9.75548e-16

*CONN
*I *12:g B *C 3.2225 0.4275 
*I *14:g B *C 3.8025 0.3525 
*I *33:d B *C 0.8475 0.5875 
*I *42:g B *C 1.8125 0.4275 
*I *21:g B *C 3.0475 1.0550 
*I *28:g B *C 3.7725 1.2625 
*I *17:d B *C 0.7300 1.2275 
*I *31:g B *C 2.0775 1.0550 
*N *52:1 *C 2.2200 0.8000 
*N *52:2 *C 2.0775 0.8025 
*N *52:6 *C 3.7625 0.6275 
*N *52:7 *C 3.2225 0.6275 
*N *52:9 *C 3.0100 1.3100 
*N *52:12 *C 2.2200 1.1750 
*N *52:13 *C 0.9450 1.1500 

*CAP
0 *31:g 2.05165e-17
1 *17:d 3.5293e-17
2 *28:g 4.86908e-17
3 *21:g 4.43512e-17
4 *42:g 6.50951e-17
5 *33:d 8.72205e-17
6 *14:g 3.06978e-17
7 *12:g 2.52584e-17
8 *52:13 1.39325e-16
9 *52:12 1.39132e-16
10 *52:7 6.25353e-17
11 *52:6 7.03868e-17
12 *52:2 4.10855e-17
13 *52:1 6.3915e-17
14 *52:9 1.02046e-16

*RES
0 *52:1 *52:2 70.116661  // $poly_conn
1 *52:2 *42:g 118.92646  // $poly_conn
2 *52:2 *31:g 20.300484  // $poly_conn
3 *14:g *52:6 50.672333  // $poly_conn
4 *52:6 *52:7 132.610016  // $poly_conn
5 *52:7 *21:g 95.849533  // $poly_conn
6 *21:g *52:9 61.15522  // $poly_conn
7 *52:6 *28:g 132.839249  // $poly_conn
8 *52:7 *12:g 20.300484  // $poly_conn
9 *52:1 *52:12 0.254349  // $metal1_conn
10 *52:12 *52:13 0.925681  // $metal1_conn
11 *52:13 *17:d 62.146832  // $metal1_conn
12 *52:12 *52:9 0.648345  // $metal1_conn
13 *52:13 *33:d 75.412689  // $metal1_conn

*END

*D_NET *51 9.92186e-16

*CONN
*I *11:g B *C 2.9225 0.4275 
*I *14:d B *C 3.7100 0.3525 
*I *44:g B *C 2.0775 0.4275 
*I *24:g B *C 3.2725 1.0550 
*I *28:d B *C 3.6800 1.2625 
*I *27:g B *C 1.7175 1.0550 
*N *51:2 *C 1.7550 0.7650 
*N *51:4 *C 2.0400 0.6550 
*N *51:6 *C 2.9600 0.6300 
*N *51:8 *C 3.3100 0.7600 
*N *51:10 *C 3.3100 0.3100 
*N *51:11 *C 2.9300 0.3800 

*CAP
0 *27:g 3.34421e-17
1 *28:d 6.65689e-17
2 *24:g 3.83469e-17
3 *44:g 2.94806e-17
4 *14:d 5.84144e-17
5 *11:g 5.13352e-17
6 *51:11 1.28582e-16
7 *51:10 7.46455e-17
8 *51:2 9.83802e-17
9 *51:4 1.62262e-16
10 *51:6 9.0447e-17
11 *51:8 1.60281e-16

*RES
0 *27:g *51:2 70.129578  // $poly_conn
1 *44:g *51:4 67.565475  // $poly_conn
2 *11:g *51:6 61.15522  // $poly_conn
3 *24:g *51:8 71.411629  // $poly_conn
4 *28:d *51:8 62.564705  // $metal1_conn
5 *51:8 *51:10 0.310456  // $metal1_conn
6 *51:10 *51:11 0.324538  // $metal1_conn
7 *51:11 *51:4 0.845655  // $metal1_conn
8 *51:4 *51:2 0.251712  // $metal1_conn
9 *51:10 *14:d 75.273674  // $metal1_conn
10 *51:11 *51:6 0.185278  // $metal1_conn

*END

*D_NET *50 4.61552e-16

*CONN
*I *12:d B *C 3.4025 0.4275 
*I *19:d B *C 4.4500 0.4100 
*I *22:d B *C 4.4500 0.4100 
*I *24:s B *C 3.4625 0.9700 
*I *36:d B *C 4.3100 1.1750 
*I *39:d B *C 4.3100 1.1750 
*N *50:2 *C 4.0650 0.9350 
*N *50:4 *C 3.4700 0.9800 

*CAP
0 *36:d 6.21683e-17
1 *24:s 8.74921e-17
2 *19:d 9.98294e-17
3 *12:d 7.07367e-17
4 *50:2 1.41326e-16

*RES
0 *19:d *50:2 75.681221  // $metal1_conn
1 *50:2 *50:4 0.395682  // $metal1_conn
2 *50:2 *36:d 20.999466  // $metal1_conn
3 *50:4 *12:d 75.388  // $metal1_conn
4 *24:s *50:4 62  // $metal1_conn

*END

*D_NET *49 6.4008e-16

*CONN
*I *25:g B *C 0.2275 0.5300 
*I *29:g B *C 0.4325 0.5300 
*I *37:d B *C 1.2000 0.4275 
*I *40:g B *C 1.5025 0.4275 
*I *13:g B *C 0.2275 1.1400 
*I *15:g B *C 0.4325 1.1400 
*I *20:d B *C 1.1350 1.0550 
*I *23:g B *C 1.5025 1.0550 
*N *49:6 *C 0.5200 0.7600 
*N *49:9 *C 1.5025 0.7600 
*N *49:10 *C 1.4350 0.7600 
*N *49:12 *C 1.1475 0.5750 
*N *49:14 *C 1.1150 0.9600 
*N *49:16 *C 1.1900 0.4400 

*CAP
0 *23:g 4.61372e-17
1 *20:d 7.11289e-17
2 *15:g 1.28711e-16
3 *40:g 3.47489e-17
4 *37:d 7.31328e-17
5 *49:12 5.91228e-17
6 *49:9 2.50881e-17
7 *49:6 1.17151e-16
8 *49:10 8.48593e-17

*RES
0 *23:g *49:9 33.14275  // $poly_conn
1 *49:9 *40:g 56.219673  // $poly_conn
2 *49:9 *49:10 46.794373  // $poly_conn
3 *15:g *49:6 51.352463  // $poly_conn
4 *49:10 *49:12 0.307492  // $metal1_conn
5 *49:16 *49:6 0.709542  // $metal1_conn
6 *20:d *49:14 62  // $metal1_conn
7 *37:d *49:16 75  // $metal1_conn
8 *49:12 *49:14 0.317865  // $metal1_conn
9 *49:12 *49:16 0.057824  // $metal1_conn

*END

*D_NET *48 4.30716e-16

*CONN
*I *19:g B *C 4.3475 0.4100 
*I *30:d B *C 5.2350 0.4675 
*I *39:g B *C 4.4225 1.1750 
*I *43:d B *C 5.1500 1.0875 
*N *48:2 *C 4.4600 0.8800 
*N *48:5 *C 5.1600 1.1350 

*CAP
0 *43:d 1.04878e-16
1 *39:g 4.40909e-17
2 *30:d 7.18318e-17
3 *19:g 5.8823e-17
4 *48:2 1.51092e-16

*RES
0 *39:g *48:2 16.15522  // $poly_conn
1 *48:2 *19:g 87.819702  // $poly_conn
2 *48:2 *48:5 45.648678  // $metal1_conn
3 *48:5 *30:d 75.530533  // $metal1_conn
4 *43:d *48:5 62  // $metal1_conn

*END

*D_NET *47 3.71509e-16

*CONN
*I *11:d B *C 3.0725 0.4275 
*I *12:s B *C 3.0725 0.4275 
*I *45:g B *C 2.5425 0.4275 
*I *21:d B *C 3.1600 1.0550 
*I *24:d B *C 3.1600 1.0550 
*I *35:g B *C 2.5425 1.0550 
*N *47:2 *C 2.5700 0.7900 
*N *47:5 *C 3.1500 0.7900 

*CAP
0 *35:g 3.83108e-17
1 *21:d 6.05314e-17
2 *45:g 4.5101e-17
3 *11:d 6.28173e-17
4 *47:5 6.83299e-17
5 *47:2 9.64186e-17

*RES
0 *35:g *47:2 19.691952  // $poly_conn
1 *47:2 *45:g 58.153492  // $poly_conn
2 *21:d *47:5 31.19338  // $metal1_conn
3 *47:5 *47:2 45.397903  // $metal1_conn
4 *47:5 *11:d 75.254036  // $metal1_conn

*END

*D_NET *8 4.09815e-16

*CONN
*I *37:g B *C 1.2925 0.4275 
*I *42:d B *C 1.9450 0.4275 
*I *44:s B *C 1.9450 0.4275 
*I *20:g B *C 1.2375 1.0550 
*I *27:d B *C 1.8975 1.0550 
*I *31:d B *C 1.8975 1.0550 
*N *8:2 *C 1.2650 0.7800 
*N *8:4 *C 1.5950 0.9550 

*CAP
0 *27:d 5.60189e-17
1 *20:g 4.22036e-17
2 *42:d 8.54735e-17
3 *37:g 3.35691e-17
4 *8:4 8.66189e-17
5 *8:2 1.05931e-16

*RES
0 *37:g *8:2 55.589386  // $poly_conn
1 *8:2 *20:g 22.256054  // $poly_conn
2 *8:2 *8:4 45.373108  // $metal1_conn
3 *8:4 *27:d 62.175018  // $metal1_conn
4 *8:4 *42:d 75.538666  // $metal1_conn

*END

*D_NET *7 3.88511e-16

*CONN
*I *10:g B *C 2.8075 0.4275 
*I *44:d B *C 2.3100 0.4275 
*I *45:d B *C 2.3100 0.4275 
*I *18:g B *C 2.8075 1.0550 
*I *31:s B *C 2.3100 1.0550 
*I *35:d B *C 2.3100 1.0550 
*N *7:2 *C 2.8075 0.6300 
*N *7:3 *C 2.7400 0.6300 
*N *7:5 *C 2.3800 0.6300 

*CAP
0 *31:s 6.1281e-17
1 *18:g 6.124e-17
2 *44:d 5.92831e-17
3 *10:g 5.49161e-17
4 *7:5 4.81176e-17
5 *7:2 3.66583e-17
6 *7:3 6.70147e-17

*RES
0 *18:g *7:2 66.476082  // $poly_conn
1 *7:2 *7:3 46.794373  // $poly_conn
2 *7:2 *10:g 22.886339  // $poly_conn
3 *7:3 *7:5 0.243914  // $metal1_conn
4 *7:5 *44:d 75.120445  // $metal1_conn
5 *7:5 *31:s 62.232239  // $metal1_conn

*END

