*SPEF "IEEE 1481-1999"
*DESIGN  "MX2X8"
*DATE "Mon Sep 27 09:57:21 2010"
*VENDOR "Cadence Design Systems"
*PROGRAM "Assura RCX"
*VERSION "3.2 Red Hat Linux release 7.2 (Enigma) - (09/09/2009-10:39)"
*DESIGN_FLOW "Physical Verification"
*DIVIDER /
*DELIMITER :
*BUS_DELIMITER []
*T_UNIT 1 PS
*C_UNIT 1e15 FF
*R_UNIT 1 OHM
*L_UNIT 1 MH
// DeviceFingerDelim "@"
// MATCHED
// caps2d version: 10

*NAME_MAP
*1 VDD
*2 A
*3 B
*4 mp2
*5 mp4
*6 mp3
*7 n6
*8 n3
*9 n5
*10 Y
*11 n0
*12 S0b
*13 n4
*14 VSS
*15 mp5
*16 S0
*17 mp5\@1
*18 mp5\@2
*19 mp5\@3
*20 mp5\@4
*21 mp5\@5
*22 mp5\@6
*23 mn5
*24 mp0
*25 mn5\@1
*26 mp1
*27 mn5\@2
*28 mn5\@3
*29 mn5\@4
*30 mn5\@5
*31 mn5\@6
*32 mn2
*33 mn0
*34 mn4
*35 mn1
*36 mn3

*GROUND_NETS VSS

*PORTS
*1 I
*14 I
*2 I
*3 I
*16 I
*10 O

*D_NET *1 5.54052e-16

*CONN
*P *1 I *C 0.1000 1.7100 
*I *15:s B *C 1.8200 1.2125 
*I *17:s B *C 2.2700 1.2125 
*I *18:s B *C 2.2700 1.2125 
*I *19:s B *C 2.6800 1.2125 
*I *20:s B *C 2.6800 1.2125 
*I *21:s B *C 3.0900 1.2125 
*I *22:s B *C 3.0900 1.2125 
*I *24:s B *C 0.6750 1.2800 
*I *26:s B *C 0.6750 1.2800 
*I *6:s B *C 1.8200 1.2125 
*N *1:3 *C 2.6000 1.7100 
*N *1:7 *C 0.9000 1.7100 
*N *1:8 *C 0.6350 1.7100 

*CAP
0 *24:s 3.91327e-17
1 *21:s 2.82731e-16
2 *1:8 1.11551e-17
3 *1:3 2.07188e-16
4 *1 1.38454e-17

*RES
0 *1:8 *1 0.267534  // $metal1_conn
1 *1:3 *21:s 9.375  // $metal1_conn
2 *1:3 *1:7 8.333333  // $metal1_conn
3 *1:8 *24:s 62.199654  // $metal1_conn
4 *21:s *1:7 0.445603  // $metal1_conn
5 *1:7 *1:8 0.132542  // $metal1_conn

*END

*D_NET *14 0

*CONN
*P *14 I *C 0.1000 0.0000 
*I *23:s B *C 1.8200 0.4825 
*I *25:s B *C 2.2650 0.4825 
*I *27:s B *C 2.2650 0.4825 
*I *28:s B *C 2.6800 0.4825 
*I *29:s B *C 2.6800 0.4825 
*I *30:s B *C 3.0900 0.4825 
*I *31:s B *C 3.0900 0.4825 
*I *33:s B *C 0.6750 0.4375 
*I *35:s B *C 0.6750 0.4375 
*I *36:s B *C 1.8200 0.4825 
*N *14:3 *C 2.6000 0.0000 
*N *14:7 *C 0.9000 0.0000 
*N *14:8 *C 0.6650 0.0000 


*RES
0 *14:8 *14 0.282561  // $metal1_conn
1 *14:3 *30:s 7.75  // $metal1_conn
2 *14:3 *14:7 6.888889  // $metal1_conn
3 *14:8 *33:s 75.243057  // $metal1_conn
4 *30:s *14:7 0.352937  // $metal1_conn
5 *14:7 *14:8 0.117515  // $metal1_conn

*END

*D_NET *2 2.57421e-16

*CONN
*P *2 I *C 0.7000 1.0450 
*I *35:g B *C 0.7675 0.4375 
*I *26:g B *C 0.7675 1.2800 
*N *2:2 *C 0.7400 0.7450 
*N *2:4 *C 0.7200 0.7450 
*N *2:5 *C 0.7400 0.7450 
*N *2:6 *C 0.7200 1.0450 

*CAP
0 *26:g 6.19053e-17
1 *35:g 4.06147e-17
2 *2:6 6.39186e-17
3 *2:4 4.28767e-17
4 *2:2 4.81052e-17

*RES
0 *26:g *2:2 88.922722  // $poly_conn
1 *2:2 *35:g 44.050926  // $poly_conn
2 *2:4 *2:5 0.003456  // $metal1_conn
3 *2 *2:6 0.003369  // $metal1_conn
4 *2:4 *2:6 0.104229  // $metal1_conn
5 *2:2 *2:5 45  // $metal1_conn

*END

*D_NET *3 2.06955e-16

*CONN
*P *3 I *C 1.7000 1.0450 
*I *36:g B *C 1.5325 0.4375 
*I *6:g B *C 1.5325 1.2800 
*N *3:2 *C 1.5600 0.8800 

*CAP
0 *6:g 3.53037e-17
1 *36:g 4.31303e-17
2 *3:2 9.60459e-17
3 *3 3.24751e-17

*RES
0 *6:g *3:2 54.307335  // $poly_conn
1 *3:2 *36:g 78.666313  // $poly_conn
2 *3 *3:2 45.162033  // $metal1_conn

*END

*D_NET *16 5.32464e-16

*CONN
*P *16 I *C 0.3000 1.0450 
*I *33:g B *C 0.5325 0.4675 
*I *34:g B *C 1.3225 0.4375 
*I *24:g B *C 0.5325 1.2325 
*I *4:g B *C 0.9975 1.2800 
*N *16:2 *C 0.5050 1.0150 
*N *16:5 *C 0.9600 0.8950 
*N *16:7 *C 0.5050 1.0150 

*CAP
0 *4:g 4.31264e-17
1 *24:g 3.28171e-17
2 *34:g 6.98192e-17
3 *33:g 5.01141e-17
4 *16:2 1.32978e-16
5 *16:5 1.54935e-16
6 *16 4.86739e-17

*RES
0 *24:g *16:2 19.691952  // $poly_conn
1 *16:2 *33:g 113.281693  // $poly_conn
2 *34:g *16:5 159.959152  // $poly_conn
3 *16:5 *4:g 49.488552  // $poly_conn
4 *16 *16:7 0.075746  // $metal1_conn
5 *16:7 *16:5 45.689182  // $metal1_conn
6 *16:2 *16:7 45  // $metal1_conn

*END

*D_NET *10 4.4423e-16

*CONN
*P *10 O *C 2.1000 1.0450 
*I *23:d B *C 2.0275 0.4825 
*I *25:d B *C 2.0275 0.4825 
*I *27:d B *C 2.4725 0.4825 
*I *28:d B *C 2.4725 0.4825 
*I *29:d B *C 2.8850 0.4825 
*I *30:d B *C 2.8850 0.4825 
*I *31:d B *C 3.2850 0.4825 
*I *15:d B *C 2.0300 1.2125 
*I *17:d B *C 2.0300 1.2125 
*I *18:d B *C 2.4750 1.2125 
*I *19:d B *C 2.4750 1.2125 
*I *20:d B *C 2.8850 1.2125 
*I *21:d B *C 2.8850 1.2125 
*I *22:d B *C 3.2850 1.2125 

*CAP
0 *10 4.4423e-16


*END

*D_NET *9 2.27566e-18

*CONN
*I *34:s B *C 1.4275 0.4375 
*I *36:d B *C 1.4275 0.4375 

*CAP
0 *34:s 2.27566e-18

*RES
0 *36:d *34:s 0.001  // $mwires

*END

*D_NET *8 0

*CONN
*I *35:d B *C 0.9075 0.4375 
*I *32:s B *C 0.9075 0.4375 


*RES
0 *32:s *35:d 0.001  // $mwires

*END

*D_NET *7 4.68977e-18

*CONN
*I *5:s B *C 1.3750 1.2800 
*I *6:d B *C 1.3750 1.2800 

*CAP
0 *5:s 4.68977e-18

*RES
0 *6:d *5:s 0.001  // $mwires

*END

*D_NET *13 5.9326e-18

*CONN
*I *26:d B *C 0.8825 1.2800 
*I *4:s B *C 0.8825 1.2800 

*CAP
0 *26:d 5.9326e-18

*RES
0 *4:s *26:d 0.001  // $mwires

*END

*D_NET *12 4.82814e-16

*CONN
*I *33:d B *C 0.4400 0.4675 
*I *32:g B *C 1.0475 0.4375 
*I *24:d B *C 0.3975 1.2325 
*I *5:g B *C 1.2175 1.2800 
*N *12:2 *C 1.1800 1.0000 
*N *12:4 *C 1.1800 0.6650 
*N *12:6 *C 0.4300 0.5850 

*CAP
0 *5:g 3.54244e-17
1 *24:d 9.45706e-17
2 *32:g 2.93768e-17
3 *33:d 1.20259e-17
4 *12:6 1.05887e-16
5 *12:4 1.16259e-16
6 *12:2 8.927e-17

*RES
0 *5:g *12:2 67.565475  // $poly_conn
1 *32:g *12:4 89.547165  // $poly_conn
2 *33:d *12:6 75.056984  // $metal1_conn
3 *12:6 *24:d 62.789757  // $metal1_conn
4 *12:6 *12:4 0.551011  // $metal1_conn
5 *12:4 *12:2 0.234913  // $metal1_conn

*END

*D_NET *11 6.07072e-16

*CONN
*I *23:g B *C 1.8925 0.4825 
*I *25:g B *C 2.1625 0.4825 
*I *27:g B *C 2.3675 0.4825 
*I *28:g B *C 2.5775 0.4825 
*I *29:g B *C 2.7825 0.4825 
*I *30:g B *C 2.9875 0.4825 
*I *31:g B *C 3.1925 0.4825 
*I *32:d B *C 1.1850 0.4375 
*I *34:d B *C 1.1850 0.4375 
*I *15:g B *C 1.8925 1.2125 
*I *17:g B *C 2.1675 1.2125 
*I *18:g B *C 2.3725 1.2125 
*I *19:g B *C 2.5775 1.2125 
*I *20:g B *C 2.7825 1.2125 
*I *21:g B *C 2.9875 1.2125 
*I *22:g B *C 3.1925 1.2125 
*I *4:d B *C 1.1075 1.2800 
*I *5:d B *C 1.1075 1.2800 
*N *11:24 *C 1.3700 0.7200 

*CAP
0 *4:d 7.36508e-17
1 *22:g 3.86663e-16
2 *32:d 3.73852e-17
3 *11:24 1.09373e-16

*RES
0 *11:24 *4:d 31.58152  // $metal1_conn
1 *32:d *11:24 75.313538  // $metal1_conn
2 *11:24 *22:g 45.371216  // $metal1_conn

*END

