*SPEF "IEEE 1481-1999"
*DESIGN  "MX2XL"
*DATE "Mon Sep 27 09:57:44 2010"
*VENDOR "Cadence Design Systems"
*PROGRAM "Assura RCX"
*VERSION "3.2 Red Hat Linux release 7.2 (Enigma) - (09/09/2009-10:39)"
*DESIGN_FLOW "Physical Verification"
*DIVIDER /
*DELIMITER :
*BUS_DELIMITER []
*T_UNIT 1 PS
*C_UNIT 1e15 FF
*R_UNIT 1 OHM
*L_UNIT 1 MH
// DeviceFingerDelim "@"
// MATCHED
// caps2d version: 10

*NAME_MAP
*1 n6
*2 mp0
*3 n3
*4 S0
*5 mp1
*6 n5
*7 A
*8 mp2
*9 B
*10 mp4
*11 mp3
*12 mp5
*13 VDD
*14 n0
*15 S0b
*16 mn0
*17 n4
*18 mn1
*19 mn2
*20 mn4
*21 mn3
*22 mn5
*23 Y
*24 VSS

*GROUND_NETS VSS

*PORTS
*13 I
*24 I
*7 I
*9 I
*4 I
*23 O

*D_NET *13 1.91122e-16

*CONN
*P *13 I *C 0.1000 1.7100 
*I *2:s B *C 0.3050 1.2075 
*I *5:s B *C 0.3050 1.2075 
*I *11:s B *C 0.9900 1.2075 
*I *12:s B *C 0.9900 1.2075 
*N *13:2 *C 0.7000 1.7100 
*N *13:3 *C 0.7000 1.7100 
*N *13:4 *C 0.3050 1.7100 

*CAP
0 *11:s 2.74567e-17
1 *2:s 3.48912e-17
2 *13:4 5.57731e-18
3 *13:2 1.15299e-16
4 *13 7.89815e-18

*RES
0 *11:s *13:3 62.458324  // $metal1_conn
1 *13:3 *13:4 0.19789  // $metal1_conn
2 *13:4 *13 0.102357  // $metal1_conn
3 *13:4 *2:s 62.289272  // $metal1_conn
4 *13:2 *13:3 10.714286  // $metal1_conn

*END

*D_NET *24 0

*CONN
*P *24 I *C 0.1000 0.0000 
*I *16:s B *C 0.3050 0.4475 
*I *18:s B *C 0.3050 0.4475 
*I *21:s B *C 0.9900 0.4475 
*I *22:s B *C 0.9900 0.4475 
*N *24:2 *C 0.7000 0.0000 
*N *24:3 *C 0.7000 0.0000 
*N *24:4 *C 0.3050 0.0000 


*RES
0 *21:s *24:3 75.449425  // $metal1_conn
1 *24:3 *24:4 0.19789  // $metal1_conn
2 *24:4 *24 0.102357  // $metal1_conn
3 *24:4 *16:s 75.275925  // $metal1_conn
4 *24:2 *24:3 8.857142  // $metal1_conn

*END

*D_NET *7 2.70199e-16

*CONN
*P *7 I *C 0.3800 0.7350 
*I *18:g B *C 0.4075 0.4475 
*I *5:g B *C 0.4075 1.2075 
*N *7:2 *C 0.3800 0.7600 

*CAP
0 *5:g 6.601e-17
1 *18:g 5.87883e-17
2 *7:2 6.61552e-17
3 *7 7.92454e-17

*RES
0 *5:g *7:2 78.666313  // $poly_conn
1 *7:2 *18:g 53.025284  // $poly_conn
2 *7 *7:2 45.015564  // $metal1_conn

*END

*D_NET *9 2.56755e-16

*CONN
*P *9 I *C 0.9600 0.8950 
*I *21:g B *C 0.8875 0.4475 
*I *11:g B *C 0.8875 1.2075 
*N *9:1 *C 0.9500 1.0000 
*N *9:2 *C 0.8875 1.0000 
*N *9:5 *C 0.9550 0.8950 
*N *9:6 *C 0.9550 1.0000 

*CAP
0 *11:g 3.88204e-17
1 *21:g 7.16627e-17
2 *9:6 3.95701e-17
3 *9:2 6.33241e-17
4 *9 4.33773e-17

*RES
0 *9:1 *9:2 46.294373  // $poly_conn
1 *9:2 *21:g 117.999382  // $poly_conn
2 *9:2 *11:g 20.563484  // $poly_conn
3 *9:5 *9 0.001252  // $metal1_conn
4 *9:1 *9:6 0.001138  // $metal1_conn
5 *9:5 *9:6 0.072372  // $metal1_conn

*END

*D_NET *4 4.80222e-16

*CONN
*P *4 I *C 0.2050 1.0550 
*I *16:g B *C 0.2025 0.4475 
*I *20:g B *C 0.7225 0.4475 
*I *2:g B *C 0.2025 1.2075 
*I *8:g B *C 0.5275 1.2075 
*N *4:2 *C 0.2150 0.8750 
*N *4:5 *C 0.5400 0.8800 

*CAP
0 *8:g 5.58254e-17
1 *2:g 3.36575e-17
2 *20:g 6.05988e-17
3 *16:g 3.76864e-17
4 *4:2 8.26006e-17
5 *4:5 1.42637e-16
6 *4 6.72165e-17

*RES
0 *2:g *4:2 46.885853  // $poly_conn
1 *4:2 *16:g 80.219193  // $poly_conn
2 *20:g *4:5 112.766708  // $poly_conn
3 *4:5 *8:g 45.603806  // $poly_conn
4 *4:5 *4 45.388592  // $metal1_conn
5 *4 *4:2 45.145664  // $metal1_conn

*END

*D_NET *23 1.05945e-16

*CONN
*P *23 O *C 1.2050 0.5900 
*I *22:d B *C 1.1850 0.4475 
*I *12:d B *C 1.1850 1.2075 

*CAP
0 *12:d 4.35228e-17
1 *22:d 1.79087e-17
2 *23 4.45131e-17

*RES
0 *12:d *23 62.384815  // $metal1_conn
1 *23 *22:d 75.086746  // $metal1_conn

*END

*D_NET *6 4.0087e-18

*CONN
*I *20:s B *C 0.8050 0.4475 
*I *21:d B *C 0.8050 0.4475 

*CAP
0 *20:s 4.0087e-18

*RES
0 *21:d *20:s 0.001  // $mwires

*END

*D_NET *3 0

*CONN
*I *18:d B *C 0.4625 0.4475 
*I *19:s B *C 0.4625 0.4475 


*RES
0 *19:s *18:d 0.001  // $mwires

*END

*D_NET *1 4.09563e-18

*CONN
*I *10:s B *C 0.8125 1.2075 
*I *11:d B *C 0.8125 1.2075 

*CAP
0 *10:s 4.09563e-18

*RES
0 *11:d *10:s 0.001  // $mwires

*END

*D_NET *17 0

*CONN
*I *5:d B *C 0.4675 1.2075 
*I *8:s B *C 0.4675 1.2075 


*RES
0 *8:s *5:d 0.001  // $mwires

*END

*D_NET *15 4.91304e-16

*CONN
*I *16:d B *C 0.1100 0.4475 
*I *19:g B *C 0.5175 0.4475 
*I *2:d B *C 0.1100 1.2075 
*I *10:g B *C 0.7375 1.2075 
*N *15:2 *C 0.5450 0.6300 
*N *15:4 *C 0.7100 0.9850 
*N *15:5 *C 0.0875 0.6000 

*CAP
0 *10:g 4.22596e-17
1 *2:d 6.41211e-17
2 *19:g 4.89254e-17
3 *16:d 1.88984e-17
4 *15:5 6.17835e-17
5 *15:2 1.47731e-16
6 *15:4 1.07586e-16

*RES
0 *19:g *15:2 64.691956  // $poly_conn
1 *10:g *15:4 65.973999  // $poly_conn
2 *15:4 *15:2 0.381131  // $metal1_conn
3 *15:2 *15:5 0.300881  // $metal1_conn
4 *15:5 *16:d 75.112106  // $metal1_conn
5 *15:5 *2:d 62.486111  // $metal1_conn

*END

*D_NET *14 3.99802e-16

*CONN
*I *19:d B *C 0.6200 0.4475 
*I *20:d B *C 0.6200 0.4475 
*I *22:g B *C 1.0925 0.4475 
*I *8:d B *C 0.6325 1.2075 
*I *10:d B *C 0.6325 1.2075 
*I *12:g B *C 1.0925 1.2075 
*N *14:2 *C 1.0925 0.6300 
*N *14:3 *C 1.0350 0.6300 
*N *14:5 *C 0.8300 0.6600 

*CAP
0 *12:g 5.46424e-17
1 *8:d 7.04887e-17
2 *22:g 2.49192e-17
3 *19:d 5.06483e-17
4 *14:5 1.15587e-16
5 *14:2 2.83358e-17
6 *14:3 5.51802e-17

*RES
0 *12:g *14:2 117.201782  // $poly_conn
1 *14:2 *14:3 45.778431  // $poly_conn
2 *14:2 *22:g 24.894089  // $poly_conn
3 *14:3 *14:5 0.130455  // $metal1_conn
4 *14:5 *19:d 75.298332  // $metal1_conn
5 *14:5 *8:d 62.626911  // $metal1_conn

*END

