*SPEF "IEEE 1481-1999"
*DESIGN  "MX3XL"
*DATE "Mon Sep 27 09:59:15 2010"
*VENDOR "Cadence Design Systems"
*PROGRAM "Assura RCX"
*VERSION "3.2 Red Hat Linux release 7.2 (Enigma) - (09/09/2009-10:39)"
*DESIGN_FLOW "Physical Verification"
*DIVIDER /
*DELIMITER :
*BUS_DELIMITER []
*T_UNIT 1 PS
*C_UNIT 1e15 FF
*R_UNIT 1 OHM
*L_UNIT 1 MH
// DeviceFingerDelim "@"
// MATCHED
// caps2d version: 10

*NAME_MAP
*1 VDD
*2 mn9
*3 mn7
*4 mn8
*5 mn6
*6 mn1
*7 VSS
*8 mp0
*9 mn4
*10 mn5
*11 mn3
*12 mn2
*13 A
*14 B
*15 C
*16 S0b
*17 S0
*18 n0
*19 S1
*20 S1b
*21 net202
*22 net190
*23 net189
*24 net245
*25 net234
*26 net229
*27 Y
*28 mp9
*29 n1
*30 mp7
*31 mp8
*32 mp6
*33 mp1
*34 mp4
*35 mp5
*36 mp3
*37 mp2
*38 mn0

*GROUND_NETS VSS

*PORTS
*1 I
*7 I
*13 I
*14 I
*15 I
*17 I
*19 I
*27 O

*D_NET *1 4.20729e-16

*CONN
*P *1 I *C 0.1000 1.7100 
*I *28:s B *C 0.3400 1.3075 
*I *30:s B *C 0.3400 1.3075 
*I *33:s B *C 1.4900 1.3425 
*I *34:s B *C 1.4900 1.3425 
*I *37:s B *C 2.4000 1.3425 
*I *8:s B *C 2.4000 1.3425 
*N *1:2 *C 2.1000 1.7100 
*N *1:3 *C 2.1000 1.7100 
*N *1:4 *C 1.4900 1.7100 
*N *1:5 *C 0.7000 1.7100 
*N *1:6 *C 0.3400 1.7100 

*CAP
0 *37:s 2.79152e-17
1 *33:s 3.62761e-17
2 *28:s 2.57599e-17
3 *1:6 1.03052e-17
4 *1:4 3.10951e-17
5 *1:2 2.80878e-16
6 *1 8.49962e-18

*RES
0 *37:s *1:3 62.367435  // $metal1_conn
1 *1:3 *1:4 0.305862  // $metal1_conn
2 *1:4 *1:5 0.396174  // $metal1_conn
3 *1:5 *1:6 0.180428  // $metal1_conn
4 *1:6 *1 0.119969  // $metal1_conn
5 *1:4 *33:s 62.200043  // $metal1_conn
6 *1:6 *28:s 62.219028  // $metal1_conn
7 *1:2 *1:3 10.714286  // $metal1_conn
8 *1:2 *1:5 10.714286  // $metal1_conn

*END

*D_NET *7 0

*CONN
*P *7 I *C 0.1000 0.0000 
*I *2:s B *C 0.3600 0.4575 
*I *3:s B *C 0.3600 0.4575 
*I *6:s B *C 1.4900 0.4275 
*I *9:s B *C 1.4900 0.4275 
*I *12:s B *C 2.4000 0.4275 
*I *38:s B *C 2.4000 0.4275 
*N *7:2 *C 2.1000 0.0000 
*N *7:3 *C 2.1000 0.0000 
*N *7:4 *C 1.4900 0.0000 
*N *7:5 *C 0.7000 0.0000 
*N *7:6 *C 0.3600 0.0000 


*RES
0 *12:s *7:3 75.431099  // $metal1_conn
1 *7:3 *7:4 0.305862  // $metal1_conn
2 *7:4 *7:5 0.396174  // $metal1_conn
3 *7:5 *7:6 0.170393  // $metal1_conn
4 *7:6 *7 0.130004  // $metal1_conn
5 *7:4 *6:s 75.271523  // $metal1_conn
6 *7:6 *2:s 75.281113  // $metal1_conn
7 *7:2 *7:3 8.857142  // $metal1_conn
8 *7:2 *7:5 8.857142  // $metal1_conn

*END

*D_NET *13 2.5908e-16

*CONN
*P *13 I *C 2.3000 0.8550 
*I *12:g B *C 2.2825 0.4275 
*I *37:g B *C 2.2825 1.3425 
*N *13:2 *C 2.3200 0.7700 

*CAP
0 *37:g 5.25337e-17
1 *12:g 4.04058e-17
2 *13:2 1.36617e-16
3 *13 2.95231e-17

*RES
0 *37:g *13:2 109.744965  // $poly_conn
1 *13:2 *12:g 59.744961  // $poly_conn
2 *13 *13:2 45.034885  // $metal1_conn

*END

*D_NET *14 2.81357e-16

*CONN
*P *14 I *C 1.5000 0.6650 
*I *9:g B *C 1.5925 0.4275 
*I *34:g B *C 1.5925 1.3425 
*N *14:2 *C 1.5925 0.7150 
*N *14:3 *C 1.5150 0.7150 

*CAP
0 *34:g 6.30105e-17
1 *9:g 3.37743e-17
2 *14:2 3.36907e-17
3 *14:3 1.17338e-16
4 *14 3.35436e-17

*RES
0 *34:g *14:2 130.578644  // $poly_conn
1 *14:2 *14:3 47.826286  // $poly_conn
2 *14:2 *9:g 52.373516  // $poly_conn
3 *14 *14:3 0.029106  // $metal1_conn

*END

*D_NET *15 3.09473e-16

*CONN
*P *15 I *C 0.3000 1.0450 
*I *3:g B *C 0.4625 0.4575 
*I *30:g B *C 0.4425 1.3075 
*N *15:2 *C 0.4525 0.8250 
*N *15:3 *C 0.3800 0.8250 

*CAP
0 *30:g 6.97865e-17
1 *3:g 4.83943e-17
2 *15:3 1.3492e-16
3 *15 5.63717e-17

*RES
0 *3:g *15:2 76.73542  // $poly_conn
1 *15:2 *15:3 49.842907  // $poly_conn
2 *15:2 *30:g 97.248245  // $poly_conn
3 *15:3 *15 0.150811  // $metal1_conn

*END

*D_NET *17 4.53974e-16

*CONN
*P *17 I *C 2.5000 1.0450 
*I *10:g B *C 1.8625 0.4275 
*I *38:g B *C 2.5175 0.4275 
*I *36:g B *C 2.0325 1.3425 
*I *8:g B *C 2.5175 1.3425 
*N *17:2 *C 1.9950 0.8500 
*N *17:5 *C 2.4900 1.0400 
*N *17:7 *C 2.4900 1.0400 

*CAP
0 *8:g 2.99682e-17
1 *36:g 5.0755e-17
2 *38:g 4.47106e-17
3 *10:g 4.99872e-17
4 *17:2 1.56353e-16
5 *17:5 4.79792e-17
6 *17 7.42206e-17

*RES
0 *36:g *17:2 89.23214  // $poly_conn
1 *17:2 *10:g 99.07756  // $poly_conn
2 *8:g *17:5 41.486824  // $poly_conn
3 *17:5 *38:g 129.948364  // $poly_conn
4 *17:7 *17 0.003117  // $metal1_conn
5 *17 *17:2 45.459702  // $metal1_conn
6 *17:5 *17:7 45  // $metal1_conn

*END

*D_NET *19 4.3599e-16

*CONN
*P *19 I *C 1.3000 0.6650 
*I *4:g B *C 0.6625 0.4575 
*I *6:g B *C 1.3875 0.4275 
*I *32:g B *C 0.8325 1.3075 
*I *33:g B *C 1.3875 1.3425 
*N *19:2 *C 1.3100 1.0100 
*N *19:3 *C 0.8325 1.0475 

*CAP
0 *33:g 3.28325e-17
1 *32:g 3.4709e-17
2 *6:g 5.72208e-17
3 *4:g 5.50548e-17
4 *19:3 6.92683e-17
5 *19:2 1.24194e-16
6 *19 6.27107e-17

*RES
0 *33:g *19:2 52.548897  // $poly_conn
1 *19:2 *19:3 108.441956  // $poly_conn
2 *19:3 *4:g 162.91925  // $poly_conn
3 *19:2 *6:g 120.086624  // $poly_conn
4 *19:3 *32:g 37.567783  // $poly_conn
5 *19 *19:2 45.205711  // $metal1_conn

*END

*D_NET *27 1.34447e-16

*CONN
*P *27 O *C 0.1000 0.4750 
*I *2:d B *C 0.1525 0.4575 
*I *28:d B *C 0.1275 1.3075 

*CAP
0 *28:d 6.25955e-17
1 *27 7.18511e-17

*RES
0 *28:d *27 62.564163  // $metal1_conn
1 *27 *2:d 75.002937  // $metal1_conn

*END

*D_NET *26 0

*CONN
*I *11:s B *C 2.1775 0.4275 
*I *12:d B *C 2.1775 0.4275 


*RES
0 *12:d *11:s 0.001  // $mwires

*END

*D_NET *25 6.45332e-18

*CONN
*I *9:d B *C 1.7275 0.4275 
*I *10:s B *C 1.7275 0.4275 

*CAP
0 *9:d 6.45332e-18

*RES
0 *10:s *9:d 0.001  // $mwires

*END

*D_NET *24 0

*CONN
*I *3:d B *C 0.5625 0.4575 
*I *4:s B *C 0.5625 0.4575 


*RES
0 *4:s *3:d 0.001  // $mwires

*END

*D_NET *23 0

*CONN
*I *36:s B *C 2.1575 1.3425 
*I *37:d B *C 2.1575 1.3425 


*RES
0 *37:d *36:s 0.001  // $mwires

*END

*D_NET *22 5.14235e-18

*CONN
*I *34:d B *C 1.7025 1.3425 
*I *35:s B *C 1.7025 1.3425 

*CAP
0 *34:d 5.14235e-18

*RES
0 *35:s *34:d 0.001  // $mwires

*END

*D_NET *21 1.41866e-18

*CONN
*I *30:d B *C 0.5050 1.3075 
*I *31:s B *C 0.5050 1.3075 

*CAP
0 *30:d 1.41866e-18

*RES
0 *31:s *30:d 0.001  // $mwires

*END

*D_NET *20 5.55322e-16

*CONN
*I *5:g B *C 0.9375 0.4575 
*I *6:d B *C 1.2950 0.4275 
*I *31:g B *C 0.5675 1.3075 
*I *33:d B *C 1.2950 1.3425 
*N *20:1 *C 0.7000 1.0700 
*N *20:4 *C 0.9650 0.6900 
*N *20:6 *C 0.8600 1.0400 

*CAP
0 *33:d 8.34824e-17
1 *31:g 4.93477e-17
2 *6:d 7.76033e-17
3 *5:g 3.32538e-17
4 *20:6 8.70781e-17
5 *20:1 8.63364e-17
6 *20:4 1.38221e-16

*RES
0 *20:1 *31:g 85.386711  // $poly_conn
1 *5:g *20:4 77.512466  // $poly_conn
2 *33:d *20:6 62.544495  // $metal1_conn
3 *20:6 *20:1 0.104008  // $metal1_conn
4 *20:6 *20:4 0.300356  // $metal1_conn
5 *20:4 *6:d 75.630447  // $metal1_conn

*END

*D_NET *18 5.41085e-16

*CONN
*I *5:s B *C 1.0525 0.4575 
*I *10:d B *C 1.9675 0.4275 
*I *11:d B *C 1.9675 0.4275 
*I *32:d B *C 0.9825 1.3075 
*I *35:d B *C 1.9225 1.3425 
*I *36:d B *C 1.9225 1.3425 
*N *18:2 *C 1.6750 1.2000 
*N *18:3 *C 1.1250 1.2000 

*CAP
0 *35:d 3.07081e-17
1 *32:d 3.04633e-17
2 *10:d 1.08469e-16
3 *5:s 1.08379e-16
4 *18:3 1.17994e-16
5 *18:2 1.45071e-16

*RES
0 *10:d *18:2 75.733742  // $metal1_conn
1 *18:2 *18:3 0.372658  // $metal1_conn
2 *18:3 *32:d 62.099331  // $metal1_conn
3 *18:2 *35:d 62.21376  // $metal1_conn
4 *18:3 *5:s 75.55558  // $metal1_conn

*END

*D_NET *16 5.05071e-16

*CONN
*I *11:g B *C 2.0725 0.4275 
*I *38:d B *C 2.6350 0.4275 
*I *35:g B *C 1.8125 1.3425 
*I *8:d B *C 2.6350 1.3425 
*N *16:2 *C 1.8650 1.0400 
*N *16:4 *C 2.0450 0.6600 
*N *16:6 *C 2.6700 0.6125 

*CAP
0 *8:d 5.83408e-17
1 *35:g 4.08581e-17
2 *38:d 1.64661e-17
3 *11:g 4.54706e-17
4 *16:6 7.47905e-17
5 *16:2 1.12752e-16
6 *16:4 1.56392e-16

*RES
0 *35:g *16:2 90.485176  // $poly_conn
1 *11:g *16:4 77.512466  // $poly_conn
2 *8:d *16:6 62.485485  // $metal1_conn
3 *16:6 *16:4 0.442293  // $metal1_conn
4 *16:4 *16:2 0.461275  // $metal1_conn
5 *16:6 *38:d 75.124802  // $metal1_conn

*END

*D_NET *29 3.73058e-16

*CONN
*I *2:g B *C 0.2575 0.4575 
*I *4:d B *C 0.8000 0.4575 
*I *5:d B *C 0.8000 0.4575 
*I *28:g B *C 0.2375 1.3075 
*I *31:d B *C 0.7000 1.3075 
*I *32:s B *C 0.7000 1.3075 
*N *29:2 *C 0.2475 0.6350 
*N *29:4 *C 0.3200 0.6350 
*N *29:6 *C 0.5400 0.6350 

*CAP
0 *31:d 7.65829e-17
1 *28:g 5.06691e-17
2 *4:d 5.91959e-17
3 *2:g 2.44776e-17
4 *29:6 5.96726e-17
5 *29:2 6.18722e-17
6 *29:4 4.0588e-17

*RES
0 *2:g *29:2 28.017475  // $poly_conn
1 *29:2 *28:g 145.966202  // $poly_conn
2 *29:2 *29:4 49.842907  // $poly_conn
3 *4:d *29:6 75.279488  // $metal1_conn
4 *29:6 *29:4 0.170561  // $metal1_conn
5 *29:6 *31:d 62.498131  // $metal1_conn

*END

