*SPEF "IEEE 1481-1999"
*DESIGN  "MX3X4"
*DATE "Mon Sep 27 09:58:53 2010"
*VENDOR "Cadence Design Systems"
*PROGRAM "Assura RCX"
*VERSION "3.2 Red Hat Linux release 7.2 (Enigma) - (09/09/2009-10:39)"
*DESIGN_FLOW "Physical Verification"
*DIVIDER /
*DELIMITER :
*BUS_DELIMITER []
*T_UNIT 1 PS
*C_UNIT 1e15 FF
*R_UNIT 1 OHM
*L_UNIT 1 MH
// DeviceFingerDelim "@"
// MATCHED
// caps2d version: 10

*NAME_MAP
*1 C
*2 mn9\@3
*3 mn7
*4 mn8
*5 mp9\@3
*6 mn6
*7 VDD
*8 mp7
*9 mp8
*10 VSS
*11 mp6
*12 Y
*13 S0b
*14 S1b
*15 n0
*16 net202
*17 net190
*18 net189
*19 net245
*20 net234
*21 net229
*22 mn1
*23 mn4
*24 mn5
*25 mn3
*26 mn2
*27 n1
*28 mn0
*29 mn9
*30 mn9\@1
*31 mn9\@2
*32 S0
*33 S1
*34 mp1
*35 mp4
*36 mp5
*37 mp3
*38 mp2
*39 mp0
*40 mp9
*41 mp9\@1
*42 mp9\@2
*43 A
*44 B

*GROUND_NETS VSS

*PORTS
*7 I
*10 I
*43 I
*44 I
*1 I
*32 I
*33 I
*12 O

*D_NET *7 5.14447e-16

*CONN
*P *7 I *C 0.1000 1.7100 
*I *34:s B *C 2.4425 1.2575 
*I *35:s B *C 2.4425 1.2575 
*I *38:s B *C 3.3850 1.2575 
*I *39:s B *C 3.3850 1.2575 
*I *40:s B *C 0.3450 1.2150 
*I *41:s B *C 0.7500 1.2150 
*I *42:s B *C 0.7500 1.2150 
*I *5:s B *C 1.2475 1.2150 
*I *8:s B *C 1.2475 1.2150 
*N *7:2 *C 2.4400 1.7100 
*N *7:4 *C 1.0000 1.7100 
*N *7:8 *C 2.9000 1.7100 

*CAP
0 *5:s 1.75395e-16
1 *38:s 3.60456e-17
2 *34:s 3.84658e-17
3 *7:2 3.14074e-17
4 *7:4 2.33133e-16

*RES
0 *5:s *7 0.114818  // $metal1_conn
1 *7:4 *5:s 7.5  // $metal1_conn
2 *7:4 *7:8 8.333333  // $metal1_conn
3 *7:8 *38:s 62.494301  // $metal1_conn
4 *34:s *7:2 62.250256  // $metal1_conn
5 *7:2 *5:s 0.600575  // $metal1_conn
6 *7:2 *7:8 0.229921  // $metal1_conn

*END

*D_NET *10 0

*CONN
*P *10 I *C 0.1000 0.0000 
*I *22:s B *C 2.4450 0.3375 
*I *23:s B *C 2.4450 0.3375 
*I *26:s B *C 3.3850 0.3375 
*I *28:s B *C 3.3850 0.3375 
*I *29:s B *C 0.3500 0.5100 
*I *30:s B *C 0.7500 0.5100 
*I *31:s B *C 0.7500 0.5100 
*I *2:s B *C 1.2475 0.5100 
*I *3:s B *C 1.2475 0.5100 
*N *10:2 *C 2.9000 0.0000 
*N *10:3 *C 2.9000 0.0000 
*N *10:4 *C 2.4450 0.0000 


*RES
0 *2:s *10 0.119829  // $metal1_conn
1 *10:2 *10:3 6.888889  // $metal1_conn
2 *10:2 *2:s 6.2  // $metal1_conn
3 *26:s *10:3 75.459106  // $metal1_conn
4 *10:4 *22:s 75.201378  // $metal1_conn
5 *10:3 *10:4 0.227826  // $metal1_conn
6 *10:4 *2:s 0.603492  // $metal1_conn

*END

*D_NET *43 2.75962e-16

*CONN
*P *43 I *C 3.3000 0.8550 
*I *26:g B *C 3.2525 0.3375 
*I *38:g B *C 3.2525 1.2575 
*N *43:2 *C 3.2800 0.7000 

*CAP
0 *38:g 5.13355e-17
1 *26:g 5.36685e-17
2 *43:2 1.42416e-16
3 *43 2.8542e-17

*RES
0 *38:g *43:2 106.871437  // $poly_conn
1 *43:2 *26:g 65.845802  // $poly_conn
2 *43 *43:2 45.075062  // $metal1_conn

*END

*D_NET *44 2.63699e-16

*CONN
*P *44 I *C 2.5000 0.6650 
*I *23:g B *C 2.5475 0.3375 
*I *35:g B *C 2.5475 1.2575 
*N *44:2 *C 2.5100 0.6400 
*N *44:4 *C 2.5050 0.6400 

*CAP
0 *35:g 6.02442e-17
1 *23:g 3.22181e-17
2 *44:4 3.61623e-17
3 *44:2 5.60387e-17
4 *44 7.90359e-17

*RES
0 *35:g *44:2 121.283417  // $poly_conn
1 *44:2 *23:g 49.488552  // $poly_conn
2 *44:4 *44 0.015531  // $metal1_conn
3 *44:2 *44:4 45  // $metal1_conn

*END

*D_NET *1 2.36582e-16

*CONN
*P *1 I *C 1.3000 0.8550 
*I *3:g B *C 1.3575 0.5100 
*I *8:g B *C 1.3575 1.2150 
*N *1:2 *C 1.3200 0.7900 

*CAP
0 *8:g 6.82562e-17
1 *3:g 3.4448e-17
2 *1:2 8.20953e-17
3 *1 5.17829e-17

*RES
0 *8:g *1:2 49.488552  // $poly_conn
1 *1:2 *3:g 28.975733  // $poly_conn
2 *1 *1:2 45.035015  // $metal1_conn

*END

*D_NET *32 3.9793e-16

*CONN
*P *32 I *C 3.5000 1.0450 
*I *24:g B *C 2.9225 0.3375 
*I *28:g B *C 3.5175 0.3375 
*I *37:g B *C 2.9725 1.2575 
*I *39:g B *C 3.5175 1.2575 
*N *32:2 *C 3.0100 1.0500 
*N *32:5 *C 3.4900 1.0400 
*N *32:7 *C 3.4900 1.0400 

*CAP
0 *39:g 2.37528e-17
1 *37:g 3.14311e-17
2 *28:g 4.70738e-17
3 *24:g 6.02685e-17
4 *32:2 1.22448e-16
5 *32:5 1.12956e-16

*RES
0 *37:g *32:2 16.15522  // $poly_conn
1 *32:2 *24:g 155.609253  // $poly_conn
2 *39:g *32:5 19.691952  // $poly_conn
3 *32:5 *28:g 153.025284  // $poly_conn
4 *32 *32:7 0.00508  // $metal1_conn
5 *32:7 *32:2 45.283085  // $metal1_conn
6 *32:5 *32:7 45  // $metal1_conn

*END

*D_NET *33 4.34703e-16

*CONN
*P *33 I *C 2.3000 0.6650 
*I *22:g B *C 2.3425 0.3375 
*I *4:g B *C 1.6175 0.5100 
*I *34:g B *C 2.3375 1.2575 
*I *11:g B *C 1.8325 1.2150 
*N *33:2 *C 2.3100 0.9050 
*N *33:3 *C 1.8325 0.9425 

*CAP
0 *11:g 2.98511e-17
1 *34:g 3.56013e-17
2 *4:g 6.24413e-17
3 *22:g 5.5447e-17
4 *33:3 7.08662e-17
5 *33:2 1.07789e-16
6 *33 7.27072e-17

*RES
0 *22:g *33:2 114.212975  // $poly_conn
1 *33:2 *33:3 108.441956  // $poly_conn
2 *33:3 *4:g 119.329498  // $poly_conn
3 *33:2 *34:g 51.770603  // $poly_conn
4 *33:3 *11:g 18.337015  // $poly_conn
5 *33 *33:2 45.143654  // $metal1_conn

*END

*D_NET *12 2.51951e-16

*CONN
*P *12 O *C 0.5000 0.6650 
*I *29:d B *C 0.5450 0.5100 
*I *30:d B *C 0.5450 0.5100 
*I *31:d B *C 0.9950 0.5100 
*I *2:d B *C 0.9950 0.5100 
*I *40:d B *C 0.5450 1.2150 
*I *41:d B *C 0.5450 1.2150 
*I *42:d B *C 0.9950 1.2150 
*I *5:d B *C 0.9950 1.2150 

*CAP
0 *42:d 1.46375e-16
1 *29:d 8.78814e-17
2 *12 1.7695e-17

*RES
0 *12 *29:d 0.044462  // $metal1_conn
1 *42:d *12 0.265071  // $metal1_conn

*END

*D_NET *21 0

*CONN
*I *25:s B *C 3.1900 0.3375 
*I *26:d B *C 3.1900 0.3375 


*RES
0 *26:d *25:s 0.001  // $mwires

*END

*D_NET *20 2.32254e-19

*CONN
*I *23:d B *C 2.7350 0.3375 
*I *24:s B *C 2.7350 0.3375 

*CAP
0 *23:d 2.32254e-19

*RES
0 *24:s *23:d 0.001  // $mwires

*END

*D_NET *19 5.3414e-18

*CONN
*I *3:d B *C 1.4875 0.5100 
*I *4:s B *C 1.4875 0.5100 

*CAP
0 *3:d 5.3414e-18

*RES
0 *4:s *3:d 0.001  // $mwires

*END

*D_NET *18 0

*CONN
*I *37:s B *C 3.1125 1.2575 
*I *38:d B *C 3.1125 1.2575 


*RES
0 *38:d *37:s 0.001  // $mwires

*END

*D_NET *17 3.82957e-18

*CONN
*I *35:d B *C 2.6575 1.2575 
*I *36:s B *C 2.6575 1.2575 

*CAP
0 *35:d 3.82957e-18

*RES
0 *36:s *35:d 0.001  // $mwires

*END

*D_NET *16 0

*CONN
*I *8:d B *C 1.4200 1.2150 
*I *9:s B *C 1.4200 1.2150 


*RES
0 *9:s *8:d 0.001  // $mwires

*END

*D_NET *15 4.80622e-16

*CONN
*I *24:d B *C 3.0250 0.3375 
*I *25:d B *C 3.0250 0.3375 
*I *6:s B *C 2.0300 0.5100 
*I *36:d B *C 2.8700 1.2575 
*I *37:d B *C 2.8700 1.2575 
*I *11:d B *C 1.9250 1.2150 
*N *15:2 *C 2.6700 1.1150 
*N *15:3 *C 2.1250 1.1150 

*CAP
0 *11:d 3.94003e-17
1 *36:d 2.50918e-17
2 *6:s 9.0818e-17
3 *24:d 1.0324e-16
4 *15:3 8.77766e-17
5 *15:2 1.34295e-16

*RES
0 *24:d *15:2 75.774361  // $metal1_conn
1 *15:2 *15:3 0.385852  // $metal1_conn
2 *15:3 *11:d 62.148598  // $metal1_conn
3 *15:2 *36:d 62.22364  // $metal1_conn
4 *15:3 *6:s 75.410812  // $metal1_conn

*END

*D_NET *14 5.35871e-16

*CONN
*I *22:d B *C 2.2500 0.3375 
*I *6:g B *C 1.9375 0.5100 
*I *34:d B *C 2.2450 1.2575 
*I *9:g B *C 1.4825 1.2150 
*N *14:1 *C 1.7000 0.8850 
*N *14:4 *C 1.9650 0.8000 
*N *14:6 *C 1.7525 0.9150 
*N *14:7 *C 1.8800 0.8000 

*CAP
0 *9:g 6.99475e-17
1 *34:d 8.97693e-17
2 *6:g 2.98731e-17
3 *22:d 7.05262e-17
4 *14:7 7.25141e-17
5 *14:1 1.38719e-16
6 *14:4 6.45221e-17

*RES
0 *14:1 *9:g 110.369408  // $poly_conn
1 *6:g *14:4 77.512466  // $poly_conn
2 *34:d *14:6 62.59977  // $metal1_conn
3 *14:6 *14:1 0.041865  // $metal1_conn
4 *14:6 *14:7 0.192036  // $metal1_conn
5 *14:7 *22:d 75.598122  // $metal1_conn
6 *14:7 *14:4 0.027621  // $metal1_conn

*END

*D_NET *13 5.1397e-16

*CONN
*I *25:g B *C 3.1275 0.3375 
*I *28:d B *C 3.6350 0.3375 
*I *36:g B *C 2.7675 1.2575 
*I *39:d B *C 3.6500 1.2575 
*N *13:2 *C 2.8300 0.9250 
*N *13:4 *C 3.0900 0.6550 
*N *13:6 *C 3.6700 0.5400 

*CAP
0 *39:d 4.7875e-17
1 *36:g 4.53081e-17
2 *28:d 1.89159e-17
3 *25:g 5.79624e-17
4 *13:6 8.08927e-17
5 *13:2 1.07706e-16
6 *13:4 1.5531e-16

*RES
0 *36:g *13:2 105.066879  // $poly_conn
1 *25:g *13:4 98.334702  // $poly_conn
2 *28:d *13:6 75.129692  // $metal1_conn
3 *13:6 *13:4 0.479931  // $metal1_conn
4 *13:4 *13:2 0.380477  // $metal1_conn
5 *13:6 *39:d 62.451641  // $metal1_conn

*END

*D_NET *27 4.94577e-16

*CONN
*I *29:g B *C 0.4425 0.5100 
*I *30:g B *C 0.6475 0.5100 
*I *31:g B *C 0.8525 0.5100 
*I *2:g B *C 1.1375 0.5100 
*I *4:d B *C 1.7775 0.5100 
*I *6:d B *C 1.7775 0.5100 
*I *40:g B *C 0.4425 1.2150 
*I *41:g B *C 0.6475 1.2150 
*I *42:g B *C 0.8525 1.2150 
*I *5:g B *C 1.1375 1.2150 
*I *9:d B *C 1.6575 1.2150 
*I *11:s B *C 1.6575 1.2150 
*N *27:14 *C 1.5325 0.6300 

*CAP
0 *9:d 1.00345e-16
1 *5:g 2.87286e-16
2 *4:d 4.06383e-17
3 *27:14 6.63072e-17

*RES
0 *27:14 *5:g 45.356293  // $metal1_conn
1 *27:14 *9:d 21.156694  // $metal1_conn
2 *4:d *27:14 75.13044  // $metal1_conn

*END

