*SPEF "IEEE 1481-1999"
*DESIGN  "MX4XL"
*DATE "Mon Sep 27 10:00:46 2010"
*VENDOR "Cadence Design Systems"
*PROGRAM "Assura RCX"
*VERSION "3.2 Red Hat Linux release 7.2 (Enigma) - (09/09/2009-10:39)"
*DESIGN_FLOW "Physical Verification"
*DIVIDER /
*DELIMITER :
*BUS_DELIMITER []
*T_UNIT 1 PS
*C_UNIT 1e15 FF
*R_UNIT 1 OHM
*L_UNIT 1 MH
// DeviceFingerDelim "@"
// MATCHED
// caps2d version: 10

*NAME_MAP
*1 C
*2 D
*3 mn12
*4 mn1
*5 mn11
*6 mp1
*7 mn10
*8 VDD
*9 mp11
*10 mp10
*11 VSS
*12 mp8
*13 Y
*14 S1b
*15 n2
*16 n1
*17 n0
*18 S0b
*19 n10
*20 n8
*21 n6
*22 n4
*23 n9
*24 n7
*25 mn8
*26 n5
*27 mn9
*28 n3
*29 mn7
*30 mn6
*31 mn4
*32 mn5
*33 mn3
*34 mn2
*35 mn0
*36 S0
*37 S1
*38 mp9
*39 mp7
*40 mp6
*41 mp4
*42 mp5
*43 mp3
*44 mp2
*45 mp0
*46 mp12
*47 A
*48 B

*GROUND_NETS VSS

*PORTS
*8 I
*11 I
*47 I
*48 I
*1 I
*2 I
*36 I
*37 I
*13 O

*D_NET *8 5.57949e-16

*CONN
*P *8 I *C 0.1000 1.7100 
*I *40:s B *C 2.8250 1.5700 
*I *41:s B *C 2.8250 1.5700 
*I *44:s B *C 3.7675 1.0625 
*I *45:s B *C 3.7675 1.0625 
*I *46:s B *C 0.4225 1.0075 
*I *6:s B *C 0.4225 1.0075 
*I *12:s B *C 1.9950 1.0625 
*N *8:2 *C 3.2000 1.7100 
*N *8:3 *C 3.2000 1.7100 
*N *8:4 *C 2.8000 1.7100 
*N *8:5 *C 1.9100 1.7100 
*N *8:6 *C 1.1000 1.7100 
*N *8:7 *C 0.3350 1.7100 

*CAP
0 *12:s 2.98115e-17
1 *46:s 1.64436e-17
2 *44:s 5.52577e-17
3 *40:s 2.7206e-17
4 *8:7 1.27576e-17
5 *8:5 3.43002e-17
6 *8:4 3.5927e-17
7 *8:2 3.42674e-16
8 *8 3.57162e-18

*RES
0 *44:s *8:3 62.725594  // $metal1_conn
1 *8:3 *8:4 0.199547  // $metal1_conn
2 *8:4 *8:5 0.445201  // $metal1_conn
3 *8:5 *8:6 0.406209  // $metal1_conn
4 *8:6 *8:7 0.383631  // $metal1_conn
5 *8:7 *8 0.117461  // $metal1_conn
6 *8:4 *40:s 62.045841  // $metal1_conn
7 *8:5 *12:s 62.12067  // $metal1_conn
8 *8:7 *46:s 62.225731  // $metal1_conn
9 *8:2 *8:3 7.5  // $metal1_conn
10 *8:2 *8:6 6.818182  // $metal1_conn

*END

*D_NET *11 0

*CONN
*P *11 I *C 0.1000 0.0000 
*I *25:s B *C 2.0300 0.3925 
*I *30:s B *C 2.7950 0.3925 
*I *31:s B *C 2.7950 0.3925 
*I *34:s B *C 3.7900 0.3925 
*I *35:s B *C 3.7900 0.3925 
*I *3:s B *C 0.4600 0.4775 
*I *4:s B *C 0.4600 0.4775 
*N *11:2 *C 3.2000 0.0000 
*N *11:3 *C 3.2000 0.0000 
*N *11:4 *C 2.7500 0.0000 
*N *11:5 *C 1.9900 0.0000 
*N *11:6 *C 1.1000 0.0000 
*N *11:7 *C 0.3350 0.0000 


*RES
0 *34:s *11:3 75.510742  // $metal1_conn
1 *11:3 *11:4 0.225584  // $metal1_conn
2 *11:4 *11:5 0.380926  // $metal1_conn
3 *11:5 *11:6 0.446347  // $metal1_conn
4 *11:6 *11:7 0.383631  // $metal1_conn
5 *11:7 *11 0.117461  // $metal1_conn
6 *11:4 *30:s 75.235786  // $metal1_conn
7 *11:5 *25:s 75.232094  // $metal1_conn
8 *11:7 *3:s 75.074944  // $metal1_conn
9 *11:2 *11:3 6.2  // $metal1_conn
10 *11:2 *11:6 5.636364  // $metal1_conn

*END

*D_NET *47 2.9575e-16

*CONN
*P *47 I *C 3.7000 0.6650 
*I *34:g B *C 3.5725 0.3925 
*I *44:g B *C 3.6475 1.0625 
*N *47:2 *C 3.6100 0.6550 
*N *47:4 *C 3.6100 0.6550 

*CAP
0 *44:g 4.55822e-17
1 *34:g 5.70084e-17
2 *47:4 4.8906e-17
3 *47:2 5.56873e-17
4 *47 8.85664e-17

*RES
0 *44:g *47:2 69.707581  // $poly_conn
1 *47:2 *34:g 41.502453  // $poly_conn
2 *47:4 *47 0.056419  // $metal1_conn
3 *47:2 *47:4 45  // $metal1_conn

*END

*D_NET *48 2.27686e-16

*CONN
*P *48 I *C 2.9000 0.8550 
*I *31:g B *C 2.9425 0.3925 
*I *41:g B *C 2.9425 1.0625 
*N *48:2 *C 2.9150 0.8450 

*CAP
0 *41:g 4.06464e-17
1 *31:g 3.78302e-17
2 *48:2 1.49209e-16

*RES
0 *41:g *48:2 19.691952  // $poly_conn
1 *48:2 *31:g 88.922722  // $poly_conn
2 *48 *48:2 45.008026  // $metal1_conn

*END

*D_NET *1 2.54599e-16

*CONN
*P *1 I *C 2.7000 1.0450 
*I *30:g B *C 2.6475 0.3925 
*I *40:g B *C 2.5975 1.0625 
*N *1:2 *C 2.5600 0.8200 

*CAP
0 *40:g 3.47701e-17
1 *30:g 6.50951e-17
2 *1:2 9.66048e-17
3 *1 5.81294e-17

*RES
0 *30:g *1:2 89.446335  // $poly_conn
1 *1:2 *40:g 25.129578  // $poly_conn
2 *1 *1:2 45.187702  // $metal1_conn

*END

*D_NET *2 2.39218e-16

*CONN
*P *2 I *C 1.9000 0.8550 
*I *25:g B *C 2.1225 0.3925 
*I *12:g B *C 2.0425 1.0625 
*N *2:2 *C 2.0425 0.7300 
*N *2:3 *C 1.9100 0.7300 

*CAP
0 *12:g 4.48408e-17
1 *25:g 2.86107e-17
2 *2:2 3.8499e-17
3 *2:3 5.17743e-17
4 *2 7.54931e-17

*RES
0 *25:g *2:2 73.322464  // $poly_conn
1 *2:2 *2:3 52.24773  // $poly_conn
2 *2:2 *12:g 54.381268  // $poly_conn
3 *2 *2:3 0.077788  // $metal1_conn

*END

*D_NET *36 8.29421e-16

*CONN
*P *36 I *C 3.9000 0.8550 
*I *27:g B *C 2.3375 0.3925 
*I *32:g B *C 3.1825 0.3925 
*I *35:g B *C 3.8375 0.3925 
*I *39:g B *C 2.3625 1.0625 
*I *43:g B *C 3.3625 1.0625 
*I *45:g B *C 3.8875 1.0625 
*N *36:3 *C 2.3900 1.4600 
*N *36:4 *C 3.5050 0.8550 
*N *36:5 *C 3.3625 0.8550 
*N *36:9 *C 3.8600 0.8450 
*N *36:11 *C 3.8600 0.8450 

*CAP
0 *45:g 2.45805e-17
1 *43:g 2.45029e-17
2 *39:g 6.95625e-17
3 *35:g 4.09884e-17
4 *32:g 5.11735e-17
5 *27:g 7.81292e-17
6 *36:5 5.7866e-17
7 *36:3 2.25833e-16
8 *36:4 1.61083e-16
9 *36:9 6.77112e-17
10 *36 2.799e-17

*RES
0 *27:g *39:g 137.006149  // $poly_conn
1 *39:g *36:3 108.552521  // $poly_conn
2 *36:4 *36:5 54.74118  // $poly_conn
3 *36:5 *32:g 129.248276  // $poly_conn
4 *36:5 *43:g 20.563484  // $poly_conn
5 *45:g *36:9 17.398676  // $poly_conn
6 *36:9 *35:g 86.629448  // $poly_conn
7 *36:11 *36:4 0.237699  // $metal1_conn
8 *36:11 *36 0.027056  // $metal1_conn
9 *36:4 *36:3 1.289219  // $metal1_conn
10 *36:9 *36:11 45  // $metal1_conn

*END

*D_NET *37 3.41986e-16

*CONN
*P *37 I *C 0.3000 0.8550 
*I *4:g B *C 0.5475 0.4775 
*I *5:g B *C 1.1225 0.5875 
*I *6:g B *C 0.4725 1.0075 
*I *10:g B *C 1.3275 1.0975 
*N *37:2 *C 1.1225 0.7575 
*N *37:3 *C 0.5100 0.8000 

*CAP
0 *10:g 5.48547e-17
1 *6:g 3.04661e-17
2 *5:g 3.14003e-17
3 *4:g 3.00313e-17
4 *37:2 4.71237e-17
5 *37:3 9.94643e-17
6 *37 4.86457e-17

*RES
0 *10:g *37:2 93.285439  // $poly_conn
1 *37:2 *37:3 146.562439  // $poly_conn
2 *37:3 *6:g 14.93473  // $poly_conn
3 *37:2 *5:g 20.300484  // $poly_conn
4 *37:3 *4:g 55.026882  // $poly_conn
5 *37:3 *37 45.116924  // $metal1_conn

*END

*D_NET *13 1.07857e-16

*CONN
*P *13 O *C 0.1000 0.8550 
*I *3:d B *C 0.1800 0.4775 
*I *46:d B *C 0.1600 1.0075 

*CAP
0 *46:d 2.65099e-17
1 *3:d 5.16155e-17
2 *13 2.9732e-17

*RES
0 *3:d *13 75.245232  // $metal1_conn
1 *13 *46:d 62.061176  // $metal1_conn

*END

*D_NET *28 3.08146e-20

*CONN
*I *33:s B *C 3.5200 0.3925 
*I *34:d B *C 3.5200 0.3925 

*CAP
0 *33:s 3.08146e-20

*RES
0 *34:d *33:s 0.001  // $mwires

*END

*D_NET *26 1.61777e-18

*CONN
*I *31:d B *C 3.0625 0.3925 
*I *32:s B *C 3.0625 0.3925 

*CAP
0 *31:d 1.61777e-18

*RES
0 *32:s *31:d 0.001  // $mwires

*END

*D_NET *24 0

*CONN
*I *29:s B *C 2.5950 0.3925 
*I *30:d B *C 2.5950 0.3925 


*RES
0 *30:d *29:s 0.001  // $mwires

*END

*D_NET *23 3.69657e-18

*CONN
*I *25:d B *C 2.2300 0.3925 
*I *27:s B *C 2.2300 0.3925 

*CAP
0 *25:d 3.69657e-18

*RES
0 *27:s *25:d 0.001  // $mwires

*END

*D_NET *22 2.31299e-18

*CONN
*I *43:s B *C 3.5050 1.0625 
*I *44:d B *C 3.5050 1.0625 

*CAP
0 *43:s 2.31299e-18

*RES
0 *44:d *43:s 0.001  // $mwires

*END

*D_NET *21 0

*CONN
*I *41:d B *C 3.0200 1.0625 
*I *42:s B *C 3.0200 1.0625 


*RES
0 *42:s *41:d 0.001  // $mwires

*END

*D_NET *20 8.51558e-19

*CONN
*I *39:s B *C 2.4800 1.0625 
*I *40:d B *C 2.4800 1.0625 

*CAP
0 *39:s 8.51558e-19

*RES
0 *40:d *39:s 0.001  // $mwires

*END

*D_NET *19 1.03247e-18

*CONN
*I *38:s B *C 2.1000 1.0625 
*I *12:d B *C 2.1000 1.0625 

*CAP
0 *38:s 1.03247e-18

*RES
0 *12:d *38:s 0.001  // $mwires

*END

*D_NET *18 9.72447e-16

*CONN
*I *29:g B *C 2.5425 0.3925 
*I *33:g B *C 3.4675 0.3925 
*I *35:d B *C 3.9300 0.3925 
*I *38:g B *C 2.1575 1.0625 
*I *42:g B *C 3.0975 1.0625 
*I *45:d B *C 3.9800 1.0625 
*N *18:1 *C 2.2300 0.7800 
*N *18:4 *C 2.5050 0.6550 
*N *18:6 *C 3.1250 0.7350 
*N *18:8 *C 3.4300 0.2000 
*N *18:10 *C 3.9400 0.4950 
*N *18:11 *C 3.0950 0.6475 

*CAP
0 *45:d 5.9445e-17
1 *42:g 4.38302e-17
2 *38:g 5.95555e-17
3 *35:d 1.20268e-17
4 *33:g 8.51475e-17
5 *29:g 6.52664e-17
6 *18:11 7.75222e-17
7 *18:10 1.12409e-16
8 *18:1 1.04457e-16
9 *18:4 1.31781e-16
10 *18:6 6.08963e-17
11 *18:8 1.60109e-16

*RES
0 *18:1 *38:g 83.446335  // $poly_conn
1 *29:g *18:4 84.232147  // $poly_conn
2 *42:g *18:6 92.897079  // $poly_conn
3 *33:g *18:8 66.283424  // $poly_conn
4 *35:d *18:10 75.047585  // $metal1_conn
5 *18:10 *18:8 0.570738  // $metal1_conn
6 *18:8 *18:11 0.548631  // $metal1_conn
7 *18:11 *18:4 0.41729  // $metal1_conn
8 *18:4 *18:1 0.283468  // $metal1_conn
9 *18:10 *45:d 62.577251  // $metal1_conn
10 *18:11 *18:6 0.069121  // $metal1_conn

*END

*D_NET *17 5.98379e-16

*CONN
*I *32:d B *C 3.3250 0.3925 
*I *33:d B *C 3.3250 0.3925 
*I *7:s B *C 1.4875 0.5875 
*I *42:d B *C 3.2300 1.0625 
*I *43:d B *C 3.2300 1.0625 
*I *10:s B *C 1.4775 1.0975 
*N *17:3 *C 3.2000 1.0150 
*N *17:5 *C 1.5450 1.1450 

*CAP
0 *10:s 2.01236e-16
1 *42:d 2.49836e-16
2 *7:s 6.70862e-17
3 *32:d 8.02204e-17

*RES
0 *32:d *17:3 75.509384  // $metal1_conn
1 *17:3 *17:5 1.536142  // $metal1_conn
2 *17:5 *7:s 75.400612  // $metal1_conn
3 *42:d *17:3 62  // $metal1_conn
4 *10:s *17:5 62  // $metal1_conn

*END

*D_NET *16 4.89853e-16

*CONN
*I *27:d B *C 2.4400 0.3925 
*I *29:d B *C 2.4400 0.3925 
*I *5:s B *C 1.0300 0.5875 
*I *38:d B *C 2.2600 1.0625 
*I *39:d B *C 2.2600 1.0625 
*I *9:d B *C 1.0300 1.0975 
*N *16:2 *C 2.0700 0.5400 
*N *16:4 *C 2.2600 1.0150 
*N *16:6 *C 1.0200 0.5750 

*CAP
0 *9:d 7.19599e-17
1 *38:d 7.16616e-17
2 *5:s 1.28613e-16
3 *27:d 4.36843e-17
4 *16:2 1.73934e-16

*RES
0 *27:d *16:2 75.325157  // $metal1_conn
1 *16:2 *16:4 0.437229  // $metal1_conn
2 *16:2 *16:6 0.938074  // $metal1_conn
3 *16:6 *9:d 62.388863  // $metal1_conn
4 *38:d *16:4 62  // $metal1_conn
5 *5:s *16:6 75  // $metal1_conn

*END

*D_NET *15 6.18932e-16

*CONN
*I *3:g B *C 0.2725 0.4775 
*I *5:d B *C 1.2350 0.5875 
*I *7:d B *C 1.2350 0.5875 
*I *46:g B *C 0.2725 1.0075 
*I *9:s B *C 1.2250 1.0975 
*I *10:d B *C 1.2250 1.0975 
*N *15:2 *C 0.3000 0.6600 
*N *15:5 *C 1.2250 1.0500 

*CAP
0 *9:s 2.54943e-16
1 *46:g 4.34981e-17
2 *5:d 6.20811e-17
3 *3:g 2.05505e-17
4 *15:2 2.37859e-16

*RES
0 *46:g *15:2 53.025284  // $poly_conn
1 *15:2 *3:g 19.691952  // $poly_conn
2 *15:5 *15:2 46.719723  // $metal1_conn
3 *15:5 *5:d 75.367661  // $metal1_conn
4 *9:s *15:5 62  // $metal1_conn

*END

*D_NET *14 5.71944e-16

*CONN
*I *4:d B *C 0.6500 0.4775 
*I *7:g B *C 1.3475 0.5875 
*I *6:d B *C 0.6125 1.0075 
*I *9:g B *C 1.1225 1.0975 
*N *14:2 *C 1.1500 1.3950 
*N *14:4 *C 1.3850 0.7600 
*N *14:6 *C 0.6700 1.0550 

*CAP
0 *9:g 4.61247e-17
1 *6:d 1.09989e-16
2 *7:g 3.68935e-17
3 *4:d 8.35303e-17
4 *14:2 1.43546e-16
5 *14:4 1.5186e-16

*RES
0 *9:g *14:2 85.204773  // $poly_conn
1 *7:g *14:4 61.15522  // $poly_conn
2 *14:4 *14:2 0.675219  // $metal1_conn
3 *14:2 *14:6 0.586608  // $metal1_conn
4 *14:6 *4:d 75.420715  // $metal1_conn
5 *6:d *14:6 62  // $metal1_conn

*END

