*SPEF "IEEE 1481-1999"
*DESIGN  "MX4X1"
*DATE "Mon Sep 27 09:59:38 2010"
*VENDOR "Cadence Design Systems"
*PROGRAM "Assura RCX"
*VERSION "3.2 Red Hat Linux release 7.2 (Enigma) - (09/09/2009-10:39)"
*DESIGN_FLOW "Physical Verification"
*DIVIDER /
*DELIMITER :
*BUS_DELIMITER []
*T_UNIT 1 PS
*C_UNIT 1e15 FF
*R_UNIT 1 OHM
*L_UNIT 1 MH
// DeviceFingerDelim "@"
// MATCHED
// caps2d version: 10

*NAME_MAP
*1 C
*2 D
*3 mn12
*4 mn1
*5 mn11
*6 mp12
*7 mn10
*8 VDD
*9 mp1
*10 mp11
*11 VSS
*12 mp10
*13 Y
*14 S1b
*15 n2
*16 n1
*17 n0
*18 S0b
*19 n10
*20 n8
*21 n6
*22 n4
*23 n9
*24 n7
*25 mn8
*26 n5
*27 mn9
*28 n3
*29 mn7
*30 mn6
*31 mn4
*32 mn5
*33 mn3
*34 mn2
*35 mn0
*36 S0
*37 S1
*38 mp9
*39 mp7
*40 mp6
*41 mp4
*42 mp5
*43 mp3
*44 mp2
*45 mp0
*46 mp8
*47 A
*48 B

*GROUND_NETS VSS

*PORTS
*8 I
*11 I
*47 I
*48 I
*1 I
*2 I
*36 I
*37 I
*13 O

*D_NET *8 5.4358e-16

*CONN
*P *8 I *C 0.1000 1.7100 
*I *40:s B *C 2.8400 1.5700 
*I *41:s B *C 2.8400 1.5700 
*I *44:s B *C 3.7550 1.0825 
*I *45:s B *C 3.7550 1.0825 
*I *46:s B *C 2.0100 1.0825 
*I *6:s B *C 0.4825 1.0925 
*I *9:s B *C 0.4825 1.0925 
*N *8:2 *C 3.3000 1.7100 
*N *8:3 *C 3.3000 1.7100 
*N *8:4 *C 2.8150 1.7100 
*N *8:5 *C 1.9250 1.7100 
*N *8:6 *C 1.1000 1.7100 
*N *8:7 *C 0.3350 1.7100 

*CAP
0 *6:s 4.86634e-17
1 *46:s 3.60773e-17
2 *44:s 4.6814e-17
3 *40:s 2.29194e-17
4 *8:7 1.16771e-17
5 *8:5 2.34595e-17
6 *8:4 3.06543e-17
7 *8:2 3.16055e-16
8 *8 7.2607e-18

*RES
0 *44:s *8:3 62.663048  // $metal1_conn
1 *8:3 *8:4 0.242195  // $metal1_conn
2 *8:4 *8:5 0.445201  // $metal1_conn
3 *8:5 *8:6 0.413735  // $metal1_conn
4 *8:6 *8:7 0.383631  // $metal1_conn
5 *8:7 *8 0.117461  // $metal1_conn
6 *8:4 *40:s 62.045841  // $metal1_conn
7 *8:5 *46:s 62.235783  // $metal1_conn
8 *8:7 *6:s 31.315458  // $metal1_conn
9 *8:2 *8:3 6.818182  // $metal1_conn
10 *8:2 *8:6 6.818182  // $metal1_conn

*END

*D_NET *11 0

*CONN
*P *11 I *C 0.1000 0.0000 
*I *25:s B *C 2.2800 0.4775 
*I *30:s B *C 2.8450 0.4775 
*I *31:s B *C 2.8450 0.4775 
*I *34:s B *C 3.8150 0.4775 
*I *35:s B *C 3.8150 0.4775 
*I *3:s B *C 0.4825 0.4625 
*I *4:s B *C 0.4825 0.4625 
*N *11:2 *C 3.3000 0.0000 
*N *11:3 *C 3.3000 0.0000 
*N *11:4 *C 2.8450 0.0000 
*N *11:5 *C 2.1650 0.0000 
*N *11:6 *C 1.1000 0.0000 
*N *11:7 *C 0.3050 0.0000 


*RES
0 *34:s *11:3 75.488144  // $metal1_conn
1 *11:3 *11:4 0.228093  // $metal1_conn
2 *11:4 *11:5 0.340787  // $metal1_conn
3 *11:5 *11:6 0.534151  // $metal1_conn
4 *11:6 *11:7 0.398683  // $metal1_conn
5 *11:7 *11 0.102408  // $metal1_conn
6 *11:4 *30:s 75.292747  // $metal1_conn
7 *11:5 *25:s 75.205284  // $metal1_conn
8 *11:7 *3:s 75.203423  // $metal1_conn
9 *11:2 *11:3 5.636364  // $metal1_conn
10 *11:2 *11:6 5.636364  // $metal1_conn

*END

*D_NET *47 2.73168e-16

*CONN
*P *47 I *C 3.7000 0.6650 
*I *34:g B *C 3.5975 0.4775 
*I *44:g B *C 3.6475 1.0825 
*N *47:2 *C 3.6750 0.6850 

*CAP
0 *44:g 5.361e-17
1 *34:g 3.33845e-17
2 *47:2 5.08507e-17
3 *47 1.35322e-16

*RES
0 *44:g *47:2 62.683884  // $poly_conn
1 *47:2 *34:g 29.471972  // $poly_conn
2 *47:2 *47 45.026649  // $metal1_conn

*END

*D_NET *48 2.32036e-16

*CONN
*P *48 I *C 2.9000 1.0450 
*I *31:g B *C 2.9475 0.4775 
*I *41:g B *C 2.9475 1.0825 
*N *48:2 *C 2.9200 0.8650 

*CAP
0 *41:g 3.90463e-17
1 *31:g 4.03858e-17
2 *48:2 7.46379e-17
3 *48 7.7966e-17

*RES
0 *41:g *48:2 19.691952  // $poly_conn
1 *48:2 *31:g 72.256058  // $poly_conn
2 *48:2 *48 45.095734  // $metal1_conn

*END

*D_NET *1 2.63117e-16

*CONN
*P *1 I *C 2.5000 1.0450 
*I *30:g B *C 2.7425 0.4775 
*I *40:g B *C 2.6675 1.0825 
*N *1:2 *C 2.7050 0.8650 

*CAP
0 *40:g 3.81502e-17
1 *30:g 6.74951e-17
2 *1:2 1.0935e-16
3 *1 4.81218e-17

*RES
0 *30:g *1:2 73.553734  // $poly_conn
1 *1:2 *40:g 20.989632  // $poly_conn
2 *1:2 *1 45.210663  // $metal1_conn

*END

*D_NET *2 2.78036e-16

*CONN
*P *2 I *C 1.9000 0.6650 
*I *25:g B *C 2.3275 0.4775 
*I *46:g B *C 2.0575 1.0825 
*N *2:2 *C 2.0575 0.8650 
*N *2:3 *C 1.9550 0.8650 

*CAP
0 *46:g 4.05325e-17
1 *25:g 6.90815e-17
2 *2:2 3.30422e-17
3 *2:3 8.39396e-17
4 *2 5.14403e-17

*RES
0 *25:g *2:2 134.860931  // $poly_conn
1 *2:2 *2:3 49.61615  // $poly_conn
2 *2:2 *46:g 24.894089  // $poly_conn
3 *2:3 *2 0.11649  // $metal1_conn

*END

*D_NET *36 8.4374e-16

*CONN
*P *36 I *C 4.1000 0.8550 
*I *27:g B *C 2.4325 0.4775 
*I *32:g B *C 3.1825 0.4775 
*I *35:g B *C 3.8625 0.4775 
*I *39:g B *C 2.4375 1.0825 
*I *43:g B *C 3.4675 1.0825 
*I *45:g B *C 3.8625 1.0825 
*N *36:3 *C 2.4650 1.3750 
*N *36:5 *C 3.5050 0.8750 
*N *36:8 *C 3.8350 0.8650 
*N *36:10 *C 3.5050 0.8750 
*N *36:11 *C 3.8350 0.8650 

*CAP
0 *45:g 2.54273e-17
1 *43:g 2.82208e-17
2 *39:g 5.61418e-17
3 *35:g 3.77546e-17
4 *32:g 7.5867e-17
5 *27:g 9.10429e-17
6 *36:3 1.87761e-16
7 *36:5 2.04505e-16
8 *36:8 8.04784e-17
9 *36 5.65413e-17

*RES
0 *27:g *39:g 107.939339  // $poly_conn
1 *39:g *36:3 83.922722  // $poly_conn
2 *43:g *36:5 16.15522  // $poly_conn
3 *36:5 *32:g 130.182404  // $poly_conn
4 *45:g *36:8 19.691952  // $poly_conn
5 *36:8 *35:g 72.256058  // $poly_conn
6 *36:3 *36:10 1.171679  // $metal1_conn
7 *36:10 *36:11 0.25422  // $metal1_conn
8 *36:11 *36 0.194182  // $metal1_conn
9 *36:5 *36:10 45  // $metal1_conn
10 *36:8 *36:11 45  // $metal1_conn

*END

*D_NET *37 3.18452e-16

*CONN
*P *37 I *C 0.5000 0.6650 
*I *4:g B *C 0.5925 0.4625 
*I *5:g B *C 1.2525 0.4925 
*I *9:g B *C 0.5925 1.0925 
*I *12:g B *C 1.4125 1.0075 
*N *37:2 *C 1.2525 0.6625 
*N *37:3 *C 0.5650 0.6750 

*CAP
0 *12:g 4.68195e-17
1 *9:g 3.12467e-17
2 *5:g 2.70411e-17
3 *4:g 1.87697e-17
4 *37:2 5.10803e-17
5 *37:3 1.10728e-16
6 *37 3.27666e-17

*RES
0 *12:g *37:2 83.02903  // $poly_conn
1 *37:2 *37:3 165.644241  // $poly_conn
2 *37:2 *5:g 20.300484  // $poly_conn
3 *37:3 *4:g 24.222347  // $poly_conn
4 *37:3 *9:g 67.812088  // $poly_conn
5 *37:3 *37 45.057823  // $metal1_conn

*END

*D_NET *13 1.16101e-16

*CONN
*P *13 O *C 0.1000 0.4750 
*I *3:d B *C 0.1300 0.4050 
*I *6:d B *C 0.1400 1.1800 

*CAP
0 *6:d 5.29932e-17
1 *3:d 6.31082e-17

*RES
0 *6:d *13 21.17083  // $metal1_conn
1 *13 *3:d 75.003349  // $metal1_conn

*END

*D_NET *28 1.19093e-18

*CONN
*I *33:s B *C 3.4925 0.4775 
*I *34:d B *C 3.4925 0.4775 

*CAP
0 *33:s 1.19093e-18

*RES
0 *34:d *33:s 0.001  // $mwires

*END

*D_NET *26 1.49571e-18

*CONN
*I *31:d B *C 3.0650 0.4775 
*I *32:s B *C 3.0650 0.4775 

*CAP
0 *31:d 1.49571e-18

*RES
0 *32:s *31:d 0.001  // $mwires

*END

*D_NET *24 0

*CONN
*I *29:s B *C 2.6900 0.4775 
*I *30:d B *C 2.6900 0.4775 


*RES
0 *30:d *29:s 0.001  // $mwires

*END

*D_NET *23 1.7621e-18

*CONN
*I *25:d B *C 2.3800 0.4775 
*I *27:s B *C 2.3800 0.4775 

*CAP
0 *25:d 1.7621e-18

*RES
0 *27:s *25:d 0.001  // $mwires

*END

*D_NET *22 2.2662e-18

*CONN
*I *43:s B *C 3.5575 1.0825 
*I *44:d B *C 3.5575 1.0825 

*CAP
0 *43:s 2.2662e-18

*RES
0 *44:d *43:s 0.001  // $mwires

*END

*D_NET *21 4.31874e-18

*CONN
*I *41:d B *C 3.0500 1.0825 
*I *42:s B *C 3.0500 1.0825 

*CAP
0 *41:d 4.31874e-18

*RES
0 *42:s *41:d 0.001  // $mwires

*END

*D_NET *20 4.89079e-18

*CONN
*I *39:s B *C 2.5525 1.0825 
*I *40:d B *C 2.5525 1.0825 

*CAP
0 *39:s 4.89079e-18

*RES
0 *40:d *39:s 0.001  // $mwires

*END

*D_NET *19 5.3893e-19

*CONN
*I *38:s B *C 2.1150 1.0825 
*I *46:d B *C 2.1150 1.0825 

*CAP
0 *38:s 5.3893e-19

*RES
0 *46:d *38:s 0.001  // $mwires

*END

*D_NET *18 9.27256e-16

*CONN
*I *29:g B *C 2.6375 0.4775 
*I *33:g B *C 3.3875 0.4775 
*I *35:d B *C 3.9550 0.4775 
*I *38:g B *C 2.1725 1.0825 
*I *42:g B *C 3.1525 1.0825 
*I *45:d B *C 3.9550 1.0825 
*N *18:1 *C 2.3050 0.7900 
*N *18:4 *C 2.6000 0.6750 
*N *18:6 *C 3.1250 0.7900 
*N *18:8 *C 3.3500 0.2200 
*N *18:10 *C 3.9650 0.4650 
*N *18:11 *C 3.0950 0.6750 

*CAP
0 *45:d 9.31474e-17
1 *42:g 4.06402e-17
2 *38:g 6.01602e-17
3 *35:d 1.3475e-16
4 *33:g 6.26055e-17
5 *29:g 5.95562e-17
6 *18:11 6.87344e-17
7 *18:1 1.07579e-16
8 *18:4 1.0469e-16
9 *18:6 6.48728e-17
10 *18:8 1.30521e-16

*RES
0 *18:1 *38:g 101.39505  // $poly_conn
1 *29:g *18:4 67.565475  // $poly_conn
2 *42:g *18:6 83.922722  // $poly_conn
3 *33:g *18:8 82.950089  // $poly_conn
4 *18:10 *18:8 0.656934  // $metal1_conn
5 *18:8 *18:11 0.51442  // $metal1_conn
6 *18:11 *18:4 0.334101  // $metal1_conn
7 *18:4 *18:1 0.295458  // $metal1_conn
8 *18:10 *45:d 62.800217  // $metal1_conn
9 *18:11 *18:6 0.08831  // $metal1_conn
10 *35:d *18:10 75  // $metal1_conn

*END

*D_NET *17 6.1903e-16

*CONN
*I *32:d B *C 3.2850 0.4775 
*I *33:d B *C 3.2850 0.4775 
*I *7:s B *C 1.5550 0.4925 
*I *42:d B *C 3.3100 1.0825 
*I *43:d B *C 3.3100 1.0825 
*I *12:s B *C 1.5625 1.0075 
*N *17:3 *C 3.3150 1.0350 
*N *17:5 *C 1.6300 1.0050 

*CAP
0 *12:s 2.37412e-16
1 *42:d 2.42931e-16
2 *7:s 8.09601e-17
3 *32:d 5.77271e-17

*RES
0 *32:d *17:3 75.409409  // $metal1_conn
1 *17:3 *17:5 1.552648  // $metal1_conn
2 *17:5 *7:s 75.485817  // $metal1_conn
3 *42:d *17:3 62  // $metal1_conn
4 *12:s *17:5 62  // $metal1_conn

*END

*D_NET *16 5.10374e-16

*CONN
*I *27:d B *C 2.5350 0.4775 
*I *29:d B *C 2.5350 0.4775 
*I *5:s B *C 1.1600 0.4925 
*I *38:d B *C 2.3050 1.0825 
*I *39:d B *C 2.3050 1.0825 
*I *10:d B *C 1.1150 1.0075 
*N *16:2 *C 2.1450 0.4950 
*N *16:4 *C 2.2750 1.0350 
*N *16:6 *C 1.1500 0.4800 

*CAP
0 *10:d 7.59378e-17
1 *38:d 7.79501e-17
2 *5:s 1.45559e-16
3 *27:d 4.66399e-17
4 *16:2 1.64288e-16

*RES
0 *27:d *16:2 75.291595  // $metal1_conn
1 *16:2 *16:4 0.437334  // $metal1_conn
2 *16:2 *16:6 0.969324  // $metal1_conn
3 *16:6 *10:d 62.37162  // $metal1_conn
4 *38:d *16:4 62  // $metal1_conn
5 *5:s *16:6 75  // $metal1_conn

*END

*D_NET *15 6.61028e-16

*CONN
*I *3:g B *C 0.2325 0.4050 
*I *5:d B *C 1.3575 0.4925 
*I *7:d B *C 1.3575 0.4925 
*I *6:g B *C 0.2325 1.1800 
*I *10:s B *C 1.3100 1.0075 
*I *12:d B *C 1.3100 1.0075 
*N *15:2 *C 0.2700 0.6600 
*N *15:5 *C 1.3100 0.9600 

*CAP
0 *10:s 2.60324e-16
1 *6:g 4.55401e-17
2 *5:d 7.67408e-17
3 *3:g 2.62872e-17
4 *15:2 2.52136e-16

*RES
0 *6:g *15:2 73.847527  // $poly_conn
1 *15:2 *3:g 22.565475  // $poly_conn
2 *15:2 *15:5 46.729416  // $metal1_conn
3 *15:5 *5:d 75.397446  // $metal1_conn
4 *10:s *15:5 62  // $metal1_conn

*END

*D_NET *14 5.54047e-16

*CONN
*I *4:d B *C 0.6950 0.4625 
*I *7:g B *C 1.4625 0.4925 
*I *9:d B *C 0.6850 1.0925 
*I *10:g B *C 1.2075 1.0075 
*N *14:2 *C 1.2350 1.3000 
*N *14:4 *C 1.5000 0.6700 
*N *14:7 *C 0.6950 1.1400 

*CAP
0 *10:g 4.42895e-17
1 *9:d 1.08384e-16
2 *7:g 3.70876e-17
3 *4:d 8.94256e-17
4 *14:2 1.30115e-16
5 *14:4 1.44745e-16

*RES
0 *10:g *14:2 83.922722  // $poly_conn
1 *7:g *14:4 62.437271  // $poly_conn
2 *4:d *14:7 75.535477  // $metal1_conn
3 *14:7 *14:2 0.497625  // $metal1_conn
4 *14:2 *14:4 0.657937  // $metal1_conn
5 *9:d *14:7 62  // $metal1_conn

*END

