*SPEF "IEEE 1481-1999"
*DESIGN  "MX4X4"
*DATE "Mon Sep 27 10:00:24 2010"
*VENDOR "Cadence Design Systems"
*PROGRAM "Assura RCX"
*VERSION "3.2 Red Hat Linux release 7.2 (Enigma) - (09/09/2009-10:39)"
*DESIGN_FLOW "Physical Verification"
*DIVIDER /
*DELIMITER :
*BUS_DELIMITER []
*T_UNIT 1 PS
*C_UNIT 1e15 FF
*R_UNIT 1 OHM
*L_UNIT 1 MH
// DeviceFingerDelim "@"
// MATCHED
// caps2d version: 10

*NAME_MAP
*1 Y
*2 mp11
*3 mp1
*4 mp12
*5 mp12\@1
*6 mp12\@2
*7 mp12\@3
*8 mp2
*9 VDD
*10 mn3
*11 mn5
*12 mn4
*13 mn6
*14 mn7
*15 VSS
*16 mn9
*17 mp3
*18 mn8
*19 mp5
*20 mn0
*21 mp4
*22 mn10
*23 mp6
*24 mp7
*25 mp9
*26 S1b
*27 mp8
*28 n2
*29 mp0
*30 S0b
*31 mp10
*32 n0
*33 n1
*34 S0
*35 n4
*36 S1
*37 n6
*38 n8
*39 n10
*40 n3
*41 n5
*42 n7
*43 n9
*44 A
*45 B
*46 C
*47 D
*48 mn11
*49 mn1
*50 mn12
*51 mn12\@1
*52 mn12\@2
*53 mn12\@3
*54 mn2

*GROUND_NETS VSS

*PORTS
*9 I
*15 I
*44 I
*45 I
*46 I
*47 I
*34 I
*36 I
*1 O

*D_NET *9 6.38587e-16

*CONN
*P *9 I *C 0.1000 1.7100 
*I *21:s B *C 3.4700 1.2725 
*I *23:s B *C 3.4700 1.2725 
*I *27:s B *C 4.6550 1.2725 
*I *29:s B *C 4.6550 1.2725 
*I *3:s B *C 1.5400 1.0950 
*I *4:s B *C 1.5400 1.0950 
*I *5:s B *C 2.0100 1.0950 
*I *6:s B *C 2.0100 1.0950 
*I *7:s B *C 2.4450 1.2725 
*I *8:s B *C 2.4450 1.2725 
*N *9:2 *C 4.5000 1.7100 
*N *9:3 *C 4.5000 1.7100 
*N *9:4 *C 3.3300 1.7100 
*N *9:5 *C 2.7000 1.7100 
*N *9:9 *C 0.9000 1.7100 

*CAP
0 *7:s 1.28032e-16
1 *27:s 3.11297e-17
2 *21:s 3.69905e-17
3 *9:4 3.0806e-17
4 *9:2 3.992e-16
5 *9 1.24283e-17

*RES
0 *9:9 *9 0.400936  // $metal1_conn
1 *9:2 *9:3 8.333333  // $metal1_conn
2 *9:2 *9:5 8.333333  // $metal1_conn
3 *9:2 *9:9 8.333333  // $metal1_conn
4 *27:s *9:3 62.228008  // $metal1_conn
5 *9:4 *21:s 62.181053  // $metal1_conn
6 *9:3 *9:4 0.586744  // $metal1_conn
7 *9:4 *9:5 0.315738  // $metal1_conn
8 *9:5 *7:s 0.167801  // $metal1_conn
9 *7:s *9:9 0.277177  // $metal1_conn

*END

*D_NET *15 0

*CONN
*P *15 I *C 0.1000 0.0000 
*I *12:s B *C 3.5200 0.4825 
*I *13:s B *C 3.5200 0.4825 
*I *18:s B *C 4.6550 0.4825 
*I *20:s B *C 4.6550 0.4825 
*I *49:s B *C 1.5400 0.4250 
*I *50:s B *C 1.5400 0.4250 
*I *51:s B *C 2.0100 0.4250 
*I *52:s B *C 2.0100 0.4250 
*I *53:s B *C 2.4450 0.4825 
*I *54:s B *C 2.4450 0.4825 
*N *15:2 *C 3.4650 0.0000 
*N *15:3 *C 2.7000 0.0000 
*N *15:4 *C 2.7000 0.0000 
*N *15:8 *C 0.9000 0.0000 
*N *15:9 *C 4.5000 0.0000 


*RES
0 *15:8 *15 0.400936  // $metal1_conn
1 *15:3 *15:4 6.888889  // $metal1_conn
2 *15:3 *15:8 6.888889  // $metal1_conn
3 *15:3 *15:9 6.888889  // $metal1_conn
4 *15:9 *18:s 75.274071  // $metal1_conn
5 *12:s *15:2 75.219086  // $metal1_conn
6 *15:2 *15:4 0.383027  // $metal1_conn
7 *15:2 *15:9 0.518427  // $metal1_conn
8 *15:4 *53:s 0.152756  // $metal1_conn
9 *53:s *15:8 0.277177  // $metal1_conn

*END

*D_NET *44 2.13971e-16

*CONN
*P *44 I *C 2.5000 0.6650 
*I *54:g B *C 2.5275 0.4825 
*I *8:g B *C 2.5275 1.2725 
*N *44:2 *C 2.5000 0.7100 

*CAP
0 *8:g 5.30002e-17
1 *54:g 2.92074e-17
2 *44:2 1.02342e-16
3 *44 2.94212e-17

*RES
0 *8:g *44:2 108.153488  // $poly_conn
1 *44:2 *54:g 31.230413  // $poly_conn
2 *44 *44:2 45.027004  // $metal1_conn

*END

*D_NET *45 2.76026e-16

*CONN
*P *45 I *C 3.3000 1.0750 
*I *12:g B *C 3.3025 0.4825 
*I *21:g B *C 3.2275 1.2725 
*N *45:2 *C 3.2650 0.8650 
*N *45:4 *C 3.2650 0.8650 
*N *45:5 *C 3.2825 0.8650 
*N *45:6 *C 3.2825 1.0750 

*CAP
0 *21:g 4.58328e-17
1 *12:g 6.97156e-17
2 *45:5 5.03923e-17
3 *45:2 6.15936e-17
4 *45 4.84917e-17

*RES
0 *12:g *45:2 72.271683  // $poly_conn
1 *45:2 *21:g 69.707581  // $poly_conn
2 *45:4 *45:5 0.003606  // $metal1_conn
3 *45:6 *45 0.003709  // $metal1_conn
4 *45:5 *45:6 0.101599  // $metal1_conn
5 *45:2 *45:4 45  // $metal1_conn

*END

*D_NET *46 2.47233e-16

*CONN
*P *46 I *C 3.7000 1.0450 
*I *13:g B *C 3.5675 0.4825 
*I *23:g B *C 3.5425 1.2725 
*N *46:2 *C 3.5150 0.8650 

*CAP
0 *23:g 3.69076e-17
1 *13:g 4.02685e-17
2 *46:2 1.19196e-16
3 *46 5.08611e-17

*RES
0 *13:g *46:2 73.319794  // $poly_conn
1 *46:2 *23:g 68.409897  // $poly_conn
2 *46 *46:2 45.210857  // $metal1_conn

*END

*D_NET *47 2.21094e-16

*CONN
*P *47 I *C 4.7000 0.8550 
*I *18:g B *C 4.4075 0.4825 
*I *27:g B *C 4.4075 1.2725 
*N *47:2 *C 4.4350 0.8750 

*CAP
0 *27:g 5.31641e-17
1 *18:g 3.82719e-17
2 *47:2 8.42397e-17
3 *47 4.54185e-17

*RES
0 *27:g *47:2 65.845795  // $poly_conn
1 *47:2 *18:g 73.538109  // $poly_conn
2 *47 *47:2 45.153927  // $metal1_conn

*END

*D_NET *34 9.08071e-16

*CONN
*P *34 I *C 5.1000 0.6650 
*I *11:g B *C 3.1975 0.4825 
*I *16:g B *C 4.1775 0.4825 
*I *20:g B *C 4.9025 0.4825 
*I *17:g B *C 2.8025 1.2725 
*I *24:g B *C 3.9825 1.2725 
*I *29:g B *C 4.9025 1.2725 
*N *34:2 *C 2.8300 0.9450 
*N *34:4 *C 3.1600 0.6750 
*N *34:6 *C 4.2150 0.6600 
*N *34:7 *C 3.9825 0.8475 
*N *34:8 *C 3.7050 0.8200 
*N *34:11 *C 4.9300 0.6900 
*N *34:13 *C 4.9300 0.6300 

*CAP
0 *29:g 3.33791e-17
1 *24:g 3.64148e-17
2 *17:g 3.69772e-17
3 *20:g 1.79643e-17
4 *16:g 2.81483e-17
5 *11:g 6.6775e-17
6 *34:13 5.97912e-17
7 *34:7 3.9709e-17
8 *34:2 1.05421e-16
9 *34:4 1.53689e-16
10 *34:8 1.34694e-16
11 *34:6 1.20918e-16
12 *34:11 2.83293e-17
13 *34 4.586e-17

*RES
0 *17:g *34:2 92.897079  // $poly_conn
1 *11:g *34:4 66.283424  // $poly_conn
2 *16:g *34:6 17.437269  // $poly_conn
3 *34:6 *34:7 76.611084  // $poly_conn
4 *34:7 *34:8 106.488663  // $poly_conn
5 *34:7 *24:g 76.710739  // $poly_conn
6 *29:g *34:11 113.281693  // $poly_conn
7 *34:11 *20:g 26.102209  // $poly_conn
8 *34:8 *34:4 0.479325  // $metal1_conn
9 *34:4 *34:2 0.436265  // $metal1_conn
10 *34 *34:13 0.131812  // $metal1_conn
11 *34:13 *34:6 45.524647  // $metal1_conn
12 *34:13 *34:11 45.026318  // $metal1_conn

*END

*D_NET *36 3.93514e-16

*CONN
*P *36 I *C 1.3000 0.4750 
*I *48:g B *C 0.6475 0.4200 
*I *49:g B *C 1.2675 0.4825 
*I *31:g B *C 0.5625 1.0950 
*I *3:g B *C 1.3225 1.0075 
*N *36:2 *C 1.2950 0.6850 
*N *36:3 *C 0.6475 0.6475 

*CAP
0 *3:g 3.64751e-17
1 *31:g 5.57017e-17
2 *49:g 3.14024e-17
3 *48:g 3.20283e-17
4 *36:3 6.57692e-17
5 *36:2 1.14675e-16
6 *36 5.74628e-17

*RES
0 *3:g *36:2 43.453117  // $poly_conn
1 *36:2 *36:3 155.387833  // $poly_conn
2 *36:3 *31:g 79.472443  // $poly_conn
3 *36:2 *49:g 22.283424  // $poly_conn
4 *36:3 *48:g 20.300484  // $poly_conn
5 *36:2 *36 45.115276  // $metal1_conn

*END

*D_NET *1 1.95961e-16

*CONN
*P *1 O *C 1.7000 0.8550 
*I *50:d B *C 1.6900 0.4250 
*I *51:d B *C 1.6900 0.4250 
*I *52:d B *C 2.1600 0.4250 
*I *53:d B *C 2.1600 0.4250 
*I *4:d B *C 1.6900 1.0950 
*I *5:d B *C 1.6900 1.0950 
*I *6:d B *C 2.1600 1.0950 
*I *7:d B *C 2.1600 1.0950 

*CAP
0 *1 1.95961e-16


*END

*D_NET *43 9.48924e-20

*CONN
*I *16:s B *C 4.2925 0.4825 
*I *18:d B *C 4.2925 0.4825 

*CAP
0 *16:s 9.48924e-20

*RES
0 *18:d *16:s 0.001  // $mwires

*END

*D_NET *42 8.54707e-18

*CONN
*I *13:d B *C 3.7450 0.4825 
*I *14:s B *C 3.7450 0.4825 

*CAP
0 *13:d 8.54707e-18

*RES
0 *14:s *13:d 0.001  // $mwires

*END

*D_NET *41 1.27948e-18

*CONN
*I *11:s B *C 3.2500 0.4825 
*I *12:d B *C 3.2500 0.4825 

*CAP
0 *11:s 1.27948e-18

*RES
0 *12:d *11:s 0.001  // $mwires

*END

*D_NET *40 4.94585e-18

*CONN
*I *10:s B *C 2.7550 0.4825 
*I *54:d B *C 2.7550 0.4825 

*CAP
0 *10:s 4.94585e-18

*RES
0 *54:d *10:s 0.001  // $mwires

*END

*D_NET *39 0

*CONN
*I *25:s B *C 4.3450 1.2725 
*I *27:d B *C 4.3450 1.2725 


*RES
0 *27:d *25:s 0.001  // $mwires

*END

*D_NET *38 9.75823e-18

*CONN
*I *23:d B *C 3.7625 1.2725 
*I *24:s B *C 3.7625 1.2725 

*CAP
0 *23:d 9.75823e-18

*RES
0 *24:s *23:d 0.001  // $mwires

*END

*D_NET *37 4.37383e-18

*CONN
*I *19:s B *C 3.1225 1.2725 
*I *21:d B *C 3.1225 1.2725 

*CAP
0 *19:s 4.37383e-18

*RES
0 *21:d *19:s 0.001  // $mwires

*END

*D_NET *35 5.44133e-18

*CONN
*I *17:s B *C 2.6650 1.2725 
*I *8:d B *C 2.6650 1.2725 

*CAP
0 *17:s 5.44133e-18

*RES
0 *8:d *17:s 0.001  // $mwires

*END

*D_NET *33 8.94449e-16

*CONN
*I *14:d B *C 4.0500 0.4825 
*I *16:d B *C 4.0500 0.4825 
*I *48:s B *C 0.7975 0.4200 
*I *24:d B *C 4.1325 1.2725 
*I *25:d B *C 4.1325 1.2725 
*I *2:d B *C 0.8725 1.0950 
*N *33:2 *C 4.0550 0.4850 
*N *33:4 *C 0.8650 0.3500 

*CAP
0 *2:d 9.30784e-17
1 *24:d 1.01427e-16
2 *48:s 3.43728e-16
3 *14:d 3.56217e-16

*RES
0 *33:2 *33:4 2.562695  // $metal1_conn
1 *33:2 *24:d 62.571133  // $metal1_conn
2 *33:4 *2:d 62.45491  // $metal1_conn
3 *14:d *33:2 75  // $metal1_conn
4 *48:s *33:4 75  // $metal1_conn

*END

*D_NET *32 7.90356e-16

*CONN
*I *10:d B *C 3.0900 0.4825 
*I *11:d B *C 3.0900 0.4825 
*I *22:s B *C 0.2825 0.4200 
*I *17:d B *C 2.9100 1.2725 
*I *19:d B *C 2.9100 1.2725 
*I *31:s B *C 0.4325 1.0950 
*N *32:2 *C 2.6700 1.1600 
*N *32:4 *C 0.3850 1.0950 

*CAP
0 *31:s 2.40129e-16
1 *17:d 4.68814e-17
2 *22:s 6.78434e-17
3 *10:d 1.37876e-16
4 *32:2 2.97626e-16

*RES
0 *10:d *32:2 75.807518  // $metal1_conn
1 *32:2 *32:4 1.877331  // $metal1_conn
2 *32:4 *22:s 75.525368  // $metal1_conn
3 *32:2 *17:d 62.178463  // $metal1_conn
4 *31:s *32:4 20.666666  // $metal1_conn

*END

*D_NET *30 9.76651e-16

*CONN
*I *10:g B *C 2.9825 0.4825 
*I *14:g B *C 3.9225 0.4825 
*I *20:d B *C 4.9950 0.4825 
*I *19:g B *C 3.0175 1.2725 
*I *25:g B *C 4.2825 1.2725 
*I *29:d B *C 4.9950 1.2725 
*N *30:2 *C 3.0550 0.9800 
*N *30:5 *C 3.8950 0.7050 
*N *30:7 *C 4.2450 1.0550 
*N *30:9 *C 5.0050 1.1300 
*N *30:10 *C 4.2750 1.1300 
*N *30:11 *C 3.8950 1.2450 
*N *30:12 *C 3.0550 0.9800 

*CAP
0 *29:d 7.18929e-18
1 *25:g 5.3167e-17
2 *19:g 3.65766e-17
3 *20:d 9.56367e-17
4 *14:g 4.06648e-17
5 *10:g 6.54083e-17
6 *30:11 1.55422e-16
7 *30:10 9.33526e-17
8 *30:9 8.50852e-17
9 *30:2 1.76204e-16
10 *30:5 1.14596e-16
11 *30:7 5.33483e-17

*RES
0 *19:g *30:2 37.950092  // $poly_conn
1 *30:2 *10:g 103.429901  // $poly_conn
2 *14:g *30:5 74.948364  // $poly_conn
3 *25:g *30:7 63.719322  // $poly_conn
4 *29:d *30:9 62.05072  // $metal1_conn
5 *30:9 *30:10 0.493169  // $metal1_conn
6 *30:10 *30:11 0.545866  // $metal1_conn
7 *30:11 *30:12 0.751434  // $metal1_conn
8 *30:9 *20:d 75.816475  // $metal1_conn
9 *30:10 *30:7 0.055721  // $metal1_conn
10 *30:11 *30:5 0.429805  // $metal1_conn
11 *30:2 *30:12 45  // $metal1_conn

*END

*D_NET *28 6.6958e-16

*CONN
*I *22:d B *C 0.5350 0.4200 
*I *48:d B *C 0.5350 0.4200 
*I *50:g B *C 1.5875 0.4250 
*I *51:g B *C 1.7925 0.4250 
*I *52:g B *C 2.0575 0.4250 
*I *53:g B *C 2.2625 0.4250 
*I *31:d B *C 0.6650 1.0950 
*I *2:s B *C 0.6650 1.0950 
*I *4:g B *C 1.5875 1.0950 
*I *5:g B *C 1.7925 1.0950 
*I *6:g B *C 2.0575 1.0950 
*I *7:g B *C 2.2625 1.0950 
*N *28:8 *C 1.5300 0.7900 
*N *28:17 *C 0.6650 1.0700 

*CAP
0 *7:g 2.57535e-16
1 *31:d 1.83033e-16
2 *22:d 9.08674e-17
3 *28:8 1.38145e-16

*RES
0 *7:g *28:8 45.778431  // $poly_conn
1 *28:8 *28:17 0.94588  // $metal1_conn
2 *28:17 *22:d 75.495712  // $metal1_conn
3 *31:d *28:17 31  // $metal1_conn

*END

*D_NET *26 6.23615e-16

*CONN
*I *22:g B *C 0.4225 0.4200 
*I *49:d B *C 1.1450 0.4825 
*I *2:g B *C 0.7675 1.0950 
*I *3:d B *C 1.2300 1.0075 
*N *26:2 *C 0.3850 0.6550 
*N *26:4 *C 0.7675 0.7900 
*N *26:5 *C 0.7050 0.7900 
*N *26:6 *C 1.0250 0.7900 
*N *26:8 *C 1.0950 0.7900 

*CAP
0 *3:d 6.00008e-17
1 *2:g 4.64283e-17
2 *49:d 5.12175e-17
3 *22:g 2.80013e-17
4 *26:8 6.34274e-17
5 *26:4 2.32094e-17
6 *26:2 1.40417e-16
7 *26:5 1.7162e-16
8 *26:6 3.92928e-17

*RES
0 *22:g *26:2 62.437271  // $poly_conn
1 *2:g *26:4 18.433495  // $poly_conn
2 *26:4 *26:5 48.815495  // $poly_conn
3 *26:4 *26:6 101.804962  // $poly_conn
4 *26:5 *26:2 0.860508  // $metal1_conn
5 *3:d *26:8 62.185589  // $metal1_conn
6 *26:8 *26:6 0.015042  // $metal1_conn
7 *26:8 *49:d 75.182068  // $metal1_conn

*END

