*SPEF "IEEE 1481-1999"
*DESIGN  "MXI2XL"
*DATE "Mon Sep 27 10:03:01 2010"
*VENDOR "Cadence Design Systems"
*PROGRAM "Assura RCX"
*VERSION "3.2 Red Hat Linux release 7.2 (Enigma) - (09/09/2009-10:39)"
*DESIGN_FLOW "Physical Verification"
*DIVIDER /
*DELIMITER :
*BUS_DELIMITER []
*T_UNIT 1 PS
*C_UNIT 1e15 FF
*R_UNIT 1 OHM
*L_UNIT 1 MH
// DeviceFingerDelim "@"
// MATCHED
// caps2d version: 10

*NAME_MAP
*1 mp3
*2 mp0
*3 mn1
*4 Y
*5 mn2
*6 mn4
*7 mn3
*8 mn0
*9 S0b
*10 n5
*11 A
*12 VDD
*13 n4
*14 n3
*15 B
*16 n6
*17 S0
*18 VSS
*19 mp1
*20 mp2
*21 mp4

*GROUND_NETS VSS

*PORTS
*12 I
*18 I
*11 I
*15 I
*17 I
*4 O

*D_NET *12 2.12025e-16

*CONN
*P *12 I *C 0.1000 1.7100 
*I *19:s B *C 0.1600 1.3125 
*I *1:s B *C 0.9600 1.3125 
*I *2:s B *C 0.9600 1.3125 
*N *12:2 *C 0.7000 1.7100 
*N *12:3 *C 0.7000 1.7100 
*N *12:4 *C 0.1500 1.7100 

*CAP
0 *1:s 3.01567e-17
1 *19:s 2.03288e-17
2 *12:4 8.4434e-18
3 *12:2 1.51974e-16
4 *12 1.12202e-18

*RES
0 *1:s *12:3 62.373482  // $metal1_conn
1 *12:3 *12:4 0.275574  // $metal1_conn
2 *12:4 *12 0.024619  // $metal1_conn
3 *12:4 *19:s 62.214455  // $metal1_conn
4 *12:2 *12:3 10.714286  // $metal1_conn

*END

*D_NET *18 0

*CONN
*P *18 I *C 0.1000 0.0000 
*I *3:s B *C 0.2050 0.5225 
*I *7:s B *C 0.9600 0.5225 
*I *8:s B *C 0.9600 0.5225 
*N *18:2 *C 0.1900 0.0000 
*N *18:3 *C 0.7000 0.0000 
*N *18:4 *C 0.7000 0.0000 


*RES
0 *3:s *18:2 75.074738  // $metal1_conn
1 *18:2 *18 0.04426  // $metal1_conn
2 *18:2 *18:4 0.255106  // $metal1_conn
3 *18:4 *7:s 75.468346  // $metal1_conn
4 *18:3 *18:4 8.857142  // $metal1_conn

*END

*D_NET *11 2.22065e-16

*CONN
*P *11 I *C 0.1000 0.8550 
*I *3:g B *C 0.2525 0.5225 
*I *19:g B *C 0.2525 1.3125 
*N *11:2 *C 0.2525 0.9000 
*N *11:3 *C 0.1500 0.9000 

*CAP
0 *19:g 3.00295e-17
1 *3:g 5.89448e-17
2 *11:2 3.41508e-17
3 *11:3 7.48462e-17
4 *11 2.40938e-17

*RES
0 *19:g *11:2 74.894089  // $poly_conn
1 *11:2 *11:3 49.61615  // $poly_conn
2 *11:2 *3:g 74.894089  // $poly_conn
3 *11:3 *11 0.010583  // $metal1_conn

*END

*D_NET *15 2.70914e-16

*CONN
*P *15 I *C 0.9000 1.0450 
*I *7:g B *C 0.8575 0.5225 
*I *1:g B *C 0.8575 1.3125 
*N *15:2 *C 0.8950 1.0400 
*N *15:4 *C 0.8950 1.0400 

*CAP
0 *1:g 4.08929e-17
1 *7:g 7.52932e-17
2 *15:2 6.34529e-17
3 *15 9.12755e-17

*RES
0 *1:g *15:2 32.821884  // $poly_conn
1 *15:2 *7:g 104.61676  // $poly_conn
2 *15:4 *15 0.001659  // $metal1_conn
3 *15:2 *15:4 45  // $metal1_conn

*END

*D_NET *17 4.74283e-16

*CONN
*P *17 I *C 1.1000 1.0450 
*I *6:g B *C 0.7525 0.5225 
*I *8:g B *C 1.0625 0.5225 
*I *20:g B *C 0.4725 1.3125 
*I *2:g B *C 1.0625 1.3125 
*N *17:2 *C 0.7150 0.8500 
*N *17:5 *C 1.0900 0.8600 
*N *17:7 *C 1.0900 0.8600 

*CAP
0 *2:g 4.08704e-17
1 *20:g 6.57364e-17
2 *8:g 3.32778e-17
3 *6:g 5.06994e-17
4 *17:2 1.36572e-16
5 *17:5 1.03516e-16
6 *17 4.36112e-17

*RES
0 *6:g *17:2 55.898808  // $poly_conn
1 *17:2 *20:g 128.564743  // $poly_conn
2 *2:g *17:5 79.948364  // $poly_conn
3 *17:5 *8:g 59.435539  // $poly_conn
4 *17 *17:7 0.110947  // $metal1_conn
5 *17:7 *17:2 45.225777  // $metal1_conn
6 *17:5 *17:7 45  // $metal1_conn

*END

*D_NET *4 2.16432e-16

*CONN
*P *4 O *C 0.3000 0.6650 
*I *5:d B *C 0.5550 0.5225 
*I *6:d B *C 0.5550 0.5225 
*I *20:d B *C 0.5750 1.3125 
*I *21:d B *C 0.5750 1.3125 

*CAP
0 *20:d 7.83153e-17
1 *5:d 3.83794e-17
2 *4 9.97377e-17

*RES
0 *5:d *4 75.206039  // $metal1_conn
1 *4 *20:d 62.576035  // $metal1_conn

*END

*D_NET *14 9.23328e-18

*CONN
*I *3:d B *C 0.3050 0.5225 
*I *5:s B *C 0.3050 0.5225 

*CAP
0 *3:d 9.23328e-18

*RES
0 *5:s *3:d 0.001  // $mwires

*END

*D_NET *10 0

*CONN
*I *6:s B *C 0.8050 0.5225 
*I *7:d B *C 0.8050 0.5225 


*RES
0 *7:d *6:s 0.001  // $mwires

*END

*D_NET *16 0

*CONN
*I *21:s B *C 0.7675 1.3125 
*I *1:d B *C 0.7675 1.3125 


*RES
0 *1:d *21:s 0.001  // $mwires

*END

*D_NET *13 1.14047e-17

*CONN
*I *19:d B *C 0.3625 1.3125 
*I *20:s B *C 0.3625 1.3125 

*CAP
0 *19:d 1.14047e-17

*RES
0 *20:s *19:d 0.001  // $mwires

*END

*D_NET *9 5.70339e-16

*CONN
*I *5:g B *C 0.3575 0.5225 
*I *8:d B *C 1.1550 0.5225 
*I *21:g B *C 0.6775 1.3125 
*I *2:d B *C 1.2075 1.3125 
*N *9:2 *C 0.3850 0.2400 
*N *9:4 *C 0.6400 1.0400 
*N *9:6 *C 1.1650 0.6700 
*N *9:7 *C 0.6500 0.6700 

*CAP
0 *2:d 5.13709e-17
1 *21:g 4.94012e-17
2 *8:d 1.49917e-17
3 *5:g 5.91658e-17
4 *9:7 9.2119e-17
5 *9:6 8.99693e-17
6 *9:2 1.05276e-16
7 *9:4 1.08045e-16

*RES
0 *5:g *9:2 90.332977  // $poly_conn
1 *21:g *9:4 77.821884  // $poly_conn
2 *2:d *9:6 62.497429  // $metal1_conn
3 *9:6 *9:7 0.409522  // $metal1_conn
4 *9:7 *9:2 0.430019  // $metal1_conn
5 *9:6 *8:d 75.070518  // $metal1_conn
6 *9:7 *9:4 0.419323  // $metal1_conn

*END

