*SPEF "IEEE 1481-1999"
*DESIGN  "MXI2X8"
*DATE "Mon Sep 27 10:02:39 2010"
*VENDOR "Cadence Design Systems"
*PROGRAM "Assura RCX"
*VERSION "3.2 Red Hat Linux release 7.2 (Enigma) - (09/09/2009-10:39)"
*DESIGN_FLOW "Physical Verification"
*DIVIDER /
*DELIMITER :
*BUS_DELIMITER []
*T_UNIT 1 PS
*C_UNIT 1e15 FF
*R_UNIT 1 OHM
*L_UNIT 1 MH
// DeviceFingerDelim "@"
// MATCHED
// caps2d version: 10

*NAME_MAP
*1 mn2
*2 mn4
*3 mn3
*4 mp2
*5 mn5
*6 VDD
*7 mp4
*8 mn5\@1
*9 mp3
*10 VSS
*11 mp5
*12 mp5\@1
*13 Y
*14 n4
*15 n6
*16 n3
*17 n5
*18 mn6
*19 mn6\@1
*20 mn6\@2
*21 n0
*22 mn6\@3
*23 n1
*24 mn6\@4
*25 S0b
*26 mn6\@5
*27 mn6\@6
*28 mn0
*29 mn1
*30 S0
*31 mp6
*32 mp6\@1
*33 mp6\@2
*34 mp6\@3
*35 mp6\@4
*36 mp6\@5
*37 mp6\@6
*38 mp0
*39 mp1
*40 A
*41 B

*GROUND_NETS VSS

*PORTS
*6 I
*10 I
*40 I
*41 I
*30 I
*13 O

*D_NET *6 6.50876e-16

*CONN
*P *6 I *C 0.1000 1.7100 
*I *31:s B *C 1.9150 1.2025 
*I *32:s B *C 2.2950 1.2025 
*I *33:s B *C 2.2950 1.2025 
*I *34:s B *C 2.7050 1.2025 
*I *35:s B *C 2.7050 1.2025 
*I *36:s B *C 3.1150 1.2025 
*I *37:s B *C 3.1150 1.2025 
*I *38:s B *C 0.4600 1.3175 
*I *39:s B *C 0.4600 1.3175 
*I *9:s B *C 1.4350 1.2300 
*I *11:s B *C 1.4350 1.2300 
*I *12:s B *C 1.9150 1.2025 
*N *6:2 *C 2.7000 1.7100 
*N *6:7 *C 0.9000 1.7100 
*N *6:8 *C 0.4600 1.7100 

*CAP
0 *38:s 3.72385e-17
1 *36:s 3.56145e-16
2 *6:8 1.40093e-17
3 *6:2 2.29616e-16
4 *6 1.38672e-17

*RES
0 *6:8 *6 0.179997  // $metal1_conn
1 *6:2 *36:s 8.333333  // $metal1_conn
2 *6:2 *6:7 8.333333  // $metal1_conn
3 *6:8 *38:s 62.214954  // $metal1_conn
4 *36:s *6:7 0.262951  // $metal1_conn
5 *6:7 *6:8 0.220346  // $metal1_conn

*END

*D_NET *10 0

*CONN
*P *10 I *C 0.1000 0.0000 
*I *18:s B *C 1.9150 0.3775 
*I *19:s B *C 2.2950 0.3775 
*I *20:s B *C 2.2950 0.3775 
*I *22:s B *C 2.7050 0.3775 
*I *24:s B *C 2.7050 0.3775 
*I *26:s B *C 3.1150 0.3775 
*I *27:s B *C 3.1150 0.3775 
*I *28:s B *C 0.4600 0.3375 
*I *29:s B *C 0.4600 0.3375 
*I *3:s B *C 1.4550 0.3950 
*I *5:s B *C 1.4550 0.3950 
*I *8:s B *C 1.9150 0.3775 
*N *10:2 *C 2.7000 0.0000 
*N *10:7 *C 0.9000 0.0000 
*N *10:8 *C 0.4600 0.0000 


*RES
0 *10:8 *10 0.179997  // $metal1_conn
1 *10:2 *26:s 6.888889  // $metal1_conn
2 *10:2 *10:7 6.888889  // $metal1_conn
3 *10:8 *28:s 75.20166  // $metal1_conn
4 *26:s *10:7 0.232877  // $metal1_conn
5 *10:7 *10:8 0.220346  // $metal1_conn

*END

*D_NET *40 2.72535e-16

*CONN
*P *40 I *C 0.5000 0.8550 
*I *29:g B *C 0.5625 0.3375 
*I *39:g B *C 0.5625 1.3175 
*N *40:2 *C 0.5350 0.7050 

*CAP
0 *39:g 5.75401e-17
1 *29:g 4.60384e-17
2 *40:2 1.13726e-16
3 *40 5.52313e-17

*RES
0 *39:g *40:2 120.973999  // $poly_conn
1 *40:2 *29:g 67.127846  // $poly_conn
2 *40:2 *40 45.047283  // $metal1_conn

*END

*D_NET *41 2.32114e-16

*CONN
*P *41 I *C 1.3000 0.8550 
*I *3:g B *C 1.2625 0.3375 
*I *9:g B *C 1.2625 1.3175 
*N *41:2 *C 1.2900 0.8500 
*N *41:4 *C 1.2900 0.8500 

*CAP
0 *9:g 4.48536e-17
1 *3:g 4.5029e-17
2 *41:2 1.42231e-16

*RES
0 *9:g *41:2 83.79451  // $poly_conn
1 *41:2 *3:g 104.307335  // $poly_conn
2 *41:4 *41 0.003108  // $metal1_conn
3 *41:2 *41:4 45  // $metal1_conn

*END

*D_NET *30 4.94072e-16

*CONN
*P *30 I *C 0.3000 1.0450 
*I *28:g B *C 0.3575 0.3375 
*I *2:g B *C 0.9675 0.3375 
*I *38:g B *C 0.3575 1.3175 
*I *4:g B *C 0.7825 1.3175 
*N *30:2 *C 0.3300 1.0500 
*N *30:5 *C 0.8100 0.9250 
*N *30:7 *C 0.3300 1.0500 

*CAP
0 *4:g 4.37868e-17
1 *38:g 3.15296e-17
2 *2:g 5.63698e-17
3 *28:g 5.66203e-17
4 *30:2 5.01393e-17
5 *30:5 1.61169e-16
6 *30 9.44568e-17

*RES
0 *38:g *30:2 32.512466  // $poly_conn
1 *30:2 *28:g 155.589386  // $poly_conn
2 *2:g *30:5 147.4207  // $poly_conn
3 *30:5 *4:g 61.401833  // $poly_conn
4 *30:5 *30:7 45.469376  // $metal1_conn
5 *30:7 *30 0.002627  // $metal1_conn
6 *30:2 *30:7 45  // $metal1_conn

*END

*D_NET *13 4.52907e-16

*CONN
*P *13 O *C 2.1000 1.0450 
*I *18:d B *C 2.0900 0.3775 
*I *19:d B *C 2.0900 0.3775 
*I *20:d B *C 2.5000 0.3775 
*I *22:d B *C 2.5000 0.3775 
*I *24:d B *C 2.9100 0.3775 
*I *26:d B *C 2.9100 0.3775 
*I *27:d B *C 3.3100 0.3775 
*I *31:d B *C 2.0900 1.2025 
*I *32:d B *C 2.0900 1.2025 
*I *33:d B *C 2.5000 1.2025 
*I *34:d B *C 2.5000 1.2025 
*I *35:d B *C 2.9100 1.2025 
*I *36:d B *C 2.9100 1.2025 
*I *37:d B *C 3.3100 1.2025 

*CAP
0 *13 4.52907e-16


*END

*D_NET *17 5.85874e-18

*CONN
*I *2:s B *C 1.1150 0.3375 
*I *3:d B *C 1.1150 0.3375 

*CAP
0 *2:s 5.85874e-18

*RES
0 *3:d *2:s 0.001  // $mwires

*END

*D_NET *16 0

*CONN
*I *29:d B *C 0.6625 0.3375 
*I *1:s B *C 0.6625 0.3375 


*RES
0 *1:s *29:d 0.001  // $mwires

*END

*D_NET *15 6.10308e-18

*CONN
*I *7:s B *C 1.1300 1.3175 
*I *9:d B *C 1.1300 1.3175 

*CAP
0 *7:s 6.10308e-18

*RES
0 *9:d *7:s 0.001  // $mwires

*END

*D_NET *14 0

*CONN
*I *39:d B *C 0.6725 1.3175 
*I *4:s B *C 0.6725 1.3175 


*RES
0 *4:s *39:d 0.001  // $mwires

*END

*D_NET *25 5.49651e-16

*CONN
*I *28:d B *C 0.2650 0.3375 
*I *1:g B *C 0.7625 0.3375 
*I *38:d B *C 0.2650 1.3175 
*I *7:g B *C 0.9975 1.3175 
*N *25:2 *C 0.7900 0.6650 
*N *25:4 *C 0.9700 1.0300 
*N *25:5 *C 0.1300 0.5150 

*CAP
0 *7:g 4.27507e-17
1 *38:d 8.67607e-17
2 *1:g 4.55316e-17
3 *28:d 3.13246e-17
4 *25:5 8.43428e-17
5 *25:2 1.56601e-16
6 *25:4 1.02339e-16

*RES
0 *1:g *25:2 101.871437  // $poly_conn
1 *7:g *25:4 82.640671  // $poly_conn
2 *25:4 *25:2 0.395875  // $metal1_conn
3 *25:2 *25:5 0.553313  // $metal1_conn
4 *25:5 *28:d 75.195969  // $metal1_conn
5 *25:5 *38:d 62.646336  // $metal1_conn

*END

*D_NET *23 5.62035e-16

*CONN
*I *18:g B *C 1.9875 0.3775 
*I *19:g B *C 2.1925 0.3775 
*I *20:g B *C 2.3975 0.3775 
*I *22:g B *C 2.6025 0.3775 
*I *24:g B *C 2.8075 0.3775 
*I *26:g B *C 3.0125 0.3775 
*I *27:g B *C 3.2175 0.3775 
*I *5:d B *C 1.6300 0.3950 
*I *8:d B *C 1.6300 0.3950 
*I *31:g B *C 1.9875 1.2025 
*I *32:g B *C 2.1925 1.2025 
*I *33:g B *C 2.3975 1.2025 
*I *34:g B *C 2.6025 1.2025 
*I *35:g B *C 2.8075 1.2025 
*I *36:g B *C 3.0125 1.2025 
*I *37:g B *C 3.2175 1.2025 
*I *11:d B *C 1.6300 1.2300 
*I *12:d B *C 1.6300 1.2300 
*N *23:9 *C 1.9000 0.6250 
*N *23:23 *C 1.7250 0.6250 

*CAP
0 *11:d 8.21581e-17
1 *37:g 3.59495e-16
2 *5:d 2.84125e-17
3 *23:23 5.2745e-17
4 *23:9 3.92243e-17

*RES
0 *37:g *23:9 51.352463  // $poly_conn
1 *23:9 *23:23 0.097548  // $metal1_conn
2 *23:23 *11:d 21.13673  // $metal1_conn
3 *23:23 *5:d 75.208153  // $metal1_conn

*END

*D_NET *21 5.14784e-16

*CONN
*I *1:d B *C 0.8650 0.3375 
*I *2:d B *C 0.8650 0.3375 
*I *5:g B *C 1.5275 0.3950 
*I *8:g B *C 1.7325 0.3950 
*I *4:d B *C 0.8900 1.3175 
*I *7:d B *C 0.8900 1.3175 
*I *11:g B *C 1.5275 1.2300 
*I *12:g B *C 1.7325 1.2300 
*N *21:8 *C 1.1300 0.5750 

*CAP
0 *12:g 2.43051e-16
1 *4:d 9.04552e-17
2 *1:d 4.07775e-17
3 *21:8 1.405e-16

*RES
0 *4:d *21:8 62.706066  // $metal1_conn
1 *21:8 *1:d 75.326614  // $metal1_conn
2 *21:8 *12:g 45.279587  // $metal1_conn

*END

