*SPEF "IEEE 1481-1999"
*DESIGN  "MXI3X1"
*DATE "Mon Sep 27 10:03:23 2010"
*VENDOR "Cadence Design Systems"
*PROGRAM "Assura RCX"
*VERSION "3.2 Red Hat Linux release 7.2 (Enigma) - (09/09/2009-10:39)"
*DESIGN_FLOW "Physical Verification"
*DIVIDER /
*DELIMITER :
*BUS_DELIMITER []
*T_UNIT 1 PS
*C_UNIT 1e15 FF
*R_UNIT 1 OHM
*L_UNIT 1 MH
// DeviceFingerDelim "@"
// MATCHED
// caps2d version: 10

*NAME_MAP
*1 VDD
*2 A
*3 B
*4 C
*5 mp4
*6 mp7
*7 mp8
*8 Cp
*9 S1b
*10 S0b
*11 n1
*12 n3
*13 n5
*14 n7
*15 n9
*16 n2
*17 n4
*18 Y
*19 n0
*20 VSS
*21 n6
*22 n8
*23 mp10
*24 S0
*25 mp9
*26 S1
*27 mp1
*28 mp6
*29 mp11
*30 mp0
*31 mp2
*32 mn10
*33 mp3
*34 mn9
*35 mp5
*36 mn1
*37 mn6
*38 mn11
*39 mn0
*40 mn2
*41 mn4
*42 mn3
*43 mn7
*44 mn5
*45 mn8

*GROUND_NETS VSS

*PORTS
*1 I
*20 I
*2 I
*3 I
*4 I
*24 I
*26 I
*18 O

*D_NET *1 4.89098e-16

*CONN
*P *1 I *C 0.1000 1.7100 
*I *25:s B *C 2.5200 1.1975 
*I *27:s B *C 2.5200 1.1975 
*I *28:s B *C 3.5400 1.0950 
*I *29:s B *C 3.5400 1.0950 
*I *30:s B *C 0.3700 1.1975 
*I *31:s B *C 0.3700 1.1975 
*I *5:s B *C 1.5150 1.1975 
*I *6:s B *C 1.5150 1.1975 
*N *1:2 *C 2.4350 1.7100 
*N *1:3 *C 1.5150 1.7100 
*N *1:4 *C 1.0000 1.7100 
*N *1:5 *C 1.0000 1.7100 
*N *1:6 *C 0.3700 1.7100 
*N *1:7 *C 2.9000 1.7100 

*CAP
0 *5:s 4.21789e-17
1 *30:s 3.9786e-17
2 *28:s 3.68766e-17
3 *25:s 1.75484e-17
4 *1:6 9.4035e-18
5 *1:3 2.05337e-17
6 *1:2 2.64395e-17
7 *1:4 2.85519e-16
8 *1 1.08131e-17

*RES
0 *25:s *1:2 62.047009  // $metal1_conn
1 *1:2 *1:3 0.457547  // $metal1_conn
2 *1:3 *1:5 0.258025  // $metal1_conn
3 *1:5 *1:6 0.315685  // $metal1_conn
4 *1:6 *1 0.134931  // $metal1_conn
5 *1:2 *1:7 0.229606  // $metal1_conn
6 *1:7 *28:s 62.497181  // $metal1_conn
7 *1:3 *5:s 62.291084  // $metal1_conn
8 *1:6 *30:s 62.295528  // $metal1_conn
9 *1:4 *1:5 7.5  // $metal1_conn
10 *1:4 *1:7 8.333333  // $metal1_conn

*END

*D_NET *20 0

*CONN
*P *20 I *C 0.1000 0.0000 
*I *34:s B *C 2.5650 0.4725 
*I *36:s B *C 2.5650 0.4725 
*I *37:s B *C 3.5150 0.5300 
*I *38:s B *C 3.5150 0.5300 
*I *39:s B *C 0.3700 0.4725 
*I *40:s B *C 0.3700 0.4725 
*I *41:s B *C 1.5150 0.4725 
*I *43:s B *C 1.5150 0.4725 
*N *20:2 *C 2.9000 0.0000 
*N *20:3 *C 2.9000 0.0000 
*N *20:4 *C 2.5350 0.0000 
*N *20:5 *C 1.5150 0.0000 
*N *20:6 *C 1.0000 0.0000 
*N *20:7 *C 0.3400 0.0000 


*RES
0 *37:s *20:3 75.61441  // $metal1_conn
1 *20:3 *20:4 0.182815  // $metal1_conn
2 *20:4 *20:5 0.511035  // $metal1_conn
3 *20:5 *20:6 0.258025  // $metal1_conn
4 *20:6 *20:7 0.330727  // $metal1_conn
5 *20:7 *20 0.119889  // $metal1_conn
6 *20:4 *34:s 75.294319  // $metal1_conn
7 *20:5 *41:s 75.288063  // $metal1_conn
8 *20:7 *39:s 75.284454  // $metal1_conn
9 *20:2 *20:3 6.888889  // $metal1_conn
10 *20:2 *20:6 6.2  // $metal1_conn

*END

*D_NET *2 2.48484e-16

*CONN
*P *2 I *C 0.5000 0.8550 
*I *40:g B *C 0.4725 0.4725 
*I *31:g B *C 0.4725 1.1975 
*N *2:2 *C 0.4450 0.8050 

*CAP
0 *31:g 3.83152e-17
1 *40:g 3.7923e-17
2 *2:2 8.43281e-17
3 *2 8.79173e-17

*RES
0 *31:g *2:2 64.563744  // $poly_conn
1 *2:2 *40:g 58.153492  // $poly_conn
2 *2 *2:2 45.026855  // $metal1_conn

*END

*D_NET *3 2.27306e-16

*CONN
*P *3 I *C 1.5000 1.0450 
*I *41:g B *C 1.4125 0.4725 
*I *5:g B *C 1.4125 1.1975 
*N *3:2 *C 1.4500 0.9900 

*CAP
0 *5:g 3.2448e-17
1 *41:g 4.74345e-17
2 *3:2 8.51813e-17
3 *3 6.22421e-17

*RES
0 *5:g *3:2 16.15522  // $poly_conn
1 *3:2 *41:g 104.61676  // $poly_conn
2 *3:2 *3 45.012825  // $metal1_conn

*END

*D_NET *4 1.98501e-16

*CONN
*P *4 I *C 3.3000 0.6650 
*I *37:g B *C 3.3775 0.4725 
*I *28:g B *C 3.3225 1.0075 
*N *4:2 *C 3.3500 0.6800 

*CAP
0 *28:g 3.16827e-17
1 *37:g 2.89999e-17
2 *4:2 4.80324e-17
3 *4 8.97856e-17

*RES
0 *37:g *4:2 26.102209  // $poly_conn
1 *4:2 *28:g 47.897079  // $poly_conn
2 *4:2 *4 45.025013  // $metal1_conn

*END

*D_NET *24 4.02482e-16

*CONN
*P *24 I *C 0.3000 1.0450 
*I *39:g B *C 0.2675 0.4725 
*I *44:g B *C 0.9875 0.4725 
*I *30:g B *C 0.2675 1.1975 
*I *33:g B *C 0.9875 1.1975 
*N *24:2 *C 0.2400 0.9550 
*N *24:5 *C 0.9500 0.9900 

*CAP
0 *33:g 2.79551e-17
1 *30:g 3.03399e-17
2 *44:g 5.3378e-17
3 *39:g 3.98915e-17
4 *24:2 6.24083e-17
5 *24:5 1.04999e-16
6 *24 8.35101e-17

*RES
0 *30:g *24:2 26.102209  // $poly_conn
1 *24:2 *39:g 96.615036  // $poly_conn
2 *33:g *24:5 16.15522  // $poly_conn
3 *24:5 *44:g 104.61676  // $poly_conn
4 *24:5 *24 45.389782  // $metal1_conn
5 *24 *24:2 45.081783  // $metal1_conn

*END

*D_NET *26 4.45782e-16

*CONN
*P *26 I *C 2.3000 0.8550 
*I *32:g B *C 2.2575 0.4725 
*I *36:g B *C 2.6675 0.4725 
*I *27:g B *C 2.5675 1.1975 
*I *7:g B *C 1.8425 1.1975 
*N *26:2 *C 2.2950 0.8300 
*N *26:5 *C 2.7050 0.9400 
*N *26:7 *C 2.2950 0.8300 

*CAP
0 *7:g 7.63374e-17
1 *27:g 3.7724e-17
2 *36:g 3.9425e-17
3 *32:g 3.12085e-17
4 *26:2 6.82357e-17
5 *26:5 1.19194e-16
6 *26 7.36573e-17

*RES
0 *32:g *26:2 63.591114  // $poly_conn
1 *26:2 *7:g 158.677094  // $poly_conn
2 *36:g *26:5 91.796249  // $poly_conn
3 *26:5 *27:g 49.702744  // $poly_conn
4 *26:5 *26 45.265312  // $metal1_conn
5 *26 *26:7 0.012097  // $metal1_conn
6 *26:2 *26:7 45  // $metal1_conn

*END

*D_NET *18 8.19119e-17

*CONN
*P *18 O *C 3.7000 0.6650 
*I *38:d B *C 3.6800 0.5300 
*I *29:d B *C 3.6800 1.0950 

*CAP
0 *29:d 5.1391e-17
1 *38:d 1.07495e-17
2 *18 1.97714e-17

*RES
0 *18 *38:d 75.038979  // $metal1_conn
1 *18 *29:d 20.924543  // $metal1_conn

*END

*D_NET *22 1.47936e-18

*CONN
*I *32:s B *C 2.3600 0.4725 
*I *34:d B *C 2.3600 0.4725 

*CAP
0 *32:s 1.47936e-18

*RES
0 *34:d *32:s 0.001  // $mwires

*END

*D_NET *21 0

*CONN
*I *43:d B *C 1.7150 0.4725 
*I *45:s B *C 1.7150 0.4725 


*RES
0 *45:s *43:d 0.001  // $mwires

*END

*D_NET *17 1.03527e-17

*CONN
*I *44:s B *C 1.2000 0.4725 
*I *41:d B *C 1.2000 0.4725 

*CAP
0 *44:s 1.03527e-17

*RES
0 *41:d *44:s 0.001  // $mwires

*END

*D_NET *16 2.21139e-19

*CONN
*I *40:d B *C 0.6275 0.4725 
*I *42:s B *C 0.6275 0.4725 

*CAP
0 *40:d 2.21139e-19

*RES
0 *42:s *40:d 0.001  // $mwires

*END

*D_NET *15 3.45197e-18

*CONN
*I *23:s B *C 2.2075 1.1975 
*I *25:d B *C 2.2075 1.1975 

*CAP
0 *23:s 3.45197e-18

*RES
0 *25:d *23:s 0.001  // $mwires

*END

*D_NET *14 0

*CONN
*I *6:d B *C 1.7300 1.1975 
*I *7:s B *C 1.7300 1.1975 


*RES
0 *7:s *6:d 0.001  // $mwires

*END

*D_NET *13 4.80324e-18

*CONN
*I *35:s B *C 1.3025 1.1975 
*I *5:d B *C 1.3025 1.1975 

*CAP
0 *35:s 4.80324e-18

*RES
0 *5:d *35:s 0.001  // $mwires

*END

*D_NET *12 8.36113e-19

*CONN
*I *31:d B *C 0.7300 1.1975 
*I *33:s B *C 0.7300 1.1975 

*CAP
0 *31:d 8.36113e-19

*RES
0 *33:s *31:d 0.001  // $mwires

*END

*D_NET *11 5.76186e-16

*CONN
*I *32:d B *C 2.0350 0.4725 
*I *38:g B *C 3.5875 0.5300 
*I *45:d B *C 2.0350 0.4725 
*I *23:d B *C 1.9775 1.1975 
*I *29:g B *C 3.5875 1.0950 
*I *7:d B *C 1.9775 1.1975 
*N *11:2 *C 3.5875 0.8000 
*N *11:3 *C 3.5300 0.8000 
*N *11:6 *C 1.9450 1.1800 

*CAP
0 *29:g 2.32119e-17
1 *23:d 2.3449e-16
2 *38:g 3.77052e-17
3 *32:d 7.56388e-17
4 *11:2 1.23636e-17
5 *11:3 1.92776e-16

*RES
0 *29:g *11:2 22.886339  // $poly_conn
1 *11:2 *11:3 45.794373  // $poly_conn
2 *11:2 *38:g 33.14275  // $poly_conn
3 *11:3 *11:6 1.5275  // $metal1_conn
4 *11:6 *32:d 75.521484  // $metal1_conn
5 *23:d *11:6 62  // $metal1_conn

*END

*D_NET *10 4.99261e-16

*CONN
*I *39:d B *C 0.1750 0.4725 
*I *42:g B *C 0.7825 0.4725 
*I *30:d B *C 0.1750 1.1975 
*I *35:g B *C 1.1925 1.1975 
*N *10:2 *C 0.8300 0.6450 
*N *10:4 *C 1.1300 0.9050 
*N *10:5 *C 0.1650 0.6450 

*CAP
0 *35:g 3.98333e-17
1 *30:d 6.41955e-17
2 *42:g 4.61756e-17
3 *39:d 1.86277e-17
4 *10:5 8.97882e-17
5 *10:2 1.32545e-16
6 *10:4 1.08096e-16

*RES
0 *42:g *10:2 61.15522  // $poly_conn
1 *35:g *10:4 85.326416  // $poly_conn
2 *10:4 *10:2 0.407431  // $metal1_conn
3 *10:2 *10:5 0.497589  // $metal1_conn
4 *10:5 *39:d 75.086884  // $metal1_conn
5 *10:5 *30:d 62.535431  // $metal1_conn

*END

*D_NET *9 6.28199e-16

*CONN
*I *36:d B *C 2.7600 0.4725 
*I *45:g B *C 1.8125 0.4725 
*I *23:g B *C 2.1125 1.1975 
*I *27:d B *C 2.6600 1.1975 
*N *9:2 *C 1.8500 0.2300 
*N *9:4 *C 2.0750 0.9900 
*N *9:6 *C 2.1050 0.3250 

*CAP
0 *27:d 9.46067e-17
1 *23:g 4.23826e-17
2 *45:g 4.51835e-17
3 *36:d 1.19271e-16
4 *9:6 8.69337e-17
5 *9:2 7.20752e-17
6 *9:4 1.67746e-16

*RES
0 *45:g *9:2 79.103935  // $poly_conn
1 *23:g *9:4 61.15522  // $poly_conn
2 *36:d *9:6 75.781891  // $metal1_conn
3 *9:6 *9:2 0.222402  // $metal1_conn
4 *9:6 *9:4 0.477722  // $metal1_conn
5 *9:4 *27:d 62.556561  // $metal1_conn

*END

*D_NET *8 4.74516e-16

*CONN
*I *34:g B *C 2.4625 0.4725 
*I *37:d B *C 3.2850 0.4725 
*I *25:g B *C 2.3025 1.1975 
*I *28:d B *C 3.2150 1.0075 
*N *8:1 *C 2.5250 0.7800 
*N *8:2 *C 2.4625 0.7800 
*N *8:6 *C 2.9300 0.7800 

*CAP
0 *28:d 5.71508e-17
1 *25:g 7.00687e-17
2 *37:d 6.49865e-17
3 *34:g 3.61811e-17
4 *8:6 1.07187e-16
5 *8:2 7.30163e-17
6 *8:1 6.59257e-17

*RES
0 *8:1 *8:2 46.294373  // $poly_conn
1 *8:2 *25:g 103.607246  // $poly_conn
2 *8:2 *34:g 55.178871  // $poly_conn
3 *37:d *8:6 75.460258  // $metal1_conn
4 *8:6 *8:1 0.298515  // $metal1_conn
5 *8:6 *28:d 62.364529  // $metal1_conn

*END

*D_NET *19 4.07091e-16

*CONN
*I *42:d B *C 0.8850 0.4725 
*I *44:d B *C 0.8850 0.4725 
*I *43:g B *C 1.6175 0.4725 
*I *33:d B *C 1.0900 1.1975 
*I *35:d B *C 1.0900 1.1975 
*I *6:g B *C 1.6175 1.1975 
*N *19:2 *C 1.5900 0.6800 
*N *19:4 *C 1.2900 0.7100 

*CAP
0 *6:g 6.00231e-17
1 *33:d 5.50485e-17
2 *43:g 3.31471e-17
3 *42:d 6.76579e-17
4 *19:4 1.04704e-16
5 *19:2 8.65095e-17

*RES
0 *6:g *19:2 96.615021  // $poly_conn
1 *19:2 *43:g 26.102209  // $poly_conn
2 *19:2 *19:4 45.194221  // $metal1_conn
3 *19:4 *42:d 75.457802  // $metal1_conn
4 *19:4 *33:d 62.512371  // $metal1_conn

*END

