*SPEF "IEEE 1481-1999"
*DESIGN  "MXI4XL"
*DATE "Mon Sep 27 10:06:02 2010"
*VENDOR "Cadence Design Systems"
*PROGRAM "Assura RCX"
*VERSION "3.2 Red Hat Linux release 7.2 (Enigma) - (09/09/2009-10:39)"
*DESIGN_FLOW "Physical Verification"
*DIVIDER /
*DELIMITER :
*BUS_DELIMITER []
*T_UNIT 1 PS
*C_UNIT 1e15 FF
*R_UNIT 1 OHM
*L_UNIT 1 MH
// DeviceFingerDelim "@"
// MATCHED
// caps2d version: 10

*NAME_MAP
*1 net329
*2 net377
*3 net369
*4 net361
*5 net349
*6 VDD
*7 Y
*8 mp7
*9 mp6
*10 mp4
*11 mp5
*12 mp3
*13 mp2
*14 mp0
*15 mp14
*16 mp12
*17 mp1
*18 mp13
*19 mp11
*20 mp10
*21 mp8
*22 mp9
*23 mn1
*24 mn12
*25 mn13
*26 mn11
*27 mn10
*28 S0
*29 mn8
*30 S1
*31 VSS
*32 S1b
*33 n2
*34 n1
*35 mn9
*36 n0
*37 mn7
*38 S0b
*39 mn6
*40 net284
*41 A
*42 mn4
*43 net280
*44 B
*45 mn5
*46 net320
*47 C
*48 mn3
*49 net312
*50 D
*51 mn2
*52 net304
*53 mn0
*54 mn14
*55 net296
*56 net345

*GROUND_NETS VSS

*PORTS
*6 I
*31 I
*41 I
*44 I
*47 I
*50 I
*28 I
*30 I
*7 O

*D_NET *6 5.58651e-16

*CONN
*P *6 I *C 0.1000 1.7100 
*I *9:s B *C 2.7375 1.1975 
*I *10:s B *C 2.7375 1.1975 
*I *13:s B *C 3.7050 1.2325 
*I *14:s B *C 3.7050 1.2325 
*I *15:s B *C 0.4650 1.3450 
*I *17:s B *C 0.4650 1.3450 
*I *16:s B *C 0.8350 1.1425 
*I *20:s B *C 1.7750 1.1425 
*I *21:s B *C 1.7750 1.1425 
*N *6:2 *C 3.2000 1.7100 
*N *6:3 *C 3.2000 1.7100 
*N *6:4 *C 2.6350 1.7100 
*N *6:5 *C 1.6900 1.7100 
*N *6:6 *C 1.1000 1.7100 
*N *6:7 *C 0.7550 1.7100 
*N *6:8 *C 0.4100 1.7100 

*CAP
0 *20:s 1.5365e-17
1 *16:s 4.17464e-17
2 *15:s 1.82154e-17
3 *13:s 5.3689e-17
4 *9:s 3.97167e-17
5 *6:8 6.77318e-18
6 *6:7 7.19052e-18
7 *6:5 3.32576e-17
8 *6:4 2.56675e-17
9 *6:2 3.12477e-16
10 *6 4.55281e-18

*RES
0 *13:s *6:3 62.542072  // $metal1_conn
1 *6:3 *6:4 0.283142  // $metal1_conn
2 *6:4 *6:5 0.473509  // $metal1_conn
3 *6:5 *6:6 0.295679  // $metal1_conn
4 *6:6 *6:7 0.172816  // $metal1_conn
5 *6:7 *6:8 0.172619  // $metal1_conn
6 *6:8 *6 0.155013  // $metal1_conn
7 *6:4 *9:s 62.201073  // $metal1_conn
8 *6:5 *20:s 62.074623  // $metal1_conn
9 *6:7 *16:s 62.268913  // $metal1_conn
10 *6:8 *15:s 62.221092  // $metal1_conn
11 *6:2 *6:3 7.5  // $metal1_conn
12 *6:2 *6:6 6.818182  // $metal1_conn

*END

*D_NET *31 0

*CONN
*P *31 I *C 0.1000 0.0000 
*I *39:s B *C 2.7450 0.4425 
*I *42:s B *C 2.7450 0.4425 
*I *51:s B *C 3.8200 0.4425 
*I *53:s B *C 3.8200 0.4425 
*I *54:s B *C 0.4750 0.5875 
*I *23:s B *C 0.4750 0.5875 
*I *24:s B *C 0.9150 0.5875 
*I *27:s B *C 1.7075 0.4175 
*I *29:s B *C 1.7075 0.4175 
*N *31:2 *C 3.2000 0.0000 
*N *31:3 *C 3.2000 0.0000 
*N *31:4 *C 2.7100 0.0000 
*N *31:5 *C 1.6250 0.0000 
*N *31:6 *C 1.1000 0.0000 
*N *31:7 *C 0.9000 0.0000 
*N *31:8 *C 0.4400 0.0000 


*RES
0 *51:s *31:3 75.398788  // $metal1_conn
1 *31:3 *31:4 0.245531  // $metal1_conn
2 *31:4 *31:5 0.543717  // $metal1_conn
3 *31:5 *31:6 0.263082  // $metal1_conn
4 *31:6 *31:7 0.099151  // $metal1_conn
5 *31:7 *31:8 0.228391  // $metal1_conn
6 *31:8 *31 0.169108  // $metal1_conn
7 *31:4 *39:s 75.074623  // $metal1_conn
8 *31:5 *27:s 75.251457  // $metal1_conn
9 *31:7 *24:s 75.045815  // $metal1_conn
10 *31:8 *54:s 75.045815  // $metal1_conn
11 *31:2 *31:3 6.2  // $metal1_conn
12 *31:2 *31:6 5.636364  // $metal1_conn

*END

*D_NET *41 2.93766e-16

*CONN
*P *41 I *C 3.5000 1.0450 
*I *51:g B *C 3.6375 0.4425 
*I *13:g B *C 3.5625 1.2325 
*N *41:2 *C 3.6000 1.0250 
*N *41:4 *C 3.5005 1.0350 
*N *41:5 *C 3.6000 1.0250 
*N *41:6 *C 3.6000 1.0350 

*CAP
0 *13:g 4.89057e-17
1 *51:g 5.86935e-17
2 *41:6 8.17589e-17
3 *41:2 6.6805e-17
4 *41 3.76024e-17

*RES
0 *51:g *41:2 123.553734  // $poly_conn
1 *41:2 *13:g 18.425531  // $poly_conn
2 *41:4 *41 0.001419  // $metal1_conn
3 *41:5 *41:6 0.001419  // $metal1_conn
4 *41:4 *41:6 0.049233  // $metal1_conn
5 *41:2 *41:5 45  // $metal1_conn

*END

*D_NET *44 2.64274e-16

*CONN
*P *44 I *C 2.9000 1.0450 
*I *42:g B *C 2.8125 0.4425 
*I *10:g B *C 2.8325 1.1975 
*N *44:2 *C 2.8050 0.8050 

*CAP
0 *10:g 4.1593e-17
1 *42:g 5.50907e-17
2 *44:2 9.821e-17
3 *44 6.93801e-17

*RES
0 *10:g *44:2 62.27047  // $poly_conn
1 *44:2 *42:g 63.552521  // $poly_conn
2 *44 *44:2 45.180851  // $metal1_conn

*END

*D_NET *47 2.99599e-16

*CONN
*P *47 I *C 2.5000 1.0450 
*I *39:g B *C 2.5775 0.4175 
*I *9:g B *C 2.4725 1.1975 
*N *47:2 *C 2.6150 0.9100 

*CAP
0 *9:g 4.63797e-17
1 *39:g 8.12267e-17
2 *47:2 1.17035e-16
3 *47 5.49572e-17

*RES
0 *39:g *47:2 98.206505  // $poly_conn
1 *47:2 *9:g 58.677101  // $poly_conn
2 *47:2 *47 45.097218  // $metal1_conn

*END

*D_NET *50 2.28423e-16

*CONN
*P *50 I *C 1.7000 0.6650 
*I *29:g B *C 1.8225 0.4175 
*I *21:g B *C 1.8225 1.1425 
*N *50:2 *C 1.8225 0.9350 
*N *50:3 *C 1.7600 0.9350 

*CAP
0 *21:g 5.55566e-17
1 *29:g 3.06827e-17
2 *50:2 4.17062e-17
3 *50:3 5.31876e-17
4 *50 4.72902e-17

*RES
0 *21:g *50:2 22.886339  // $poly_conn
1 *50:2 *50:3 46.294373  // $poly_conn
2 *50:2 *29:g 111.347878  // $poly_conn
3 *50:3 *50 0.152324  // $metal1_conn

*END

*D_NET *28 7.4483e-16

*CONN
*P *28 I *C 3.7000 0.8550 
*I *35:g B *C 2.1975 0.4175 
*I *45:g B *C 2.9925 0.4425 
*I *53:g B *C 3.9025 0.4425 
*I *8:g B *C 2.2925 1.1975 
*I *12:g B *C 3.4575 1.2325 
*I *14:g B *C 3.8475 1.2325 
*N *28:2 *C 2.3300 0.7200 
*N *28:5 *C 3.4950 0.8650 
*N *28:6 *C 2.9550 0.6150 
*N *28:9 *C 3.8750 0.8450 

*CAP
0 *14:g 3.44396e-17
1 *12:g 6.74625e-17
2 *8:g 5.44046e-17
3 *53:g 3.61618e-17
4 *45:g 2.57778e-17
5 *35:g 3.71599e-17
6 *28:2 1.3935e-16
7 *28:6 1.34147e-16
8 *28:5 1.07793e-16
9 *28:9 7.49295e-17
10 *28 3.32042e-17

*RES
0 *8:g *28:2 85.385994  // $poly_conn
1 *28:2 *35:g 68.933517  // $poly_conn
2 *12:g *28:5 57.180859  // $poly_conn
3 *28:5 *28:6 159.447708  // $poly_conn
4 *28:6 *45:g 16.15522  // $poly_conn
5 *53:g *28:9 76.102211  // $poly_conn
6 *28:9 *14:g 63.281693  // $poly_conn
7 *28:6 *28:2 90.423592  // $metal1_conn
8 *28:9 *28 45.108795  // $metal1_conn
9 *28 *28:5 45.123322  // $metal1_conn

*END

*D_NET *30 5.84193e-16

*CONN
*P *30 I *C 0.5000 0.4750 
*I *23:g B *C 0.5425 0.5875 
*I *25:g B *C 1.0675 0.5875 
*I *17:g B *C 0.5425 1.0075 
*I *19:g B *C 1.3325 1.1425 
*N *30:2 *C 0.5150 0.7700 
*N *30:4 *C 1.1200 0.2750 
*N *30:7 *C 1.3600 0.9000 

*CAP
0 *19:g 5.5112e-17
1 *17:g 3.91167e-17
2 *25:g 7.5795e-17
3 *23:g 2.75419e-17
4 *30:2 7.55574e-17
5 *30:4 1.28907e-16
6 *30:7 1.16007e-16
7 *30 6.61563e-17

*RES
0 *17:g *30:2 24.820158  // $poly_conn
1 *30:2 *23:g 19.691952  // $poly_conn
2 *30:4 *25:g 101.129501  // $poly_conn
3 *19:g *30:7 71.102211  // $poly_conn
4 *30:7 *30:4 0.584359  // $metal1_conn
5 *30:4 *30 0.532086  // $metal1_conn
6 *30 *30:2 45.220581  // $metal1_conn

*END

*D_NET *7 8.91116e-17

*CONN
*P *7 O *C 0.1000 0.6650 
*I *54:d B *C 0.2050 0.5875 
*I *15:d B *C 0.2050 1.0075 
*N *7:3 *C 0.1850 0.6000 

*CAP
0 *15:d 3.54953e-17
1 *54:d 3.85403e-17
2 *7 1.50761e-17

*RES
0 *15:d *7:3 62.224701  // $metal1_conn
1 *7:3 *7 0.03956  // $metal1_conn
2 *54:d *7:3 75  // $metal1_conn

*END

*D_NET *5 0

*CONN
*I *48:s B *C 3.5225 0.4425 
*I *51:d B *C 3.5225 0.4425 


*RES
0 *51:d *48:s 0.001  // $mwires

*END

*D_NET *4 0

*CONN
*I *42:d B *C 2.9025 0.4425 
*I *45:s B *C 2.9025 0.4425 


*RES
0 *45:s *42:d 0.001  // $mwires

*END

*D_NET *3 4.71563e-19

*CONN
*I *37:s B *C 2.5250 0.4175 
*I *39:d B *C 2.5250 0.4175 

*CAP
0 *37:s 4.71563e-19

*RES
0 *39:d *37:s 0.001  // $mwires

*END

*D_NET *2 2.91733e-18

*CONN
*I *35:s B *C 2.0100 0.4175 
*I *29:d B *C 2.0100 0.4175 

*CAP
0 *35:s 2.91733e-18

*RES
0 *29:d *35:s 0.001  // $mwires

*END

*D_NET *1 1.76561e-18

*CONN
*I *26:s B *C 1.3825 0.5875 
*I *27:d B *C 1.3825 0.5875 

*CAP
0 *26:s 1.76561e-18

*RES
0 *27:d *26:s 0.001  // $mwires

*END

*D_NET *56 0

*CONN
*I *24:d B *C 1.0150 0.5875 
*I *25:s B *C 1.0150 0.5875 


*RES
0 *25:s *24:d 0.001  // $mwires

*END

*D_NET *55 0

*CONN
*I *12:s B *C 3.5100 1.2325 
*I *13:d B *C 3.5100 1.2325 


*RES
0 *13:d *12:s 0.001  // $mwires

*END

*D_NET *52 6.85824e-18

*CONN
*I *10:d B *C 2.9750 1.1975 
*I *11:s B *C 2.9750 1.1975 

*CAP
0 *10:d 6.85824e-18

*RES
0 *11:s *10:d 0.001  // $mwires

*END

*D_NET *49 2.75392e-18

*CONN
*I *8:s B *C 2.3825 1.1975 
*I *9:d B *C 2.3825 1.1975 

*CAP
0 *8:s 2.75392e-18

*RES
0 *9:d *8:s 0.001  // $mwires

*END

*D_NET *46 3.71209e-18

*CONN
*I *21:d B *C 1.8825 1.1425 
*I *22:s B *C 1.8825 1.1425 

*CAP
0 *21:d 3.71209e-18

*RES
0 *22:s *21:d 0.001  // $mwires

*END

*D_NET *43 4.66379e-18

*CONN
*I *19:s B *C 1.4125 1.1425 
*I *20:d B *C 1.4125 1.1425 

*CAP
0 *19:s 4.66379e-18

*RES
0 *20:d *19:s 0.001  // $mwires

*END

*D_NET *40 1.78279e-18

*CONN
*I *16:d B *C 0.9975 1.1425 
*I *18:s B *C 0.9975 1.1425 

*CAP
0 *16:d 1.78279e-18

*RES
0 *18:s *16:d 0.001  // $mwires

*END

*D_NET *38 9.82505e-16

*CONN
*I *37:g B *C 2.4725 0.4175 
*I *48:g B *C 3.4075 0.4425 
*I *53:d B *C 4.0250 0.4425 
*I *11:g B *C 3.1175 1.1975 
*I *14:d B *C 3.9750 1.2325 
*I *22:g B *C 1.9425 1.1425 
*N *38:2 *C 1.9800 0.8250 
*N *38:4 *C 2.3400 0.1900 
*N *38:6 *C 3.1450 0.9800 
*N *38:8 *C 3.3700 0.2100 
*N *38:9 *C 3.1450 0.3300 
*N *38:11 *C 4.0650 0.4300 

*CAP
0 *22:g 6.24236e-17
1 *14:d 6.98773e-17
2 *11:g 4.46163e-17
3 *53:d 7.26272e-17
4 *48:g 4.6887e-17
5 *37:g 5.7609e-17
6 *38:9 1.21245e-16
7 *38:2 1.23475e-16
8 *38:4 1.83589e-16
9 *38:6 1.082e-16
10 *38:8 9.19555e-17

*RES
0 *22:g *38:2 89.360352  // $poly_conn
1 *37:g *38:4 86.330643  // $poly_conn
2 *11:g *38:6 64.691956  // $poly_conn
3 *48:g *38:8 76.539833  // $poly_conn
4 *38:6 *38:9 0.495331  // $metal1_conn
5 *38:9 *38:4 0.629539  // $metal1_conn
6 *38:4 *38:2 0.695051  // $metal1_conn
7 *38:9 *38:8 0.258278  // $metal1_conn
8 *38:8 *38:11 0.640173  // $metal1_conn
9 *38:11 *14:d 62.536762  // $metal1_conn
10 *53:d *38:11 75  // $metal1_conn

*END

*D_NET *36 5.99026e-16

*CONN
*I *45:d B *C 3.2000 0.4425 
*I *48:d B *C 3.2000 0.4425 
*I *27:g B *C 1.4925 0.5875 
*I *11:d B *C 3.3850 1.2325 
*I *12:d B *C 3.3850 1.2325 
*I *20:g B *C 1.4925 1.1425 
*N *36:3 *C 1.5200 1.3500 
*N *36:6 *C 3.3050 1.2450 

*CAP
0 *20:g 6.01331e-17
1 *11:d 2.09288e-16
2 *27:g 4.48752e-17
3 *45:d 8.10328e-17
4 *36:3 2.03697e-16

*RES
0 *20:g *27:g 96.153854  // $poly_conn
1 *20:g *36:3 61.15522  // $poly_conn
2 *45:d *36:6 75.588066  // $metal1_conn
3 *36:6 *36:3 1.362455  // $metal1_conn
4 *11:d *36:6 62  // $metal1_conn

*END

*D_NET *34 5.67708e-16

*CONN
*I *35:d B *C 2.3350 0.4175 
*I *37:d B *C 2.3350 0.4175 
*I *24:g B *C 0.9625 0.5875 
*I *8:d B *C 2.2200 1.1975 
*I *16:g B *C 0.9075 1.1425 
*I *22:d B *C 2.2200 1.1975 
*N *34:3 *C 0.9450 1.3500 
*N *34:6 *C 2.0450 1.1500 

*CAP
0 *16:g 5.15884e-17
1 *8:d 1.78418e-16
2 *24:g 7.41809e-17
3 *35:d 1.07893e-16
4 *34:3 1.55628e-16

*RES
0 *24:g *16:g 98.428383  // $poly_conn
1 *16:g *34:3 61.15522  // $poly_conn
2 *35:d *34:6 75.693069  // $metal1_conn
3 *34:6 *34:3 0.952194  // $metal1_conn
4 *8:d *34:6 62  // $metal1_conn

*END

*D_NET *33 4.27008e-16

*CONN
*I *54:g B *C 0.3075 0.5875 
*I *25:d B *C 1.1700 0.5875 
*I *26:d B *C 1.1700 0.5875 
*I *15:g B *C 0.3075 1.0075 
*I *18:d B *C 1.2100 1.1425 
*I *19:d B *C 1.2100 1.1425 
*N *33:2 *C 0.3450 0.8000 
*N *33:6 *C 1.2000 1.1500 

*CAP
0 *18:d 1.66381e-16
1 *15:g 2.80414e-17
2 *25:d 5.69326e-17
3 *54:g 2.55398e-17
4 *33:2 1.50113e-16

*RES
0 *15:g *33:2 16.15522  // $poly_conn
1 *33:2 *54:g 26.411629  // $poly_conn
2 *25:d *33:6 75.398468  // $metal1_conn
3 *33:6 *33:2 45.85099  // $metal1_conn
4 *18:d *33:6 62  // $metal1_conn

*END

*D_NET *32 3.0657e-16

*CONN
*I *23:d B *C 0.6625 0.5875 
*I *26:g B *C 1.2725 0.5875 
*I *17:d B *C 0.6350 1.0075 
*I *18:g B *C 1.0875 1.1425 
*N *32:2 *C 1.0400 0.9250 
*N *32:4 *C 0.7300 0.9575 

*CAP
0 *18:g 4.69208e-17
1 *17:d 2.01747e-17
2 *26:g 4.7449e-17
3 *23:d 3.68427e-17
4 *32:4 4.32685e-17
5 *32:2 1.11915e-16

*RES
0 *26:g *32:2 87.669456  // $poly_conn
1 *32:2 *18:g 17.398676  // $poly_conn
2 *32:2 *32:4 45.232296  // $metal1_conn
3 *32:4 *17:d 62.071373  // $metal1_conn
4 *32:4 *23:d 75.219826  // $metal1_conn

*END

