*SPEF "IEEE 1481-1999"
*DESIGN  "NAND4BX1"
*DATE "Mon Sep 27 10:15:27 2010"
*VENDOR "Cadence Design Systems"
*PROGRAM "Assura RCX"
*VERSION "3.2 Red Hat Linux release 7.2 (Enigma) - (09/09/2009-10:39)"
*DESIGN_FLOW "Physical Verification"
*DIVIDER /
*DELIMITER :
*BUS_DELIMITER []
*T_UNIT 1 PS
*C_UNIT 1e15 FF
*R_UNIT 1 OHM
*L_UNIT 1 MH
// DeviceFingerDelim "@"
// MATCHED
// caps2d version: 10

*NAME_MAP
*1 mp1
*2 mp0
*3 mn4
*4 Y
*5 mn3
*6 mn2
*7 mn1
*8 mn0
*9 net126
*10 VDD
*11 net118
*12 net130
*13 B
*14 net122
*15 C
*16 D
*17 VSS
*18 AN
*19 mp4
*20 mp3
*21 mp2

*GROUND_NETS VSS

*PORTS
*10 I
*17 I
*18 I
*13 I
*15 I
*16 I
*4 O

*D_NET *10 2.28223e-16

*CONN
*P *10 I *C 0.1000 1.7100 
*I *19:s B *C 0.1950 1.2850 
*I *20:s B *C 0.6000 1.2850 
*I *21:s B *C 0.6000 1.2850 
*I *1:s B *C 1.1000 1.1975 
*I *2:s B *C 1.1000 1.1975 
*N *10:2 *C 0.7000 1.7100 
*N *10:3 *C 0.7000 1.7100 
*N *10:4 *C 0.5950 1.7100 
*N *10:5 *C 0.1850 1.7100 

*CAP
0 *1:s 3.4351e-17
1 *20:s 3.80638e-17
2 *19:s 2.89844e-17
3 *10:5 8.89872e-18
4 *10:4 9.42348e-18
5 *10:2 1.04699e-16
6 *10 3.80214e-18

*RES
0 *1:s *10:3 62.362949  // $metal1_conn
1 *10:3 *10:4 0.052433  // $metal1_conn
2 *10:4 *10:5 0.205113  // $metal1_conn
3 *10:5 *10 0.04215  // $metal1_conn
4 *10:4 *20:s 62.183945  // $metal1_conn
5 *10:5 *19:s 62.178406  // $metal1_conn
6 *10:2 *10:3 10.714286  // $metal1_conn

*END

*D_NET *17 0

*CONN
*P *17 I *C 0.1000 0.0000 
*I *7:s B *C 1.0250 0.5675 
*I *8:s B *C 1.0250 0.5675 
*N *17:2 *C 0.7000 0.0000 
*N *17:3 *C 0.7000 0.0000 


*RES
0 *7:s *17:3 75.422974  // $metal1_conn
1 *17:3 *17 0.300489  // $metal1_conn
2 *17:2 *17:3 8.857142  // $metal1_conn

*END

*D_NET *18 2.0074e-16

*CONN
*P *18 I *C 1.1000 0.8550 
*I *8:g B *C 1.0725 0.5675 
*I *2:g B *C 1.1475 1.1975 
*N *18:2 *C 1.1100 0.8200 
*N *18:4 *C 1.1050 0.8200 

*CAP
0 *2:g 3.67565e-17
1 *8:g 3.19649e-17
2 *18:4 2.96395e-17
3 *18:2 3.58752e-17
4 *18 6.65042e-17

*RES
0 *2:g *18:2 62.01527  // $poly_conn
1 *18:2 *8:g 38.938351  // $poly_conn
2 *18:4 *18 0.021755  // $metal1_conn
3 *18:2 *18:4 45  // $metal1_conn

*END

*D_NET *13 2.66985e-16

*CONN
*P *13 I *C 0.7000 0.8550 
*I *6:g B *C 0.7075 0.5100 
*I *21:g B *C 0.7075 1.2850 
*N *13:2 *C 0.6800 0.8500 

*CAP
0 *21:g 5.20615e-17
1 *6:g 5.16571e-17
2 *13:2 4.81875e-17
3 *13 1.15079e-16

*RES
0 *21:g *13:2 53.025284  // $poly_conn
1 *13:2 *6:g 45.332973  // $poly_conn
2 *13 *13:2 45.002701  // $metal1_conn

*END

*D_NET *15 2.67435e-16

*CONN
*P *15 I *C 0.5000 0.8550 
*I *5:g B *C 0.4925 0.5100 
*I *20:g B *C 0.4925 1.2850 
*N *15:2 *C 0.5200 0.8600 
*N *15:4 *C 0.5200 0.8600 

*CAP
0 *20:g 5.08624e-17
1 *5:g 4.78277e-17
2 *15:2 4.7716e-17
3 *15 1.21029e-16

*RES
0 *20:g *15:2 50.461182  // $poly_conn
1 *15:2 *5:g 47.897079  // $poly_conn
2 *15 *15:4 0.002836  // $metal1_conn
3 *15:2 *15:4 45  // $metal1_conn

*END

*D_NET *16 2.39211e-16

*CONN
*P *16 I *C 0.3000 0.8550 
*I *3:g B *C 0.3375 0.5100 
*I *19:g B *C 0.2875 1.2850 
*N *16:2 *C 0.3100 0.8500 
*N *16:4 *C 0.3100 0.8500 

*CAP
0 *19:g 3.88831e-17
1 *3:g 4.13371e-17
2 *16:2 3.71107e-17
3 *16 1.2188e-16

*RES
0 *3:g *16:2 43.0397  // $poly_conn
1 *16:2 *19:g 50.73201  // $poly_conn
2 *16:4 *16 0.003108  // $metal1_conn
3 *16:2 *16:4 45  // $metal1_conn

*END

*D_NET *4 2.77715e-16

*CONN
*P *4 O *C 0.1000 1.0450 
*I *3:d B *C 0.2450 0.5100 
*I *19:d B *C 0.3900 1.2850 
*I *20:d B *C 0.3900 1.2850 
*I *21:d B *C 0.8100 1.2850 
*I *1:d B *C 0.8100 1.2850 
*N *4:2 *C 0.3900 1.2300 

*CAP
0 *21:d 5.41409e-17
1 *19:d 2.84344e-17
2 *3:d 6.05661e-17
3 *4:2 5.76207e-17
4 *4 7.69527e-17

*RES
0 *21:d *4:2 31.37051  // $metal1_conn
1 *4:2 *4 0.328313  // $metal1_conn
2 *4:2 *19:d 31.059198  // $metal1_conn
3 *4 *3:d 75.491081  // $metal1_conn

*END

*D_NET *12 1.12121e-18

*CONN
*I *3:s B *C 0.4150 0.5100 
*I *5:d B *C 0.4150 0.5100 

*CAP
0 *3:s 1.12121e-18

*RES
0 *5:d *3:s 0.001  // $mwires

*END

*D_NET *9 4.2523e-18

*CONN
*I *5:s B *C 0.6000 0.5100 
*I *6:d B *C 0.6000 0.5100 

*CAP
0 *5:s 4.2523e-18

*RES
0 *6:d *5:s 0.001  // $mwires

*END

*D_NET *14 0

*CONN
*I *6:s B *C 0.7725 0.5100 
*I *7:d B *C 0.7725 0.5100 


*RES
0 *7:d *6:s 0.001  // $mwires

*END

*D_NET *11 3.31621e-16

*CONN
*I *7:g B *C 0.8375 0.5100 
*I *8:d B *C 1.1650 0.5675 
*I *1:g B *C 0.9125 1.2850 
*I *2:d B *C 1.2500 1.1975 
*N *11:2 *C 0.9000 0.7750 
*N *11:6 *C 1.1750 0.5800 

*CAP
0 *2:d 5.43139e-17
1 *1:g 5.91784e-17
2 *8:d 6.13565e-17
3 *7:g 5.24989e-17
4 *11:2 1.04273e-16

*RES
0 *1:g *11:2 68.91848  // $poly_conn
1 *11:2 *7:g 29.178047  // $poly_conn
2 *2:d *11:6 62.428707  // $metal1_conn
3 *11:6 *11:2 45.257641  // $metal1_conn
4 *8:d *11:6 75  // $metal1_conn

*END

