*SPEF "IEEE 1481-1999"
*DESIGN  "NAND3X4"
*DATE "Mon Sep 27 10:12:24 2010"
*VENDOR "Cadence Design Systems"
*PROGRAM "Assura RCX"
*VERSION "3.2 Red Hat Linux release 7.2 (Enigma) - (09/09/2009-10:39)"
*DESIGN_FLOW "Physical Verification"
*DIVIDER /
*DELIMITER :
*BUS_DELIMITER []
*T_UNIT 1 PS
*C_UNIT 1e15 FF
*R_UNIT 1 OHM
*L_UNIT 1 MH
// DeviceFingerDelim "@"
// MATCHED
// caps2d version: 10

*NAME_MAP
*1 VDD
*2 A
*3 B
*4 C
*5 mp2\@3
*6 mp1\@3
*7 mp0\@3
*8 n1\@7
*9 n1
*10 n1\@1
*11 n1\@2
*12 n1\@3
*13 Y
*14 n1\@4
*15 n1\@5
*16 n1\@6
*17 VSS
*18 mp0
*19 mp1
*20 mp2
*21 mp2\@1
*22 mp1\@1
*23 mp0\@1
*24 mp0\@2
*25 mn0
*26 mp1\@2
*27 mn1
*28 mp2\@2
*29 mn2
*30 mn2\@1
*31 mn1\@1
*32 mn0\@1
*33 mn0\@2
*34 mn2\@3
*35 mn1\@2
*36 mn1\@3
*37 mn2\@2
*38 mn0\@3

*GROUND_NETS VSS

*PORTS
*1 I
*17 I
*2 I
*3 I
*4 I
*13 O

*D_NET *1 4.97558e-16

*CONN
*P *1 I *C 0.1000 1.7100 
*I *18:s B *C 1.4700 1.2100 
*I *19:s B *C 1.8800 1.2100 
*I *20:s B *C 1.8800 1.2100 
*I *21:s B *C 2.2900 1.2100 
*I *22:s B *C 2.2900 1.2100 
*I *23:s B *C 2.6900 1.2100 
*I *24:s B *C 0.2500 1.2100 
*I *26:s B *C 0.6500 1.2100 
*I *28:s B *C 0.6500 1.2100 
*I *5:s B *C 1.0600 1.2100 
*I *6:s B *C 1.0600 1.2100 
*I *7:s B *C 1.4700 1.2100 
*N *1:3 *C 2.1000 1.7100 

*CAP
0 *23:s 3.48577e-16
1 *1:3 1.48981e-16

*RES
0 *23:s *1 0.069784  // $metal1_conn
1 *1:3 *23:s 10.714286  // $metal1_conn
2 *1:3 *23:s 10.714286  // $metal1_conn

*END

*D_NET *17 0

*CONN
*P *17 I *C 0.1000 0.0000 
*I *25:s B *C 1.5400 0.4450 
*I *32:s B *C 2.6300 0.3275 
*I *33:s B *C 0.3500 0.4450 
*I *38:s B *C 1.5400 0.4450 
*N *17:2 *C 0.3400 0.0000 
*N *17:3 *C 0.7000 0.0000 
*N *17:4 *C 0.7000 0.0000 
*N *17:5 *C 1.4250 0.0000 
*N *17:7 *C 2.1000 0.0000 


*RES
0 *33:s *17:2 75.232323  // $metal1_conn
1 *17:2 *17 0.119538  // $metal1_conn
2 *17:2 *17:4 0.179986  // $metal1_conn
3 *17:4 *17:5 0.3635  // $metal1_conn
4 *17:5 *25:s 75.097404  // $metal1_conn
5 *17:5 *17:7 0.338418  // $metal1_conn
6 *17:7 *32:s 75.351341  // $metal1_conn
7 *17:3 *17:4 8.857142  // $metal1_conn
8 *17:3 *17:7 8.857142  // $metal1_conn

*END

*D_NET *2 1.02687e-15

*CONN
*P *2 I *C 0.3000 0.8550 
*I *25:g B *C 1.5875 0.4450 
*I *32:g B *C 2.4975 0.4450 
*I *33:g B *C 0.4425 0.4450 
*I *38:g B *C 1.3225 0.4450 
*I *18:g B *C 1.5725 1.2100 
*I *23:g B *C 2.5975 1.2100 
*I *24:g B *C 0.3425 1.2100 
*I *7:g B *C 1.3675 1.2100 
*N *2:5 *C 1.4975 0.6725 

*CAP
0 *23:g 7.47614e-16
1 *38:g 4.79393e-17
2 *33:g 7.56428e-17
3 *32:g 6.43674e-17
4 *25:g 4.04627e-17
5 *2:5 2.60835e-17
6 *2 2.47638e-17

*RES
0 *23:g *32:g 66.530045  // $poly_conn
1 *25:g *2:5 41.010902  // $poly_conn
2 *2:5 *38:g 62.805775  // $poly_conn
3 *33:g *23:g 74.617477  // $poly_conn
4 *2:5 *23:g 46.49086  // $poly_conn
5 *23:g *2 0.048844  // $metal1_conn

*END

*D_NET *3 1.07715e-15

*CONN
*P *3 I *C 2.3000 0.6650 
*I *27:g B *C 1.7275 0.4450 
*I *31:g B *C 2.3925 0.4450 
*I *35:g B *C 0.5475 0.4450 
*I *36:g B *C 1.1625 0.4450 
*I *19:g B *C 1.7775 1.2100 
*I *22:g B *C 2.3925 1.2100 
*I *26:g B *C 0.5475 1.2100 
*I *6:g B *C 1.1625 1.2100 

*CAP
0 *36:g 7.96862e-17
1 *35:g 5.78827e-17
2 *31:g 5.75558e-17
3 *27:g 5.76413e-17
4 *3 8.24387e-16

*RES
0 *3 *31:g 19.691952  // $poly_conn
1 *3 *27:g 55.860214  // $poly_conn
2 *3 *36:g 58.153492  // $poly_conn
3 *3 *35:g 29.94836  // $poly_conn

*END

*D_NET *4 6.39348e-16

*CONN
*P *4 I *C 1.1000 0.6650 
*I *29:g B *C 1.9625 0.4450 
*I *30:g B *C 2.1675 0.4450 
*I *37:g B *C 0.8525 0.4450 
*I *34:g B *C 1.0575 0.4450 
*I *20:g B *C 1.9825 1.2100 
*I *21:g B *C 2.1875 1.2100 
*I *28:g B *C 0.7525 1.2100 
*I *5:g B *C 0.9575 1.2100 

*CAP
0 *34:g 4.40515e-17
1 *37:g 2.05883e-17
2 *30:g 3.49652e-17
3 *29:g 2.08205e-17
4 *4 5.18922e-16

*RES
0 *4 *30:g 66.514374  // $poly_conn
1 *4 *29:g 41.713581  // $poly_conn
2 *34:g *4 16.15522  // $poly_conn
3 *4 *37:g 46.145569  // $poly_conn

*END

*D_NET *13 9.35665e-16

*CONN
*P *13 O *C 2.7000 1.0450 
*I *29:d B *C 2.0650 0.4450 
*I *30:d B *C 2.0650 0.4450 
*I *37:d B *C 0.9550 0.4450 
*I *34:d B *C 0.9550 0.4450 
*I *18:d B *C 1.6750 1.2100 
*I *19:d B *C 1.6750 1.2100 
*I *20:d B *C 2.0850 1.2100 
*I *21:d B *C 2.0850 1.2100 
*I *22:d B *C 2.4950 1.2100 
*I *23:d B *C 2.4950 1.2100 
*I *24:d B *C 0.4450 1.2100 
*I *26:d B *C 0.4450 1.2100 
*I *28:d B *C 0.8550 1.2100 
*I *5:d B *C 0.8550 1.2100 
*I *6:d B *C 1.2650 1.2100 
*I *7:d B *C 1.2650 1.2100 
*N *13:9 *C 2.0650 0.4350 

*CAP
0 *22:d 5.70953e-16
1 *37:d 1.08909e-16
2 *29:d 1.65125e-16
3 *13 9.06782e-17

*RES
0 *22:d *13 0.212928  // $metal1_conn
1 *13 *13:9 0.861351  // $metal1_conn
2 *29:d *13:9 75  // $metal1_conn
3 *13:9 *37:d 75.813805  // $metal1_conn

*END

*D_NET *12 2.08455e-18

*CONN
*I *31:s B *C 2.4450 0.4450 
*I *32:d B *C 2.4450 0.4450 

*CAP
0 *31:s 2.08455e-18

*RES
0 *32:d *31:s 0.001  // $mwires

*END

*D_NET *11 4.99533e-18

*CONN
*I *30:s B *C 2.2800 0.4450 
*I *31:d B *C 2.2800 0.4450 

*CAP
0 *30:s 4.99533e-18

*RES
0 *31:d *30:s 0.001  // $mwires

*END

*D_NET *10 6.17513e-18

*CONN
*I *27:s B *C 1.8450 0.4450 
*I *29:s B *C 1.8450 0.4450 

*CAP
0 *27:s 6.17513e-18

*RES
0 *29:s *27:s 0.001  // $mwires

*END

*D_NET *9 3.48423e-18

*CONN
*I *25:d B *C 1.6575 0.4450 
*I *27:d B *C 1.6575 0.4450 

*CAP
0 *25:d 3.48423e-18

*RES
0 *27:d *25:d 0.001  // $mwires

*END

*D_NET *8 4.12778e-18

*CONN
*I *36:s B *C 1.2425 0.4450 
*I *38:d B *C 1.2425 0.4450 

*CAP
0 *36:s 4.12778e-18

*RES
0 *38:d *36:s 0.001  // $mwires

*END

*D_NET *16 2.1232e-18

*CONN
*I *34:s B *C 1.1100 0.4450 
*I *36:d B *C 1.1100 0.4450 

*CAP
0 *34:s 2.1232e-18

*RES
0 *36:d *34:s 0.001  // $mwires

*END

*D_NET *15 0

*CONN
*I *35:s B *C 0.7000 0.4450 
*I *37:s B *C 0.7000 0.4450 


*RES
0 *37:s *35:s 0.001  // $mwires

*END

*D_NET *14 0

*CONN
*I *33:d B *C 0.4950 0.4450 
*I *35:d B *C 0.4950 0.4450 


*RES
0 *35:d *33:d 0.001  // $mwires

*END

