*SPEF "IEEE 1481-1999"
*DESIGN  "NAND3X8"
*DATE "Mon Sep 27 10:13:09 2010"
*VENDOR "Cadence Design Systems"
*PROGRAM "Assura RCX"
*VERSION "3.2 Red Hat Linux release 7.2 (Enigma) - (09/09/2009-10:39)"
*DESIGN_FLOW "Physical Verification"
*DIVIDER /
*DELIMITER :
*BUS_DELIMITER []
*T_UNIT 1 PS
*C_UNIT 1e15 FF
*R_UNIT 1 OHM
*L_UNIT 1 MH
// DeviceFingerDelim "@"
// MATCHED
// caps2d version: 10

*NAME_MAP
*1 mp2\@2
*2 mn2
*3 mp1\@3
*4 mp0\@4
*5 mp1\@4
*6 mp2\@3
*7 mp2\@4
*8 mp1\@5
*9 mp0\@5
*10 mp0\@6
*11 mp1\@6
*12 mp2\@5
*13 mp2\@6
*14 VDD
*15 mn0
*16 mn0\@1
*17 mn1\@1
*18 mn2\@1
*19 mn2\@2
*20 mn1\@2
*21 mn0\@2
*22 mp0
*23 mn0\@3
*24 mp0\@1
*25 mn1\@3
*26 mp1
*27 mp2
*28 mp2\@1
*29 mp1\@1
*30 mp0\@2
*31 mp0\@3
*32 mp1\@2
*33 n1\@11
*34 n1\@12
*35 n1\@13
*36 n1\@7
*37 A
*38 n1
*39 B
*40 n1\@1
*41 C
*42 n1\@2
*43 n1\@3
*44 n1\@4
*45 n1\@5
*46 n1\@6
*47 mn2\@3
*48 mn1
*49 mn0\@4
*50 mn1\@4
*51 mn2\@4
*52 mn2\@5
*53 VSS
*54 mn1\@5
*55 Y
*56 mn0\@5
*57 n1\@8
*58 mn0\@6
*59 n1\@9
*60 mn1\@6
*61 n1\@10
*62 mn2\@6

*GROUND_NETS VSS

*PORTS
*14 I
*53 I
*37 I
*39 I
*41 I
*55 O

*D_NET *14 7.66745e-16

*CONN
*P *14 I *C 0.1000 1.7100 
*I *22:s B *C 2.6750 1.2375 
*I *24:s B *C 2.6750 1.2375 
*I *26:s B *C 3.0850 1.2375 
*I *27:s B *C 3.0850 1.2375 
*I *28:s B *C 3.4950 1.2375 
*I *29:s B *C 3.4950 1.2375 
*I *30:s B *C 3.9400 1.2375 
*I *31:s B *C 3.9400 1.2375 
*I *32:s B *C 4.3500 1.2375 
*I *1:s B *C 4.3500 1.2375 
*I *3:s B *C 2.2625 1.2375 
*I *4:s B *C 0.1500 1.2375 
*I *5:s B *C 0.5850 1.2375 
*I *6:s B *C 0.5850 1.2375 
*I *7:s B *C 0.9950 1.2375 
*I *8:s B *C 0.9950 1.2375 
*I *9:s B *C 1.4050 1.2375 
*I *10:s B *C 1.4050 1.2375 
*I *11:s B *C 1.8325 1.2375 
*I *12:s B *C 1.8325 1.2375 
*I *13:s B *C 2.2625 1.2375 

*CAP
0 *32:s 7.66745e-16

*RES
0 *32:s *14 0.019214  // $metal1_conn

*END

*D_NET *53 0

*CONN
*P *53 I *C 0.1000 0.0000 
*I *15:s B *C 2.7900 0.5125 
*I *16:s B *C 2.7900 0.5125 
*I *21:s B *C 3.9950 0.5125 
*I *23:s B *C 3.9950 0.5125 
*I *49:s B *C 0.2850 0.5125 
*I *56:s B *C 1.4200 0.5125 
*I *58:s B *C 1.4200 0.5125 
*N *53:2 *C 3.6000 0.0000 
*N *53:3 *C 3.6000 0.0000 
*N *53:4 *C 2.7050 0.0000 
*N *53:5 *C 1.3350 0.0000 
*N *53:6 *C 1.2000 0.0000 
*N *53:7 *C 0.2750 0.0000 


*RES
0 *21:s *53:3 75.240547  // $metal1_conn
1 *53:3 *53:4 0.448056  // $metal1_conn
2 *53:4 *53:5 0.685312  // $metal1_conn
3 *53:5 *53:6 0.06661  // $metal1_conn
4 *53:6 *53:7 0.464063  // $metal1_conn
5 *53:7 *53 0.087386  // $metal1_conn
6 *53:4 *15:s 75.045853  // $metal1_conn
7 *53:5 *56:s 75.045853  // $metal1_conn
8 *53:7 *49:s 75.266701  // $metal1_conn
9 *53:2 *53:3 5.166667  // $metal1_conn
10 *53:2 *53:6 5.166667  // $metal1_conn

*END

*D_NET *37 1.60376e-15

*CONN
*P *37 I *C 0.3000 0.8550 
*I *15:g B *C 2.5725 0.5125 
*I *16:g B *C 2.8375 0.5125 
*I *21:g B *C 3.7775 0.5125 
*I *23:g B *C 4.0425 0.5125 
*I *49:g B *C 0.3775 0.5125 
*I *56:g B *C 1.2025 0.5125 
*I *58:g B *C 1.4675 0.5125 
*I *22:g B *C 2.5725 1.2375 
*I *24:g B *C 2.7775 1.2375 
*I *30:g B *C 3.8375 1.2375 
*I *31:g B *C 4.0425 1.2375 
*I *4:g B *C 0.2425 1.2375 
*I *9:g B *C 1.3025 1.2375 
*I *10:g B *C 1.5075 1.2375 

*CAP
0 *58:g 3.62234e-17
1 *56:g 6.92521e-17
2 *49:g 5.88721e-17
3 *23:g 4.43392e-17
4 *21:g 3.99364e-17
5 *16:g 6.33126e-17
6 *15:g 3.59316e-17
7 *37 1.25589e-15

*RES
0 *37 *23:g 57.181328  // $poly_conn
1 *37 *21:g 55.898808  // $poly_conn
2 *16:g *37 66.651932  // $poly_conn
3 *37 *15:g 55.898808  // $poly_conn
4 *37 *58:g 56.517784  // $poly_conn
5 *37 *56:g 76.625816  // $poly_conn
6 *49:g *37 49.696217  // $poly_conn

*END

*D_NET *39 1.93256e-15

*CONN
*P *39 I *C 4.1000 0.8550 
*I *17:g B *C 2.9425 0.5125 
*I *20:g B *C 3.5975 0.5125 
*I *25:g B *C 4.2475 0.5125 
*I *48:g B *C 2.3675 0.5125 
*I *50:g B *C 0.4825 0.5125 
*I *54:g B *C 1.0975 0.5125 
*I *60:g B *C 1.7125 0.5125 
*I *26:g B *C 2.9825 1.2375 
*I *29:g B *C 3.5975 1.2375 
*I *32:g B *C 4.2475 1.2375 
*I *3:g B *C 2.3675 1.2375 
*I *5:g B *C 0.4825 1.2375 
*I *8:g B *C 1.0975 1.2375 
*I *11:g B *C 1.7125 1.2375 

*CAP
0 *60:g 4.18409e-17
1 *54:g 7.09126e-17
2 *50:g 7.23078e-17
3 *48:g 3.47231e-17
4 *25:g 6.20654e-17
5 *20:g 4.24447e-17
6 *17:g 5.92932e-17
7 *39 1.54897e-15

*RES
0 *39 *25:g 22.886339  // $poly_conn
1 *39 *20:g 19.691952  // $poly_conn
2 *39 *17:g 17.398676  // $poly_conn
3 *39 *48:g 19.691952  // $poly_conn
4 *39 *60:g 19.691952  // $poly_conn
5 *39 *54:g 23.538105  // $poly_conn
6 *39 *50:g 54.307335  // $poly_conn

*END

*D_NET *41 1.53145e-15

*CONN
*P *41 I *C 0.9000 0.6650 
*I *18:g B *C 3.1875 0.5125 
*I *19:g B *C 3.3925 0.5125 
*I *47:g B *C 4.3525 0.5125 
*I *51:g B *C 0.7325 0.5125 
*I *52:g B *C 0.9375 0.5125 
*I *62:g B *C 1.8775 0.5125 
*I *2:g B *C 2.0825 0.5125 
*I *27:g B *C 3.1875 1.2375 
*I *28:g B *C 3.3925 1.2375 
*I *1:g B *C 4.4525 1.2375 
*I *6:g B *C 0.6875 1.2375 
*I *7:g B *C 0.8925 1.2375 
*I *12:g B *C 1.9525 1.2375 
*I *13:g B *C 2.1575 1.2375 

*CAP
0 *2:g 1.72122e-17
1 *62:g 3.11643e-17
2 *52:g 2.89837e-17
3 *51:g 2.02847e-17
4 *47:g 5.44587e-17
5 *19:g 2.52435e-17
6 *18:g 1.95473e-17
7 *41 1.33456e-15

*RES
0 *41 *47:g 27.881931  // $poly_conn
1 *41 *19:g 31.540302  // $poly_conn
2 *41 *18:g 16.15522  // $poly_conn
3 *41 *2:g 14.93473  // $poly_conn
4 *41 *62:g 44.857056  // $poly_conn
5 *52:g *41 22.193991  // $poly_conn
6 *41 *51:g 15.826773  // $poly_conn

*END

*D_NET *55 1.68585e-15

*CONN
*P *55 O *C 4.5000 1.0450 
*I *18:d B *C 3.2900 0.5125 
*I *19:d B *C 3.2900 0.5125 
*I *47:d B *C 4.4450 0.5125 
*I *51:d B *C 0.8350 0.5125 
*I *52:d B *C 0.8350 0.5125 
*I *62:d B *C 1.9800 0.5125 
*I *2:d B *C 1.9800 0.5125 
*I *22:d B *C 2.4700 1.2375 
*I *24:d B *C 2.8800 1.2375 
*I *26:d B *C 2.8800 1.2375 
*I *27:d B *C 3.2900 1.2375 
*I *28:d B *C 3.2900 1.2375 
*I *29:d B *C 3.7175 1.2375 
*I *30:d B *C 3.7175 1.2375 
*I *31:d B *C 4.1450 1.2375 
*I *32:d B *C 4.1450 1.2375 
*I *1:d B *C 4.5450 1.2375 
*I *3:d B *C 2.4700 1.2375 
*I *4:d B *C 0.3625 1.2375 
*I *5:d B *C 0.3625 1.2375 
*I *6:d B *C 0.7900 1.2375 
*I *7:d B *C 0.7900 1.2375 
*I *8:d B *C 1.2000 1.2375 
*I *9:d B *C 1.2000 1.2375 
*I *10:d B *C 1.6100 1.2375 
*I *11:d B *C 1.6100 1.2375 
*I *12:d B *C 2.0550 1.2375 
*I *13:d B *C 2.0550 1.2375 
*N *55:2 *C 4.4550 0.4350 
*N *55:24 *C 3.2900 0.4350 
*N *55:26 *C 1.9800 0.4350 

*CAP
0 *1:d 9.45561e-16
1 *62:d 2.13948e-16
2 *51:d 1.20552e-16
3 *47:d 1.43703e-16
4 *18:d 2.1956e-16
5 *55 4.25282e-17

*RES
0 *55:2 *55 0.511451  // $metal1_conn
1 *55 *1:d 0.01441  // $metal1_conn
2 *47:d *55:2 75  // $metal1_conn
3 *18:d *55:24 75  // $metal1_conn
4 *62:d *55:26 75  // $metal1_conn
5 *55:26 *51:d 75.853172  // $metal1_conn
6 *55:2 *55:24 0.866244  // $metal1_conn
7 *55:24 *55:26 0.978258  // $metal1_conn

*END

*D_NET *46 3.43879e-18

*CONN
*I *25:s B *C 4.3000 0.5125 
*I *47:s B *C 4.3000 0.5125 

*CAP
0 *25:s 3.43879e-18

*RES
0 *47:s *25:s 0.001  // $mwires

*END

*D_NET *45 6.86471e-18

*CONN
*I *23:d B *C 4.1450 0.5125 
*I *25:d B *C 4.1450 0.5125 

*CAP
0 *23:d 6.86471e-18

*RES
0 *25:d *23:d 0.001  // $mwires

*END

*D_NET *44 6.50427e-18

*CONN
*I *20:s B *C 3.6875 0.5125 
*I *21:d B *C 3.6875 0.5125 

*CAP
0 *20:s 6.50427e-18

*RES
0 *21:d *20:s 0.001  // $mwires

*END

*D_NET *43 6.94449e-18

*CONN
*I *19:s B *C 3.4950 0.5125 
*I *20:d B *C 3.4950 0.5125 

*CAP
0 *19:s 6.94449e-18

*RES
0 *20:d *19:s 0.001  // $mwires

*END

*D_NET *42 9.46635e-18

*CONN
*I *17:s B *C 3.0650 0.5125 
*I *18:s B *C 3.0650 0.5125 

*CAP
0 *17:s 9.46635e-18

*RES
0 *18:s *17:s 0.001  // $mwires

*END

*D_NET *40 2.77099e-18

*CONN
*I *16:d B *C 2.8900 0.5125 
*I *17:d B *C 2.8900 0.5125 

*CAP
0 *16:d 2.77099e-18

*RES
0 *17:d *16:d 0.001  // $mwires

*END

*D_NET *38 7.32065e-18

*CONN
*I *15:d B *C 2.4700 0.5125 
*I *48:s B *C 2.4700 0.5125 

*CAP
0 *15:d 7.32065e-18

*RES
0 *48:s *15:d 0.001  // $mwires

*END

*D_NET *36 1.07052e-17

*CONN
*I *48:d B *C 2.2250 0.5125 
*I *2:s B *C 2.2250 0.5125 

*CAP
0 *48:d 1.07052e-17

*RES
0 *2:s *48:d 0.001  // $mwires

*END

*D_NET *35 5.54197e-18

*CONN
*I *60:s B *C 1.7950 0.5125 
*I *62:s B *C 1.7950 0.5125 

*CAP
0 *60:s 5.54197e-18

*RES
0 *62:s *60:s 0.001  // $mwires

*END

*D_NET *34 8.79848e-18

*CONN
*I *58:d B *C 1.5900 0.5125 
*I *60:d B *C 1.5900 0.5125 

*CAP
0 *58:d 8.79848e-18

*RES
0 *60:d *58:d 0.001  // $mwires

*END

*D_NET *33 2.74606e-18

*CONN
*I *54:s B *C 1.1500 0.5125 
*I *56:d B *C 1.1500 0.5125 

*CAP
0 *54:s 2.74606e-18

*RES
0 *56:d *54:s 0.001  // $mwires

*END

*D_NET *61 5.23861e-18

*CONN
*I *52:s B *C 1.0175 0.5125 
*I *54:d B *C 1.0175 0.5125 

*CAP
0 *52:s 5.23861e-18

*RES
0 *54:d *52:s 0.001  // $mwires

*END

*D_NET *59 0

*CONN
*I *50:s B *C 0.6075 0.5125 
*I *51:s B *C 0.6075 0.5125 


*RES
0 *51:s *50:s 0.001  // $mwires

*END

*D_NET *57 0

*CONN
*I *49:d B *C 0.4300 0.5125 
*I *50:d B *C 0.4300 0.5125 


*RES
0 *50:d *49:d 0.001  // $mwires

*END

