*SPEF "IEEE 1481-1999"
*DESIGN  "NAND2XL"
*DATE "Mon Sep 27 10:09:49 2010"
*VENDOR "Cadence Design Systems"
*PROGRAM "Assura RCX"
*VERSION "3.2 Red Hat Linux release 7.2 (Enigma) - (09/09/2009-10:39)"
*DESIGN_FLOW "Physical Verification"
*DIVIDER /
*DELIMITER :
*BUS_DELIMITER []
*T_UNIT 1 PS
*C_UNIT 1e15 FF
*R_UNIT 1 OHM
*L_UNIT 1 MH
// DeviceFingerDelim "@"
// MATCHED
// caps2d version: 10

*NAME_MAP
*1 A
*2 VDD
*3 B
*4 mn0
*5 n0
*6 mp0
*7 mn1
*8 mp1
*9 VSS
*10 Y

*GROUND_NETS VSS

*PORTS
*2 I
*9 I
*1 I
*3 I
*10 O

*D_NET *2 7.69243e-17

*CONN
*P *2 I *C 0.1000 1.7100 
*I *6:s B *C 0.1425 1.4400 
*I *8:s B *C 0.5175 1.2575 
*N *2:2 *C 0.3000 1.7100 
*N *2:3 *C 0.3000 1.7100 

*CAP
0 *8:s 2.05307e-17
1 *6:s 2.91165e-18
2 *2:2 5.2587e-17
3 *2 8.94882e-19

*RES
0 *8:s *2:3 62.265232  // $metal1_conn
1 *2:3 *2 0.09998  // $metal1_conn
2 *2 *6:s 62.16901  // $metal1_conn
3 *2:2 *2:3 25  // $metal1_conn

*END

*D_NET *9 0

*CONN
*P *9 I *C 0.1000 0.0000 
*I *4:s B *C 0.1450 0.4925 
*N *9:1 *C 0.3000 0.0000 
*N *9:2 *C 0.1350 0.0000 


*RES
0 *9:1 *9:2 20.748913  // $metal1_conn
1 *9:2 *9 0.017038  // $metal1_conn
2 *9:2 *4:s 75.298119  // $metal1_conn

*END

*D_NET *1 1.72272e-16

*CONN
*P *1 I *C 0.1450 0.7600 
*I *4:g B *C 0.2375 0.4925 
*I *6:g B *C 0.1975 1.1225 
*N *1:2 *C 0.2100 0.7000 
*N *1:4 *C 0.1455 0.7300 
*N *1:5 *C 0.2100 0.7000 
*N *1:6 *C 0.2100 0.7300 

*CAP
0 *6:g 3.79022e-17
1 *4:g 3.91201e-17
2 *1:6 2.68286e-17
3 *1:2 4.83938e-17
4 *1 2.00268e-17

*RES
0 *4:g *1:2 23.808931  // $poly_conn
1 *1:2 *6:g 69.962776  // $poly_conn
2 *1:4 *1 0.013643  // $metal1_conn
3 *1:5 *1:6 0.013643  // $metal1_conn
4 *1:4 *1:6 0.022489  // $metal1_conn
5 *1:2 *1:5 45  // $metal1_conn

*END

*D_NET *3 1.99957e-16

*CONN
*P *3 I *C 0.3150 0.9200 
*I *7:g B *C 0.3425 0.4925 
*I *8:g B *C 0.4025 1.1225 
*N *3:2 *C 0.3700 0.8150 

*CAP
0 *8:g 2.77662e-17
1 *7:g 4.70836e-17
2 *3:2 8.9252e-17
3 *3 3.58552e-17

*RES
0 *8:g *3:2 40.475597  // $poly_conn
1 *3:2 *7:g 53.296108  // $poly_conn
2 *3:2 *3 45.092793  // $metal1_conn

*END

*D_NET *10 1.47753e-16

*CONN
*P *10 O *C 0.4800 0.6000 
*I *7:d B *C 0.4350 0.4925 
*I *6:d B *C 0.3000 1.1225 
*I *8:d B *C 0.3000 1.1225 

*CAP
0 *6:d 6.28297e-17
1 *7:d 2.27959e-17
2 *10 6.21269e-17

*RES
0 *7:d *10 75.067032  // $metal1_conn
1 *10 *6:d 62.528652  // $metal1_conn

*END

*D_NET *5 0

*CONN
*I *4:d B *C 0.2900 0.4925 
*I *7:s B *C 0.2900 0.4925 


*RES
0 *7:s *4:d 0.001  // $mwires

*END

