*SPEF "IEEE 1481-1999"
*DESIGN  "NAND2X6"
*DATE "Mon Sep 27 10:09:03 2010"
*VENDOR "Cadence Design Systems"
*PROGRAM "Assura RCX"
*VERSION "3.2 Red Hat Linux release 7.2 (Enigma) - (09/09/2009-10:39)"
*DESIGN_FLOW "Physical Verification"
*DIVIDER /
*DELIMITER :
*BUS_DELIMITER []
*T_UNIT 1 PS
*C_UNIT 1e15 FF
*R_UNIT 1 OHM
*L_UNIT 1 MH
// DeviceFingerDelim "@"
// MATCHED
// caps2d version: 10

*NAME_MAP
*1 VDD
*2 mn0
*3 mn1
*4 mn1\@1
*5 mn0\@1
*6 mn0\@2
*7 VSS
*8 mp0\@4
*9 mn1\@2
*10 mp0\@5
*11 mn1\@3
*12 mp1\@5
*13 mn0\@3
*14 mn0\@4
*15 A
*16 B
*17 n0\@4
*18 n0
*19 n0\@1
*20 Y
*21 n0\@2
*22 mp1
*23 n0\@3
*24 mp0
*25 mp0\@1
*26 mp1\@1
*27 mp1\@2
*28 mp0\@2
*29 mp0\@3
*30 mp1\@3
*31 mp1\@4
*32 mn1\@4

*GROUND_NETS VSS

*PORTS
*1 I
*7 I
*15 I
*16 I
*20 O

*D_NET *1 5.61875e-16

*CONN
*P *1 I *C 0.1000 1.7100 
*I *22:s B *C 1.3400 1.1500 
*I *24:s B *C 1.7500 1.1500 
*I *25:s B *C 1.7500 1.1500 
*I *26:s B *C 2.1600 1.1500 
*I *27:s B *C 2.1600 1.1500 
*I *28:s B *C 2.5600 1.1500 
*I *29:s B *C 0.1100 1.1500 
*I *30:s B *C 0.5100 1.1500 
*I *31:s B *C 0.5100 1.1500 
*I *8:s B *C 0.9300 1.1500 
*I *10:s B *C 0.9300 1.1500 
*I *12:s B *C 1.3400 1.1500 

*CAP
0 *1 5.61875e-16


*END

*D_NET *7 0

*CONN
*P *7 I *C 0.1000 0.0000 
*I *2:s B *C 0.2100 0.4600 
*I *5:s B *C 0.9900 0.4600 
*I *6:s B *C 0.9900 0.4600 
*I *13:s B *C 1.8650 0.4600 
*I *14:s B *C 1.8650 0.4600 
*N *7:1 *C 2.0000 0.0000 
*N *7:2 *C 1.7800 0.0000 
*N *7:3 *C 0.9050 0.0000 
*N *7:4 *C 0.7000 0.0000 
*N *7:5 *C 0.2000 0.0000 


*RES
0 *7:1 *7:2 10.442641  // $metal1_conn
1 *7:2 *7:3 0.437017  // $metal1_conn
2 *7:3 *7:4 0.101777  // $metal1_conn
3 *7:4 *7:5 0.250839  // $metal1_conn
4 *7:5 *7 0.04976  // $metal1_conn
5 *7:2 *13:s 37.628864  // $metal1_conn
6 *7:3 *5:s 37.628864  // $metal1_conn
7 *7:5 *2:s 37.784321  // $metal1_conn
8 *7:1 *7:4 8.857142  // $metal1_conn

*END

*D_NET *15 1.15749e-15

*CONN
*P *15 I *C 0.3700 0.6650 
*I *2:g B *C 0.3025 0.4600 
*I *5:g B *C 0.7725 0.4600 
*I *6:g B *C 1.0375 0.4600 
*I *13:g B *C 1.6475 0.4600 
*I *14:g B *C 1.9125 0.4600 
*I *24:g B *C 1.6475 1.1500 
*I *25:g B *C 1.8525 1.1500 
*I *28:g B *C 2.4675 1.1500 
*I *29:g B *C 0.2025 1.1500 
*I *8:g B *C 0.8275 1.1500 
*I *10:g B *C 1.0325 1.1500 

*CAP
0 *28:g 9.20805e-16
1 *14:g 5.30713e-17
2 *13:g 5.22727e-17
3 *6:g 2.33224e-17
4 *5:g 4.24569e-17
5 *2:g 5.36049e-17
6 *15 1.19523e-17

*RES
0 *14:g *28:g 23.097748  // $poly_conn
1 *28:g *13:g 20.563484  // $poly_conn
2 *6:g *28:g 22.730263  // $poly_conn
3 *28:g *5:g 23.14319  // $poly_conn
4 *2:g *28:g 21.096775  // $poly_conn
5 *28:g *15 0.012056  // $metal1_conn

*END

*D_NET *16 1.04794e-15

*CONN
*P *16 I *C 1.9700 0.8550 
*I *3:g B *C 0.4075 0.4600 
*I *4:g B *C 0.6425 0.4600 
*I *9:g B *C 1.3375 0.4600 
*I *11:g B *C 1.5425 0.4600 
*I *32:g B *C 2.0175 0.4600 
*I *22:g B *C 1.4425 1.1500 
*I *26:g B *C 2.0575 1.1500 
*I *27:g B *C 2.2625 1.1500 
*I *30:g B *C 0.4075 1.1500 
*I *31:g B *C 0.6125 1.1500 
*I *12:g B *C 1.2375 1.1500 

*CAP
0 *32:g 6.66292e-17
1 *11:g 6.26793e-17
2 *9:g 2.58981e-17
3 *4:g 4.82084e-17
4 *3:g 5.81521e-17
5 *16 7.86371e-16

*RES
0 *16 *32:g 49.488552  // $poly_conn
1 *11:g *16 60.686401  // $poly_conn
2 *16 *9:g 49.488552  // $poly_conn
3 *4:g *16 54.629547  // $poly_conn
4 *16 *3:g 51.834118  // $poly_conn

*END

*D_NET *20 1.12337e-15

*CONN
*P *20 O *C 2.5700 1.0050 
*I *3:d B *C 0.5250 0.4600 
*I *4:d B *C 0.5250 0.4600 
*I *9:d B *C 1.4400 0.4600 
*I *11:d B *C 1.4400 0.4600 
*I *32:d B *C 2.1100 0.4600 
*I *22:d B *C 1.5450 1.1500 
*I *24:d B *C 1.5450 1.1500 
*I *25:d B *C 1.9550 1.1500 
*I *26:d B *C 1.9550 1.1500 
*I *27:d B *C 2.3650 1.1500 
*I *28:d B *C 2.3650 1.1500 
*I *29:d B *C 0.3050 1.1500 
*I *30:d B *C 0.3050 1.1500 
*I *31:d B *C 0.7200 1.1500 
*I *8:d B *C 0.7200 1.1500 
*I *10:d B *C 1.1350 1.1500 
*I *12:d B *C 1.1350 1.1500 
*N *20:8 *C 2.1200 0.5250 
*N *20:14 *C 1.4400 0.5250 

*CAP
0 *27:d 6.50816e-16
1 *32:d 1.71196e-17
2 *9:d 2.27048e-17
3 *3:d 1.15637e-16
4 *20:14 1.15169e-16
5 *20:8 1.15807e-16
6 *20 8.61142e-17

*RES
0 *27:d *20 0.166714  // $metal1_conn
1 *20 *20:8 0.638333  // $metal1_conn
2 *20:8 *32:d 37.548252  // $metal1_conn
3 *20:14 *9:d 37.548252  // $metal1_conn
4 *20:14 *3:d 38.189983  // $metal1_conn
5 *20:8 *20:14 0.548257  // $metal1_conn

*END

*D_NET *17 1.79953e-18

*CONN
*I *14:d B *C 1.9650 0.4600 
*I *32:s B *C 1.9650 0.4600 

*CAP
0 *14:d 1.79953e-18

*RES
0 *32:s *14:d 0.001  // $mwires

*END

*D_NET *23 1.83897e-18

*CONN
*I *11:s B *C 1.5950 0.4600 
*I *13:d B *C 1.5950 0.4600 

*CAP
0 *11:s 1.83897e-18

*RES
0 *13:d *11:s 0.001  // $mwires

*END

*D_NET *21 7.99838e-18

*CONN
*I *6:d B *C 1.1875 0.4600 
*I *9:s B *C 1.1875 0.4600 

*CAP
0 *6:d 7.99838e-18

*RES
0 *9:s *6:d 0.001  // $mwires

*END

*D_NET *19 2.54934e-18

*CONN
*I *4:s B *C 0.7075 0.4600 
*I *5:d B *C 0.7075 0.4600 

*CAP
0 *4:s 2.54934e-18

*RES
0 *5:d *4:s 0.001  // $mwires

*END

*D_NET *18 5.34878e-18

*CONN
*I *2:d B *C 0.3550 0.4600 
*I *3:s B *C 0.3550 0.4600 

*CAP
0 *2:d 5.34878e-18

*RES
0 *3:s *2:d 0.001  // $mwires

*END

