*SPEF "IEEE 1481-1999"
*DESIGN  "NAND2X4"
*DATE "Mon Sep 27 10:08:40 2010"
*VENDOR "Cadence Design Systems"
*PROGRAM "Assura RCX"
*VERSION "3.2 Red Hat Linux release 7.2 (Enigma) - (09/09/2009-10:39)"
*DESIGN_FLOW "Physical Verification"
*DIVIDER /
*DELIMITER :
*BUS_DELIMITER []
*T_UNIT 1 PS
*C_UNIT 1e15 FF
*R_UNIT 1 OHM
*L_UNIT 1 MH
// DeviceFingerDelim "@"
// MATCHED
// caps2d version: 10

*NAME_MAP
*1 mp1
*2 mn0\@3
*3 mp1\@1
*4 mp0\@1
*5 VDD
*6 mp0\@2
*7 mp1\@2
*8 mp1\@3
*9 mp0\@3
*10 Y
*11 n0
*12 n0\@1
*13 n0\@2
*14 n0\@3
*15 A
*16 B
*17 VSS
*18 mn0
*19 mn1
*20 mn1\@1
*21 mn0\@1
*22 mn0\@2
*23 mn1\@2
*24 mp0
*25 mn1\@3

*GROUND_NETS VSS

*PORTS
*5 I
*17 I
*15 I
*16 I
*10 O

*D_NET *5 3.81919e-16

*CONN
*P *5 I *C 0.1000 1.7100 
*I *24:s B *C 0.1100 1.1500 
*I *1:s B *C 0.5100 1.1500 
*I *3:s B *C 0.5100 1.1500 
*I *4:s B *C 0.9200 1.1500 
*I *6:s B *C 0.9200 1.1500 
*I *7:s B *C 1.3300 1.1500 
*I *8:s B *C 1.3300 1.1500 
*I *9:s B *C 1.7300 1.1500 
*N *5:3 *C 0.9000 1.7100 

*CAP
0 *5:3 8.46067e-17
1 *5 2.97312e-16

*RES
0 *5:3 *5 8.333333  // $metal1_conn

*END

*D_NET *17 0

*CONN
*P *17 I *C 0.1000 0.0000 
*I *18:s B *C 0.3250 0.4350 
*I *21:s B *C 0.9350 0.4350 
*I *22:s B *C 0.9350 0.4350 
*I *2:s B *C 1.5850 0.3725 
*N *17:2 *C 0.9000 0.0000 
*N *17:3 *C 0.9000 0.0000 
*N *17:4 *C 0.3150 0.0000 


*RES
0 *2:s *17:3 38.061302  // $metal1_conn
1 *17:3 *17:4 0.293367  // $metal1_conn
2 *17:4 *17 0.107581  // $metal1_conn
3 *17:3 *21:s 75.240005  // $metal1_conn
4 *17:4 *18:s 37.766323  // $metal1_conn
5 *17:2 *17:3 6.888889  // $metal1_conn

*END

*D_NET *15 8.53864e-16

*CONN
*P *15 I *C 0.2350 0.6650 
*I *18:g B *C 0.4175 0.4350 
*I *21:g B *C 0.8325 0.4350 
*I *22:g B *C 1.0375 0.4350 
*I *2:g B *C 1.4525 0.4350 
*I *24:g B *C 0.2025 1.1500 
*I *4:g B *C 0.8175 1.1500 
*I *6:g B *C 1.0225 1.1500 
*I *9:g B *C 1.6375 1.1500 

*CAP
0 *2:g 4.8257e-17
1 *22:g 4.75955e-17
2 *21:g 6.02066e-17
3 *18:g 6.9915e-17
4 *15 6.2789e-16

*RES
0 *15 *2:g 19.094141  // $poly_conn
1 *22:g *15 18.922449  // $poly_conn
2 *15 *21:g 53.166885  // $poly_conn
3 *18:g *15 57.677101  // $poly_conn

*END

*D_NET *16 6.87141e-16

*CONN
*P *16 I *C 1.0350 0.8350 
*I *19:g B *C 0.5225 0.4350 
*I *20:g B *C 0.7275 0.4350 
*I *23:g B *C 1.1425 0.4350 
*I *25:g B *C 1.3475 0.4350 
*I *1:g B *C 0.4075 1.1500 
*I *3:g B *C 0.6125 1.1500 
*I *7:g B *C 1.2275 1.1500 
*I *8:g B *C 1.4325 1.1500 
*N *16:2 *C 0.6400 0.7525 
*N *16:10 *C 1.1700 0.7525 

*CAP
0 *25:g 6.07276e-17
1 *23:g 5.31276e-17
2 *20:g 5.37323e-17
3 *19:g 5.79738e-17
4 *16:10 3.621e-17
5 *16:2 3.05661e-17
6 *16 3.94803e-16

*RES
0 *16:10 *25:g 77.861481  // $poly_conn
1 *16:10 *23:g 44.914051  // $poly_conn
2 *20:g *16:2 61.84412  // $poly_conn
3 *16:2 *19:g 69.53643  // $poly_conn
4 *16 *16:10 7.028393  // $poly_conn
5 *16:2 *16 4.422033  // $poly_conn

*END

*D_NET *10 7.63426e-16

*CONN
*P *10 O *C 1.6550 0.8550 
*I *19:d B *C 0.6250 0.4350 
*I *20:d B *C 0.6250 0.4350 
*I *23:d B *C 1.2450 0.4350 
*I *25:d B *C 1.2450 0.4350 
*I *24:d B *C 0.3050 1.1500 
*I *1:d B *C 0.3050 1.1500 
*I *3:d B *C 0.7150 1.1500 
*I *4:d B *C 0.7150 1.1500 
*I *6:d B *C 1.1250 1.1500 
*I *7:d B *C 1.1250 1.1500 
*I *8:d B *C 1.5350 1.1500 
*I *9:d B *C 1.5350 1.1500 
*N *10:8 *C 1.2450 0.5625 

*CAP
0 *8:d 4.45689e-16
1 *23:d 2.63377e-17
2 *19:d 1.07763e-16
3 *10:8 1.24889e-16
4 *10 5.87476e-17

*RES
0 *8:d *10 0.159718  // $metal1_conn
1 *10 *10:8 0.478553  // $metal1_conn
2 *10:8 *23:d 37.569668  // $metal1_conn
3 *10:8 *19:d 37.98455  // $metal1_conn

*END

*D_NET *14 1.36339e-18

*CONN
*I *25:s B *C 1.4000 0.4350 
*I *2:d B *C 1.4000 0.4350 

*CAP
0 *25:s 1.36339e-18

*RES
0 *2:d *25:s 0.001  // $mwires

*END

*D_NET *13 1.36339e-18

*CONN
*I *22:d B *C 1.0900 0.4350 
*I *23:s B *C 1.0900 0.4350 

*CAP
0 *22:d 1.36339e-18

*RES
0 *23:s *22:d 0.001  // $mwires

*END

*D_NET *12 1.36339e-18

*CONN
*I *20:s B *C 0.7800 0.4350 
*I *21:d B *C 0.7800 0.4350 

*CAP
0 *20:s 1.36339e-18

*RES
0 *21:d *20:s 0.001  // $mwires

*END

*D_NET *11 0

*CONN
*I *18:d B *C 0.4700 0.4350 
*I *19:s B *C 0.4700 0.4350 


*RES
0 *19:s *18:d 0.001  // $mwires

*END

