*SPEF "IEEE 1481-1999"
*DESIGN  "NAND4BX2"
*DATE "Mon Sep 27 10:15:49 2010"
*VENDOR "Cadence Design Systems"
*PROGRAM "Assura RCX"
*VERSION "3.2 Red Hat Linux release 7.2 (Enigma) - (09/09/2009-10:39)"
*DESIGN_FLOW "Physical Verification"
*DIVIDER /
*DELIMITER :
*BUS_DELIMITER []
*T_UNIT 1 PS
*C_UNIT 1e15 FF
*R_UNIT 1 OHM
*L_UNIT 1 MH
// DeviceFingerDelim "@"
// MATCHED
// caps2d version: 10

*NAME_MAP
*1 mp1
*2 mp1\@1
*3 mp2
*4 mp2\@1
*5 mp3
*6 mp3\@1
*7 mp4
*8 mp4\@1
*9 mn0
*10 mn1
*11 AN
*12 mn1\@1
*13 mn2
*14 mn2\@1
*15 mn3
*16 mn3\@1
*17 mn4
*18 mn4\@1
*19 B
*20 C
*21 D
*22 net118
*23 VSS
*24 net126
*25 net122
*26 net130
*27 VDD
*28 Y
*29 mp0

*GROUND_NETS VSS

*PORTS
*27 I
*23 I
*11 I
*19 I
*20 I
*21 I
*28 O

*D_NET *27 4.05846e-16

*CONN
*P *27 I *C 0.1000 1.7100 
*I *29:s B *C 0.1450 1.0075 
*I *1:s B *C 0.7400 1.2000 
*I *2:s B *C 1.1200 1.2000 
*I *3:s B *C 1.1200 1.2000 
*I *4:s B *C 1.5300 1.2000 
*I *5:s B *C 1.5300 1.2000 
*I *6:s B *C 1.9400 1.2000 
*I *7:s B *C 1.9400 1.2000 
*I *8:s B *C 2.3400 1.2000 
*N *27:2 *C 2.0000 1.7100 
*N *27:8 *C 0.1350 1.7100 

*CAP
0 *8:s 2.60708e-16
1 *29:s 1.91056e-17
2 *27:8 6.81083e-18
3 *27:2 1.17713e-16
4 *27 1.50865e-18

*RES
0 *27:8 *27 0.017111  // $metal1_conn
1 *27:2 *8:s 12.5  // $metal1_conn
2 *27:2 *8:s 10.714286  // $metal1_conn
3 *27:8 *29:s 62.420078  // $metal1_conn
4 *8:s *27:8 0.283489  // $metal1_conn

*END

*D_NET *23 0

*CONN
*P *23 I *C 0.1000 0.0000 
*I *9:s B *C 0.1900 0.5875 
*I *10:s B *C 0.8150 0.3850 
*I *12:s B *C 0.8150 0.3850 
*N *23:1 *C 2.0000 0.0000 
*N *23:2 *C 0.8150 0.0000 
*N *23:3 *C 0.7000 0.0000 
*N *23:4 *C 0.1750 0.0000 


*RES
0 *23:4 *23 0.037177  // $metal1_conn
1 *23:1 *23:2 10.927692  // $metal1_conn
2 *23:1 *23:3 8.857142  // $metal1_conn
3 *23:2 *10:s 75.200783  // $metal1_conn
4 *23:4 *9:s 75.074944  // $metal1_conn
5 *23:2 *23:3 0.057503  // $metal1_conn
6 *23:3 *23:4 0.263214  // $metal1_conn

*END

*D_NET *11 1.34278e-16

*CONN
*P *11 I *C 0.3000 0.8550 
*I *9:g B *C 0.2375 0.5875 
*I *29:g B *C 0.2375 1.0075 
*N *11:2 *C 0.2000 0.7600 

*CAP
0 *29:g 2.36268e-17
1 *9:g 1.6995e-17
2 *11:2 5.13378e-17
3 *11 4.23187e-17

*RES
0 *29:g *11:2 26.411629  // $poly_conn
1 *11:2 *9:g 16.15522  // $poly_conn
2 *11 *11:2 45.09087  // $metal1_conn

*END

*D_NET *19 2.82183e-16

*CONN
*P *19 I *C 1.5000 0.8550 
*I *13:g B *C 1.1225 0.3850 
*I *14:g B *C 1.3425 0.3850 
*I *3:g B *C 1.2225 1.2000 
*I *4:g B *C 1.4275 1.2000 
*N *19:7 *C 1.4000 0.8700 

*CAP
0 *4:g 1.42964e-16
1 *13:g 8.39842e-17
2 *19 5.52339e-17

*RES
0 *4:g *13:g 54.067181  // $poly_conn
1 *19:7 *19 0.031809  // $metal1_conn
2 *4:g *19:7 45  // $metal1_conn

*END

*D_NET *20 3.12442e-16

*CONN
*P *20 I *C 1.9000 0.8550 
*I *15:g B *C 1.7825 0.4150 
*I *16:g B *C 1.9875 0.4150 
*I *5:g B *C 1.6325 1.2000 
*I *6:g B *C 1.8375 1.2000 
*N *20:7 *C 1.7450 0.8675 
*N *20:8 *C 1.7450 0.8800 
*N *20:9 *C 1.9005 0.8675 

*CAP
0 *6:g 9.56496e-17
1 *15:g 8.50773e-17
2 *20:9 6.69337e-17
3 *20:7 6.47812e-17

*RES
0 *15:g *6:g 49.87685  // $poly_conn
1 *20 *20:9 0.002116  // $metal1_conn
2 *6:g *20:8 45  // $metal1_conn
3 *20:7 *20:8 0.002116  // $metal1_conn
4 *20:7 *20:9 0.049217  // $metal1_conn

*END

*D_NET *21 2.43858e-16

*CONN
*P *21 I *C 2.3000 0.8550 
*I *17:g B *C 2.1925 0.4150 
*I *18:g B *C 2.3975 0.4150 
*I *7:g B *C 2.0425 1.2000 
*I *8:g B *C 2.2475 1.2000 
*N *21:7 *C 2.2200 0.8450 

*CAP
0 *8:g 1.17972e-16
1 *17:g 7.09953e-17
2 *21 5.48912e-17

*RES
0 *17:g *8:g 18.645283  // $poly_conn
1 *21:7 *21 0.029763  // $metal1_conn
2 *8:g *21:7 45  // $metal1_conn

*END

*D_NET *28 6.34142e-16

*CONN
*P *28 O *C 1.3000 1.2350 
*I *17:d B *C 2.2950 0.4150 
*I *18:d B *C 2.2950 0.4150 
*I *1:d B *C 0.9150 1.2000 
*I *2:d B *C 0.9150 1.2000 
*I *3:d B *C 1.3250 1.2000 
*I *4:d B *C 1.3250 1.2000 
*I *5:d B *C 1.7350 1.2000 
*I *6:d B *C 1.7350 1.2000 
*I *7:d B *C 2.1450 1.2000 
*I *8:d B *C 2.1450 1.2000 
*N *28:2 *C 1.7350 1.1450 
*N *28:3 *C 1.3075 1.1450 
*N *28:4 *C 1.2100 1.1450 

*CAP
0 *7:d 7.9464e-17
1 *5:d 3.50002e-17
2 *3:d 3.92899e-17
3 *1:d 5.12693e-17
4 *17:d 1.86548e-16
5 *28:4 1.43901e-16
6 *28:3 3.20473e-17
7 *28:2 6.66222e-17

*RES
0 *28 *3:d 31.011116  // $metal1_conn
1 *28:3 *28 0.033348  // $metal1_conn
2 *7:d *28:2 31.3801  // $metal1_conn
3 *28:2 *5:d 31.059706  // $metal1_conn
4 *28:4 *1:d 31.283957  // $metal1_conn
5 *28:4 *17:d 76.241257  // $metal1_conn
6 *28:2 *28:3 0.338019  // $metal1_conn
7 *28:3 *28:4 0.092664  // $metal1_conn

*END

*D_NET *26 1.71403e-16

*CONN
*I *15:d B *C 1.6825 0.4150 
*I *16:d B *C 2.0900 0.4150 
*I *17:s B *C 2.0900 0.4150 
*I *18:s B *C 2.4900 0.4150 

*CAP
0 *18:s 1.71403e-16


*END

*D_NET *25 1.83752e-16

*CONN
*I *10:d B *C 0.6200 0.3850 
*I *12:d B *C 1.0200 0.3850 
*I *13:s B *C 1.0200 0.3850 
*I *14:s B *C 1.4350 0.3850 

*CAP
0 *14:s 1.83752e-16


*END

*D_NET *24 2.26152e-16

*CONN
*I *13:d B *C 1.2325 0.3850 
*I *14:d B *C 1.2325 0.3850 
*I *15:s B *C 1.8850 0.4150 
*I *16:s B *C 1.8850 0.4150 

*CAP
0 *15:s 1.17538e-16
1 *13:d 1.08614e-16

*RES
0 *15:s *13:d 150.392395  // $metal1_conn

*END

*D_NET *22 2.52347e-16

*CONN
*I *9:d B *C 0.3550 0.5875 
*I *10:g B *C 0.7125 0.3850 
*I *12:g B *C 0.9175 0.3850 
*I *29:d B *C 0.4850 0.9600 
*I *1:g B *C 0.8125 1.2000 
*I *2:g B *C 1.0175 1.2000 
*N *22:3 *C 0.7400 0.8700 
*N *22:8 *C 0.5600 0.8600 

*CAP
0 *2:g 7.52519e-17
1 *29:d 7.79046e-18
2 *10:g 6.62267e-17
3 *9:d 4.54069e-17
4 *22:8 2.57059e-17
5 *22:3 3.1965e-17

*RES
0 *2:g *22:3 7.951931  // $poly_conn
1 *22:3 *10:g 24.581585  // $poly_conn
2 *22:3 *22:8 45.094421  // $metal1_conn
3 *22:8 *29:d 62.063805  // $metal1_conn
4 *22:8 *9:d 75.224922  // $metal1_conn

*END

