*SPEF "IEEE 1481-1999"
*DESIGN  "NAND3X1"
*DATE "Mon Sep 27 10:11:39 2010"
*VENDOR "Cadence Design Systems"
*PROGRAM "Assura RCX"
*VERSION "3.2 Red Hat Linux release 7.2 (Enigma) - (09/09/2009-10:39)"
*DESIGN_FLOW "Physical Verification"
*DIVIDER /
*DELIMITER :
*BUS_DELIMITER []
*T_UNIT 1 PS
*C_UNIT 1e15 FF
*R_UNIT 1 OHM
*L_UNIT 1 MH
// DeviceFingerDelim "@"
// MATCHED
// caps2d version: 10

*NAME_MAP
*1 mp1
*2 mn2
*3 VDD
*4 mp2
*5 n0
*6 Y
*7 n1
*8 A
*9 mn0
*10 B
*11 VSS
*12 mp0
*13 mn1
*14 C

*GROUND_NETS VSS

*PORTS
*3 I
*11 I
*8 I
*10 I
*14 I
*6 O

*D_NET *3 1.83561e-16

*CONN
*P *3 I *C 0.1000 1.7100 
*I *12:s B *C 0.1100 1.2850 
*I *1:s B *C 0.5100 1.2850 
*I *4:s B *C 0.5100 1.2850 
*N *3:2 *C 0.5000 1.7100 
*N *3:3 *C 0.5000 1.7100 

*CAP
0 *1:s 5.91418e-17
1 *12:s 3.43074e-17
2 *3:2 8.36443e-17
3 *3 6.46766e-18

*RES
0 *1:s *3:3 31.219555  // $metal1_conn
1 *3:3 *3 0.200447  // $metal1_conn
2 *3 *12:s 31.245945  // $metal1_conn
3 *3:2 *3:3 15  // $metal1_conn

*END

*D_NET *11 0

*CONN
*P *11 I *C 0.1000 0.0000 
*I *9:s B *C 0.1100 0.5100 
*N *11:1 *C 0.5000 0.0000 


*RES
0 *11:1 *11 12.600243  // $metal1_conn
1 *11 *9:s 37.821671  // $metal1_conn

*END

*D_NET *8 1.84612e-16

*CONN
*P *8 I *C 0.1500 1.0400 
*I *9:g B *C 0.2025 0.5100 
*I *12:g B *C 0.2025 1.2850 
*N *8:2 *C 0.1600 0.7500 

*CAP
0 *12:g 4.42518e-17
1 *9:g 2.9398e-17
2 *8:2 8.32523e-17
3 *8 2.77096e-17

*RES
0 *12:g *8:2 76.373032  // $poly_conn
1 *8:2 *9:g 17.398676  // $poly_conn
2 *8 *8:2 45.173363  // $metal1_conn

*END

*D_NET *10 2.54442e-16

*CONN
*P *10 I *C 0.3500 0.8800 
*I *13:g B *C 0.4075 0.5100 
*I *1:g B *C 0.4075 1.2850 
*N *10:2 *C 0.3800 0.7500 
*N *10:4 *C 0.3650 0.7500 
*N *10:5 *C 0.3800 0.7500 
*N *10:6 *C 0.3650 0.8800 

*CAP
0 *1:g 6.31935e-17
1 *13:g 5.31638e-17
2 *10:6 4.50111e-17
3 *10:4 4.32462e-17
4 *10:2 4.98271e-17

*RES
0 *1:g *10:2 78.666313  // $poly_conn
1 *10:2 *13:g 19.691952  // $poly_conn
2 *10:4 *10:5 0.002813  // $metal1_conn
3 *10 *10:6 0.002719  // $metal1_conn
4 *10:4 *10:6 0.071148  // $metal1_conn
5 *10:2 *10:5 45  // $metal1_conn

*END

*D_NET *14 2.42858e-16

*CONN
*P *14 I *C 0.5500 0.7200 
*I *2:g B *C 0.5225 0.5100 
*I *4:g B *C 0.6125 1.2850 
*N *14:2 *C 0.5600 0.7400 
*N *14:5 *C 0.5550 0.7400 

*CAP
0 *4:g 5.0279e-17
1 *2:g 4.78811e-17
2 *14:5 8.19923e-17
3 *14:2 3.85783e-17
4 *14 2.41275e-17

*RES
0 *4:g *14:2 85.228767  // $poly_conn
1 *14:2 *2:g 16.15522  // $poly_conn
2 *14 *14:5 0.0124  // $metal1_conn
3 *14:2 *14:5 45  // $metal1_conn

*END

*D_NET *6 2.42324e-16

*CONN
*P *6 O *C 0.7250 1.2000 
*I *2:d B *C 0.6150 0.5100 
*I *12:d B *C 0.3050 1.2850 
*I *1:d B *C 0.3050 1.2850 
*I *4:d B *C 0.7050 1.2850 
*N *6:2 *C 0.7150 1.1375 

*CAP
0 *4:d 3.58246e-17
1 *12:d 6.65077e-17
2 *2:d 6.53345e-17
3 *6:2 7.40543e-17
4 *6 6.02733e-19

*RES
0 *2:d *6:2 37.941132  // $metal1_conn
1 *6:2 *12:d 31.436691  // $metal1_conn
2 *6:2 *6 0.049701  // $metal1_conn
3 *6 *4:d 31.083693  // $metal1_conn

*END

*D_NET *7 0

*CONN
*I *9:d B *C 0.3050 0.5100 
*I *13:s B *C 0.3050 0.5100 


*RES
0 *13:s *9:d 0.001  // $mwires

*END

*D_NET *5 0

*CONN
*I *13:d B *C 0.4650 0.5100 
*I *2:s B *C 0.4650 0.5100 


*RES
0 *2:s *13:d 0.001  // $mwires

*END

