*SPEF "IEEE 1481-1999"
*DESIGN  "NAND4X2"
*DATE "Mon Sep 27 10:17:20 2010"
*VENDOR "Cadence Design Systems"
*PROGRAM "Assura RCX"
*VERSION "3.2 Red Hat Linux release 7.2 (Enigma) - (09/09/2009-10:39)"
*DESIGN_FLOW "Physical Verification"
*DIVIDER /
*DELIMITER :
*BUS_DELIMITER []
*T_UNIT 1 PS
*C_UNIT 1e15 FF
*R_UNIT 1 OHM
*L_UNIT 1 MH
// DeviceFingerDelim "@"
// MATCHED
// caps2d version: 10

*NAME_MAP
*1 mp1
*2 mn0\@1
*3 mp2
*4 mp3
*5 VDD
*6 mp3\@1
*7 n2\@2
*8 mp2\@1
*9 n2\@3
*10 mp1\@1
*11 n2\@4
*12 mp0\@1
*13 n2\@5
*14 Y
*15 n2
*16 n2\@1
*17 A
*18 B
*19 C
*20 VSS
*21 D
*22 mn0
*23 mn1
*24 mn2
*25 mn3
*26 mn3\@1
*27 mn2\@1
*28 mp0
*29 mn1\@1

*GROUND_NETS VSS

*PORTS
*5 I
*20 I
*17 I
*18 I
*19 I
*21 I
*14 O

*D_NET *5 3.7514e-16

*CONN
*P *5 I *C 0.1000 1.7100 
*I *28:s B *C 0.1475 1.2100 
*I *1:s B *C 0.6700 1.2100 
*I *3:s B *C 0.6700 1.2100 
*I *4:s B *C 1.1400 1.2100 
*I *6:s B *C 1.1400 1.2100 
*I *8:s B *C 1.6100 1.2100 
*I *10:s B *C 1.6100 1.2100 
*I *12:s B *C 2.0500 1.3225 
*N *5:6 *C 1.1000 1.7100 

*CAP
0 *4:s 2.4135e-17
1 *5:6 1.71134e-16
2 *5 1.79871e-16

*RES
0 *5:6 *5 6.818182  // $metal1_conn
1 *5 *4:s 62.09716  // $metal1_conn

*END

*D_NET *20 0

*CONN
*P *20 I *C 0.1000 0.0000 
*I *22:s B *C 0.2250 0.4050 
*I *2:s B *C 1.9550 0.4050 
*N *20:2 *C 0.2150 0.0000 
*N *20:3 *C 1.1000 0.0000 
*N *20:4 *C 1.1000 0.0000 


*RES
0 *22:s *20:2 75.204094  // $metal1_conn
1 *20:2 *20 0.056784  // $metal1_conn
2 *20:2 *20:4 0.442983  // $metal1_conn
3 *20:4 *2:s 75.653427  // $metal1_conn
4 *20:3 *20:4 5.636364  // $metal1_conn

*END

*D_NET *17 6.97057e-16

*CONN
*P *17 I *C 1.9000 1.0450 
*I *22:g B *C 0.3175 0.4050 
*I *2:g B *C 1.8625 0.4050 
*I *28:g B *C 0.2475 1.2100 
*I *12:g B *C 1.9175 1.2100 

*CAP
0 *2:g 3.82188e-17
1 *22:g 5.31105e-17
2 *17 6.05728e-16

*RES
0 *17 *2:g 79.948364  // $poly_conn
1 *22:g *17 76.786453  // $poly_conn

*END

*D_NET *18 6.03867e-16

*CONN
*P *18 I *C 0.5000 0.8550 
*I *23:g B *C 0.4525 0.4050 
*I *29:g B *C 1.6575 0.4050 
*I *1:g B *C 0.4525 1.2100 
*I *10:g B *C 1.6575 1.2100 

*CAP
0 *10:g 4.9209e-16
1 *29:g 5.14622e-17
2 *23:g 6.03153e-17

*RES
0 *10:g *29:g 86.35862  // $poly_conn
1 *10:g *23:g 76.102211  // $poly_conn
2 *10:g *18 0.006041  // $metal1_conn

*END

*D_NET *19 4.79194e-16

*CONN
*P *19 I *C 1.3000 0.6650 
*I *24:g B *C 0.7175 0.4050 
*I *27:g B *C 1.3925 0.4050 
*I *3:g B *C 0.7175 1.2100 
*I *8:g B *C 1.3925 1.2100 

*CAP
0 *8:g 3.7298e-16
1 *27:g 4.3497e-17
2 *24:g 4.08075e-17
3 *19 2.19091e-17

*RES
0 *8:g *27:g 29.94836  // $poly_conn
1 *8:g *24:g 68.409897  // $poly_conn
2 *19 *8:g 0.040091  // $metal1_conn

*END

*D_NET *21 2.90384e-16

*CONN
*P *21 I *C 0.9000 0.4750 
*I *25:g B *C 1.0275 0.4050 
*I *26:g B *C 1.2325 0.4050 
*I *4:g B *C 0.9225 1.2100 
*I *6:g B *C 1.1875 1.2100 
*N *21:2 *C 0.9900 0.6550 

*CAP
0 *6:g 1.09721e-16
1 *26:g 4.62543e-17
2 *25:g 1.72204e-17
3 *21:2 9.36895e-17
4 *21 2.34985e-17

*RES
0 *26:g *21:2 70.215561  // $poly_conn
1 *21:2 *25:g 21.283424  // $poly_conn
2 *21:2 *6:g 53.313755  // $poly_conn
3 *21:2 *21 45.153255  // $metal1_conn

*END

*D_NET *14 6.05612e-16

*CONN
*P *14 O *C 2.1000 1.2350 
*I *25:d B *C 1.1300 0.4050 
*I *26:d B *C 1.1300 0.4050 
*I *28:d B *C 0.3500 1.2100 
*I *1:d B *C 0.3500 1.2100 
*I *3:d B *C 0.8200 1.2100 
*I *4:d B *C 0.8200 1.2100 
*I *6:d B *C 1.2900 1.2100 
*I *8:d B *C 1.2900 1.2100 
*I *10:d B *C 1.7875 1.2100 
*I *12:d B *C 1.7875 1.2100 

*CAP
0 *10:d 3.46287e-16
1 *25:d 1.2379e-16
2 *14 1.35534e-16

*RES
0 *14 *25:d 76.204453  // $metal1_conn
1 *14 *10:d 0.255333  // $metal1_conn

*END

*D_NET *13 7.41479e-18

*CONN
*I *29:s B *C 1.7600 0.4050 
*I *2:d B *C 1.7600 0.4050 

*CAP
0 *29:s 7.41479e-18

*RES
0 *2:d *29:s 0.001  // $mwires

*END

*D_NET *11 7.42594e-18

*CONN
*I *27:d B *C 1.5250 0.4050 
*I *29:d B *C 1.5250 0.4050 

*CAP
0 *27:d 7.42594e-18

*RES
0 *29:d *27:d 0.001  // $mwires

*END

*D_NET *9 3.07807e-18

*CONN
*I *26:s B *C 1.3125 0.4050 
*I *27:s B *C 1.3125 0.4050 

*CAP
0 *26:s 3.07807e-18

*RES
0 *27:s *26:s 0.001  // $mwires

*END

*D_NET *7 7.73819e-18

*CONN
*I *24:d B *C 0.8725 0.4050 
*I *25:s B *C 0.8725 0.4050 

*CAP
0 *24:d 7.73819e-18

*RES
0 *25:s *24:d 0.001  // $mwires

*END

*D_NET *16 0

*CONN
*I *23:s B *C 0.5850 0.4050 
*I *24:s B *C 0.5850 0.4050 


*RES
0 *24:s *23:s 0.001  // $mwires

*END

*D_NET *15 0

*CONN
*I *22:d B *C 0.3850 0.4050 
*I *23:d B *C 0.3850 0.4050 


*RES
0 *23:d *22:d 0.001  // $mwires

*END

