*SPEF "IEEE 1481-1999"
*DESIGN  "NAND3XL"
*DATE "Mon Sep 27 10:13:31 2010"
*VENDOR "Cadence Design Systems"
*PROGRAM "Assura RCX"
*VERSION "3.2 Red Hat Linux release 7.2 (Enigma) - (09/09/2009-10:39)"
*DESIGN_FLOW "Physical Verification"
*DIVIDER /
*DELIMITER :
*BUS_DELIMITER []
*T_UNIT 1 PS
*C_UNIT 1e15 FF
*R_UNIT 1 OHM
*L_UNIT 1 MH
// DeviceFingerDelim "@"
// MATCHED
// caps2d version: 10

*NAME_MAP
*1 mp1
*2 mn2
*3 VDD
*4 mp2
*5 n0
*6 Y
*7 n1
*8 A
*9 mn0
*10 B
*11 VSS
*12 mp0
*13 mn1
*14 C

*GROUND_NETS VSS

*PORTS
*3 I
*11 I
*8 I
*10 I
*14 I
*6 O

*D_NET *3 1.29812e-16

*CONN
*P *3 I *C 0.1000 1.7100 
*I *12:s B *C 0.2700 1.1175 
*I *1:s B *C 0.7150 1.1175 
*I *4:s B *C 0.7150 1.1175 
*N *3:2 *C 0.5000 1.7100 
*N *3:3 *C 0.5000 1.7100 
*N *3:4 *C 0.2600 1.7100 

*CAP
0 *1:s 7.57256e-18
1 *12:s 3.35035e-17
2 *3:4 2.66324e-18
3 *3:2 8.13055e-17
4 *3 4.76703e-18

*RES
0 *1:s *3:3 62.15913  // $metal1_conn
1 *3:3 *3:4 0.12002  // $metal1_conn
2 *3:4 *3 0.079697  // $metal1_conn
3 *3:4 *12:s 62.342449  // $metal1_conn
4 *3:2 *3:3 15  // $metal1_conn

*END

*D_NET *11 0

*CONN
*P *11 I *C 0.1000 0.0000 
*I *9:s B *C 0.2700 0.5875 
*N *11:1 *C 0.5000 0.0000 
*N *11:2 *C 0.2600 0.0000 


*RES
0 *11:1 *11:2 12.52002  // $metal1_conn
1 *11:2 *11 0.079697  // $metal1_conn
2 *11:2 *9:s 75.368813  // $metal1_conn

*END

*D_NET *8 1.66121e-16

*CONN
*P *8 I *C 0.3000 0.8550 
*I *9:g B *C 0.3625 0.5875 
*I *12:g B *C 0.3625 1.1175 
*N *8:2 *C 0.3625 0.8500 
*N *8:3 *C 0.3100 0.8500 

*CAP
0 *12:g 2.77906e-17
1 *9:g 2.90596e-17
2 *8:3 1.09271e-16

*RES
0 *12:g *8:2 37.714603  // $poly_conn
1 *8:2 *8:3 45.361767  // $poly_conn
2 *8:2 *9:g 45.40691  // $poly_conn
3 *8:3 *8 0.001027  // $metal1_conn

*END

*D_NET *10 2.45722e-16

*CONN
*P *10 I *C 0.5000 0.4750 
*I *13:g B *C 0.5675 0.5875 
*I *1:g B *C 0.5675 1.1175 
*N *10:2 *C 0.5300 0.7600 

*CAP
0 *1:g 5.1994e-17
1 *13:g 3.52342e-17
2 *10:2 1.06066e-16
3 *10 5.24284e-17

*RES
0 *1:g *10:2 54.61676  // $poly_conn
1 *10:2 *13:g 16.15522  // $poly_conn
2 *10:2 *10 45.169151  // $metal1_conn

*END

*D_NET *14 2.28914e-16

*CONN
*P *14 I *C 0.7000 0.4750 
*I *2:g B *C 0.6875 0.5875 
*I *4:g B *C 0.7625 1.1175 
*N *14:2 *C 0.7250 0.8200 

*CAP
0 *4:g 4.19924e-17
1 *2:g 3.66537e-17
2 *14:2 9.26163e-17
3 *14 5.76514e-17

*RES
0 *4:g *14:2 41.502453  // $poly_conn
1 *14:2 *2:g 33.810146  // $poly_conn
2 *14 *14:2 45.205158  // $metal1_conn

*END

*D_NET *6 1.25728e-16

*CONN
*P *6 O *C 0.9000 1.0450 
*I *2:d B *C 0.8350 0.5875 
*I *12:d B *C 0.4650 1.1175 
*I *1:d B *C 0.4650 1.1175 
*I *4:d B *C 0.8675 1.1175 
*N *6:3 *C 0.8900 1.1650 

*CAP
0 *4:d 2.096e-17
1 *12:d 3.43773e-17
2 *2:d 4.8222e-17
3 *6 2.21691e-17

*RES
0 *2:d *6 75.291817  // $metal1_conn
1 *6 *6:3 0.071782  // $metal1_conn
2 *6:3 *12:d 62.277622  // $metal1_conn
3 *4:d *6:3 62  // $metal1_conn

*END

*D_NET *7 1.82219e-18

*CONN
*I *9:d B *C 0.4650 0.5875 
*I *13:s B *C 0.4650 0.5875 

*CAP
0 *9:d 1.82219e-18

*RES
0 *13:s *9:d 0.001  // $mwires

*END

*D_NET *5 3.97147e-20

*CONN
*I *13:d B *C 0.6275 0.5875 
*I *2:s B *C 0.6275 0.5875 

*CAP
0 *13:d 3.97147e-20

*RES
0 *2:s *13:d 0.001  // $mwires

*END

