*SPEF "IEEE 1481-1999"
*DESIGN  "NAND2BX1"
*DATE "Mon Sep 27 10:06:24 2010"
*VENDOR "Cadence Design Systems"
*PROGRAM "Assura RCX"
*VERSION "3.2 Red Hat Linux release 7.2 (Enigma) - (09/09/2009-10:39)"
*DESIGN_FLOW "Physical Verification"
*DIVIDER /
*DELIMITER :
*BUS_DELIMITER []
*T_UNIT 1 PS
*C_UNIT 1e15 FF
*R_UNIT 1 OHM
*L_UNIT 1 MH
// DeviceFingerDelim "@"
// MATCHED
// caps2d version: 10

*NAME_MAP
*1 mp1
*2 mn0
*3 VDD
*4 mp0
*5 n0
*6 n1
*7 Y
*8 AN
*9 mn2
*10 B
*11 VSS
*12 mp2
*13 mn1

*GROUND_NETS VSS

*PORTS
*3 I
*11 I
*8 I
*10 I
*7 O

*D_NET *3 1.36187e-16

*CONN
*P *3 I *C 0.1000 1.7100 
*I *12:s B *C 0.1500 1.5700 
*I *1:s B *C 0.5450 1.2075 
*I *4:s B *C 0.5450 1.2075 
*N *3:2 *C 0.4000 1.7100 
*N *3:3 *C 0.4000 1.7100 

*CAP
0 *1:s 4.582e-17
1 *12:s 5.96405e-18
2 *3:2 8.18167e-17
3 *3 2.58615e-18

*RES
0 *1:s *3:3 62.357609  // $metal1_conn
1 *3:3 *3 0.151059  // $metal1_conn
2 *3 *12:s 62.060284  // $metal1_conn
3 *3:2 *3:3 18.75  // $metal1_conn

*END

*D_NET *11 0

*CONN
*P *11 I *C 0.1000 0.0000 
*I *13:s B *C 0.5500 0.5675 
*I *2:s B *C 0.5500 0.5675 
*N *11:2 *C 0.4000 0.0000 
*N *11:3 *C 0.4000 0.0000 


*RES
0 *13:s *11:3 37.858406  // $metal1_conn
1 *11:3 *11 0.150194  // $metal1_conn
2 *11:2 *11:3 15.5  // $metal1_conn

*END

*D_NET *8 2.01924e-16

*CONN
*P *8 I *C 0.7200 0.8550 
*I *2:g B *C 0.5975 0.5675 
*I *4:g B *C 0.5975 1.2075 
*N *8:2 *C 0.6400 0.8650 

*CAP
0 *4:g 4.24138e-17
1 *2:g 3.4288e-17
2 *8:2 9.41827e-17
3 *8 3.1039e-17

*RES
0 *4:g *8:2 51.429501  // $poly_conn
1 *8:2 *2:g 49.727283  // $poly_conn
2 *8 *8:2 45.051586  // $metal1_conn

*END

*D_NET *10 1.83534e-16

*CONN
*P *10 I *C 0.0950 0.6650 
*I *9:g B *C 0.2575 0.5100 
*I *12:g B *C 0.1875 1.1200 
*N *10:2 *C 0.1875 0.7750 
*N *10:3 *C 0.1150 0.7750 
*N *10:5 *C 0.1050 0.6650 
*N *10:6 *C 0.1050 0.7750 

*CAP
0 *12:g 3.89472e-17
1 *9:g 5.41963e-17
2 *10:6 2.14047e-17
3 *10:5 3.088e-17
4 *10:2 2.82832e-17
5 *10:3 9.82238e-18

*RES
0 *9:g *10:2 38.134598  // $poly_conn
1 *10:2 *10:3 49.276802  // $poly_conn
2 *10:2 *12:g 26.564346  // $poly_conn
3 *10 *10:5 0.002797  // $metal1_conn
4 *10:6 *10:3 0.002944  // $metal1_conn
5 *10:5 *10:6 0.061394  // $metal1_conn

*END

*D_NET *7 1.74559e-16

*CONN
*P *7 O *C 0.2600 0.9750 
*I *9:d B *C 0.1850 0.5100 
*I *12:d B *C 0.2900 1.1200 
*I *1:d B *C 0.2900 1.1200 

*CAP
0 *12:d 3.87511e-17
1 *9:d 6.56996e-17
2 *7 7.01085e-17

*RES
0 *12:d *7 31.155252  // $metal1_conn
1 *7 *9:d 75.497765  // $metal1_conn

*END

*D_NET *6 1.56892e-18

*CONN
*I *9:s B *C 0.3100 0.5100 
*I *13:d B *C 0.3100 0.5100 

*CAP
0 *9:s 1.56892e-18

*RES
0 *13:d *9:s 0.001  // $mwires

*END

*D_NET *5 3.93818e-16

*CONN
*I *13:g B *C 0.3625 0.5100 
*I *2:d B *C 0.6900 0.5675 
*I *1:g B *C 0.3925 1.1200 
*I *4:d B *C 0.7400 1.2550 
*N *5:2 *C 0.4300 0.7650 
*N *5:5 *C 0.4300 0.7650 

*CAP
0 *4:d 6.81327e-17
1 *1:g 6.06283e-17
2 *2:d 4.92522e-17
3 *13:g 6.45267e-17
4 *5:2 1.51278e-16

*RES
0 *1:g *5:2 33.009445  // $poly_conn
1 *5:2 *13:g 32.995037  // $poly_conn
2 *4:d *5:5 62.554962  // $metal1_conn
3 *5:5 *2:d 75.285011  // $metal1_conn
4 *5:2 *5:5 45  // $metal1_conn

*END

