*SPEF "IEEE 1481-1999"
*DESIGN  "NAND3BX2"
*DATE "Mon Sep 27 10:10:32 2010"
*VENDOR "Cadence Design Systems"
*PROGRAM "Assura RCX"
*VERSION "3.2 Red Hat Linux release 7.2 (Enigma) - (09/09/2009-10:39)"
*DESIGN_FLOW "Physical Verification"
*DIVIDER /
*DELIMITER :
*BUS_DELIMITER []
*T_UNIT 1 PS
*C_UNIT 1e15 FF
*R_UNIT 1 OHM
*L_UNIT 1 MH
// DeviceFingerDelim "@"
// MATCHED
// caps2d version: 10

*NAME_MAP
*1 n2
*2 mp1
*3 n2\@1
*4 mp2
*5 mp3
*6 mn1
*7 n2\@2
*8 mp3\@1
*9 mn2
*10 n2\@3
*11 VSS
*12 mp2\@1
*13 mn3
*14 mp1\@1
*15 mn3\@1
*16 mp0
*17 mn2\@1
*18 mn1\@1
*19 mn0
*20 Y
*21 B
*22 C
*23 VDD
*24 n0
*25 AN

*GROUND_NETS VSS

*PORTS
*23 I
*11 I
*25 I
*21 I
*22 I
*20 O

*D_NET *23 2.63573e-16

*CONN
*P *23 I *C 0.1000 1.7100 
*I *2:s B *C 0.2050 1.1500 
*I *4:s B *C 0.6100 1.1500 
*I *5:s B *C 0.6100 1.1500 
*I *8:s B *C 1.0250 1.1500 
*I *12:s B *C 1.0250 1.1500 
*I *14:s B *C 1.5200 1.0625 
*I *16:s B *C 1.5200 1.0625 
*N *23:3 *C 0.9000 1.7100 

*CAP
0 *14:s 1.89625e-16
1 *23:3 7.27273e-17
2 *23 1.22088e-18

*RES
0 *14:s *23 0.047194  // $metal1_conn
1 *23:3 *14:s 8.333333  // $metal1_conn

*END

*D_NET *11 0

*CONN
*P *11 I *C 0.1000 0.0000 
*I *6:s B *C 0.3200 0.4350 
*I *18:s B *C 1.4650 0.4925 
*I *19:s B *C 1.4650 0.4925 
*N *11:2 *C 0.2350 0.0000 
*N *11:3 *C 0.9000 0.0000 
*N *11:4 *C 0.9000 0.0000 


*RES
0 *6:s *11:2 75.04702  // $metal1_conn
1 *11:2 *11 0.063904  // $metal1_conn
2 *11:2 *11:4 0.329941  // $metal1_conn
3 *11:4 *18:s 75.482353  // $metal1_conn
4 *11:3 *11:4 6.888889  // $metal1_conn

*END

*D_NET *25 1.97131e-16

*CONN
*P *25 I *C 1.5000 0.8550 
*I *19:g B *C 1.5125 0.4925 
*I *16:g B *C 1.5675 1.0625 
*N *25:2 *C 1.5400 0.8450 
*N *25:4 *C 1.5400 0.8450 

*CAP
0 *16:g 2.88218e-17
1 *19:g 3.82132e-17
2 *25:2 2.73135e-17
3 *25 1.02782e-16

*RES
0 *16:g *25:2 19.691952  // $poly_conn
1 *25:2 *19:g 63.281693  // $poly_conn
2 *25 *25:4 0.018415  // $metal1_conn
3 *25:2 *25:4 45  // $metal1_conn

*END

*D_NET *21 5.02916e-16

*CONN
*P *21 I *C 1.1000 0.8550 
*I *9:g B *C 0.5025 0.4350 
*I *17:g B *C 1.1275 0.4350 
*I *4:g B *C 0.5025 1.1500 
*I *12:g B *C 1.1275 1.1500 

*CAP
0 *17:g 4.63218e-17
1 *9:g 5.49894e-17
2 *21 4.01604e-16

*RES
0 *21 *17:g 29.94836  // $poly_conn
1 *21 *9:g 22.256054  // $poly_conn

*END

*D_NET *22 3.10827e-16

*CONN
*P *22 I *C 0.7000 0.8550 
*I *13:g B *C 0.6625 0.4350 
*I *15:g B *C 0.8675 0.4350 
*I *5:g B *C 0.7175 1.1500 
*I *8:g B *C 0.9225 1.1500 
*N *22:3 *C 0.6900 0.6625 
*N *22:7 *C 0.6900 0.8450 

*CAP
0 *8:g 9.64121e-17
1 *15:g 3.24119e-17
2 *13:g 3.09761e-17
3 *22:7 4.4858e-17
4 *22:3 2.56412e-17
5 *22 8.05279e-17

*RES
0 *22:3 *15:g 54.784554  // $poly_conn
1 *22:3 *13:g 21.83713  // $poly_conn
2 *8:g *22:3 16.602861  // $poly_conn
3 *8:g *22:7 45  // $metal1_conn
4 *22:7 *22 0.006536  // $metal1_conn

*END

*D_NET *20 4.44564e-16

*CONN
*P *20 O *C 0.3000 1.0450 
*I *13:d B *C 0.7650 0.4350 
*I *15:d B *C 0.7650 0.4350 
*I *2:d B *C 0.4000 1.1500 
*I *4:d B *C 0.4000 1.1500 
*I *5:d B *C 0.8200 1.1500 
*I *8:d B *C 0.8200 1.1500 
*I *12:d B *C 1.2300 1.1500 
*I *14:d B *C 1.2300 1.1500 

*CAP
0 *12:d 1.89865e-16
1 *5:d 3.26465e-17
2 *13:d 1.33337e-16
3 *20 8.87146e-17

*RES
0 *20 *13:d 75.970169  // $metal1_conn
1 *12:d *20 0.063392  // $metal1_conn
2 *12:d *5:d 31.05945  // $metal1_conn

*END

*D_NET *10 3.95926e-18

*CONN
*I *17:s B *C 1.2025 0.4350 
*I *18:d B *C 1.2025 0.4350 

*CAP
0 *17:s 3.95926e-18

*RES
0 *18:d *17:s 0.001  // $mwires

*END

*D_NET *7 6.14802e-18

*CONN
*I *15:s B *C 0.9975 0.4350 
*I *17:d B *C 0.9975 0.4350 

*CAP
0 *15:s 6.14802e-18

*RES
0 *17:d *15:s 0.001  // $mwires

*END

*D_NET *3 4.79719e-18

*CONN
*I *9:s B *C 0.5825 0.4350 
*I *13:s B *C 0.5825 0.4350 

*CAP
0 *9:s 4.79719e-18

*RES
0 *13:s *9:s 0.001  // $mwires

*END

*D_NET *1 4.52973e-18

*CONN
*I *6:d B *C 0.4350 0.4350 
*I *9:d B *C 0.4350 0.4350 

*CAP
0 *6:d 4.52973e-18

*RES
0 *9:d *6:d 0.001  // $mwires

*END

*D_NET *24 6.32535e-16

*CONN
*I *6:g B *C 0.3675 0.4350 
*I *18:g B *C 1.2775 0.4350 
*I *19:d B *C 1.6050 0.4925 
*I *2:g B *C 0.2975 1.1500 
*I *14:g B *C 1.3325 1.1500 
*I *16:d B *C 1.6750 1.0625 
*N *24:9 *C 1.6150 0.4950 

*CAP
0 *16:d 4.6157e-17
1 *14:g 4.43662e-16
2 *19:d 5.4613e-17
3 *18:g 4.88983e-17
4 *6:g 3.92049e-17

*RES
0 *14:g *18:g 26.102209  // $poly_conn
1 *6:g *14:g 16.530041  // $poly_conn
2 *16:d *24:9 62.403961  // $metal1_conn
3 *19:d *24:9 75  // $metal1_conn
4 *24:9 *14:g 0.227697  // $metal1_conn

*END

