*SPEF "IEEE 1481-1999"
*DESIGN  "NAND3BXL"
*DATE "Mon Sep 27 10:11:17 2010"
*VENDOR "Cadence Design Systems"
*PROGRAM "Assura RCX"
*VERSION "3.2 Red Hat Linux release 7.2 (Enigma) - (09/09/2009-10:39)"
*DESIGN_FLOW "Physical Verification"
*DIVIDER /
*DELIMITER :
*BUS_DELIMITER []
*T_UNIT 1 PS
*C_UNIT 1e15 FF
*R_UNIT 1 OHM
*L_UNIT 1 MH
// DeviceFingerDelim "@"
// MATCHED
// caps2d version: 10

*NAME_MAP
*1 mp3
*2 mp2
*3 mp1
*4 AN
*5 mp0
*6 VSS
*7 n0
*8 n2
*9 n1
*10 mn3
*11 mn2
*12 VDD
*13 mn1
*14 Y
*15 B
*16 mn0
*17 C

*GROUND_NETS VSS

*PORTS
*12 I
*6 I
*4 I
*15 I
*17 I
*14 O

*D_NET *12 1.38058e-16

*CONN
*P *12 I *C 0.1000 1.7100 
*I *1:s B *C 0.3625 1.5600 
*I *2:s B *C 0.3625 1.5600 
*I *3:s B *C 0.7500 1.1975 
*I *5:s B *C 0.7500 1.1975 
*N *12:2 *C 0.5000 1.7100 
*N *12:3 *C 0.5000 1.7100 
*N *12:4 *C 0.3375 1.7100 

*CAP
0 *3:s 1.59214e-17
1 *1:s 7.96494e-18
2 *12:4 1.21419e-18
3 *12:2 1.06014e-16
4 *12 6.94372e-18

*RES
0 *3:s *12:3 62.152454  // $metal1_conn
1 *12:3 *12:4 0.080094  // $metal1_conn
2 *12:4 *12 0.11738  // $metal1_conn
3 *12:4 *1:s 62.054192  // $metal1_conn
4 *12:2 *12:3 15  // $metal1_conn

*END

*D_NET *6 0

*CONN
*P *6 I *C 0.1000 0.0000 
*I *13:s B *C 0.6900 0.5075 
*I *16:s B *C 0.6900 0.5075 
*N *6:2 *C 0.5000 0.0000 
*N *6:3 *C 0.5000 0.0000 


*RES
0 *13:s *6:3 75.426147  // $metal1_conn
1 *6:3 *6 0.199942  // $metal1_conn
2 *6:2 *6:3 12.4  // $metal1_conn

*END

*D_NET *4 1.98832e-16

*CONN
*P *4 I *C 0.7500 0.9750 
*I *16:g B *C 0.7925 0.5075 
*I *5:g B *C 0.7975 1.1975 
*N *4:2 *C 0.7600 0.8700 

*CAP
0 *5:g 4.01999e-17
1 *16:g 3.54247e-17
2 *4:2 8.42862e-17
3 *4 3.89215e-17

*RES
0 *5:g *4:2 45.603806  // $poly_conn
1 *4:2 *16:g 63.552521  // $poly_conn
2 *4 *4:2 45.062771  // $metal1_conn

*END

*D_NET *15 2.30253e-16

*CONN
*P *15 I *C 0.4150 0.8150 
*I *11:g B *C 0.3975 0.5075 
*I *2:g B *C 0.3975 1.1975 
*N *15:2 *C 0.4250 0.6900 

*CAP
0 *2:g 6.4393e-17
1 *11:g 3.09398e-17
2 *15:2 1.10299e-16
3 *15 2.46216e-17

*RES
0 *2:g *15:2 94.050926  // $poly_conn
1 *15:2 *11:g 19.691952  // $poly_conn
2 *15 *15:2 45.077297  // $metal1_conn

*END

*D_NET *17 2.37399e-16

*CONN
*P *17 I *C 0.2300 0.6550 
*I *10:g B *C 0.2175 0.5075 
*I *1:g B *C 0.2025 1.1975 
*N *17:2 *C 0.2400 0.7150 
*N *17:5 *C 0.2350 0.7150 

*CAP
0 *1:g 5.04902e-17
1 *10:g 2.74727e-17
2 *17:5 7.98781e-17
3 *17:2 4.72225e-17
4 *17 3.23356e-17

*RES
0 *10:g *17:2 25.539701  // $poly_conn
1 *17:2 *1:g 86.212784  // $poly_conn
2 *17 *17:5 0.037201  // $metal1_conn
3 *17:2 *17:5 45  // $metal1_conn

*END

*D_NET *14 1.87001e-16

*CONN
*P *14 O *C 0.0800 1.0650 
*I *10:d B *C 0.1250 0.5075 
*I *1:d B *C 0.1300 1.1975 
*I *2:d B *C 0.5000 1.1975 
*I *3:d B *C 0.5000 1.1975 

*CAP
0 *2:d 4.60547e-17
1 *1:d 8.30588e-18
2 *10:d 6.40055e-17
3 *14 6.86347e-17

*RES
0 *2:d *14 62.330795  // $metal1_conn
1 *14 *1:d 62.056675  // $metal1_conn
2 *14 *10:d 75.451653  // $metal1_conn

*END

*D_NET *9 0

*CONN
*I *10:s B *C 0.3075 0.5075 
*I *11:d B *C 0.3075 0.5075 


*RES
0 *11:d *10:s 0.001  // $mwires

*END

*D_NET *8 1.63697e-18

*CONN
*I *11:s B *C 0.4925 0.5075 
*I *13:d B *C 0.4925 0.5075 

*CAP
0 *11:s 1.63697e-18

*RES
0 *13:d *11:s 0.001  // $mwires

*END

*D_NET *7 3.048e-16

*CONN
*I *13:g B *C 0.5875 0.5075 
*I *16:d B *C 0.8850 0.5075 
*I *3:g B *C 0.6025 1.1975 
*I *5:d B *C 0.9400 1.1500 
*N *7:2 *C 0.6150 0.6900 
*N *7:5 *C 0.8950 0.6900 

*CAP
0 *5:d 4.8301e-17
1 *3:g 6.39302e-17
2 *16:d 1.82704e-17
3 *13:g 2.91513e-17
4 *7:5 4.90525e-17
5 *7:2 9.60948e-17

*RES
0 *3:g *7:2 91.757652  // $poly_conn
1 *7:2 *13:g 17.398676  // $poly_conn
2 *5:d *7:5 62.3358  // $metal1_conn
3 *7:5 *7:2 45.182465  // $metal1_conn
4 *7:5 *16:d 75.117691  // $metal1_conn

*END

