*SPEF "IEEE 1481-1999"
*DESIGN  "NAND2BXL"
*DATE "Mon Sep 27 10:07:32 2010"
*VENDOR "Cadence Design Systems"
*PROGRAM "Assura RCX"
*VERSION "3.2 Red Hat Linux release 7.2 (Enigma) - (09/09/2009-10:39)"
*DESIGN_FLOW "Physical Verification"
*DIVIDER /
*DELIMITER :
*BUS_DELIMITER []
*T_UNIT 1 PS
*C_UNIT 1e15 FF
*R_UNIT 1 OHM
*L_UNIT 1 MH
// DeviceFingerDelim "@"
// MATCHED
// caps2d version: 10

*NAME_MAP
*1 mp1
*2 mn0
*3 VDD
*4 mp0
*5 n0
*6 n1
*7 Y
*8 AN
*9 mn2
*10 B
*11 VSS
*12 mp2
*13 mn1

*GROUND_NETS VSS

*PORTS
*3 I
*11 I
*8 I
*10 I
*7 O

*D_NET *3 1.15331e-16

*CONN
*P *3 I *C 0.1000 1.7100 
*I *12:s B *C 0.1475 1.5700 
*I *1:s B *C 0.5400 1.5700 
*I *4:s B *C 0.5400 1.5700 
*N *3:2 *C 0.4000 1.7100 
*N *3:3 *C 0.4000 1.7100 

*CAP
0 *1:s 1.31469e-17
1 *12:s 4.88541e-18
2 *3:2 9.35419e-17
3 *3 3.75705e-18

*RES
0 *1:s *3:3 62.136425  // $metal1_conn
1 *3:3 *3 0.150525  // $metal1_conn
2 *3 *12:s 62.078411  // $metal1_conn
3 *3:2 *3:3 18.75  // $metal1_conn

*END

*D_NET *11 0

*CONN
*P *11 I *C 0.1000 0.0000 
*I *13:s B *C 0.4950 0.5875 
*I *2:s B *C 0.4950 0.5875 
*N *11:2 *C 0.4000 0.0000 
*N *11:3 *C 0.4000 0.0000 


*RES
0 *13:s *11:3 75.428703  // $metal1_conn
1 *11:3 *11 0.150019  // $metal1_conn
2 *11:2 *11:3 15.5  // $metal1_conn

*END

*D_NET *8 1.84264e-16

*CONN
*P *8 I *C 0.6900 1.0550 
*I *2:g B *C 0.5975 0.5875 
*I *4:g B *C 0.5975 1.1925 
*N *8:2 *C 0.6350 0.9600 

*CAP
0 *4:g 3.32935e-17
1 *2:g 3.70762e-17
2 *8:2 8.96078e-17
3 *8 2.42864e-17

*RES
0 *4:g *8:2 22.565475  // $poly_conn
1 *8:2 *2:g 67.437271  // $poly_conn
2 *8 *8:2 45.042797  // $metal1_conn

*END

*D_NET *10 2.05004e-16

*CONN
*P *10 I *C 0.2450 0.9050 
*I *9:g B *C 0.2425 0.5875 
*I *12:g B *C 0.1875 1.1925 
*N *10:2 *C 0.2150 0.8500 

*CAP
0 *12:g 3.20932e-17
1 *9:g 3.62257e-17
2 *10:2 1.08418e-16
3 *10 2.8267e-17

*RES
0 *9:g *10:2 40.204773  // $poly_conn
1 *10:2 *12:g 51.743237  // $poly_conn
2 *10:2 *10 45.030823  // $metal1_conn

*END

*D_NET *7 1.5307e-16

*CONN
*P *7 O *C 0.0750 0.7600 
*I *9:d B *C 0.1450 0.5875 
*I *12:d B *C 0.2900 1.1925 
*I *1:d B *C 0.2900 1.1925 

*CAP
0 *12:d 6.3767e-17
1 *9:d 2.36009e-17
2 *7 6.5702e-17

*RES
0 *12:d *7 62.414978  // $metal1_conn
1 *7 *9:d 75.115562  // $metal1_conn

*END

*D_NET *6 0

*CONN
*I *9:s B *C 0.3175 0.5875 
*I *13:d B *C 0.3175 0.5875 


*RES
0 *13:d *9:s 0.001  // $mwires

*END

*D_NET *5 3.35205e-16

*CONN
*I *13:g B *C 0.3925 0.5875 
*I *2:d B *C 0.6900 0.5875 
*I *1:g B *C 0.3925 1.1925 
*I *4:d B *C 0.6900 1.1925 
*N *5:2 *C 0.4200 0.7700 
*N *5:5 *C 0.4200 0.7700 

*CAP
0 *4:d 6.89064e-17
1 *1:g 4.90856e-17
2 *2:d 3.90883e-17
3 *13:g 3.38603e-17
4 *5:2 1.44265e-16

*RES
0 *1:g *5:2 72.256058  // $poly_conn
1 *5:2 *13:g 19.691952  // $poly_conn
2 *2:d *5:5 75.337334  // $metal1_conn
3 *5:5 *4:d 62.48946  // $metal1_conn
4 *5:2 *5:5 45  // $metal1_conn

*END

