*SPEF "IEEE 1481-1999"
*DESIGN  "NAND3X2"
*DATE "Mon Sep 27 10:12:02 2010"
*VENDOR "Cadence Design Systems"
*PROGRAM "Assura RCX"
*VERSION "3.2 Red Hat Linux release 7.2 (Enigma) - (09/09/2009-10:39)"
*DESIGN_FLOW "Physical Verification"
*DIVIDER /
*DELIMITER :
*BUS_DELIMITER []
*T_UNIT 1 PS
*C_UNIT 1e15 FF
*R_UNIT 1 OHM
*L_UNIT 1 MH
// DeviceFingerDelim "@"
// MATCHED
// caps2d version: 10

*NAME_MAP
*1 n1\@3
*2 mp0
*3 mp1
*4 A
*5 mp2
*6 B
*7 mp2\@1
*8 C
*9 mp1\@1
*10 mp0\@1
*11 VDD
*12 n1
*13 n1\@1
*14 mn0
*15 n1\@2
*16 mn1
*17 mn2
*18 mn2\@1
*19 mn1\@1
*20 mn0\@1
*21 Y
*22 VSS

*GROUND_NETS VSS

*PORTS
*11 I
*22 I
*4 I
*6 I
*8 I
*21 O

*D_NET *11 2.57942e-16

*CONN
*P *11 I *C 0.1000 1.7100 
*I *2:s B *C 0.2050 1.1400 
*I *3:s B *C 0.6050 1.1400 
*I *5:s B *C 0.6050 1.1400 
*I *7:s B *C 1.0150 1.1400 
*I *9:s B *C 1.0150 1.1400 
*I *10:s B *C 1.4150 1.1400 
*N *11:3 *C 0.8000 1.7100 

*CAP
0 *10:s 1.92741e-16
1 *11:3 6.52015e-17

*RES
0 *10:s *11 0.047202  // $metal1_conn
1 *11:3 *10:s 9.375  // $metal1_conn

*END

*D_NET *22 0

*CONN
*P *22 I *C 0.1000 0.0000 
*I *14:s B *C 0.2750 0.4350 
*I *20:s B *C 1.3750 0.3225 
*N *22:2 *C 0.8000 0.0000 
*N *22:3 *C 0.8000 0.0000 
*N *22:4 *C 0.2350 0.0000 


*RES
0 *20:s *22:3 75.341621  // $metal1_conn
1 *22:3 *22:4 0.283189  // $metal1_conn
2 *22:4 *22 0.067265  // $metal1_conn
3 *22:4 *14:s 75.221405  // $metal1_conn
4 *22:2 *22:3 7.75  // $metal1_conn

*END

*D_NET *4 4.89804e-16

*CONN
*P *4 I *C 0.3000 0.6650 
*I *14:g B *C 0.3675 0.4350 
*I *20:g B *C 1.2425 0.4350 
*I *2:g B *C 0.2975 1.1400 
*I *10:g B *C 1.3225 1.1400 

*CAP
0 *10:g 3.95568e-16
1 *20:g 4.34805e-17
2 *14:g 3.5536e-17
3 *4 1.52194e-17

*RES
0 *10:g *20:g 16.530039  // $poly_conn
1 *14:g *10:g 16.530041  // $poly_conn
2 *10:g *4 0.018167  // $metal1_conn

*END

*D_NET *6 5.00147e-16

*CONN
*P *6 I *C 1.1000 0.8550 
*I *16:g B *C 0.5025 0.4350 
*I *19:g B *C 1.1175 0.4350 
*I *3:g B *C 0.5025 1.1400 
*I *9:g B *C 1.1175 1.1400 

*CAP
0 *9:g 3.64616e-16
1 *19:g 6.01945e-17
2 *16:g 4.75183e-17
3 *6 2.78185e-17

*RES
0 *9:g *19:g 29.94836  // $poly_conn
1 *9:g *16:g 22.256054  // $poly_conn
2 *6 *9:g 0.087453  // $metal1_conn

*END

*D_NET *8 2.97978e-16

*CONN
*P *8 I *C 0.7000 0.8550 
*I *17:g B *C 0.7525 0.4350 
*I *18:g B *C 0.9575 0.4350 
*I *5:g B *C 0.7075 1.1400 
*I *7:g B *C 0.9125 1.1400 
*N *8:2 *C 0.7525 0.6625 

*CAP
0 *7:g 1.54115e-16
1 *18:g 4.734e-17
2 *17:g 2.34436e-17
3 *8:2 1.625e-17
4 *8 5.68299e-17

*RES
0 *18:g *8:2 67.14196  // $poly_conn
1 *8:2 *17:g 23.465221  // $poly_conn
2 *8:2 *7:g 35.774284  // $poly_conn
3 *8 *7:g 45.038635  // $metal1_conn

*END

*D_NET *21 4.58443e-16

*CONN
*P *21 O *C 1.5000 1.0450 
*I *17:d B *C 0.8550 0.4350 
*I *18:d B *C 0.8550 0.4350 
*I *2:d B *C 0.4000 1.1400 
*I *3:d B *C 0.4000 1.1400 
*I *5:d B *C 0.8100 1.1400 
*I *7:d B *C 0.8100 1.1400 
*I *9:d B *C 1.2200 1.1400 
*I *10:d B *C 1.2200 1.1400 

*CAP
0 *9:d 2.00379e-16
1 *5:d 3.40355e-17
2 *17:d 1.33832e-16
3 *21 9.01973e-17

*RES
0 *21 *17:d 75.947914  // $metal1_conn
1 *9:d *21 0.204377  // $metal1_conn
2 *9:d *5:d 31.059536  // $metal1_conn

*END

*D_NET *1 4.58681e-18

*CONN
*I *19:s B *C 1.1800 0.4350 
*I *20:d B *C 1.1800 0.4350 

*CAP
0 *19:s 4.58681e-18

*RES
0 *20:d *19:s 0.001  // $mwires

*END

*D_NET *15 4.83242e-18

*CONN
*I *18:s B *C 1.0375 0.4350 
*I *19:d B *C 1.0375 0.4350 

*CAP
0 *18:s 4.83242e-18

*RES
0 *19:d *18:s 0.001  // $mwires

*END

*D_NET *13 6.30109e-18

*CONN
*I *16:s B *C 0.6275 0.4350 
*I *17:s B *C 0.6275 0.4350 

*CAP
0 *16:s 6.30109e-18

*RES
0 *17:s *16:s 0.001  // $mwires

*END

*D_NET *12 3.65106e-18

*CONN
*I *14:d B *C 0.4350 0.4350 
*I *16:d B *C 0.4350 0.4350 

*CAP
0 *14:d 3.65106e-18

*RES
0 *16:d *14:d 0.001  // $mwires

*END

