*SPEF "IEEE 1481-1999"
*DESIGN  "NAND2X8"
*DATE "Mon Sep 27 10:09:26 2010"
*VENDOR "Cadence Design Systems"
*PROGRAM "Assura RCX"
*VERSION "3.2 Red Hat Linux release 7.2 (Enigma) - (09/09/2009-10:39)"
*DESIGN_FLOW "Physical Verification"
*DIVIDER /
*DELIMITER :
*BUS_DELIMITER []
*T_UNIT 1 PS
*C_UNIT 1e15 FF
*R_UNIT 1 OHM
*L_UNIT 1 MH
// DeviceFingerDelim "@"
// MATCHED
// caps2d version: 10

*NAME_MAP
*1 mn1\@5
*2 mn0\@5
*3 mn0\@6
*4 mp1\@4
*5 mn1\@6
*6 VDD
*7 mp0\@5
*8 mn1
*9 mp0\@6
*10 VSS
*11 mp1\@5
*12 mp1\@6
*13 Y
*14 n0\@1
*15 n0\@2
*16 n0\@3
*17 mn0
*18 mn0\@1
*19 n0\@4
*20 mn1\@1
*21 n0\@5
*22 mn1\@2
*23 n0\@6
*24 mn0\@2
*25 n0
*26 mn0\@3
*27 mn1\@3
*28 mn0\@4
*29 mn1\@4
*30 mp0
*31 mp0\@1
*32 mp1
*33 mp1\@1
*34 mp0\@2
*35 mp0\@3
*36 mp1\@2
*37 mp0\@4
*38 mp1\@3
*39 A
*40 B

*GROUND_NETS VSS

*PORTS
*6 I
*10 I
*39 I
*40 I
*13 O

*D_NET *6 6.02501e-16

*CONN
*P *6 I *C 0.1000 1.7100 
*I *30:s B *C 1.7400 1.2175 
*I *31:s B *C 1.7400 1.2175 
*I *32:s B *C 2.1500 1.2175 
*I *33:s B *C 2.1500 1.2175 
*I *34:s B *C 2.5600 1.2175 
*I *35:s B *C 2.5600 1.2175 
*I *36:s B *C 2.9600 1.2175 
*I *37:s B *C 0.1100 1.2175 
*I *38:s B *C 0.5100 1.2175 
*I *4:s B *C 0.5100 1.2175 
*I *7:s B *C 0.9200 1.2175 
*I *9:s B *C 0.9200 1.2175 
*I *11:s B *C 1.3300 1.2175 
*I *12:s B *C 1.3300 1.2175 

*CAP
0 *6 6.02501e-16


*END

*D_NET *10 0

*CONN
*P *10 I *C 0.1000 0.0000 
*I *17:s B *C 1.8250 0.5025 
*I *18:s B *C 1.8250 0.5025 
*I *24:s B *C 2.6150 0.5025 
*I *26:s B *C 2.6150 0.5025 
*I *28:s B *C 0.2100 0.5025 
*I *2:s B *C 0.9675 0.5025 
*I *3:s B *C 0.9675 0.5025 
*N *10:2 *C 2.3000 0.0000 
*N *10:3 *C 2.3000 0.0000 
*N *10:4 *C 1.7400 0.0000 
*N *10:5 *C 0.8000 0.0000 
*N *10:6 *C 0.2000 0.0000 


*RES
0 *24:s *10:3 37.830326  // $metal1_conn
1 *10:3 *10:4 0.280716  // $metal1_conn
2 *10:4 *10:5 0.473215  // $metal1_conn
3 *10:5 *10:6 0.301803  // $metal1_conn
4 *10:6 *10 0.049885  // $metal1_conn
5 *10:4 *17:s 37.689434  // $metal1_conn
6 *10:5 *2:s 37.701817  // $metal1_conn
7 *10:6 *28:s 37.80291  // $metal1_conn
8 *10:2 *10:3 8.857142  // $metal1_conn
9 *10:2 *10:5 7.75  // $metal1_conn

*END

*D_NET *39 1.41856e-15

*CONN
*P *39 I *C 0.2800 0.6950 
*I *17:g B *C 1.6075 0.5025 
*I *18:g B *C 1.8725 0.5025 
*I *24:g B *C 2.3975 0.5025 
*I *26:g B *C 2.6625 0.5025 
*I *28:g B *C 0.3025 0.5025 
*I *2:g B *C 0.7175 0.5025 
*I *3:g B *C 1.0225 0.5025 
*I *30:g B *C 1.6375 1.2175 
*I *31:g B *C 1.8425 1.2175 
*I *34:g B *C 2.4575 1.2175 
*I *35:g B *C 2.6625 1.2175 
*I *37:g B *C 0.2025 1.2175 
*I *7:g B *C 0.8175 1.2175 
*I *9:g B *C 1.0225 1.2175 

*CAP
0 *35:g 1.09009e-15
1 *3:g 2.80673e-17
2 *2:g 7.38705e-17
3 *28:g 5.06189e-17
4 *26:g 5.10694e-17
5 *24:g 3.72928e-17
6 *18:g 3.19346e-17
7 *17:g 3.19676e-17
8 *39 2.36527e-17

*RES
0 *35:g *26:g 24.894089  // $poly_conn
1 *35:g *24:g 24.722158  // $poly_conn
2 *18:g *35:g 23.896261  // $poly_conn
3 *35:g *17:g 26.518454  // $poly_conn
4 *35:g *3:g 25.672443  // $poly_conn
5 *35:g *2:g 29.597105  // $poly_conn
6 *28:g *35:g 16.530041  // $poly_conn
7 *35:g *39 0.031511  // $metal1_conn

*END

*D_NET *40 1.38446e-15

*CONN
*P *40 I *C 2.6800 0.8550 
*I *20:g B *C 2.0475 0.5025 
*I *22:g B *C 2.2525 0.5025 
*I *27:g B *C 2.7675 0.5025 
*I *29:g B *C 0.4075 0.5025 
*I *1:g B *C 0.6125 0.5025 
*I *5:g B *C 1.2275 0.5025 
*I *8:g B *C 1.4325 0.5025 
*I *32:g B *C 2.0475 1.2175 
*I *33:g B *C 2.2525 1.2175 
*I *36:g B *C 2.8675 1.2175 
*I *38:g B *C 0.4075 1.2175 
*I *4:g B *C 0.6125 1.2175 
*I *11:g B *C 1.2275 1.2175 
*I *12:g B *C 1.4325 1.2175 

*CAP
0 *36:g 1.0304e-15
1 *8:g 3.68533e-17
2 *5:g 3.30007e-17
3 *1:g 6.04203e-17
4 *29:g 6.05397e-17
5 *27:g 6.80756e-17
6 *22:g 4.30927e-17
7 *20:g 3.69669e-17
8 *40 1.51105e-17

*RES
0 *36:g *27:g 53.334705  // $poly_conn
1 *36:g *22:g 60.065826  // $poly_conn
2 *36:g *20:g 57.74297  // $poly_conn
3 *36:g *8:g 60.065826  // $poly_conn
4 *36:g *5:g 57.74297  // $poly_conn
5 *36:g *1:g 60.065826  // $poly_conn
6 *36:g *29:g 57.74297  // $poly_conn
7 *36:g *40 0.005364  // $metal1_conn

*END

*D_NET *13 1.43414e-15

*CONN
*P *13 O *C 2.9650 1.0450 
*I *20:d B *C 2.1500 0.5025 
*I *22:d B *C 2.1500 0.5025 
*I *27:d B *C 2.8600 0.5025 
*I *29:d B *C 0.5100 0.5025 
*I *1:d B *C 0.5100 0.5025 
*I *5:d B *C 1.3300 0.5025 
*I *8:d B *C 1.3300 0.5025 
*I *30:d B *C 1.5350 1.2175 
*I *31:d B *C 1.9450 1.2175 
*I *32:d B *C 1.9450 1.2175 
*I *33:d B *C 2.3550 1.2175 
*I *34:d B *C 2.3550 1.2175 
*I *35:d B *C 2.7650 1.2175 
*I *36:d B *C 2.7650 1.2175 
*I *37:d B *C 0.3050 1.2175 
*I *38:d B *C 0.3050 1.2175 
*I *4:d B *C 0.7150 1.2175 
*I *7:d B *C 0.7150 1.2175 
*I *9:d B *C 1.1250 1.2175 
*I *11:d B *C 1.1250 1.2175 
*I *12:d B *C 1.5350 1.2175 
*N *13:2 *C 2.8700 0.6350 
*N *13:10 *C 2.1500 0.6350 
*N *13:18 *C 1.3300 0.6350 

*CAP
0 *35:d 7.69308e-16
1 *29:d 1.30783e-16
2 *13:18 1.98184e-16
3 *13:10 1.873e-16
4 *13:2 1.02807e-16
5 *13 4.57551e-17

*RES
0 *13:2 *13 0.34893  // $metal1_conn
1 *13 *35:d 0.144496  // $metal1_conn
2 *27:d *13:2 37.571175  // $metal1_conn
3 *13:10 *20:d 37.575649  // $metal1_conn
4 *13:18 *5:d 37.575649  // $metal1_conn
5 *13:18 *29:d 38.29472  // $metal1_conn
6 *13:2 *13:10 0.598731  // $metal1_conn
7 *13:10 *13:18 0.718656  // $metal1_conn

*END

*D_NET *16 1.5146e-18

*CONN
*I *26:d B *C 2.7150 0.5025 
*I *27:s B *C 2.7150 0.5025 

*CAP
0 *26:d 1.5146e-18

*RES
0 *27:s *26:d 0.001  // $mwires

*END

*D_NET *15 2.52434e-18

*CONN
*I *22:s B *C 2.3250 0.5025 
*I *24:d B *C 2.3250 0.5025 

*CAP
0 *22:s 2.52434e-18

*RES
0 *24:d *22:s 0.001  // $mwires

*END

*D_NET *14 3.26021e-18

*CONN
*I *18:d B *C 1.9600 0.5025 
*I *20:s B *C 1.9600 0.5025 

*CAP
0 *18:d 3.26021e-18

*RES
0 *20:s *18:d 0.001  // $mwires

*END

*D_NET *25 3.28164e-18

*CONN
*I *17:d B *C 1.5200 0.5025 
*I *8:s B *C 1.5200 0.5025 

*CAP
0 *17:d 3.28164e-18

*RES
0 *8:s *17:d 0.001  // $mwires

*END

*D_NET *23 4.03895e-18

*CONN
*I *3:d B *C 1.1250 0.5025 
*I *5:s B *C 1.1250 0.5025 

*CAP
0 *3:d 4.03895e-18

*RES
0 *5:s *3:d 0.001  // $mwires

*END

*D_NET *21 1.5146e-18

*CONN
*I *1:s B *C 0.6650 0.5025 
*I *2:d B *C 0.6650 0.5025 

*CAP
0 *1:s 1.5146e-18

*RES
0 *2:d *1:s 0.001  // $mwires

*END

*D_NET *19 0

*CONN
*I *28:d B *C 0.3550 0.5025 
*I *29:s B *C 0.3550 0.5025 


*RES
0 *29:s *28:d 0.001  // $mwires

*END

