*SPEF "IEEE 1481-1999"
*DESIGN  "NAND3X6"
*DATE "Mon Sep 27 10:12:47 2010"
*VENDOR "Cadence Design Systems"
*PROGRAM "Assura RCX"
*VERSION "3.2 Red Hat Linux release 7.2 (Enigma) - (09/09/2009-10:39)"
*DESIGN_FLOW "Physical Verification"
*DIVIDER /
*DELIMITER :
*BUS_DELIMITER []
*T_UNIT 1 PS
*C_UNIT 1e15 FF
*R_UNIT 1 OHM
*L_UNIT 1 MH
// DeviceFingerDelim "@"
// MATCHED
// caps2d version: 10

*NAME_MAP
*1 VDD
*2 Y
*3 mp2
*4 n1\@5
*5 mp1
*6 n1\@6
*7 mp0
*8 n1\@7
*9 mp0\@1
*10 mp1\@1
*11 mp2\@1
*12 mp2\@2
*13 mp1\@2
*14 mp0\@3
*15 mp0\@2
*16 mp1\@3
*17 mp2\@3
*18 mp2\@4
*19 mp1\@4
*20 mp0\@4
*21 mp0\@5
*22 mp1\@5
*23 mp2\@5
*24 mn2\@3
*25 mn2\@4
*26 mn1\@4
*27 mn0\@4
*28 mn0
*29 mn1
*30 VSS
*31 n1\@8
*32 n1\@9
*33 n1
*34 mn2
*35 n1\@1
*36 mn2\@1
*37 n1\@2
*38 mn1\@1
*39 n1\@3
*40 A
*41 mn0\@1
*42 n1\@4
*43 B
*44 mn0\@2
*45 C
*46 mn1\@2
*47 mn2\@2
*48 mn0\@3
*49 mn1\@3

*GROUND_NETS VSS

*PORTS
*1 I
*30 I
*40 I
*43 I
*45 I
*2 O

*D_NET *1 6.68531e-16

*CONN
*P *1 I *C 0.1000 1.7100 
*I *3:s B *C 2.4050 1.2350 
*I *5:s B *C 2.4050 1.2350 
*I *7:s B *C 2.8400 1.2350 
*I *9:s B *C 2.8400 1.2350 
*I *10:s B *C 3.2500 1.2350 
*I *11:s B *C 3.2500 1.2350 
*I *12:s B *C 3.6600 1.2350 
*I *13:s B *C 3.6600 1.2350 
*I *15:s B *C 4.0600 1.2350 
*I *14:s B *C 0.2250 1.2350 
*I *16:s B *C 0.6250 1.2350 
*I *17:s B *C 0.6250 1.2350 
*I *18:s B *C 1.0350 1.2350 
*I *19:s B *C 1.0350 1.2350 
*I *20:s B *C 1.4450 1.2350 
*I *21:s B *C 1.4450 1.2350 
*I *22:s B *C 1.9250 1.2350 
*I *23:s B *C 1.9250 1.2350 

*CAP
0 *15:s 6.68531e-16

*RES
0 *15:s *1 0.05685  // $metal1_conn

*END

*D_NET *30 0

*CONN
*P *30 I *C 0.1000 0.0000 
*I *41:s B *C 2.8950 0.4750 
*I *44:s B *C 2.8950 0.4750 
*I *48:s B *C 0.3250 0.4750 
*I *27:s B *C 1.5150 0.4750 
*I *28:s B *C 1.5150 0.4750 
*N *30:1 *C 3.2000 0.0000 
*N *30:2 *C 2.7800 0.0000 
*N *30:3 *C 1.4000 0.0000 
*N *30:4 *C 1.1000 0.0000 
*N *30:5 *C 0.3150 0.0000 


*RES
0 *30:1 *30:2 6.410567  // $metal1_conn
1 *30:2 *30:3 0.692117  // $metal1_conn
2 *30:3 *30:4 0.150349  // $metal1_conn
3 *30:4 *30:5 0.393731  // $metal1_conn
4 *30:5 *30 0.107581  // $metal1_conn
5 *30:2 *41:s 75.097504  // $metal1_conn
6 *30:3 *27:s 75.097504  // $metal1_conn
7 *30:5 *48:s 37.799877  // $metal1_conn
8 *30:1 *30:4 5.636364  // $metal1_conn

*END

*D_NET *40 1.55835e-15

*CONN
*P *40 I *C 0.3000 0.8550 
*I *41:g B *C 2.6775 0.4750 
*I *44:g B *C 2.9425 0.4750 
*I *48:g B *C 0.4175 0.4750 
*I *27:g B *C 1.2975 0.4750 
*I *28:g B *C 1.5625 0.4750 
*I *7:g B *C 2.7375 1.2350 
*I *9:g B *C 2.9425 1.2350 
*I *15:g B *C 3.9675 1.2350 
*I *14:g B *C 0.3175 1.2350 
*I *20:g B *C 1.3425 1.2350 
*I *21:g B *C 1.5475 1.2350 

*CAP
0 *15:g 1.27667e-15
1 *28:g 5.51711e-17
2 *27:g 4.83574e-17
3 *48:g 6.46029e-17
4 *44:g 4.77166e-17
5 *41:g 4.72929e-17
6 *40 1.85364e-17

*RES
0 *15:g *44:g 71.28389  // $poly_conn
1 *15:g *41:g 80.47197  // $poly_conn
2 *28:g *15:g 78.830803  // $poly_conn
3 *15:g *27:g 76.90834  // $poly_conn
4 *48:g *15:g 48.702744  // $poly_conn
5 *15:g *40 0.026773  // $metal1_conn

*END

*D_NET *43 1.61678e-15

*CONN
*P *43 I *C 3.7000 0.8550 
*I *38:g B *C 2.5075 0.4750 
*I *46:g B *C 3.1475 0.4750 
*I *49:g B *C 0.5225 0.4750 
*I *26:g B *C 1.1375 0.4750 
*I *29:g B *C 1.6975 0.4750 
*I *5:g B *C 2.5075 1.2350 
*I *10:g B *C 3.1475 1.2350 
*I *13:g B *C 3.7625 1.2350 
*I *16:g B *C 0.5225 1.2350 
*I *19:g B *C 1.1375 1.2350 
*I *22:g B *C 1.7525 1.2350 

*CAP
0 *13:g 1.30855e-15
1 *29:g 6.66441e-17
2 *26:g 5.46793e-17
3 *49:g 8.14228e-17
4 *46:g 4.82478e-17
5 *38:g 4.13964e-17
6 *43 1.58344e-17

*RES
0 *13:g *46:g 35.706852  // $poly_conn
1 *13:g *38:g 29.94836  // $poly_conn
2 *13:g *29:g 58.153492  // $poly_conn
3 *13:g *26:g 44.050926  // $poly_conn
4 *13:g *49:g 55.860214  // $poly_conn
5 *43 *13:g 0.016231  // $metal1_conn

*END

*D_NET *45 1.07551e-15

*CONN
*P *45 I *C 1.1000 0.6650 
*I *34:g B *C 1.8925 0.4750 
*I *36:g B *C 2.0975 0.4750 
*I *47:g B *C 3.3175 0.4750 
*I *24:g B *C 0.7025 0.4750 
*I *25:g B *C 0.9075 0.4750 
*I *3:g B *C 2.3025 1.2350 
*I *11:g B *C 3.3525 1.2350 
*I *12:g B *C 3.5575 1.2350 
*I *17:g B *C 0.7275 1.2350 
*I *18:g B *C 0.9325 1.2350 
*I *23:g B *C 2.0975 1.2350 

*CAP
0 *25:g 2.53092e-17
1 *24:g 3.19138e-17
2 *47:g 3.63498e-17
3 *36:g 1.84389e-17
4 *34:g 2.66891e-17
5 *45 9.36812e-16

*RES
0 *45 *47:g 16.15522  // $poly_conn
1 *45 *36:g 30.526255  // $poly_conn
2 *45 *34:g 23.489037  // $poly_conn
3 *45 *25:g 16.15522  // $poly_conn
4 *45 *24:g 44.188705  // $poly_conn

*END

*D_NET *2 1.42029e-15

*CONN
*P *2 O *C 4.1000 1.0450 
*I *34:d B *C 1.9950 0.4750 
*I *36:d B *C 1.9950 0.4750 
*I *47:d B *C 3.4175 0.4750 
*I *24:d B *C 0.8050 0.4750 
*I *25:d B *C 0.8050 0.4750 
*I *3:d B *C 2.2000 1.2350 
*I *5:d B *C 2.6225 1.2350 
*I *7:d B *C 2.6225 1.2350 
*I *9:d B *C 3.0450 1.2350 
*I *10:d B *C 3.0450 1.2350 
*I *11:d B *C 3.4550 1.2350 
*I *12:d B *C 3.4550 1.2350 
*I *13:d B *C 3.8650 1.2350 
*I *15:d B *C 3.8650 1.2350 
*I *14:d B *C 0.4200 1.2350 
*I *16:d B *C 0.4200 1.2350 
*I *17:d B *C 0.8300 1.2350 
*I *18:d B *C 0.8300 1.2350 
*I *19:d B *C 1.2400 1.2350 
*I *20:d B *C 1.2400 1.2350 
*I *21:d B *C 1.6500 1.2350 
*I *22:d B *C 1.6500 1.2350 
*I *23:d B *C 2.2000 1.2350 
*N *2:19 *C 3.4350 0.4600 
*N *2:21 *C 1.9950 0.4600 

*CAP
0 *13:d 7.84316e-16
1 *24:d 1.07925e-16
2 *47:d 1.97578e-16
3 *34:d 2.21759e-16
4 *2 1.08707e-16

*RES
0 *13:d *2 0.276833  // $metal1_conn
1 *2 *2:19 0.871081  // $metal1_conn
2 *47:d *2:19 37.5  // $metal1_conn
3 *34:d *2:21 37.5  // $metal1_conn
4 *2:21 *24:d 38.454727  // $metal1_conn
5 *2:19 *2:21 1.036958  // $metal1_conn

*END

*D_NET *42 4.87818e-18

*CONN
*I *46:s B *C 3.2325 0.4750 
*I *47:s B *C 3.2325 0.4750 

*CAP
0 *46:s 4.87818e-18

*RES
0 *47:s *46:s 0.001  // $mwires

*END

*D_NET *39 6.18339e-18

*CONN
*I *44:d B *C 3.0450 0.4750 
*I *46:d B *C 3.0450 0.4750 

*CAP
0 *44:d 6.18339e-18

*RES
0 *46:d *44:d 0.001  // $mwires

*END

*D_NET *37 4.94436e-18

*CONN
*I *38:s B *C 2.5925 0.4750 
*I *41:d B *C 2.5925 0.4750 

*CAP
0 *38:s 4.94436e-18

*RES
0 *41:d *38:s 0.001  // $mwires

*END

*D_NET *35 1.34252e-17

*CONN
*I *36:s B *C 2.3025 0.4750 
*I *38:d B *C 2.3025 0.4750 

*CAP
0 *36:s 1.34252e-17

*RES
0 *38:d *36:s 0.001  // $mwires

*END

*D_NET *33 7.26254e-18

*CONN
*I *34:s B *C 1.7950 0.4750 
*I *29:s B *C 1.7950 0.4750 

*CAP
0 *34:s 7.26254e-18

*RES
0 *29:s *34:s 0.001  // $mwires

*END

*D_NET *32 4.69902e-18

*CONN
*I *28:d B *C 1.6300 0.4750 
*I *29:d B *C 1.6300 0.4750 

*CAP
0 *28:d 4.69902e-18

*RES
0 *29:d *28:d 0.001  // $mwires

*END

*D_NET *31 5.80912e-18

*CONN
*I *26:s B *C 1.2175 0.4750 
*I *27:d B *C 1.2175 0.4750 

*CAP
0 *26:s 5.80912e-18

*RES
0 *27:d *26:s 0.001  // $mwires

*END

*D_NET *8 9.99177e-18

*CONN
*I *25:s B *C 1.0225 0.4750 
*I *26:d B *C 1.0225 0.4750 

*CAP
0 *25:s 9.99177e-18

*RES
0 *26:d *25:s 0.001  // $mwires

*END

*D_NET *6 0

*CONN
*I *49:s B *C 0.6125 0.4750 
*I *24:s B *C 0.6125 0.4750 


*RES
0 *24:s *49:s 0.001  // $mwires

*END

*D_NET *4 0

*CONN
*I *48:d B *C 0.4700 0.4750 
*I *49:d B *C 0.4700 0.4750 


*RES
0 *49:d *48:d 0.001  // $mwires

*END

