*SPEF "IEEE 1481-1999"
*DESIGN  "NAND4BBXL"
*DATE "Mon Sep 27 10:15:04 2010"
*VENDOR "Cadence Design Systems"
*PROGRAM "Assura RCX"
*VERSION "3.2 Red Hat Linux release 7.2 (Enigma) - (09/09/2009-10:39)"
*DESIGN_FLOW "Physical Verification"
*DIVIDER /
*DELIMITER :
*BUS_DELIMITER []
*T_UNIT 1 PS
*C_UNIT 1e15 FF
*R_UNIT 1 OHM
*L_UNIT 1 MH
// DeviceFingerDelim "@"
// MATCHED
// caps2d version: 10

*NAME_MAP
*1 n1
*2 mp1
*3 n0
*4 mp5
*5 mp4
*6 mn1
*7 n2
*8 mp3
*9 mn5
*10 n3
*11 VSS
*12 mp2
*13 mn4
*14 n4
*15 mp0
*16 mn3
*17 mn2
*18 mn0
*19 Y
*20 BN
*21 C
*22 VDD
*23 D
*24 AN

*GROUND_NETS VSS

*PORTS
*22 I
*11 I
*24 I
*20 I
*21 I
*23 I
*19 O

*D_NET *22 2.68774e-16

*CONN
*P *22 I *C 0.1000 1.7100 
*I *2:s B *C 0.1100 1.0775 
*I *4:s B *C 0.5250 1.3725 
*I *5:s B *C 0.9250 1.3725 
*I *8:s B *C 0.9250 1.3725 
*I *12:s B *C 1.4000 1.3725 
*I *15:s B *C 1.4000 1.3725 
*N *22:2 *C 0.9000 1.7100 
*N *22:3 *C 0.9000 1.7100 
*N *22:4 *C 0.5150 1.7100 

*CAP
0 *12:s 3.38943e-17
1 *5:s 2.81712e-17
2 *4:s 1.84746e-17
3 *2:s 2.61799e-17
4 *22:4 1.22173e-17
5 *22:2 1.43727e-16
6 *22 6.10924e-18

*RES
0 *12:s *22:3 62.462357  // $metal1_conn
1 *22:3 *22:4 0.193004  // $metal1_conn
2 *22:4 *22 0.20811  // $metal1_conn
3 *22 *2:s 62.383316  // $metal1_conn
4 *22:3 *5:s 62.189568  // $metal1_conn
5 *22:4 *4:s 62.17572  // $metal1_conn
6 *22:2 *22:3 8.333333  // $metal1_conn

*END

*D_NET *11 0

*CONN
*P *11 I *C 0.1000 0.0000 
*I *6:s B *C 0.1100 0.3525 
*I *17:s B *C 1.4000 0.3775 
*I *18:s B *C 1.4000 0.3775 
*N *11:2 *C 0.9000 0.0000 
*N *11:3 *C 0.9000 0.0000 


*RES
0 *17:s *11:3 75.513062  // $metal1_conn
1 *11:3 *11 0.401506  // $metal1_conn
2 *11 *6:s 75.221497  // $metal1_conn
3 *11:2 *11:3 6.888889  // $metal1_conn

*END

*D_NET *24 2.37708e-16

*CONN
*P *24 I *C 1.5000 0.8550 
*I *18:g B *C 1.5025 0.3775 
*I *15:g B *C 1.5025 1.3725 
*N *24:2 *C 1.4750 0.8450 

*CAP
0 *15:g 4.20298e-17
1 *18:g 4.45009e-17
2 *24:2 1.51177e-16

*RES
0 *15:g *24:2 99.179131  // $poly_conn
1 *24:2 *18:g 92.768875  // $poly_conn
2 *24 *24:2 45.01812  // $metal1_conn

*END

*D_NET *20 1.74809e-16

*CONN
*P *20 I *C 0.1000 0.6650 
*I *6:g B *C 0.2025 0.3525 
*I *2:g B *C 0.2025 1.0775 
*N *20:2 *C 0.2025 0.6850 
*N *20:3 *C 0.1450 0.6850 
*N *20:5 *C 0.1005 0.6750 
*N *20:6 *C 0.1450 0.6750 

*CAP
0 *2:g 2.86208e-17
1 *6:g 2.83017e-17
2 *20:5 9.43243e-17
3 *20:2 1.56512e-17
4 *20:3 7.91043e-18

*RES
0 *2:g *20:2 70.322235  // $poly_conn
1 *20:2 *20:3 45.794373  // $poly_conn
2 *20:2 *6:g 63.91198  // $poly_conn
3 *20 *20:5 0.005145  // $metal1_conn
4 *20:6 *20:3 0.005145  // $metal1_conn
5 *20:5 *20:6 0.023205  // $metal1_conn

*END

*D_NET *21 3.18082e-16

*CONN
*P *21 I *C 0.9000 0.8550 
*I *13:g B *C 0.8225 0.3775 
*I *5:g B *C 0.8225 1.3725 
*N *21:2 *C 0.8500 0.9000 
*N *21:4 *C 0.8500 0.9000 

*CAP
0 *5:g 5.33724e-17
1 *13:g 8.99055e-17
2 *21:2 1.4312e-16
3 *21 3.16848e-17

*RES
0 *5:g *21:2 85.076569  // $poly_conn
1 *21:2 *13:g 106.871437  // $poly_conn
2 *21 *21:4 0.012557  // $metal1_conn
3 *21:2 *21:4 45  // $metal1_conn

*END

*D_NET *23 2.95885e-16

*CONN
*P *23 I *C 0.5000 0.8550 
*I *9:g B *C 0.7175 0.3775 
*I *4:g B *C 0.6175 1.3725 
*N *23:2 *C 0.6400 1.0800 
*N *23:4 *C 0.5700 0.8550 
*N *23:5 *C 0.5700 1.0800 
*N *23:6 *C 0.6400 1.0800 

*CAP
0 *4:g 3.40447e-17
1 *9:g 7.93128e-17
2 *23:5 6.23888e-17
3 *23:4 4.91436e-17
4 *23:2 7.0995e-17

*RES
0 *9:g *23:2 151.724487  // $poly_conn
1 *23:2 *4:g 36.629444  // $poly_conn
2 *23 *23:4 0.014135  // $metal1_conn
3 *23:5 *23:6 0.014237  // $metal1_conn
4 *23:4 *23:5 0.0542  // $metal1_conn
5 *23:2 *23:6 45  // $metal1_conn

*END

*D_NET *19 3.12997e-16

*CONN
*P *19 O *C 1.1000 1.0450 
*I *9:d B *C 0.6250 0.3775 
*I *4:d B *C 0.7200 1.3725 
*I *5:d B *C 0.7200 1.3725 
*I *8:d B *C 1.1625 1.3725 
*I *12:d B *C 1.1625 1.3725 
*N *19:2 *C 1.1175 1.2600 

*CAP
0 *8:d 1.13442e-17
1 *4:d 5.92372e-17
2 *9:d 1.06898e-16
3 *19:2 3.49141e-17
4 *19 1.00603e-16

*RES
0 *8:d *19:2 62.058384  // $metal1_conn
1 *19:2 *19 0.113288  // $metal1_conn
2 *19 *9:d 75.855255  // $metal1_conn
3 *19:2 *4:d 62.30088  // $metal1_conn

*END

*D_NET *14 3.98504e-18

*CONN
*I *16:s B *C 1.1625 0.3775 
*I *17:d B *C 1.1625 0.3775 

*CAP
0 *16:s 3.98504e-18

*RES
0 *17:d *16:s 0.001  // $mwires

*END

*D_NET *10 4.04981e-18

*CONN
*I *13:s B *C 0.9250 0.3775 
*I *16:d B *C 0.9250 0.3775 

*CAP
0 *13:s 4.04981e-18

*RES
0 *16:d *13:s 0.001  // $mwires

*END

*D_NET *7 1.62358e-18

*CONN
*I *9:s B *C 0.7700 0.3775 
*I *13:d B *C 0.7700 0.3775 

*CAP
0 *9:s 1.62358e-18

*RES
0 *13:d *9:s 0.001  // $mwires

*END

*D_NET *3 3.31541e-16

*CONN
*I *17:g B *C 1.2975 0.3775 
*I *18:d B *C 1.5950 0.3775 
*I *12:g B *C 1.2975 1.3725 
*I *15:d B *C 1.6400 1.3725 
*N *3:2 *C 1.3350 0.5750 
*N *3:5 *C 1.6950 0.5750 

*CAP
0 *15:d 5.32952e-17
1 *12:g 6.06222e-17
2 *18:d 2.96834e-17
3 *17:g 2.87902e-17
4 *3:5 5.44986e-17
5 *3:2 1.04651e-16

*RES
0 *12:g *3:2 167.437286  // $poly_conn
1 *3:2 *17:g 22.565475  // $poly_conn
2 *15:d *3:5 62.535824  // $metal1_conn
3 *3:5 *3:2 45.240993  // $metal1_conn
4 *3:5 *18:d 75.196747  // $metal1_conn

*END

*D_NET *1 4.16733e-16

*CONN
*I *6:d B *C 0.3275 0.3525 
*I *16:g B *C 1.0275 0.3775 
*I *2:d B *C 0.2950 1.0775 
*I *8:g B *C 1.0275 1.3725 
*N *1:2 *C 1.0275 0.5600 
*N *1:3 *C 0.9550 0.5600 
*N *1:5 *C 0.3050 0.5600 

*CAP
0 *8:g 6.65853e-17
1 *2:d 6.71341e-17
2 *16:g 2.76994e-17
3 *6:d 2.68312e-17
4 *1:5 7.43676e-17
5 *1:2 4.91361e-17
6 *1:3 1.04979e-16

*RES
0 *8:g *1:2 177.458191  // $poly_conn
1 *1:2 *1:3 47.037205  // $poly_conn
2 *1:2 *16:g 24.894089  // $poly_conn
3 *1:3 *1:5 0.460767  // $metal1_conn
4 *1:5 *6:d 75.147354  // $metal1_conn
5 *1:5 *2:d 62.342354  // $metal1_conn

*END

