*SPEF "IEEE 1481-1999"
*DESIGN  "NAND4X6"
*DATE "Mon Sep 27 10:18:06 2010"
*VENDOR "Cadence Design Systems"
*PROGRAM "Assura RCX"
*VERSION "3.2 Red Hat Linux release 7.2 (Enigma) - (09/09/2009-10:39)"
*DESIGN_FLOW "Physical Verification"
*DIVIDER /
*DELIMITER :
*BUS_DELIMITER []
*T_UNIT 1 PS
*C_UNIT 1e15 FF
*R_UNIT 1 OHM
*L_UNIT 1 MH
// DeviceFingerDelim "@"
// MATCHED
// caps2d version: 10

*NAME_MAP
*1 mn0\@3
*2 mn0\@4
*3 mn1
*4 mn1\@1
*5 mn1\@2
*6 mn1\@3
*7 mn1\@4
*8 mp3\@4
*9 mp0
*10 mp0\@1
*11 mp0\@2
*12 mp0\@3
*13 mp0\@4
*14 mp1
*15 mp1\@1
*16 mp1\@2
*17 mp1\@3
*18 n2
*19 mp2
*20 mp2\@1
*21 mp2\@2
*22 mp2\@3
*23 mp2\@4
*24 mp3
*25 mp3\@1
*26 mp1\@4
*27 mp3\@2
*28 mp3\@3
*29 VSS
*30 A
*31 B
*32 C
*33 D
*34 mn2
*35 mn2\@1
*36 mn2\@2
*37 mn2\@3
*38 mn2\@4
*39 VDD
*40 mn3
*41 mn3\@1
*42 mn3\@2
*43 mn3\@3
*44 n1
*45 n0
*46 Y
*47 mn3\@4
*48 mn0
*49 mn0\@1
*50 mn0\@2

*GROUND_NETS VSS

*PORTS
*39 I
*29 I
*30 I
*31 I
*32 I
*33 I
*46 O

*D_NET *39 6.92538e-16

*CONN
*P *39 I *C 0.1000 1.7100 
*I *19:s B *C 2.5200 1.1350 
*I *20:s B *C 2.9600 1.1350 
*I *21:s B *C 2.9600 1.1350 
*I *22:s B *C 3.4000 1.1350 
*I *23:s B *C 3.4000 1.1350 
*I *24:s B *C 3.8550 1.1350 
*I *25:s B *C 3.8550 1.1350 
*I *27:s B *C 4.3000 1.1350 
*I *28:s B *C 4.3000 1.1350 
*I *8:s B *C 4.7000 1.1350 
*I *9:s B *C 0.2650 1.1350 
*I *10:s B *C 0.6650 1.1350 
*I *11:s B *C 0.6650 1.1350 
*I *12:s B *C 1.0750 1.1350 
*I *13:s B *C 1.0750 1.1350 
*I *14:s B *C 1.6250 1.1350 
*I *15:s B *C 1.6250 1.1350 
*I *16:s B *C 2.1100 1.1350 
*I *17:s B *C 2.1100 1.1350 
*I *26:s B *C 2.5200 1.1350 
*N *39:3 *C 4.2000 1.7100 

*CAP
0 *12:s 1.58196e-16
1 *8:s 1.45929e-16
2 *22:s 2.57825e-16
3 *39:3 1.30589e-16

*RES
0 *12:s *39 0.077231  // $metal1_conn
1 *39:3 *8:s 9.375  // $metal1_conn
2 *39:3 *22:s 9.375  // $metal1_conn
3 *39:3 *12:s 8.333333  // $metal1_conn
4 *8:s *22:s 0.227631  // $metal1_conn
5 *22:s *12:s 0.27524  // $metal1_conn

*END

*D_NET *29 0

*CONN
*P *29 I *C 0.1000 0.0000 
*I *48:s B *C 0.2650 0.5050 
*I *49:s B *C 0.6650 0.5050 
*I *50:s B *C 0.6650 0.5050 
*I *1:s B *C 1.0750 0.5050 
*I *2:s B *C 1.0750 0.5050 
*N *29:1 *C 4.2000 0.0000 
*N *29:2 *C 2.6000 0.0000 


*RES
0 *1:s *29 0.077231  // $metal1_conn
1 *29:1 *29:2 8.551837  // $metal1_conn
2 *29:1 *29:2 7.75  // $metal1_conn
3 *29:1 *1:s 6.888889  // $metal1_conn
4 *29:2 *1:s 0.764055  // $metal1_conn

*END

*D_NET *30 3.02057e-16

*CONN
*P *30 I *C 0.7000 0.8550 
*I *48:g B *C 0.3575 0.5050 
*I *49:g B *C 0.5625 0.5050 
*I *50:g B *C 0.7675 0.5050 
*I *1:g B *C 0.9725 0.5050 
*I *2:g B *C 1.1775 0.5050 
*I *9:g B *C 0.3575 1.1350 
*I *10:g B *C 0.5625 1.1350 
*I *11:g B *C 0.7675 1.1350 
*I *12:g B *C 0.9725 1.1350 
*I *13:g B *C 1.1775 1.1350 

*CAP
0 *13:g 2.77897e-16
1 *30 2.41595e-17

*RES
0 *30 *13:g 0.032921  // $metal1_conn

*END

*D_NET *31 3.22521e-16

*CONN
*P *31 I *C 1.7000 0.8550 
*I *3:g B *C 1.5225 0.5050 
*I *4:g B *C 1.7275 0.5050 
*I *5:g B *C 1.9325 0.5050 
*I *6:g B *C 2.1375 0.5050 
*I *7:g B *C 2.3425 0.5050 
*I *14:g B *C 1.5225 1.1350 
*I *15:g B *C 1.7275 1.1350 
*I *16:g B *C 2.0075 1.1350 
*I *17:g B *C 2.2125 1.1350 
*I *26:g B *C 2.4175 1.1350 

*CAP
0 *26:g 3.04709e-16
1 *31 1.78115e-17

*RES
0 *26:g *31 0.036246  // $metal1_conn

*END

*D_NET *32 3.41295e-16

*CONN
*P *32 I *C 2.9000 0.8550 
*I *34:g B *C 2.6225 0.5050 
*I *35:g B *C 2.8325 0.5050 
*I *36:g B *C 3.0375 0.5050 
*I *37:g B *C 3.2425 0.5050 
*I *38:g B *C 3.5025 0.5050 
*I *19:g B *C 2.6225 1.1350 
*I *20:g B *C 2.8275 1.1350 
*I *21:g B *C 3.0925 1.1350 
*I *22:g B *C 3.2975 1.1350 
*I *23:g B *C 3.5025 1.1350 

*CAP
0 *23:g 3.15275e-16
1 *32 2.60203e-17

*RES
0 *23:g *32 0.024213  // $metal1_conn

*END

*D_NET *33 3.27306e-16

*CONN
*P *33 I *C 3.9000 0.8550 
*I *40:g B *C 3.7525 0.5050 
*I *41:g B *C 3.9575 0.5050 
*I *42:g B *C 4.1875 0.5050 
*I *43:g B *C 4.4025 0.5050 
*I *47:g B *C 4.6075 0.5050 
*I *24:g B *C 3.7525 1.1350 
*I *25:g B *C 3.9575 1.1350 
*I *27:g B *C 4.1975 1.1350 
*I *28:g B *C 4.4025 1.1350 
*I *8:g B *C 4.6075 1.1350 

*CAP
0 *8:g 3.02804e-16
1 *33 2.45021e-17

*RES
0 *8:g *33 0.020073  // $metal1_conn

*END

*D_NET *46 1.02344e-15

*CONN
*P *46 O *C 4.3000 0.8550 
*I *40:d B *C 3.8550 0.5050 
*I *41:d B *C 3.8550 0.5050 
*I *42:d B *C 4.2950 0.5050 
*I *43:d B *C 4.2950 0.5050 
*I *47:d B *C 4.7000 0.5050 
*I *19:d B *C 2.7250 1.1350 
*I *20:d B *C 2.7250 1.1350 
*I *21:d B *C 3.1950 1.1350 
*I *22:d B *C 3.1950 1.1350 
*I *23:d B *C 3.6275 1.1350 
*I *24:d B *C 3.6275 1.1350 
*I *25:d B *C 4.0775 1.1350 
*I *27:d B *C 4.0775 1.1350 
*I *28:d B *C 4.5050 1.1350 
*I *8:d B *C 4.5050 1.1350 
*I *9:d B *C 0.4600 1.1350 
*I *10:d B *C 0.4600 1.1350 
*I *11:d B *C 0.8700 1.1350 
*I *12:d B *C 0.8700 1.1350 
*I *13:d B *C 1.3500 1.1350 
*I *14:d B *C 1.3500 1.1350 
*I *15:d B *C 1.8675 1.1350 
*I *16:d B *C 1.8675 1.1350 
*I *17:d B *C 2.3150 1.1350 
*I *26:d B *C 2.3150 1.1350 

*CAP
0 *17:d 4.19914e-16
1 *28:d 3.99242e-16
2 *40:d 1.76484e-16
3 *46 2.77957e-17

*RES
0 *40:d *46 0.203483  // $metal1_conn
1 *46 *28:d 0.116246  // $metal1_conn
2 *28:d *17:d 0.332854  // $metal1_conn

*END

*D_NET *18 3.83571e-16

*CONN
*I *48:d B *C 0.4600 0.5050 
*I *49:d B *C 0.4600 0.5050 
*I *50:d B *C 0.8700 0.5050 
*I *1:d B *C 0.8700 0.5050 
*I *2:d B *C 1.3500 0.5050 
*I *3:s B *C 1.3500 0.5050 
*I *4:s B *C 1.8300 0.5050 
*I *5:s B *C 1.8300 0.5050 
*I *6:s B *C 2.2400 0.5050 
*I *7:s B *C 2.2400 0.5050 

*CAP
0 *6:s 3.83571e-16


*END

*D_NET *45 3.21008e-16

*CONN
*I *34:d B *C 2.7275 0.5050 
*I *35:d B *C 2.7275 0.5050 
*I *36:d B *C 3.1400 0.5050 
*I *37:d B *C 3.1400 0.5050 
*I *38:d B *C 3.6275 0.5050 
*I *40:s B *C 3.6275 0.5050 
*I *41:s B *C 4.0725 0.5050 
*I *42:s B *C 4.0725 0.5050 
*I *43:s B *C 4.5050 0.5050 
*I *47:s B *C 4.5050 0.5050 

*CAP
0 *43:s 3.21008e-16


*END

*D_NET *44 3.37355e-16

*CONN
*I *34:s B *C 2.4825 0.5050 
*I *35:s B *C 2.9350 0.5050 
*I *36:s B *C 2.9350 0.5050 
*I *37:s B *C 3.3725 0.5050 
*I *38:s B *C 3.3725 0.5050 
*I *3:d B *C 1.6250 0.5050 
*I *4:d B *C 1.6250 0.5050 
*I *5:d B *C 2.0350 0.5050 
*I *6:d B *C 2.0350 0.5050 
*I *7:d B *C 2.4825 0.5050 

*CAP
0 *37:s 3.37355e-16


*END

