*SPEF "IEEE 1481-1999"
*DESIGN  "NAND2BX4"
*DATE "Mon Sep 27 10:07:09 2010"
*VENDOR "Cadence Design Systems"
*PROGRAM "Assura RCX"
*VERSION "3.2 Red Hat Linux release 7.2 (Enigma) - (09/09/2009-10:39)"
*DESIGN_FLOW "Physical Verification"
*DIVIDER /
*DELIMITER :
*BUS_DELIMITER []
*T_UNIT 1 PS
*C_UNIT 1e15 FF
*R_UNIT 1 OHM
*L_UNIT 1 MH
// DeviceFingerDelim "@"
// MATCHED
// caps2d version: 10

*NAME_MAP
*1 mp2
*2 mp2\@1
*3 mp1\@1
*4 mp1\@2
*5 mp2\@2
*6 mp2\@3
*7 mp1\@3
*8 mp0
*9 mn1
*10 mn2
*11 AN
*12 mn2\@1
*13 mn1\@1
*14 mn1\@2
*15 mn2\@2
*16 mn2\@3
*17 mn1\@3
*18 mn0
*19 B
*20 n0
*21 n1
*22 n1\@1
*23 VSS
*24 n1\@2
*25 n1\@3
*26 VDD
*27 Y
*28 mp1

*GROUND_NETS VSS

*PORTS
*26 I
*23 I
*11 I
*19 I
*27 O

*D_NET *26 4.54354e-16

*CONN
*P *26 I *C 0.1000 1.7100 
*I *28:s B *C 0.1100 1.2850 
*I *1:s B *C 0.5100 1.2850 
*I *2:s B *C 0.5100 1.2850 
*I *3:s B *C 0.9200 1.2850 
*I *4:s B *C 0.9200 1.2850 
*I *5:s B *C 1.3300 1.2850 
*I *6:s B *C 1.3300 1.2850 
*I *7:s B *C 1.7400 1.2850 
*I *8:s B *C 1.7400 1.2850 
*N *26:3 *C 1.1000 1.7100 

*CAP
0 *26:3 1.3873e-16
1 *26 3.15624e-16

*RES
0 *26:3 *26 6.818182  // $metal1_conn

*END

*D_NET *23 0

*CONN
*P *23 I *C 0.1000 0.0000 
*I *9:s B *C 0.4150 0.3800 
*I *13:s B *C 1.0250 0.3800 
*I *14:s B *C 1.0250 0.3800 
*I *17:s B *C 1.6450 0.3800 
*I *18:s B *C 1.6450 0.3800 
*N *23:2 *C 1.1000 0.0000 
*N *23:3 *C 1.1000 0.0000 
*N *23:4 *C 1.0250 0.0000 
*N *23:5 *C 0.4050 0.0000 


*RES
0 *17:s *23:3 38.069378  // $metal1_conn
1 *23:3 *23:4 0.037528  // $metal1_conn
2 *23:4 *23:5 0.311151  // $metal1_conn
3 *23:5 *23 0.152812  // $metal1_conn
4 *23:4 *13:s 37.73106  // $metal1_conn
5 *23:5 *9:s 37.73106  // $metal1_conn
6 *23:2 *23:3 5.636364  // $metal1_conn

*END

*D_NET *11 2.3109e-16

*CONN
*P *11 I *C 1.9350 0.8450 
*I *18:g B *C 1.7475 0.3800 
*I *8:g B *C 1.8425 1.2850 
*N *11:2 *C 1.7800 0.8200 
*N *11:4 *C 1.7800 0.8200 
*N *11:5 *C 1.7800 0.8325 
*N *11:6 *C 1.9355 0.8325 

*CAP
0 *8:g 4.64375e-17
1 *18:g 4.71182e-17
2 *11:5 4.92204e-17
3 *11:2 5.61093e-17
4 *11 3.22045e-17

*RES
0 *8:g *11:2 64.24633  // $poly_conn
1 *11:2 *18:g 70.001373  // $poly_conn
2 *11:4 *11:5 0.003261  // $metal1_conn
3 *11:6 *11 0.003261  // $metal1_conn
4 *11:5 *11:6 0.063954  // $metal1_conn
5 *11:2 *11:4 45  // $metal1_conn

*END

*D_NET *19 8.27813e-16

*CONN
*P *19 I *C 0.4250 0.9650 
*I *10:g B *C 0.6125 0.3800 
*I *12:g B *C 0.8175 0.3800 
*I *15:g B *C 1.2325 0.3800 
*I *16:g B *C 1.4375 0.3800 
*I *1:g B *C 0.4075 1.2850 
*I *2:g B *C 0.6125 1.2850 
*I *5:g B *C 1.2275 1.2850 
*I *6:g B *C 1.4325 1.2850 
*N *19:2 *C 0.6125 0.6725 
*N *19:8 *C 1.2325 0.6725 

*CAP
0 *6:g 4.45429e-16
1 *16:g 7.33957e-17
2 *15:g 5.10973e-17
3 *12:g 7.1866e-17
4 *10:g 5.20731e-17
5 *19:8 3.81031e-17
6 *19:2 4.16635e-17
7 *19 5.41848e-17

*RES
0 *16:g *19:8 83.808624  // $poly_conn
1 *19:8 *15:g 40.131889  // $poly_conn
2 *12:g *19:2 83.808624  // $poly_conn
3 *19:2 *10:g 40.131889  // $poly_conn
4 *19:8 *6:g 60.094669  // $poly_conn
5 *19:2 *6:g 59.226032  // $poly_conn
6 *6:g *19 0.139963  // $metal1_conn

*END

*D_NET *27 1.1184e-15

*CONN
*P *27 O *C 0.1050 0.5850 
*I *10:d B *C 0.7150 0.3800 
*I *12:d B *C 0.7150 0.3800 
*I *15:d B *C 1.3350 0.3800 
*I *16:d B *C 1.3350 0.3800 
*I *28:d B *C 0.3050 1.2850 
*I *1:d B *C 0.3050 1.2850 
*I *2:d B *C 0.7150 1.2850 
*I *3:d B *C 0.7150 1.2850 
*I *4:d B *C 1.1250 1.2850 
*I *5:d B *C 1.1250 1.2850 
*I *6:d B *C 1.5350 1.2850 
*I *7:d B *C 1.5350 1.2850 
*N *27:6 *C 0.7150 0.5800 

*CAP
0 *6:d 6.28655e-16
1 *15:d 1.03915e-16
2 *10:d 3.77181e-17
3 *27:6 1.31146e-16
4 *27 2.16961e-16

*RES
0 *6:d *27 1.606225  // $metal1_conn
1 *27 *27:6 0.494364  // $metal1_conn
2 *27:6 *15:d 38.173962  // $metal1_conn
3 *27:6 *10:d 37.614208  // $metal1_conn

*END

*D_NET *25 0

*CONN
*I *16:s B *C 1.4900 0.3800 
*I *17:d B *C 1.4900 0.3800 


*RES
0 *17:d *16:s 0.001  // $mwires

*END

*D_NET *24 0

*CONN
*I *14:d B *C 1.1800 0.3800 
*I *15:s B *C 1.1800 0.3800 


*RES
0 *15:s *14:d 0.001  // $mwires

*END

*D_NET *22 0

*CONN
*I *12:s B *C 0.8700 0.3800 
*I *13:d B *C 0.8700 0.3800 


*RES
0 *13:d *12:s 0.001  // $mwires

*END

*D_NET *21 0

*CONN
*I *9:d B *C 0.5600 0.3800 
*I *10:s B *C 0.5600 0.3800 


*RES
0 *10:s *9:d 0.001  // $mwires

*END

*D_NET *20 1.18577e-15

*CONN
*I *9:g B *C 0.5075 0.3800 
*I *13:g B *C 0.9225 0.3800 
*I *14:g B *C 1.1275 0.3800 
*I *17:g B *C 1.5425 0.3800 
*I *18:d B *C 1.8400 0.3800 
*I *28:g B *C 0.2025 1.2850 
*I *3:g B *C 0.8175 1.2850 
*I *4:g B *C 1.0225 1.2850 
*I *7:g B *C 1.6375 1.2850 
*I *8:d B *C 1.9350 1.2850 

*CAP
0 *8:d 7.60668e-17
1 *7:g 8.3086e-16
2 *18:d 5.56737e-17
3 *17:g 5.77347e-17
4 *14:g 5.19345e-17
5 *13:g 5.60457e-17
6 *9:g 5.74596e-17

*RES
0 *7:g *17:g 19.962778  // $poly_conn
1 *14:g *7:g 39.232143  // $poly_conn
2 *7:g *13:g 61.744045  // $poly_conn
3 *9:g *7:g 42.821522  // $poly_conn
4 *8:d *7:g 21.352045  // $metal1_conn
5 *7:g *18:d 37.876499  // $metal1_conn

*END

