*SPEF "IEEE 1481-1999"
*DESIGN  "NOR2BXL"
*DATE "Mon Sep 27 10:20:21 2010"
*VENDOR "Cadence Design Systems"
*PROGRAM "Assura RCX"
*VERSION "3.2 Red Hat Linux release 7.2 (Enigma) - (09/09/2009-10:39)"
*DESIGN_FLOW "Physical Verification"
*DIVIDER /
*DELIMITER :
*BUS_DELIMITER []
*T_UNIT 1 PS
*C_UNIT 1e15 FF
*R_UNIT 1 OHM
*L_UNIT 1 MH
// DeviceFingerDelim "@"
// MATCHED
// caps2d version: 10

*NAME_MAP
*1 mp1
*2 mn0
*3 VDD
*4 mp0
*5 net76
*6 net59
*7 Y
*8 AN
*9 mn2
*10 B
*11 VSS
*12 mp2
*13 mn1

*GROUND_NETS VSS

*PORTS
*3 I
*11 I
*8 I
*10 I
*7 O

*D_NET *3 1.37877e-16

*CONN
*P *3 I *C 0.1000 1.7100 
*I *1:s B *C 0.5700 1.2525 
*I *4:s B *C 0.5700 1.2525 
*N *3:2 *C 0.5000 1.7100 
*N *3:3 *C 0.5000 1.7100 

*CAP
0 *1:s 2.43157e-17
1 *3:2 1.00589e-16
2 *3 1.29725e-17

*RES
0 *1:s *3:3 62.310272  // $metal1_conn
1 *3:3 *3 0.200209  // $metal1_conn
2 *3:2 *3:3 15  // $metal1_conn

*END

*D_NET *11 0

*CONN
*P *11 I *C 0.1000 0.0000 
*I *9:s B *C 0.1700 0.3325 
*I *13:s B *C 0.5700 0.3325 
*I *2:s B *C 0.5700 0.3325 
*N *11:2 *C 0.5000 0.0000 
*N *11:3 *C 0.5000 0.0000 
*N *11:4 *C 0.1600 0.0000 


*RES
0 *13:s *11:3 75.256355  // $metal1_conn
1 *11:3 *11:4 0.170194  // $metal1_conn
2 *11:4 *11 0.029616  // $metal1_conn
3 *11:4 *9:s 75.19622  // $metal1_conn
4 *11:2 *11:3 12.4  // $metal1_conn

*END

*D_NET *8 2.37035e-16

*CONN
*P *8 I *C 0.5000 1.0450 
*I *2:g B *C 0.6725 0.3325 
*I *4:g B *C 0.6725 1.2525 
*N *8:2 *C 0.6725 0.7750 
*N *8:3 *C 0.6150 0.7750 

*CAP
0 *4:g 3.80474e-17
1 *2:g 4.26403e-17
2 *8:2 3.66942e-17
3 *8:3 6.27833e-17
4 *8 5.68702e-17

*RES
0 *4:g *8:2 92.117111  // $poly_conn
1 *8:2 *8:3 45.794373  // $poly_conn
2 *8:2 *2:g 92.117111  // $poly_conn
3 *8:3 *8 0.189301  // $metal1_conn

*END

*D_NET *10 2.87215e-16

*CONN
*P *10 I *C 0.3000 0.8550 
*I *9:g B *C 0.2625 0.3325 
*I *12:g B *C 0.3625 1.2525 
*N *10:2 *C 0.2900 0.7000 

*CAP
0 *12:g 7.29275e-17
1 *9:g 3.41373e-17
2 *10:2 9.85202e-17
3 *10 8.16295e-17

*RES
0 *12:g *10:2 107.677101  // $poly_conn
1 *10:2 *9:g 63.965935  // $poly_conn
2 *10 *10:2 45.092777  // $metal1_conn

*END

*D_NET *7 2.13926e-16

*CONN
*P *7 O *C 0.1000 1.2350 
*I *9:d B *C 0.3650 0.3325 
*I *13:d B *C 0.3650 0.3325 
*I *12:d B *C 0.2700 1.2525 

*CAP
0 *12:d 2.5754e-17
1 *9:d 1.07987e-16
2 *7 8.01849e-17

*RES
0 *9:d *7 75.809914  // $metal1_conn
1 *7 *12:d 62.105862  // $metal1_conn

*END

*D_NET *6 0

*CONN
*I *12:s B *C 0.4150 1.2525 
*I *1:d B *C 0.4150 1.2525 


*RES
0 *1:d *12:s 0.001  // $mwires

*END

*D_NET *5 3.72594e-16

*CONN
*I *13:g B *C 0.4675 0.3325 
*I *2:d B *C 0.7650 0.3325 
*I *1:g B *C 0.4675 1.2525 
*I *4:d B *C 0.7650 1.2525 
*N *5:1 *C 0.5250 0.5400 
*N *5:2 *C 0.4675 0.5400 
*N *5:6 *C 0.7750 0.5700 

*CAP
0 *4:d 4.78238e-17
1 *1:g 9.82545e-17
2 *2:d 2.40435e-17
3 *13:g 3.09826e-17
4 *5:6 5.11677e-17
5 *5:2 8.99092e-17
6 *5:1 3.04126e-17

*RES
0 *5:1 *5:2 45.778431  // $poly_conn
1 *5:2 *13:g 27.944992  // $poly_conn
2 *5:2 *1:g 148.457809  // $poly_conn
3 *4:d *5:6 62.457508  // $metal1_conn
4 *5:6 *5:1 0.158214  // $metal1_conn
5 *5:6 *2:d 75.162605  // $metal1_conn

*END

