*SPEF "IEEE 1481-1999"
*DESIGN  "NOR2X4"
*DATE "Mon Sep 27 10:21:29 2010"
*VENDOR "Cadence Design Systems"
*PROGRAM "Assura RCX"
*VERSION "3.2 Red Hat Linux release 7.2 (Enigma) - (09/09/2009-10:39)"
*DESIGN_FLOW "Physical Verification"
*DIVIDER /
*DELIMITER :
*BUS_DELIMITER []
*T_UNIT 1 PS
*C_UNIT 1e15 FF
*R_UNIT 1 OHM
*L_UNIT 1 MH
// DeviceFingerDelim "@"
// MATCHED
// caps2d version: 10

*NAME_MAP
*1 net41\@2
*2 mp0
*3 net41\@3
*4 mp1
*5 mp1\@1
*6 mn0
*7 mp0\@1
*8 mn1
*9 VSS
*10 mp0\@2
*11 mn1\@1
*12 mp1\@2
*13 mn0\@1
*14 mp1\@3
*15 mn0\@2
*16 mp0\@3
*17 mn1\@2
*18 mn1\@3
*19 mn0\@3
*20 Y
*21 A
*22 B
*23 VDD
*24 net41
*25 net41\@1

*GROUND_NETS VSS

*PORTS
*23 I
*9 I
*21 I
*22 I
*20 O

*D_NET *23 2.8538e-16

*CONN
*P *23 I *C 0.1000 1.7100 
*I *2:s B *C 0.2700 1.2350 
*I *7:s B *C 0.8800 1.2350 
*I *10:s B *C 0.8800 1.2350 
*I *16:s B *C 1.5900 1.2350 
*N *23:2 *C 0.9000 1.7100 
*N *23:3 *C 0.9000 1.7100 
*N *23:4 *C 0.2600 1.7100 

*CAP
0 *16:s 5.39814e-17
1 *7:s 5.1254e-17
2 *2:s 3.81025e-17
3 *23:4 1.17973e-17
4 *23:2 1.28992e-16
5 *23 1.25294e-18

*RES
0 *16:s *23:3 21.338329  // $metal1_conn
1 *23:3 *23:4 0.321021  // $metal1_conn
2 *23:4 *23 0.079857  // $metal1_conn
3 *23:3 *7:s 31.263575  // $metal1_conn
4 *23:4 *2:s 20.956892  // $metal1_conn
5 *23:2 *23:3 8.333333  // $metal1_conn

*END

*D_NET *9 0

*CONN
*P *9 I *C 0.1000 0.0000 
*I *6:s B *C 0.1150 0.5000 
*I *8:s B *C 0.4700 0.5000 
*I *11:s B *C 0.4700 0.5000 
*I *13:s B *C 0.8800 0.5000 
*I *15:s B *C 0.8800 0.5000 
*I *17:s B *C 1.2900 0.5000 
*I *18:s B *C 1.2900 0.5000 
*I *19:s B *C 1.6900 0.5000 
*N *9:3 *C 0.9000 0.0000 


*RES
0 *9:3 *9 6.888889  // $metal1_conn

*END

*D_NET *21 8.8723e-16

*CONN
*P *21 I *C 0.3000 0.8300 
*I *6:g B *C 0.1625 0.5000 
*I *13:g B *C 0.7775 0.5000 
*I *15:g B *C 0.9825 0.5000 
*I *19:g B *C 1.5975 0.5000 
*I *2:g B *C 0.3625 1.2350 
*I *7:g B *C 0.7775 1.2350 
*I *10:g B *C 0.9825 1.2350 
*I *16:g B *C 1.4975 1.2350 

*CAP
0 *16:g 4.83426e-17
1 *10:g 4.44622e-17
2 *7:g 7.08347e-17
3 *2:g 7.7639e-17
4 *21 6.45952e-16

*RES
0 *21 *16:g 45.603806  // $poly_conn
1 *10:g *21 51.817165  // $poly_conn
2 *21 *7:g 48.457813  // $poly_conn
3 *2:g *21 67.325356  // $poly_conn

*END

*D_NET *22 6.82312e-16

*CONN
*P *22 I *C 1.1000 0.9500 
*I *8:g B *C 0.3675 0.5000 
*I *11:g B *C 0.5725 0.5000 
*I *17:g B *C 1.1875 0.5000 
*I *18:g B *C 1.3925 0.5000 
*I *4:g B *C 0.4675 1.2350 
*I *5:g B *C 0.6725 1.2350 
*I *12:g B *C 1.1325 1.2350 
*I *14:g B *C 1.3375 1.2350 

*CAP
0 *14:g 3.86261e-17
1 *12:g 3.90288e-17
2 *5:g 6.13401e-17
3 *4:g 7.20015e-17
4 *22 4.71315e-16

*RES
0 *22 *14:g 28.980841  // $poly_conn
1 *22 *12:g 24.894869  // $poly_conn
2 *5:g *22 23.17732  // $poly_conn
3 *22 *4:g 38.228352  // $poly_conn

*END

*D_NET *20 8.39422e-16

*CONN
*P *20 O *C 1.7000 0.9550 
*I *6:d B *C 0.2650 0.5000 
*I *8:d B *C 0.2650 0.5000 
*I *11:d B *C 0.6750 0.5000 
*I *13:d B *C 0.6750 0.5000 
*I *15:d B *C 1.0850 0.5000 
*I *17:d B *C 1.0850 0.5000 
*I *18:d B *C 1.4950 0.5000 
*I *19:d B *C 1.4950 0.5000 
*I *4:d B *C 0.5700 1.2350 
*I *5:d B *C 0.5700 1.2350 
*I *12:d B *C 1.2350 1.2350 
*I *14:d B *C 1.2350 1.2350 
*N *20:6 *C 1.2350 1.0925 

*CAP
0 *12:d 3.46647e-17
1 *4:d 1.05742e-16
2 *18:d 4.88168e-16
3 *20:6 1.37063e-16
4 *20 7.37839e-17

*RES
0 *18:d *20 0.342115  // $metal1_conn
1 *20 *20:6 0.414468  // $metal1_conn
2 *20:6 *12:d 20.751925  // $metal1_conn
3 *20:6 *4:d 21.253489  // $metal1_conn

*END

*D_NET *3 4.08415e-18

*CONN
*I *14:s B *C 1.4175 1.2350 
*I *16:d B *C 1.4175 1.2350 

*CAP
0 *14:s 4.08415e-18

*RES
0 *16:d *14:s 0.001  // $mwires

*END

*D_NET *1 3.10844e-18

*CONN
*I *10:d B *C 1.0575 1.2350 
*I *12:s B *C 1.0575 1.2350 

*CAP
0 *10:d 3.10844e-18

*RES
0 *12:s *10:d 0.001  // $mwires

*END

*D_NET *25 1.85973e-18

*CONN
*I *5:s B *C 0.7250 1.2350 
*I *7:d B *C 0.7250 1.2350 

*CAP
0 *5:s 1.85973e-18

*RES
0 *7:d *5:s 0.001  // $mwires

*END

*D_NET *24 0

*CONN
*I *2:d B *C 0.4150 1.2350 
*I *4:s B *C 0.4150 1.2350 


*RES
0 *4:s *2:d 0.001  // $mwires

*END

