*SPEF "IEEE 1481-1999"
*DESIGN  "NOR2X2"
*DATE "Mon Sep 27 10:21:06 2010"
*VENDOR "Cadence Design Systems"
*PROGRAM "Assura RCX"
*VERSION "3.2 Red Hat Linux release 7.2 (Enigma) - (09/09/2009-10:39)"
*DESIGN_FLOW "Physical Verification"
*DIVIDER /
*DELIMITER :
*BUS_DELIMITER []
*T_UNIT 1 PS
*C_UNIT 1e15 FF
*R_UNIT 1 OHM
*L_UNIT 1 MH
// DeviceFingerDelim "@"
// MATCHED
// caps2d version: 10

*NAME_MAP
*1 mp0
*2 mp1
*3 mp1\@1
*4 mp0\@1
*5 VSS
*6 net41\@1
*7 net41
*8 mn0
*9 mn1
*10 A
*11 VDD
*12 mn1\@1
*13 Y
*14 B
*15 mn0\@1

*GROUND_NETS VSS

*PORTS
*11 I
*5 I
*10 I
*14 I
*13 O

*D_NET *11 1.73863e-16

*CONN
*P *11 I *C 0.1000 1.7100 
*I *1:s B *C 0.2100 1.2150 
*I *4:s B *C 0.8100 1.2150 
*N *11:2 *C 0.5000 1.7100 
*N *11:3 *C 0.5000 1.7100 
*N *11:4 *C 0.2000 1.7100 

*CAP
0 *4:s 4.33594e-17
1 *1:s 4.77421e-17
2 *11:4 3.96269e-18
3 *11:2 7.67018e-17
4 *11 2.09672e-18

*RES
0 *4:s *11:3 21.145485  // $metal1_conn
1 *11:3 *11:4 0.150349  // $metal1_conn
2 *11:4 *11 0.049735  // $metal1_conn
3 *11:4 *1:s 20.979967  // $metal1_conn
4 *11:2 *11:3 15  // $metal1_conn

*END

*D_NET *5 0

*CONN
*P *5 I *C 0.1000 0.0000 
*I *8:s B *C 0.1100 0.5000 
*I *9:s B *C 0.5100 0.5000 
*I *12:s B *C 0.5100 0.5000 
*I *15:s B *C 0.9150 0.3550 
*N *5:2 *C 0.5000 0.0000 


*RES
0 *5:2 *5 12.4  // $metal1_conn
1 *5 *9:s 75.296013  // $metal1_conn

*END

*D_NET *10 4.89935e-16

*CONN
*P *10 I *C 0.1350 0.8550 
*I *8:g B *C 0.2025 0.5000 
*I *15:g B *C 0.8175 0.5000 
*I *1:g B *C 0.3025 1.2150 
*I *4:g B *C 0.7175 1.2150 

*CAP
0 *4:g 7.14348e-17
1 *1:g 7.2466e-17
2 *15:g 3.19609e-16
3 *10 2.6426e-17

*RES
0 *15:g *4:g 51.800201  // $poly_conn
1 *1:g *15:g 50.425823  // $poly_conn
2 *15:g *10 0.105614  // $metal1_conn

*END

*D_NET *14 3.45799e-16

*CONN
*P *14 I *C 0.3750 1.0150 
*I *9:g B *C 0.4075 0.5000 
*I *12:g B *C 0.6125 0.5000 
*I *2:g B *C 0.4075 1.2150 
*I *3:g B *C 0.6125 1.2150 

*CAP
0 *3:g 6.09807e-17
1 *2:g 5.54799e-17
2 *12:g 1.86267e-16
3 *14 4.30712e-17

*RES
0 *3:g *12:g 31.540302  // $poly_conn
1 *12:g *2:g 16.15522  // $poly_conn
2 *12:g *14 45.080742  // $metal1_conn

*END

*D_NET *13 3.76829e-16

*CONN
*P *13 O *C 0.9150 0.6700 
*I *8:d B *C 0.3050 0.5000 
*I *9:d B *C 0.3050 0.5000 
*I *12:d B *C 0.7150 0.5000 
*I *15:d B *C 0.7150 0.5000 
*I *2:d B *C 0.5100 1.2150 
*I *3:d B *C 0.5100 1.2150 

*CAP
0 *2:d 1.31156e-16
1 *12:d 1.79138e-16
2 *13 6.6535e-17

*RES
0 *13 *2:d 21.364586  // $metal1_conn
1 *12:d *13 0.130204  // $metal1_conn

*END

*D_NET *7 1.01274e-18

*CONN
*I *1:d B *C 0.3550 1.2150 
*I *2:s B *C 0.3550 1.2150 

*CAP
0 *1:d 1.01274e-18

*RES
0 *2:s *1:d 0.001  // $mwires

*END

*D_NET *6 2.52866e-18

*CONN
*I *3:s B *C 0.6650 1.2150 
*I *4:d B *C 0.6650 1.2150 

*CAP
0 *3:s 2.52866e-18

*RES
0 *4:d *3:s 0.001  // $mwires

*END

