*SPEF "IEEE 1481-1999"
*DESIGN  "NOR2X6"
*DATE "Mon Sep 27 10:21:51 2010"
*VENDOR "Cadence Design Systems"
*PROGRAM "Assura RCX"
*VERSION "3.2 Red Hat Linux release 7.2 (Enigma) - (09/09/2009-10:39)"
*DESIGN_FLOW "Physical Verification"
*DIVIDER /
*DELIMITER :
*BUS_DELIMITER []
*T_UNIT 1 PS
*C_UNIT 1e15 FF
*R_UNIT 1 OHM
*L_UNIT 1 MH
// DeviceFingerDelim "@"
// MATCHED
// caps2d version: 10

*NAME_MAP
*1 VDD
*2 mn0
*3 mn1
*4 mn1\@1
*5 mn0\@1
*6 mn0\@2
*7 VSS
*8 mp0\@4
*9 mn1\@2
*10 mp0\@5
*11 mn1\@3
*12 mp1\@5
*13 mn0\@3
*14 mn0\@4
*15 A
*16 B
*17 net41\@1
*18 net41\@2
*19 net41\@3
*20 net41\@4
*21 Y
*22 net41\@5
*23 mp1
*24 net41
*25 mp0
*26 mp0\@1
*27 mp1\@1
*28 mp1\@2
*29 mp0\@2
*30 mp0\@3
*31 mp1\@3
*32 mp1\@4
*33 mn1\@4

*GROUND_NETS VSS

*PORTS
*1 I
*7 I
*15 I
*16 I
*21 O

*D_NET *1 3.58174e-16

*CONN
*P *1 I *C 0.1000 1.7100 
*I *25:s B *C 1.5425 1.2000 
*I *26:s B *C 1.5425 1.2000 
*I *29:s B *C 2.1650 1.2000 
*I *30:s B *C 0.3100 1.2000 
*I *8:s B *C 0.9200 1.2000 
*I *10:s B *C 0.9200 1.2000 
*N *1:2 *C 1.5450 1.7100 
*N *1:3 *C 1.2000 1.7100 
*N *1:4 *C 1.2000 1.7100 
*N *1:5 *C 0.9200 1.7100 
*N *1:6 *C 0.3000 1.7100 

*CAP
0 *8:s 4.76555e-17
1 *30:s 5.21716e-17
2 *29:s 3.9568e-17
3 *25:s 4.77722e-17
4 *1:6 1.14527e-17
5 *1:5 1.46342e-17
6 *1:2 2.25616e-17
7 *1:3 1.17876e-16
8 *1 4.48282e-18

*RES
0 *29:s *1:2 21.325277  // $metal1_conn
1 *1:2 *1:4 0.172989  // $metal1_conn
2 *1:4 *1:5 0.14036  // $metal1_conn
3 *1:5 *1:6 0.310839  // $metal1_conn
4 *1:6 *1 0.09995  // $metal1_conn
5 *1:2 *25:s 31.273815  // $metal1_conn
6 *1:5 *8:s 31.273815  // $metal1_conn
7 *1:6 *30:s 20.980865  // $metal1_conn
8 *1:3 *1:4 6.25  // $metal1_conn

*END

*D_NET *7 0

*CONN
*P *7 I *C 0.1000 0.0000 
*I *2:s B *C 0.1100 0.4550 
*I *3:s B *C 0.5100 0.4550 
*I *4:s B *C 0.5100 0.4550 
*I *5:s B *C 0.9200 0.4550 
*I *6:s B *C 0.9200 0.4550 
*I *9:s B *C 1.3300 0.4550 
*I *11:s B *C 1.3300 0.4550 
*I *13:s B *C 1.7425 0.4550 
*I *14:s B *C 1.7425 0.4550 
*I *33:s B *C 2.1550 0.4550 
*N *7:4 *C 1.2000 0.0000 


*RES
0 *7:4 *7 5.166667  // $metal1_conn

*END

*D_NET *15 1.33838e-15

*CONN
*P *15 I *C 0.3400 0.7650 
*I *2:g B *C 0.2025 0.4550 
*I *5:g B *C 0.8175 0.4550 
*I *6:g B *C 1.0225 0.4550 
*I *13:g B *C 1.6375 0.4550 
*I *14:g B *C 1.8475 0.4550 
*I *25:g B *C 1.4375 1.2000 
*I *26:g B *C 1.6475 1.2000 
*I *29:g B *C 2.0625 1.2000 
*I *30:g B *C 0.4025 1.2000 
*I *8:g B *C 0.8175 1.2000 
*I *10:g B *C 1.0225 1.2000 
*N *15:18 *C 2.1000 0.8300 

*CAP
0 *10:g 6.62771e-17
1 *8:g 6.67798e-17
2 *30:g 7.69344e-17
3 *29:g 6.65828e-17
4 *26:g 6.97966e-17
5 *25:g 7.10652e-17
6 *15:18 1.1524e-16
7 *15 8.05704e-16

*RES
0 *29:g *15:18 79.065338  // $poly_conn
1 *15 *26:g 62.663757  // $poly_conn
2 *15 *25:g 73.023117  // $poly_conn
3 *10:g *15 59.509476  // $poly_conn
4 *15 *8:g 56.150124  // $poly_conn
5 *30:g *15 71.520584  // $poly_conn
6 *15:18 *15 0.564547  // $metal1_conn

*END

*D_NET *16 1.12563e-15

*CONN
*P *16 I *C 1.0950 0.8850 
*I *3:g B *C 0.4075 0.4550 
*I *4:g B *C 0.6125 0.4550 
*I *9:g B *C 1.2275 0.4550 
*I *11:g B *C 1.4325 0.4550 
*I *33:g B *C 2.0525 0.4550 
*I *23:g B *C 1.3325 1.2000 
*I *27:g B *C 1.7525 1.2000 
*I *28:g B *C 1.9575 1.2000 
*I *31:g B *C 0.5075 1.2000 
*I *32:g B *C 0.7125 1.2000 
*I *12:g B *C 1.1275 1.2000 

*CAP
0 *12:g 5.97324e-17
1 *32:g 5.983e-17
2 *31:g 6.39246e-17
3 *28:g 5.95241e-17
4 *27:g 6.0362e-17
5 *23:g 6.28954e-17
6 *16 7.59357e-16

*RES
0 *16 *28:g 30.108418  // $poly_conn
1 *16 *27:g 32.052036  // $poly_conn
2 *16 *23:g 35.307354  // $poly_conn
3 *16 *12:g 30.988207  // $poly_conn
4 *32:g *16 30.412731  // $poly_conn
5 *16 *31:g 35.307354  // $poly_conn

*END

*D_NET *21 1.1e-15

*CONN
*P *21 O *C 1.8450 1.0500 
*I *2:d B *C 0.3050 0.4550 
*I *3:d B *C 0.3050 0.4550 
*I *4:d B *C 0.7150 0.4550 
*I *5:d B *C 0.7150 0.4550 
*I *6:d B *C 1.1250 0.4550 
*I *9:d B *C 1.1250 0.4550 
*I *11:d B *C 1.5350 0.4550 
*I *13:d B *C 1.5350 0.4550 
*I *14:d B *C 1.9500 0.4550 
*I *33:d B *C 1.9500 0.4550 
*I *23:d B *C 1.2300 1.2000 
*I *27:d B *C 1.8550 1.2000 
*I *28:d B *C 1.8550 1.2000 
*I *31:d B *C 0.6100 1.2000 
*I *32:d B *C 0.6100 1.2000 
*I *12:d B *C 1.2300 1.2000 
*N *21:10 *C 0.6100 1.0575 
*N *21:12 *C 1.2300 1.0575 

*CAP
0 *31:d 3.59444e-17
1 *27:d 3.6119e-17
2 *23:d 3.5855e-17
3 *14:d 6.82396e-16
4 *21:12 9.62576e-17
5 *21:10 1.46167e-16
6 *21 6.7257e-17

*RES
0 *21 *27:d 20.772543  // $metal1_conn
1 *21:12 *21 0.451875  // $metal1_conn
2 *21:12 *23:d 20.751974  // $metal1_conn
3 *21:10 *31:d 20.751974  // $metal1_conn
4 *14:d *21:10 0.824322  // $metal1_conn
5 *21:10 *21:12 0.461891  // $metal1_conn

*END

*D_NET *18 0

*CONN
*I *28:s B *C 2.0100 1.2000 
*I *29:d B *C 2.0100 1.2000 


*RES
0 *29:d *28:s 0.001  // $mwires

*END

*D_NET *17 1.9638e-18

*CONN
*I *26:d B *C 1.7000 1.2000 
*I *27:s B *C 1.7000 1.2000 

*CAP
0 *26:d 1.9638e-18

*RES
0 *27:s *26:d 0.001  // $mwires

*END

*D_NET *24 1.94196e-18

*CONN
*I *23:s B *C 1.3850 1.2000 
*I *25:d B *C 1.3850 1.2000 

*CAP
0 *23:s 1.94196e-18

*RES
0 *25:d *23:s 0.001  // $mwires

*END

*D_NET *22 1.85414e-18

*CONN
*I *10:d B *C 1.0750 1.2000 
*I *12:s B *C 1.0750 1.2000 

*CAP
0 *10:d 1.85414e-18

*RES
0 *12:s *10:d 0.001  // $mwires

*END

*D_NET *20 1.9638e-18

*CONN
*I *32:s B *C 0.7650 1.2000 
*I *8:d B *C 0.7650 1.2000 

*CAP
0 *32:s 1.9638e-18

*RES
0 *8:d *32:s 0.001  // $mwires

*END

*D_NET *19 1.75132e-18

*CONN
*I *30:d B *C 0.4550 1.2000 
*I *31:s B *C 0.4550 1.2000 

*CAP
0 *30:d 1.75132e-18

*RES
0 *31:s *30:d 0.001  // $mwires

*END

