*SPEF "IEEE 1481-1999"
*DESIGN  "NOR3X1"
*DATE "Mon Sep 27 10:24:29 2010"
*VENDOR "Cadence Design Systems"
*PROGRAM "Assura RCX"
*VERSION "3.2 Red Hat Linux release 7.2 (Enigma) - (09/09/2009-10:39)"
*DESIGN_FLOW "Physical Verification"
*DIVIDER /
*DELIMITER :
*BUS_DELIMITER []
*T_UNIT 1 PS
*C_UNIT 1e15 FF
*R_UNIT 1 OHM
*L_UNIT 1 MH
// DeviceFingerDelim "@"
// MATCHED
// caps2d version: 10

*NAME_MAP
*1 mp1
*2 mn2
*3 VDD
*4 mp2
*5 n1
*6 Y
*7 n0
*8 A
*9 mn0
*10 B
*11 VSS
*12 mp0
*13 mn1
*14 C

*GROUND_NETS VSS

*PORTS
*3 I
*11 I
*8 I
*10 I
*14 I
*6 O

*D_NET *3 1.11184e-16

*CONN
*P *3 I *C 0.1000 1.7100 
*I *12:s B *C 0.2850 1.1400 
*N *3:1 *C 0.5000 1.7100 
*N *3:2 *C 0.2750 1.7100 

*CAP
0 *12:s 4.50769e-17
1 *3:2 2.81608e-18
2 *3:1 6.32914e-17

*RES
0 *3:1 *3:2 15.112319  // $metal1_conn
1 *3:2 *3 0.087066  // $metal1_conn
2 *3:2 *12:s 21.014757  // $metal1_conn

*END

*D_NET *11 0

*CONN
*P *11 I *C 0.1000 0.0000 
*I *9:s B *C 0.2850 0.4800 
*I *13:s B *C 0.6850 0.4800 
*I *2:s B *C 0.6850 0.4800 
*N *11:2 *C 0.5000 0.0000 
*N *11:3 *C 0.5000 0.0000 
*N *11:4 *C 0.2750 0.0000 


*RES
0 *13:s *11:3 37.922127  // $metal1_conn
1 *11:3 *11:4 0.112319  // $metal1_conn
2 *11:4 *11 0.087066  // $metal1_conn
3 *11:4 *9:s 37.800739  // $metal1_conn
4 *11:2 *11:3 12.4  // $metal1_conn

*END

*D_NET *8 1.98633e-16

*CONN
*P *8 I *C 0.2550 0.7550 
*I *9:g B *C 0.3775 0.4800 
*I *12:g B *C 0.3775 1.1400 
*N *8:2 *C 0.3775 0.7650 
*N *8:3 *C 0.3100 0.7650 

*CAP
0 *12:g 5.02282e-17
1 *9:g 3.10173e-17
2 *8:2 2.9094e-17
3 *8:3 7.87128e-17
4 *8 9.58069e-18

*RES
0 *12:g *8:2 42.842808  // $poly_conn
1 *8:2 *8:3 46.611767  // $poly_conn
2 *8:2 *9:g 36.432549  // $poly_conn
3 *8 *8:3 0.019915  // $metal1_conn

*END

*D_NET *10 2.43245e-16

*CONN
*P *10 I *C 0.5000 0.9000 
*I *13:g B *C 0.5825 0.4800 
*I *1:g B *C 0.5375 1.1400 
*N *10:2 *C 0.5100 0.8350 
*N *10:4 *C 0.5050 0.8350 
*N *10:5 *C 0.5100 0.8350 

*CAP
0 *1:g 5.81798e-17
1 *13:g 4.51541e-17
2 *10:4 3.41045e-17
3 *10:2 5.74622e-17
4 *10 4.83446e-17

*RES
0 *13:g *10:2 51.266846  // $poly_conn
1 *10:2 *1:g 16.530039  // $poly_conn
2 *10:4 *10:5 0.001025  // $metal1_conn
3 *10:4 *10 0.040255  // $metal1_conn
4 *10:2 *10:5 45  // $metal1_conn

*END

*D_NET *14 2.38828e-16

*CONN
*P *14 I *C 0.7000 1.0450 
*I *2:g B *C 0.7875 0.4800 
*I *4:g B *C 0.6925 1.1400 
*N *14:2 *C 0.7300 0.8350 

*CAP
0 *4:g 4.10889e-17
1 *2:g 3.83411e-17
2 *14:2 9.44436e-17
3 *14 6.49543e-17

*RES
0 *2:g *14:2 51.656261  // $poly_conn
1 *14:2 *4:g 17.498833  // $poly_conn
2 *14 *14:2 45.126518  // $metal1_conn

*END

*D_NET *6 2.72941e-16

*CONN
*P *6 O *C 0.9000 0.6150 
*I *9:d B *C 0.4800 0.4800 
*I *13:d B *C 0.4800 0.4800 
*I *2:d B *C 0.8800 0.4800 
*I *4:d B *C 0.8150 1.1400 
*N *6:2 *C 0.8425 0.6850 

*CAP
0 *4:d 6.45438e-17
1 *2:d 2.48044e-17
2 *9:d 9.29091e-17
3 *6:2 9.06834e-17

*RES
0 *4:d *6:2 21.008268  // $metal1_conn
1 *6:2 *9:d 37.938961  // $metal1_conn
2 *6:2 *6 0.092313  // $metal1_conn
3 *6 *2:d 37.593689  // $metal1_conn

*END

*D_NET *7 3.77524e-18

*CONN
*I *12:d B *C 0.4575 1.1400 
*I *1:s B *C 0.4575 1.1400 

*CAP
0 *12:d 3.77524e-18

*RES
0 *1:s *12:d 0.001  // $mwires

*END

*D_NET *5 1.21388e-18

*CONN
*I *1:d B *C 0.6150 1.1400 
*I *4:s B *C 0.6150 1.1400 

*CAP
0 *1:d 1.21388e-18

*RES
0 *4:s *1:d 0.001  // $mwires

*END

