*SPEF "IEEE 1481-1999"
*DESIGN  "NOR3BX2"
*DATE "Mon Sep 27 10:23:22 2010"
*VENDOR "Cadence Design Systems"
*PROGRAM "Assura RCX"
*VERSION "3.2 Red Hat Linux release 7.2 (Enigma) - (09/09/2009-10:39)"
*DESIGN_FLOW "Physical Verification"
*DIVIDER /
*DELIMITER :
*BUS_DELIMITER []
*T_UNIT 1 PS
*C_UNIT 1e15 FF
*R_UNIT 1 OHM
*L_UNIT 1 MH
// DeviceFingerDelim "@"
// MATCHED
// caps2d version: 10

*NAME_MAP
*1 net86
*2 mp1
*3 net86\@1
*4 mp2
*5 mp3
*6 mn1
*7 net86\@2
*8 mp3\@1
*9 mn2
*10 net86\@3
*11 VSS
*12 mp2\@1
*13 mn3
*14 mp1\@1
*15 mn3\@1
*16 mp0
*17 mn2\@1
*18 mn1\@1
*19 mn0
*20 Y
*21 B
*22 C
*23 VDD
*24 net91
*25 AN

*GROUND_NETS VSS

*PORTS
*23 I
*11 I
*25 I
*21 I
*22 I
*20 O

*D_NET *23 1.99315e-16

*CONN
*P *23 I *C 0.1000 1.7100 
*I *2:s B *C 0.4050 1.1250 
*I *14:s B *C 1.6300 1.0375 
*I *16:s B *C 1.6300 1.0375 
*N *23:2 *C 1.0000 1.7100 
*N *23:3 *C 1.0000 1.7100 
*N *23:4 *C 0.3950 1.7100 

*CAP
0 *14:s 3.44289e-17
1 *2:s 3.97537e-17
2 *23:4 8.4622e-18
3 *23:2 1.11572e-16
4 *23 5.09783e-18

*RES
0 *14:s *23:3 62.597027  // $metal1_conn
1 *23:3 *23:4 0.302999  // $metal1_conn
2 *23:4 *23 0.147392  // $metal1_conn
3 *23:4 *2:s 31.339615  // $metal1_conn
4 *23:2 *23:3 7.5  // $metal1_conn

*END

*D_NET *11 0

*CONN
*P *11 I *C 0.1000 0.0000 
*I *6:s B *C 0.3500 0.3900 
*I *9:s B *C 0.8200 0.3900 
*I *13:s B *C 0.8200 0.3900 
*I *15:s B *C 1.2900 0.3900 
*I *17:s B *C 1.2900 0.3900 
*I *18:s B *C 1.6950 0.3325 
*I *19:s B *C 1.6950 0.3325 
*N *11:3 *C 1.0000 0.0000 


*RES
0 *18:s *11 0.067208  // $metal1_conn
1 *11:3 *18:s 6.2  // $metal1_conn

*END

*D_NET *25 2.10344e-16

*CONN
*P *25 I *C 1.7000 0.8550 
*I *19:g B *C 1.7475 0.3325 
*I *16:g B *C 1.6775 1.0375 
*N *25:2 *C 1.7100 0.7000 

*CAP
0 *16:g 3.6319e-17
1 *19:g 3.8801e-17
2 *25:2 7.89609e-17
3 *25 5.62632e-17

*RES
0 *19:g *25:2 68.425529  // $poly_conn
1 *25:2 *16:g 49.833549  // $poly_conn
2 *25:2 *25 45.066795  // $metal1_conn

*END

*D_NET *21 5.65931e-16

*CONN
*P *21 I *C 1.3000 0.8550 
*I *9:g B *C 0.6025 0.3900 
*I *17:g B *C 1.3375 0.3900 
*I *4:g B *C 0.6025 1.1250 
*I *12:g B *C 1.3375 1.1250 

*CAP
0 *12:g 7.55737e-17
1 *4:g 9.67221e-17
2 *17:g 3.64413e-16
3 *21 2.92224e-17

*RES
0 *12:g *17:g 50.461182  // $poly_conn
1 *4:g *17:g 58.153492  // $poly_conn
2 *21 *17:g 0.092778  // $metal1_conn

*END

*D_NET *22 2.81556e-16

*CONN
*P *22 I *C 1.1000 1.0450 
*I *13:g B *C 0.8675 0.3900 
*I *15:g B *C 1.0725 0.3900 
*I *5:g B *C 0.7625 1.1250 
*I *8:g B *C 1.0175 1.1250 
*N *22:3 *C 1.0550 0.8300 

*CAP
0 *8:g 1.83558e-17
1 *5:g 5.4607e-17
2 *15:g 9.10039e-17
3 *22:3 7.49941e-17
4 *22 4.25951e-17

*RES
0 *22:3 *8:g 16.15522  // $poly_conn
1 *22:3 *5:g 83.036079  // $poly_conn
2 *15:g *22:3 40.301857  // $poly_conn
3 *22 *22:3 45.12537  // $metal1_conn

*END

*D_NET *20 4.77131e-16

*CONN
*P *20 O *C 0.1000 0.8550 
*I *6:d B *C 0.5000 0.3900 
*I *9:d B *C 0.5000 0.3900 
*I *13:d B *C 0.9700 0.3900 
*I *15:d B *C 0.9700 0.3900 
*I *17:d B *C 1.4400 0.3900 
*I *18:d B *C 1.4400 0.3900 
*I *5:d B *C 0.8900 1.1250 
*I *8:d B *C 0.8900 1.1250 

*CAP
0 *5:d 1.03377e-16
1 *17:d 1.91367e-16
2 *13:d 9.77044e-17
3 *20 8.46829e-17

*RES
0 *20 *5:d 21.38043  // $metal1_conn
1 *17:d *20 0.610364  // $metal1_conn
2 *13:d *17:d 75  // $metal1_conn

*END

*D_NET *10 0

*CONN
*I *12:s B *C 1.3900 1.1250 
*I *14:d B *C 1.3900 1.1250 


*RES
0 *14:d *12:s 0.001  // $mwires

*END

*D_NET *7 8.00559e-18

*CONN
*I *8:s B *C 1.1775 1.1250 
*I *12:d B *C 1.1775 1.1250 

*CAP
0 *8:s 8.00559e-18

*RES
0 *12:d *8:s 0.001  // $mwires

*END

*D_NET *3 0

*CONN
*I *4:s B *C 0.6825 1.1250 
*I *5:s B *C 0.6825 1.1250 


*RES
0 *5:s *4:s 0.001  // $mwires

*END

*D_NET *1 0

*CONN
*I *2:d B *C 0.5500 1.1250 
*I *4:d B *C 0.5500 1.1250 


*RES
0 *4:d *2:d 0.001  // $mwires

*END

*D_NET *24 7.76325e-16

*CONN
*I *6:g B *C 0.3975 0.3900 
*I *18:g B *C 1.5425 0.3900 
*I *19:d B *C 1.8500 0.3325 
*I *2:g B *C 0.4975 1.1250 
*I *14:g B *C 1.4425 1.1250 
*I *16:d B *C 1.7850 1.0375 
*N *24:8 *C 1.8700 0.5100 

*CAP
0 *16:d 6.09096e-17
1 *14:g 9.18608e-17
2 *2:g 7.84728e-17
3 *19:d 1.90466e-17
4 *18:g 4.75028e-16
5 *24:8 5.10067e-17

*RES
0 *18:g *14:g 66.116623  // $poly_conn
1 *2:g *18:g 74.002747  // $poly_conn
2 *24:8 *16:d 62.43047  // $metal1_conn
3 *19:d *24:8 75.114807  // $metal1_conn
4 *24:8 *18:g 0.278121  // $metal1_conn

*END

