*SPEF "IEEE 1481-1999"
*DESIGN  "NOR3X4"
*DATE "Mon Sep 27 10:25:14 2010"
*VENDOR "Cadence Design Systems"
*PROGRAM "Assura RCX"
*VERSION "3.2 Red Hat Linux release 7.2 (Enigma) - (09/09/2009-10:39)"
*DESIGN_FLOW "Physical Verification"
*DIVIDER /
*DELIMITER :
*BUS_DELIMITER []
*T_UNIT 1 PS
*C_UNIT 1e15 FF
*R_UNIT 1 OHM
*L_UNIT 1 MH
// DeviceFingerDelim "@"
// MATCHED
// caps2d version: 10

*NAME_MAP
*1 VDD
*2 A
*3 B
*4 C
*5 mp2\@3
*6 mp1\@3
*7 mp0\@3
*8 n0\@7
*9 n0
*10 n0\@1
*11 n0\@2
*12 n0\@3
*13 Y
*14 n0\@4
*15 n0\@5
*16 n0\@6
*17 VSS
*18 mp0
*19 mp1
*20 mp2
*21 mp2\@1
*22 mp1\@1
*23 mp0\@1
*24 mp0\@2
*25 mn0
*26 mp1\@2
*27 mn1
*28 mp2\@2
*29 mn2
*30 mn2\@1
*31 mn1\@1
*32 mn0\@1
*33 mn0\@2
*34 mn2\@3
*35 mn1\@2
*36 mn1\@3
*37 mn2\@2
*38 mn0\@3

*GROUND_NETS VSS

*PORTS
*1 I
*17 I
*2 I
*3 I
*4 I
*13 O

*D_NET *1 3.56884e-16

*CONN
*P *1 I *C 0.1000 1.7100 
*I *18:s B *C 1.5200 1.1800 
*I *23:s B *C 2.7250 1.1800 
*I *24:s B *C 0.3250 1.1800 
*I *7:s B *C 1.5200 1.1800 
*N *1:2 *C 0.3150 1.7100 
*N *1:3 *C 0.8000 1.7100 
*N *1:4 *C 0.8000 1.7100 
*N *1:5 *C 1.4900 1.7100 
*N *1:7 *C 2.3000 1.7100 

*CAP
0 *24:s 3.74189e-17
1 *23:s 4.49949e-17
2 *18:s 4.88731e-17
3 *1:5 1.95859e-17
4 *1:2 5.52179e-18
5 *1:3 1.95767e-16
6 *1 4.72303e-18

*RES
0 *24:s *1:2 31.292139  // $metal1_conn
1 *1:2 *1 0.1071  // $metal1_conn
2 *1:2 *1:4 0.24249  // $metal1_conn
3 *1:4 *1:5 0.345654  // $metal1_conn
4 *1:5 *18:s 62.240086  // $metal1_conn
5 *1:5 *1:7 0.405802  // $metal1_conn
6 *1:7 *23:s 62.466721  // $metal1_conn
7 *1:3 *1:4 9.375  // $metal1_conn
8 *1:3 *1:7 10.714286  // $metal1_conn

*END

*D_NET *2 1.02247e-15

*CONN
*P *2 I *C 0.1000 0.8550 
*I *25:g B *C 1.6225 0.4000 
*I *32:g B *C 2.7675 0.4000 
*I *33:g B *C 0.2125 0.4000 
*I *38:g B *C 1.3575 0.4000 
*I *18:g B *C 1.6225 1.1800 
*I *23:g B *C 2.6325 1.1800 
*I *24:g B *C 0.4175 1.1800 
*I *7:g B *C 1.4175 1.1800 

*CAP
0 *7:g 3.43246e-17
1 *24:g 8.23071e-17
2 *23:g 6.30161e-17
3 *18:g 2.81907e-17
4 *2 8.14631e-16

*RES
0 *2 *23:g 16.15522  // $poly_conn
1 *18:g *2 16.15522  // $poly_conn
2 *2 *7:g 50.183952  // $poly_conn
3 *24:g *2 72.749985  // $poly_conn

*END

*D_NET *3 1.07664e-15

*CONN
*P *3 I *C 2.5000 0.6650 
*I *27:g B *C 1.8275 0.4000 
*I *31:g B *C 2.5625 0.4000 
*I *35:g B *C 0.4175 0.4000 
*I *36:g B *C 1.1525 0.4000 
*I *19:g B *C 1.8275 1.1800 
*I *22:g B *C 2.5275 1.1800 
*I *26:g B *C 0.5225 1.1800 
*I *6:g B *C 1.1525 1.1800 

*CAP
0 *6:g 7.44442e-17
1 *26:g 7.08638e-17
2 *22:g 9.05886e-17
3 *19:g 4.92885e-17
4 *31:g 7.70843e-16
5 *3 2.06149e-17

*RES
0 *31:g *22:g 53.709526  // $poly_conn
1 *19:g *31:g 50.461182  // $poly_conn
2 *6:g *31:g 29.948362  // $poly_conn
3 *26:g *31:g 30.632605  // $poly_conn
4 *3 *31:g 0.042925  // $metal1_conn

*END

*D_NET *4 6.98488e-16

*CONN
*P *4 I *C 0.9000 0.6650 
*I *29:g B *C 2.0925 0.4000 
*I *30:g B *C 2.2975 0.4000 
*I *37:g B *C 0.6825 0.4000 
*I *34:g B *C 0.8875 0.4000 
*I *20:g B *C 2.0925 1.1800 
*I *21:g B *C 2.2975 1.1800 
*I *28:g B *C 0.8425 1.1800 
*I *5:g B *C 1.0475 1.1800 
*N *4:2 *C 0.8875 0.8875 
*N *4:8 *C 2.0925 0.8875 

*CAP
0 *5:g 7.81538e-17
1 *28:g 2.37324e-17
2 *21:g 3.9952e-17
3 *20:g 2.64947e-17
4 *30:g 3.44191e-16
5 *4:8 2.02195e-17
6 *4:2 2.0353e-17
7 *4 1.45391e-16

*RES
0 *21:g *4:8 67.14196  // $poly_conn
1 *4:8 *20:g 23.465221  // $poly_conn
2 *5:g *4:2 58.959621  // $poly_conn
3 *4:2 *28:g 29.472441  // $poly_conn
4 *4:8 *30:g 55.005058  // $poly_conn
5 *4:2 *30:g 45.430065  // $poly_conn
6 *4 *30:g 0.004023  // $metal1_conn

*END

*D_NET *13 8.90983e-16

*CONN
*P *13 O *C 2.9000 0.4750 
*I *25:d B *C 1.7250 0.4000 
*I *27:d B *C 1.7250 0.4000 
*I *29:d B *C 2.1950 0.4000 
*I *30:d B *C 2.1950 0.4000 
*I *31:d B *C 2.6650 0.4000 
*I *32:d B *C 2.6650 0.4000 
*I *33:d B *C 0.3150 0.4000 
*I *35:d B *C 0.3150 0.4000 
*I *37:d B *C 0.7850 0.4000 
*I *34:d B *C 0.7850 0.4000 
*I *36:d B *C 1.2550 0.4000 
*I *38:d B *C 1.2550 0.4000 
*I *20:d B *C 2.1950 1.1800 
*I *21:d B *C 2.1950 1.1800 
*I *28:d B *C 0.9450 1.1800 
*I *5:d B *C 0.9450 1.1800 
*N *13:12 *C 2.1950 1.1550 

*CAP
0 *28:d 1.44543e-16
1 *20:d 2.11468e-17
2 *31:d 4.00611e-16
3 *13:12 2.31311e-16
4 *13 9.33712e-17

*RES
0 *31:d *13 0.228952  // $metal1_conn
1 *13 *13:12 0.970344  // $metal1_conn
2 *13:12 *20:d 31.049231  // $metal1_conn
3 *13:12 *28:d 32.000648  // $metal1_conn

*END

*D_NET *12 2.46256e-18

*CONN
*I *22:s B *C 2.5800 1.1800 
*I *23:d B *C 2.5800 1.1800 

*CAP
0 *22:s 2.46256e-18

*RES
0 *23:d *22:s 0.001  // $mwires

*END

*D_NET *11 7.49816e-18

*CONN
*I *21:s B *C 2.4125 1.1800 
*I *22:d B *C 2.4125 1.1800 

*CAP
0 *21:s 7.49816e-18

*RES
0 *22:d *21:s 0.001  // $mwires

*END

*D_NET *10 9.64551e-18

*CONN
*I *19:s B *C 1.9600 1.1800 
*I *20:s B *C 1.9600 1.1800 

*CAP
0 *19:s 9.64551e-18

*RES
0 *20:s *19:s 0.001  // $mwires

*END

*D_NET *9 6.47224e-18

*CONN
*I *18:d B *C 1.7250 1.1800 
*I *19:d B *C 1.7250 1.1800 

*CAP
0 *18:d 6.47224e-18

*RES
0 *19:d *18:d 0.001  // $mwires

*END

*D_NET *8 9.6571e-18

*CONN
*I *6:s B *C 1.2850 1.1800 
*I *7:d B *C 1.2850 1.1800 

*CAP
0 *6:s 9.6571e-18

*RES
0 *7:d *6:s 0.001  // $mwires

*END

*D_NET *16 2.46256e-18

*CONN
*I *5:s B *C 1.1000 1.1800 
*I *6:d B *C 1.1000 1.1800 

*CAP
0 *5:s 2.46256e-18

*RES
0 *6:d *5:s 0.001  // $mwires

*END

*D_NET *15 7.33795e-18

*CONN
*I *26:s B *C 0.6825 1.1800 
*I *28:s B *C 0.6825 1.1800 

*CAP
0 *26:s 7.33795e-18

*RES
0 *28:s *26:s 0.001  // $mwires

*END

*D_NET *14 1.33669e-18

*CONN
*I *24:d B *C 0.4700 1.1800 
*I *26:d B *C 0.4700 1.1800 

*CAP
0 *24:d 1.33669e-18

*RES
0 *26:d *24:d 0.001  // $mwires

*END

