*SPEF "IEEE 1481-1999"
*DESIGN  "NOR3X6"
*DATE "Mon Sep 27 10:25:38 2010"
*VENDOR "Cadence Design Systems"
*PROGRAM "Assura RCX"
*VERSION "3.2 Red Hat Linux release 7.2 (Enigma) - (09/09/2009-10:39)"
*DESIGN_FLOW "Physical Verification"
*DIVIDER /
*DELIMITER :
*BUS_DELIMITER []
*T_UNIT 1 PS
*C_UNIT 1e15 FF
*R_UNIT 1 OHM
*L_UNIT 1 MH
// DeviceFingerDelim "@"
// MATCHED
// caps2d version: 10

*NAME_MAP
*1 VDD
*2 Y
*3 mp2
*4 n0\@7
*5 mp2\@1
*6 n0\@8
*7 mp1\@1
*8 n0\@9
*9 mp0\@1
*10 mp0\@2
*11 mp1\@2
*12 mp2\@2
*13 mp2\@3
*14 mp0\@3
*15 mp1\@3
*16 mp0\@4
*17 mp1\@4
*18 mp2\@4
*19 mp2\@5
*20 mp1\@5
*21 mp0\@5
*22 mp0
*23 mp1
*24 mn2\@3
*25 mn2\@4
*26 mn1\@3
*27 mn0\@3
*28 mn0\@4
*29 mn1\@4
*30 VSS
*31 n0\@10
*32 n0\@11
*33 n0
*34 mn2
*35 n0\@1
*36 mn2\@1
*37 n0\@2
*38 mn1
*39 n0\@3
*40 A
*41 mn0
*42 n0\@4
*43 B
*44 mn0\@1
*45 n0\@5
*46 C
*47 mn1\@1
*48 n0\@6
*49 mn2\@2
*50 mn0\@2
*51 mn1\@2

*GROUND_NETS VSS

*PORTS
*1 I
*30 I
*40 I
*43 I
*46 I
*2 O

*D_NET *1 4.87681e-16

*CONN
*P *1 I *C 0.1000 1.7100 
*I *9:s B *C 3.0400 1.2100 
*I *10:s B *C 3.0400 1.2100 
*I *14:s B *C 4.0000 1.2100 
*I *16:s B *C 0.3400 1.2100 
*I *21:s B *C 1.5800 1.2100 
*I *22:s B *C 1.5800 1.2100 
*N *1:2 *C 0.3300 1.7100 
*N *1:3 *C 1.1000 1.7100 
*N *1:4 *C 1.1000 1.7100 
*N *1:5 *C 1.5500 1.7100 
*N *1:7 *C 3.0100 1.7100 
*N *1:9 *C 3.2000 1.7100 

*CAP
0 *21:s 4.42445e-17
1 *16:s 3.56527e-17
2 *14:s 4.66267e-17
3 *9:s 4.07948e-17
4 *1:7 2.88349e-17
5 *1:5 2.98406e-17
6 *1:2 1.3074e-17
7 *1:3 2.48613e-16

*RES
0 *16:s *1:2 31.268744  // $metal1_conn
1 *1:2 *1 0.114502  // $metal1_conn
2 *1:2 *1:4 0.385599  // $metal1_conn
3 *1:4 *1:5 0.225509  // $metal1_conn
4 *1:5 *21:s 62.221405  // $metal1_conn
5 *1:5 *1:7 0.731895  // $metal1_conn
6 *1:7 *9:s 62.221405  // $metal1_conn
7 *1:7 *1:9 0.095102  // $metal1_conn
8 *1:9 *14:s 62.64476  // $metal1_conn
9 *1:3 *1:4 6.818182  // $metal1_conn
10 *1:3 *1:9 7.5  // $metal1_conn

*END

*D_NET *30 0

*CONN
*P *30 I *C 0.1000 0.0000 
*I *34:s B *C 2.1650 0.4500 
*I *36:s B *C 2.6350 0.4500 
*I *38:s B *C 2.6350 0.4500 
*I *41:s B *C 3.1050 0.4500 
*I *44:s B *C 3.1050 0.4500 
*I *47:s B *C 3.5750 0.4500 
*I *49:s B *C 3.5750 0.4500 
*I *50:s B *C 0.2400 0.4500 
*I *51:s B *C 0.7550 0.4500 
*I *24:s B *C 0.7550 0.4500 
*I *25:s B *C 1.2250 0.4500 
*I *26:s B *C 1.2250 0.4500 
*I *27:s B *C 1.6950 0.4500 
*I *28:s B *C 1.6950 0.4500 
*I *29:s B *C 2.1650 0.4500 


*RES
0 *47:s *30 0.064345  // $metal1_conn

*END

*D_NET *40 1.48796e-15

*CONN
*P *40 I *C 0.3000 0.8550 
*I *41:g B *C 2.8875 0.4500 
*I *44:g B *C 3.1525 0.4500 
*I *50:g B *C 0.3325 0.4500 
*I *27:g B *C 1.4775 0.4500 
*I *28:g B *C 1.7425 0.4500 
*I *9:g B *C 2.9375 1.2100 
*I *10:g B *C 3.1425 1.2100 
*I *14:g B *C 3.9075 1.2100 
*I *16:g B *C 0.4325 1.2100 
*I *21:g B *C 1.4775 1.2100 
*I *22:g B *C 1.6825 1.2100 
*N *40:17 *C 3.9350 0.8200 

*CAP
0 *22:g 2.37244e-17
1 *21:g 2.93578e-17
2 *16:g 6.03713e-17
3 *14:g 4.98666e-17
4 *10:g 3.01832e-17
5 *9:g 2.36389e-17
6 *44:g 1.05585e-15
7 *40:17 1.95609e-16
8 *40 1.93616e-17

*RES
0 *14:g *40:17 86.486824  // $poly_conn
1 *44:g *10:g 33.039288  // $poly_conn
2 *44:g *9:g 16.15522  // $poly_conn
3 *44:g *22:g 16.15522  // $poly_conn
4 *44:g *21:g 31.15753  // $poly_conn
5 *16:g *44:g 29.471973  // $poly_conn
6 *44:g *40 0.037056  // $metal1_conn
7 *44:g *40:17 0.983115  // $metal1_conn

*END

*D_NET *43 1.77607e-15

*CONN
*P *43 I *C 3.7000 0.8550 
*I *38:g B *C 2.6825 0.4500 
*I *47:g B *C 3.3575 0.4500 
*I *51:g B *C 0.5375 0.4500 
*I *26:g B *C 1.2725 0.4500 
*I *29:g B *C 1.9475 0.4500 
*I *7:g B *C 2.6825 1.2100 
*I *11:g B *C 3.3575 1.2100 
*I *15:g B *C 3.7725 1.2100 
*I *17:g B *C 0.5375 1.2100 
*I *20:g B *C 1.2725 1.2100 
*I *23:g B *C 1.9475 1.2100 
*N *43:17 *C 3.7650 0.7850 

*CAP
0 *23:g 3.66975e-17
1 *20:g 7.94953e-17
2 *17:g 6.9502e-17
3 *15:g 1.01367e-16
4 *11:g 7.78503e-17
5 *7:g 8.32074e-17
6 *47:g 1.17864e-15
7 *43:17 8.59402e-17
8 *43 6.33652e-17

*RES
0 *15:g *43:17 94.488556  // $poly_conn
1 *11:g *47:g 29.948362  // $poly_conn
2 *7:g *47:g 50.461182  // $poly_conn
3 *23:g *47:g 35.347393  // $poly_conn
4 *20:g *47:g 29.948362  // $poly_conn
5 *17:g *47:g 29.948362  // $poly_conn
6 *43:17 *43 0.075181  // $metal1_conn
7 *43 *47:g 0.296373  // $metal1_conn

*END

*D_NET *46 1.21127e-15

*CONN
*P *46 I *C 1.1000 0.6650 
*I *34:g B *C 2.2125 0.4500 
*I *36:g B *C 2.4175 0.4500 
*I *49:g B *C 3.6225 0.4500 
*I *24:g B *C 0.8025 0.4500 
*I *25:g B *C 1.0075 0.4500 
*I *3:g B *C 2.3725 1.2100 
*I *5:g B *C 2.5775 1.2100 
*I *12:g B *C 3.4625 1.2100 
*I *13:g B *C 3.6675 1.2100 
*I *18:g B *C 0.9625 1.2100 
*I *19:g B *C 1.1675 1.2100 
*N *46:16 *C 3.6225 0.9175 

*CAP
0 *19:g 7.6338e-17
1 *18:g 2.8286e-17
2 *13:g 5.8445e-17
3 *12:g 7.48044e-17
4 *5:g 7.99719e-17
5 *3:g 2.73824e-17
6 *46:16 3.04258e-17
7 *46 8.35614e-16

*RES
0 *13:g *46:16 29.472441  // $poly_conn
1 *46:16 *12:g 58.959621  // $poly_conn
2 *5:g *46 106.395515  // $poly_conn
3 *46 *3:g 67.544991  // $poly_conn
4 *19:g *46 79.84124  // $poly_conn
5 *46 *18:g 68.843178  // $poly_conn
6 *46:16 *46 47.032978  // $poly_conn

*END

*D_NET *2 1.28007e-15

*CONN
*P *2 O *C 4.1000 1.0450 
*I *34:d B *C 2.3150 0.4500 
*I *36:d B *C 2.3150 0.4500 
*I *38:d B *C 2.7850 0.4500 
*I *41:d B *C 2.7850 0.4500 
*I *44:d B *C 3.2550 0.4500 
*I *47:d B *C 3.2550 0.4500 
*I *49:d B *C 3.7150 0.4500 
*I *50:d B *C 0.4350 0.4500 
*I *51:d B *C 0.4350 0.4500 
*I *24:d B *C 0.9050 0.4500 
*I *25:d B *C 0.9050 0.4500 
*I *26:d B *C 1.3750 0.4500 
*I *27:d B *C 1.3750 0.4500 
*I *28:d B *C 1.8450 0.4500 
*I *29:d B *C 1.8450 0.4500 
*I *3:d B *C 2.4750 1.2100 
*I *5:d B *C 2.4750 1.2100 
*I *12:d B *C 3.5650 1.2100 
*I *13:d B *C 3.5650 1.2100 
*I *18:d B *C 1.0650 1.2100 
*I *19:d B *C 1.0650 1.2100 
*N *2:17 *C 3.5650 1.2150 
*N *2:19 *C 2.4750 1.2150 

*CAP
0 *18:d 1.56229e-16
1 *12:d 1.58937e-16
2 *3:d 2.21982e-16
3 *49:d 6.27676e-16
4 *2 1.15248e-16

*RES
0 *49:d *2 0.677463  // $metal1_conn
1 *2 *2:17 0.426289  // $metal1_conn
2 *12:d *2:17 62  // $metal1_conn
3 *3:d *2:19 62  // $metal1_conn
4 *2:19 *18:d 63.046253  // $metal1_conn
5 *2:17 *2:19 0.808652  // $metal1_conn

*END

*D_NET *48 3.56707e-18

*CONN
*I *15:s B *C 3.8400 1.2100 
*I *14:d B *C 3.8400 1.2100 

*CAP
0 *15:s 3.56707e-18

*RES
0 *14:d *15:s 0.001  // $mwires

*END

*D_NET *45 2.34374e-18

*CONN
*I *13:s B *C 3.7200 1.2100 
*I *15:d B *C 3.7200 1.2100 

*CAP
0 *13:s 2.34374e-18

*RES
0 *15:d *13:s 0.001  // $mwires

*END

*D_NET *42 2.44041e-18

*CONN
*I *11:s B *C 3.4100 1.2100 
*I *12:s B *C 3.4100 1.2100 

*CAP
0 *11:s 2.44041e-18

*RES
0 *12:s *11:s 0.001  // $mwires

*END

*D_NET *39 6.82273e-18

*CONN
*I *10:d B *C 3.2500 1.2100 
*I *11:d B *C 3.2500 1.2100 

*CAP
0 *10:d 6.82273e-18

*RES
0 *11:d *10:d 0.001  // $mwires

*END

*D_NET *37 8.03717e-18

*CONN
*I *7:s B *C 2.8100 1.2100 
*I *9:d B *C 2.8100 1.2100 

*CAP
0 *7:s 8.03717e-18

*RES
0 *9:d *7:s 0.001  // $mwires

*END

*D_NET *35 2.44041e-18

*CONN
*I *5:s B *C 2.6300 1.2100 
*I *7:d B *C 2.6300 1.2100 

*CAP
0 *5:s 2.44041e-18

*RES
0 *7:d *5:s 0.001  // $mwires

*END

*D_NET *33 1.67776e-17

*CONN
*I *3:s B *C 2.1600 1.2100 
*I *23:s B *C 2.1600 1.2100 

*CAP
0 *3:s 1.67776e-17

*RES
0 *23:s *3:s 0.001  // $mwires

*END

*D_NET *32 8.79599e-18

*CONN
*I *22:d B *C 1.8150 1.2100 
*I *23:d B *C 1.8150 1.2100 

*CAP
0 *22:d 8.79599e-18

*RES
0 *23:d *22:d 0.001  // $mwires

*END

*D_NET *31 6.41825e-18

*CONN
*I *20:s B *C 1.3750 1.2100 
*I *21:d B *C 1.3750 1.2100 

*CAP
0 *20:s 6.41825e-18

*RES
0 *21:d *20:s 0.001  // $mwires

*END

*D_NET *8 2.44041e-18

*CONN
*I *19:s B *C 1.2200 1.2100 
*I *20:d B *C 1.2200 1.2100 

*CAP
0 *19:s 2.44041e-18

*RES
0 *20:d *19:s 0.001  // $mwires

*END

*D_NET *6 1.16747e-17

*CONN
*I *17:s B *C 0.7500 1.2100 
*I *18:s B *C 0.7500 1.2100 

*CAP
0 *17:s 1.16747e-17

*RES
0 *18:s *17:s 0.001  // $mwires

*END

*D_NET *4 1.56659e-18

*CONN
*I *16:d B *C 0.4850 1.2100 
*I *17:d B *C 0.4850 1.2100 

*CAP
0 *16:d 1.56659e-18

*RES
0 *17:d *16:d 0.001  // $mwires

*END

