*SPEF "IEEE 1481-1999"
*DESIGN  "NOR3BXL"
*DATE "Mon Sep 27 10:24:07 2010"
*VENDOR "Cadence Design Systems"
*PROGRAM "Assura RCX"
*VERSION "3.2 Red Hat Linux release 7.2 (Enigma) - (09/09/2009-10:39)"
*DESIGN_FLOW "Physical Verification"
*DIVIDER /
*DELIMITER :
*BUS_DELIMITER []
*T_UNIT 1 PS
*C_UNIT 1e15 FF
*R_UNIT 1 OHM
*L_UNIT 1 MH
// DeviceFingerDelim "@"
// MATCHED
// caps2d version: 10

*NAME_MAP
*1 mp3
*2 mp2
*3 mp1
*4 AN
*5 mp0
*6 VSS
*7 net91
*8 net86
*9 net90
*10 mn3
*11 mn2
*12 VDD
*13 mn1
*14 Y
*15 B
*16 mn0
*17 C

*GROUND_NETS VSS

*PORTS
*12 I
*6 I
*4 I
*15 I
*17 I
*14 O

*D_NET *12 1.68755e-16

*CONN
*P *12 I *C 0.1000 1.7100 
*I *3:s B *C 0.7700 1.2425 
*I *5:s B *C 0.7700 1.2425 
*N *12:2 *C 0.6000 1.7100 
*N *12:3 *C 0.6000 1.7100 

*CAP
0 *3:s 3.06416e-17
1 *12:2 1.23917e-16
2 *12 1.41965e-17

*RES
0 *3:s *12:3 62.371567  // $metal1_conn
1 *12:3 *12 0.250449  // $metal1_conn
2 *12:2 *12:3 12.5  // $metal1_conn

*END

*D_NET *6 0

*CONN
*P *6 I *C 0.1000 0.0000 
*I *10:s B *C 0.3750 0.3225 
*I *11:s B *C 0.3750 0.3225 
*I *13:s B *C 0.7850 0.3225 
*I *16:s B *C 0.7850 0.3225 
*N *6:2 *C 0.6000 0.0000 
*N *6:3 *C 0.6000 0.0000 
*N *6:4 *C 0.3750 0.0000 


*RES
0 *13:s *6:3 75.308434  // $metal1_conn
1 *6:3 *6:4 0.112619  // $metal1_conn
2 *6:4 *6 0.137438  // $metal1_conn
3 *6:4 *10:s 75.190849  // $metal1_conn
4 *6:2 *6:3 10.333333  // $metal1_conn

*END

*D_NET *4 2.12901e-16

*CONN
*P *4 I *C 0.9000 0.8550 
*I *16:g B *C 0.8875 0.3225 
*I *5:g B *C 0.8725 1.2425 
*N *4:2 *C 0.8500 0.8350 

*CAP
0 *5:g 3.59276e-17
1 *16:g 4.38268e-17
2 *4:2 1.33146e-16

*RES
0 *16:g *4:2 103.334709  // $poly_conn
1 *4:2 *5:g 67.437271  // $poly_conn
2 *4 *4:2 45.026024  // $metal1_conn

*END

*D_NET *15 2.76161e-16

*CONN
*P *15 I *C 0.5000 1.0450 
*I *11:g B *C 0.4775 0.3225 
*I *2:g B *C 0.4775 1.2425 
*N *15:2 *C 0.5050 1.0250 
*N *15:4 *C 0.5050 1.0250 

*CAP
0 *2:g 4.58969e-17
1 *11:g 6.72891e-17
2 *15:2 1.62974e-16

*RES
0 *2:g *15:2 19.691952  // $poly_conn
1 *15:2 *11:g 153.025284  // $poly_conn
2 *15:4 *15 0.012444  // $metal1_conn
3 *15:2 *15:4 45  // $metal1_conn

*END

*D_NET *17 2.67523e-16

*CONN
*P *17 I *C 0.3000 0.8550 
*I *10:g B *C 0.2725 0.3225 
*I *1:g B *C 0.3475 1.2425 
*N *17:2 *C 0.3100 0.6900 

*CAP
0 *1:g 6.16012e-17
1 *10:g 3.52618e-17
2 *17:2 9.64679e-17
3 *17 7.41924e-17

*RES
0 *1:g *17:2 106.88707  // $poly_conn
1 *17:2 *10:g 68.425529  // $poly_conn
2 *17 *17:2 45.098953  // $metal1_conn

*END

*D_NET *14 2.52211e-16

*CONN
*P *14 O *C 0.1000 0.6650 
*I *10:d B *C 0.1800 0.3225 
*I *11:d B *C 0.5800 0.3225 
*I *13:d B *C 0.5800 0.3225 
*I *1:d B *C 0.2550 1.2425 
*N *14:2 *C 0.1700 0.5000 

*CAP
0 *1:d 5.58514e-17
1 *11:d 6.74394e-17
2 *10:d 2.06968e-17
3 *14:2 4.32666e-17
4 *14 6.49564e-17

*RES
0 *10:d *14:2 75.09343  // $metal1_conn
1 *14:2 *14 0.155407  // $metal1_conn
2 *14:2 *11:d 75.367371  // $metal1_conn
3 *14 *1:d 62.509636  // $metal1_conn

*END

*D_NET *9 0

*CONN
*I *1:s B *C 0.4125 1.2425 
*I *2:d B *C 0.4125 1.2425 


*RES
0 *2:d *1:s 0.001  // $mwires

*END

*D_NET *8 0

*CONN
*I *2:s B *C 0.5725 1.2425 
*I *3:d B *C 0.5725 1.2425 


*RES
0 *3:d *2:s 0.001  // $mwires

*END

*D_NET *7 3.45624e-16

*CONN
*I *13:g B *C 0.6825 0.3225 
*I *16:d B *C 0.9800 0.3225 
*I *3:g B *C 0.6675 1.2425 
*I *5:d B *C 0.9650 1.2425 
*N *7:2 *C 0.6950 0.5550 
*N *7:5 *C 1.0950 0.5250 

*CAP
0 *5:d 5.45129e-17
1 *3:g 7.19448e-17
2 *16:d 3.32707e-17
3 *13:g 3.15506e-17
4 *7:5 4.66591e-17
5 *7:2 1.07685e-16

*RES
0 *13:g *7:2 30.219189  // $poly_conn
1 *7:2 *3:g 137.911499  // $poly_conn
2 *16:d *7:5 75.184273  // $metal1_conn
3 *7:5 *7:2 45.261154  // $metal1_conn
4 *7:5 *5:d 62.521523  // $metal1_conn

*END

