*SPEF "IEEE 1481-1999"
*DESIGN  "NOR4X2"
*DATE "Mon Sep 27 10:30:08 2010"
*VENDOR "Cadence Design Systems"
*PROGRAM "Assura RCX"
*VERSION "3.2 Red Hat Linux release 7.2 (Enigma) - (09/09/2009-10:39)"
*DESIGN_FLOW "Physical Verification"
*DIVIDER /
*DELIMITER :
*BUS_DELIMITER []
*T_UNIT 1 PS
*C_UNIT 1e15 FF
*R_UNIT 1 OHM
*L_UNIT 1 MH
// DeviceFingerDelim "@"
// MATCHED
// caps2d version: 10

*NAME_MAP
*1 mp1
*2 mn0\@1
*3 mp2
*4 mp3
*5 VDD
*6 mp3\@1
*7 n0\@2
*8 mp2\@1
*9 n0\@3
*10 mp1\@1
*11 n0\@4
*12 mp0\@1
*13 n0\@5
*14 Y
*15 n0
*16 n0\@1
*17 A
*18 B
*19 C
*20 VSS
*21 D
*22 mn0
*23 mn1
*24 mn2
*25 mn3
*26 mn3\@1
*27 mn2\@1
*28 mp0
*29 mn1\@1

*GROUND_NETS VSS

*PORTS
*5 I
*20 I
*17 I
*18 I
*19 I
*21 I
*14 O

*D_NET *5 2.38491e-16

*CONN
*P *5 I *C 0.1000 1.7100 
*I *28:s B *C 0.2550 1.2100 
*I *12:s B *C 1.7300 1.3225 
*N *5:2 *C 1.0000 1.7100 
*N *5:3 *C 1.0000 1.7100 
*N *5:4 *C 0.2450 1.7100 

*CAP
0 *12:s 3.74905e-17
1 *28:s 3.57404e-17
2 *5:4 1.31562e-17
3 *5:2 1.52104e-16

*RES
0 *12:s *5:3 62.422123  // $metal1_conn
1 *5:3 *5:4 0.378424  // $metal1_conn
2 *5:4 *5 0.072268  // $metal1_conn
3 *5:4 *28:s 62.22477  // $metal1_conn
4 *5:2 *5:3 7.5  // $metal1_conn

*END

*D_NET *20 0

*CONN
*P *20 I *C 0.1000 0.0000 
*I *22:s B *C 0.1400 0.4050 
*I *23:s B *C 0.5625 0.4050 
*I *24:s B *C 0.5625 0.4050 
*I *25:s B *C 0.9950 0.4050 
*I *26:s B *C 0.9950 0.4050 
*I *27:s B *C 1.4350 0.4050 
*I *29:s B *C 1.4350 0.4050 
*I *2:s B *C 1.8575 0.4050 
*N *20:5 *C 1.0000 0.0000 


*RES
0 *2:s *20 0.014685  // $metal1_conn
1 *20:5 *2:s 6.2  // $metal1_conn
2 *2:s *25:s 75.211609  // $metal1_conn

*END

*D_NET *17 6.66892e-16

*CONN
*P *17 I *C 1.7000 1.0450 
*I *22:g B *C 0.2325 0.4050 
*I *2:g B *C 1.7575 0.4050 
*I *28:g B *C 0.3475 1.2100 
*I *12:g B *C 1.5975 1.2100 

*CAP
0 *12:g 6.59159e-17
1 *28:g 6.26269e-17
2 *17 5.38349e-16

*RES
0 *17 *12:g 37.225842  // $poly_conn
1 *28:g *17 32.69997  // $poly_conn

*END

*D_NET *18 6.6266e-16

*CONN
*P *18 I *C 0.5000 0.8550 
*I *23:g B *C 0.4525 0.4050 
*I *29:g B *C 1.5375 0.4050 
*I *1:g B *C 0.4525 1.2100 
*I *10:g B *C 1.4925 1.2100 

*CAP
0 *10:g 8.02164e-17
1 *1:g 8.09343e-17
2 *29:g 5.01509e-16

*RES
0 *29:g *10:g 19.691952  // $poly_conn
1 *1:g *29:g 29.948362  // $poly_conn
2 *29:g *18 0.006066  // $metal1_conn

*END

*D_NET *19 5.36049e-16

*CONN
*P *19 I *C 1.5000 0.6650 
*I *24:g B *C 0.6725 0.4050 
*I *27:g B *C 1.3325 0.4050 
*I *3:g B *C 0.6725 1.2100 
*I *8:g B *C 1.3325 1.2100 

*CAP
0 *8:g 8.32358e-17
1 *3:g 4.3428e-17
2 *27:g 3.68781e-16
3 *19 4.06048e-17

*RES
0 *8:g *27:g 76.102211  // $poly_conn
1 *3:g *27:g 37.640671  // $poly_conn
2 *19 *27:g 0.117319  // $metal1_conn

*END

*D_NET *21 3.19544e-16

*CONN
*P *21 I *C 0.9000 0.6650 
*I *25:g B *C 0.8925 0.4050 
*I *26:g B *C 1.0975 0.4050 
*I *4:g B *C 0.9675 1.2100 
*I *6:g B *C 1.1725 1.2100 
*N *21:2 *C 0.9675 0.9175 
*N *21:8 *C 0.9300 0.6550 

*CAP
0 *6:g 5.1258e-17
1 *4:g 2.44253e-17
2 *26:g 8.54475e-17
3 *21:8 6.09379e-17
4 *21:2 2.07326e-17
5 *21 7.67427e-17

*RES
0 *6:g *21:2 67.14196  // $poly_conn
1 *21:2 *4:g 23.465221  // $poly_conn
2 *21:2 *26:g 54.783798  // $poly_conn
3 *26:g *21:8 45  // $metal1_conn
4 *21 *21:8 0.018363  // $metal1_conn

*END

*D_NET *14 5.42276e-16

*CONN
*P *14 O *C 1.9000 1.2350 
*I *22:d B *C 0.3425 0.4050 
*I *23:d B *C 0.3425 0.4050 
*I *24:d B *C 0.7825 0.4050 
*I *25:d B *C 0.7825 0.4050 
*I *26:d B *C 1.2150 0.4050 
*I *27:d B *C 1.2150 0.4050 
*I *29:d B *C 1.6475 0.4050 
*I *2:d B *C 1.6475 0.4050 
*I *4:d B *C 1.0700 1.2100 
*I *6:d B *C 1.0700 1.2100 

*CAP
0 *4:d 9.9878e-17
1 *29:d 3.15361e-16
2 *14 1.27037e-16

*RES
0 *14 *4:d 62.583179  // $metal1_conn
1 *29:d *14 0.700755  // $metal1_conn

*END

*D_NET *13 3.24579e-18

*CONN
*I *10:s B *C 1.5450 1.2100 
*I *12:d B *C 1.5450 1.2100 

*CAP
0 *10:s 3.24579e-18

*RES
0 *12:d *10:s 0.001  // $mwires

*END

*D_NET *11 5.85105e-18

*CONN
*I *8:d B *C 1.4125 1.2100 
*I *10:d B *C 1.4125 1.2100 

*CAP
0 *8:d 5.85105e-18

*RES
0 *10:d *8:d 0.001  // $mwires

*END

*D_NET *9 6.30346e-18

*CONN
*I *6:s B *C 1.2525 1.2100 
*I *8:s B *C 1.2525 1.2100 

*CAP
0 *6:s 6.30346e-18

*RES
0 *8:s *6:s 0.001  // $mwires

*END

*D_NET *7 1.01198e-17

*CONN
*I *3:d B *C 0.8200 1.2100 
*I *4:s B *C 0.8200 1.2100 

*CAP
0 *3:d 1.01198e-17

*RES
0 *4:s *3:d 0.001  // $mwires

*END

*D_NET *16 6.07664e-18

*CONN
*I *1:s B *C 0.5625 1.2100 
*I *3:s B *C 0.5625 1.2100 

*CAP
0 *1:s 6.07664e-18

*RES
0 *3:s *1:s 0.001  // $mwires

*END

*D_NET *15 2.71439e-18

*CONN
*I *28:d B *C 0.4000 1.2100 
*I *1:d B *C 0.4000 1.2100 

*CAP
0 *28:d 2.71439e-18

*RES
0 *1:d *28:d 0.001  // $mwires

*END

