*SPEF "IEEE 1481-1999"
*DESIGN  "NOR4BBX2"
*DATE "Mon Sep 27 10:27:07 2010"
*VENDOR "Cadence Design Systems"
*PROGRAM "Assura RCX"
*VERSION "3.2 Red Hat Linux release 7.2 (Enigma) - (09/09/2009-10:39)"
*DESIGN_FLOW "Physical Verification"
*DIVIDER /
*DELIMITER :
*BUS_DELIMITER []
*T_UNIT 1 PS
*C_UNIT 1e15 FF
*R_UNIT 1 OHM
*L_UNIT 1 MH
// DeviceFingerDelim "@"
// MATCHED
// caps2d version: 10

*NAME_MAP
*1 VDD
*2 mn1
*3 mn0
*4 mn2
*5 mn2\@1
*6 mn3
*7 VSS
*8 mp5\@1
*9 mn3\@1
*10 mn4
*11 mn4\@1
*12 mn5
*13 C
*14 D
*15 AN
*16 n2
*17 n4
*18 n1
*19 BN
*20 Y
*21 n0
*22 mp1
*23 n3
*24 mp0
*25 mp2
*26 mp2\@1
*27 mp3
*28 mp3\@1
*29 mp4
*30 mp4\@1
*31 mp5
*32 mn5\@1

*GROUND_NETS VSS

*PORTS
*1 I
*7 I
*15 I
*19 I
*13 I
*14 I
*20 O

*D_NET *1 2.8868e-16

*CONN
*P *1 I *C 0.1000 1.7100 
*I *22:s B *C 0.5150 1.0825 
*I *24:s B *C 0.5150 1.0825 
*I *25:s B *C 1.1300 1.1100 
*I *26:s B *C 1.1300 1.1100 
*N *1:1 *C 2.3000 1.7100 
*N *1:2 *C 1.1300 1.7100 
*N *1:3 *C 0.8000 1.7100 
*N *1:4 *C 0.4300 1.7100 

*CAP
0 *25:s 6.02987e-17
1 *22:s 2.95391e-17
2 *1:4 7.41656e-18
3 *1:2 1.05707e-17
4 *1:1 1.77081e-16
5 *1 3.77391e-18

*RES
0 *1:4 *1 0.164987  // $metal1_conn
1 *1:1 *1:2 11.300629  // $metal1_conn
2 *1:1 *1:3 9.375  // $metal1_conn
3 *1:2 *25:s 62.346401  // $metal1_conn
4 *1:4 *22:s 62.290672  // $metal1_conn
5 *1:2 *1:3 0.165238  // $metal1_conn
6 *1:3 *1:4 0.185291  // $metal1_conn

*END

*D_NET *7 0

*CONN
*P *7 I *C 0.1000 0.0000 
*I *2:s B *C 0.5150 0.4775 
*I *3:s B *C 0.5150 0.4775 
*I *4:s B *C 1.1250 0.3600 
*I *5:s B *C 1.5325 0.3600 
*I *6:s B *C 1.5325 0.3600 
*I *9:s B *C 1.9500 0.3600 
*I *10:s B *C 1.9500 0.3600 
*I *11:s B *C 2.3600 0.3600 
*I *12:s B *C 2.3600 0.3600 
*I *32:s B *C 2.7600 0.3600 
*N *7:3 *C 2.3000 0.0000 
*N *7:8 *C 0.8000 0.0000 
*N *7:9 *C 0.4300 0.0000 


*RES
0 *7:9 *7 0.164987  // $metal1_conn
1 *7:3 *32:s 8.857142  // $metal1_conn
2 *7:3 *7:8 7.75  // $metal1_conn
3 *7:9 *2:s 75.18679  // $metal1_conn
4 *32:s *7:8 0.157718  // $metal1_conn
5 *7:8 *7:9 0.185291  // $metal1_conn

*END

*D_NET *15 2.17074e-16

*CONN
*P *15 I *C 0.5000 1.0450 
*I *3:g B *C 0.5625 0.4775 
*I *24:g B *C 0.5625 1.0825 
*N *15:2 *C 0.5450 0.8650 

*CAP
0 *24:g 2.95651e-17
1 *3:g 4.2246e-17
2 *15:2 6.27987e-17
3 *15 8.24644e-17

*RES
0 *24:g *15:2 17.398676  // $poly_conn
1 *15:2 *3:g 69.962776  // $poly_conn
2 *15:2 *15 45.126083  // $metal1_conn

*END

*D_NET *19 2.12976e-16

*CONN
*P *19 I *C 0.5000 0.6650 
*I *2:g B *C 0.2975 0.4775 
*I *22:g B *C 0.2975 1.0825 
*N *19:2 *C 0.3250 0.6850 

*CAP
0 *22:g 3.88591e-17
1 *2:g 2.90504e-17
2 *19:2 9.52885e-17
3 *19 4.97776e-17

*RES
0 *22:g *19:2 65.845795  // $poly_conn
1 *19:2 *2:g 26.102209  // $poly_conn
2 *19 *19:2 45.097408  // $metal1_conn

*END

*D_NET *13 2.94452e-16

*CONN
*P *13 I *C 1.9000 0.8550 
*I *10:g B *C 2.0525 0.3600 
*I *11:g B *C 2.2575 0.3600 
*I *29:g B *C 2.1525 1.1100 
*I *30:g B *C 2.3575 1.1100 

*CAP
0 *30:g 2.55463e-16
1 *13 3.89894e-17

*RES
0 *13 *30:g 45.062126  // $metal1_conn

*END

*D_NET *14 2.61783e-16

*CONN
*P *14 I *C 2.3000 0.8550 
*I *12:g B *C 2.4625 0.3600 
*I *32:g B *C 2.6675 0.3600 
*I *31:g B *C 2.5625 1.1100 
*I *8:g B *C 2.7675 1.1100 

*CAP
0 *8:g 2.18481e-16
1 *14 4.33026e-17

*RES
0 *8:g *14 45.169052  // $metal1_conn

*END

*D_NET *20 3.40386e-16

*CONN
*P *20 O *C 2.7000 0.6650 
*I *4:d B *C 1.3200 0.3600 
*I *5:d B *C 1.3200 0.3600 
*I *6:d B *C 1.7450 0.3600 
*I *9:d B *C 1.7450 0.3600 
*I *10:d B *C 2.1550 0.3600 
*I *11:d B *C 2.1550 0.3600 
*I *12:d B *C 2.5650 0.3600 
*I *32:d B *C 2.5650 0.3600 
*I *31:d B *C 2.6650 1.1100 
*I *8:d B *C 2.6650 1.1100 
*N *20:2 *C 2.5650 0.4300 
*N *20:3 *C 2.1550 0.4950 
*N *20:5 *C 1.7450 0.4200 

*CAP
0 *31:d 5.91232e-17
1 *12:d 5.43907e-17
2 *6:d 5.84106e-17
3 *4:d 5.42125e-17
4 *20:3 6.9117e-17
5 *20 4.51321e-17

*RES
0 *20 *31:d 62.259201  // $metal1_conn
1 *20:2 *20 0.197529  // $metal1_conn
2 *12:d *20:2 75  // $metal1_conn
3 *20:3 *10:d 75.049805  // $metal1_conn
4 *6:d *20:5 75  // $metal1_conn
5 *20:5 *4:d 75.319405  // $metal1_conn
6 *20:2 *20:3 0.322667  // $metal1_conn
7 *20:3 *20:5 0.40262  // $metal1_conn

*END

*D_NET *18 5.92627e-16

*CONN
*I *2:d B *C 0.2050 0.4775 
*I *6:g B *C 1.6425 0.3600 
*I *9:g B *C 1.8475 0.3600 
*I *22:d B *C 0.1900 1.0825 
*I *27:g B *C 1.4375 1.1100 
*I *28:g B *C 1.6425 1.1100 
*N *18:7 *C 0.1950 0.4650 

*CAP
0 *28:g 3.56411e-16
1 *22:d 5.15927e-17
2 *2:d 1.84623e-16

*RES
0 *28:g *18:7 46.429493  // $metal1_conn
1 *18:7 *22:d 62.402206  // $metal1_conn
2 *2:d *18:7 75  // $metal1_conn

*END

*D_NET *17 1.77954e-16

*CONN
*I *29:d B *C 2.0600 1.1100 
*I *30:d B *C 2.4600 1.1100 
*I *31:s B *C 2.4600 1.1100 
*I *8:s B *C 2.8600 1.1100 

*CAP
0 *8:s 1.77954e-16


*END

*D_NET *16 2.36399e-16

*CONN
*I *25:d B *C 0.9550 1.1100 
*I *26:d B *C 1.3350 1.1100 
*I *27:s B *C 1.3350 1.1100 
*I *28:s B *C 1.7350 1.1100 

*CAP
0 *28:s 2.36399e-16


*END

*D_NET *23 1.95795e-16

*CONN
*I *27:d B *C 1.5400 1.1100 
*I *28:d B *C 1.5400 1.1100 
*I *29:s B *C 2.2550 1.1100 
*I *30:s B *C 2.2550 1.1100 

*CAP
0 *29:s 1.06751e-16
1 *27:d 8.90439e-17

*RES
0 *29:s *27:d 124.516235  // $metal1_conn

*END

*D_NET *21 3.85367e-16

*CONN
*I *3:d B *C 0.6975 0.4775 
*I *4:g B *C 1.2175 0.3600 
*I *5:g B *C 1.4225 0.3600 
*I *24:d B *C 0.7350 1.0350 
*I *25:g B *C 1.0275 1.1100 
*I *26:g B *C 1.2325 1.1100 
*N *21:7 *C 0.7500 0.7700 

*CAP
0 *26:g 1.43653e-16
1 *24:d 5.6832e-17
2 *4:g 8.47519e-17
3 *3:d 4.76927e-17
4 *21:7 5.24374e-17

*RES
0 *4:g *26:g 3.315496  // $poly_conn
1 *26:g *21:7 45.322746  // $metal1_conn
2 *21:7 *24:d 62.191086  // $metal1_conn
3 *21:7 *3:d 75.196007  // $metal1_conn

*END

