*SPEF "IEEE 1481-1999"
*DESIGN  "NOR4X8"
*DATE "Mon Sep 27 10:31:16 2010"
*VENDOR "Cadence Design Systems"
*PROGRAM "Assura RCX"
*VERSION "3.2 Red Hat Linux release 7.2 (Enigma) - (09/09/2009-10:39)"
*DESIGN_FLOW "Physical Verification"
*DIVIDER /
*DELIMITER :
*BUS_DELIMITER []
*T_UNIT 1 PS
*C_UNIT 1e15 FF
*R_UNIT 1 OHM
*L_UNIT 1 MH
// DeviceFingerDelim "@"
// MATCHED
// caps2d version: 10

*NAME_MAP
*1 mn2\@2
*2 mn2\@3
*3 mn2\@4
*4 VDD
*5 mn2\@5
*6 mn2\@6
*7 mn1
*8 mn1\@1
*9 mn1\@2
*10 mn1\@3
*11 mn1\@4
*12 VSS
*13 mn1\@5
*14 mn1\@6
*15 mn0
*16 mn0\@1
*17 mn0\@2
*18 mn0\@3
*19 mn0\@4
*20 mn0\@5
*21 mn0\@6
*22 n1
*23 n2
*24 mp2\@2
*25 mp2\@3
*26 mp2\@4
*27 mp2\@5
*28 mp2\@6
*29 mp1
*30 mp1\@1
*31 mp1\@2
*32 A
*33 mp1\@3
*34 B
*35 mp1\@4
*36 C
*37 D
*38 mp1\@5
*39 mp1\@6
*40 mp0
*41 mp0\@1
*42 mp0\@2
*43 mp0\@3
*44 mp0\@4
*45 mp0\@5
*46 mp0\@6
*47 Y
*48 n0
*49 mn3
*50 mn3\@1
*51 mn3\@2
*52 mp3
*53 mn3\@3
*54 mp3\@1
*55 mn3\@4
*56 mp3\@2
*57 mn3\@5
*58 mp3\@3
*59 mn3\@6
*60 mp3\@4
*61 mn2
*62 mp3\@5
*63 mn2\@1
*64 mp3\@6
*65 mp2
*66 mp2\@1

*GROUND_NETS VSS

*PORTS
*4 I
*12 I
*32 I
*34 I
*36 I
*37 I
*47 O

*D_NET *4 5.82657e-16

*CONN
*P *4 I *C 0.1000 1.7100 
*I *40:s B *C 0.1250 1.1225 
*I *41:s B *C 0.5250 1.1225 
*I *42:s B *C 0.5250 1.1225 
*I *43:s B *C 0.9350 1.1225 
*I *44:s B *C 0.9350 1.1225 
*I *45:s B *C 1.3450 1.1225 
*I *46:s B *C 1.3450 1.1225 
*N *4:1 *C 5.2000 1.7100 
*N *4:2 *C 3.2000 1.7100 

*CAP
0 *4:1 3.59985e-16
1 *4 2.22672e-16

*RES
0 *4:1 *4:2 8.501795  // $metal1_conn
1 *4:1 *4:2 7.5  // $metal1_conn
2 *4:1 *4 6.818182  // $metal1_conn
3 *4:2 *4 0.928969  // $metal1_conn

*END

*D_NET *12 0

*CONN
*P *12 I *C 0.1000 0.0000 
*I *49:s B *C 4.6750 0.3975 
*I *50:s B *C 4.6750 0.3975 
*I *51:s B *C 5.0850 0.3975 
*I *53:s B *C 5.0850 0.3975 
*I *55:s B *C 5.4950 0.3975 
*I *57:s B *C 5.4950 0.3975 
*I *59:s B *C 5.8950 0.3975 
*I *61:s B *C 3.0350 0.3975 
*I *63:s B *C 3.4450 0.3975 
*I *1:s B *C 3.4450 0.3975 
*I *2:s B *C 3.8550 0.3975 
*I *3:s B *C 3.8550 0.3975 
*I *5:s B *C 4.2650 0.3975 
*I *6:s B *C 4.2650 0.3975 
*I *7:s B *C 1.8050 0.3975 
*I *8:s B *C 1.8050 0.3975 
*I *9:s B *C 2.2150 0.3975 
*I *10:s B *C 2.2150 0.3975 
*I *11:s B *C 2.6250 0.3975 
*I *13:s B *C 2.6250 0.3975 
*I *14:s B *C 3.0350 0.3975 
*I *15:s B *C 0.1250 0.3975 
*I *16:s B *C 0.5250 0.3975 
*I *17:s B *C 0.5250 0.3975 
*I *18:s B *C 0.9350 0.3975 
*I *19:s B *C 0.9350 0.3975 
*I *20:s B *C 1.3450 0.3975 
*I *21:s B *C 1.3450 0.3975 
*N *12:3 *C 5.2000 0.0000 


*RES
0 *12:3 *59:s 6.2  // $metal1_conn
1 *12:3 *5:s 6.2  // $metal1_conn
2 *12:3 *12 5.636364  // $metal1_conn
3 *59:s *5:s 0.204976  // $metal1_conn
4 *5:s *12 0.230021  // $metal1_conn

*END

*D_NET *32 4.22286e-16

*CONN
*P *32 I *C 0.9000 0.8550 
*I *15:g B *C 0.2175 0.3975 
*I *16:g B *C 0.4225 0.3975 
*I *17:g B *C 0.6275 0.3975 
*I *18:g B *C 0.8325 0.3975 
*I *19:g B *C 1.0375 0.3975 
*I *20:g B *C 1.2425 0.3975 
*I *21:g B *C 1.4475 0.3975 
*I *40:g B *C 0.2175 1.1225 
*I *41:g B *C 0.4225 1.1225 
*I *42:g B *C 0.6275 1.1225 
*I *43:g B *C 0.8325 1.1225 
*I *44:g B *C 1.0375 1.1225 
*I *45:g B *C 1.2425 1.1225 
*I *46:g B *C 1.4475 1.1225 

*CAP
0 *46:g 4.03693e-16
1 *32 1.85934e-17

*RES
0 *46:g *32 0.020393  // $metal1_conn

*END

*D_NET *34 4.30305e-16

*CONN
*P *34 I *C 2.1000 0.8550 
*I *7:g B *C 1.7025 0.3975 
*I *8:g B *C 1.9075 0.3975 
*I *9:g B *C 2.1125 0.3975 
*I *10:g B *C 2.3175 0.3975 
*I *11:g B *C 2.5225 0.3975 
*I *13:g B *C 2.7275 0.3975 
*I *14:g B *C 2.9325 0.3975 
*I *29:g B *C 1.7025 1.1225 
*I *30:g B *C 1.9075 1.1225 
*I *31:g B *C 2.1125 1.1225 
*I *33:g B *C 2.3175 1.1225 
*I *35:g B *C 2.5225 1.1225 
*I *38:g B *C 2.7275 1.1225 
*I *39:g B *C 2.9325 1.1225 

*CAP
0 *39:g 4.05088e-16
1 *34 2.52167e-17

*RES
0 *39:g *34 0.002419  // $metal1_conn

*END

*D_NET *36 5.21759e-16

*CONN
*P *36 I *C 4.3000 0.8550 
*I *61:g B *C 3.1375 0.3975 
*I *63:g B *C 3.3425 0.3975 
*I *1:g B *C 3.5475 0.3975 
*I *2:g B *C 3.7525 0.3975 
*I *3:g B *C 3.9575 0.3975 
*I *5:g B *C 4.1625 0.3975 
*I *6:g B *C 4.3675 0.3975 
*I *65:g B *C 3.1375 1.1225 
*I *66:g B *C 3.3425 1.1225 
*I *24:g B *C 3.5475 1.1225 
*I *25:g B *C 3.7525 1.1225 
*I *26:g B *C 3.9575 1.1225 
*I *27:g B *C 4.1625 1.1225 
*I *28:g B *C 4.3675 1.1225 

*CAP
0 *28:g 5.02975e-16
1 *36 1.87833e-17

*RES
0 *28:g *36 0.050844  // $metal1_conn

*END

*D_NET *37 4.70346e-16

*CONN
*P *37 I *C 4.9000 0.8550 
*I *49:g B *C 4.5725 0.3975 
*I *50:g B *C 4.7775 0.3975 
*I *51:g B *C 4.9825 0.3975 
*I *53:g B *C 5.1875 0.3975 
*I *55:g B *C 5.3925 0.3975 
*I *57:g B *C 5.5975 0.3975 
*I *59:g B *C 5.8025 0.3975 
*I *52:g B *C 4.5725 1.1225 
*I *54:g B *C 4.7775 1.1225 
*I *56:g B *C 4.9825 1.1225 
*I *58:g B *C 5.1875 1.1225 
*I *60:g B *C 5.3925 1.1225 
*I *62:g B *C 5.5975 1.1225 
*I *64:g B *C 5.8025 1.1225 

*CAP
0 *64:g 4.41772e-16
1 *37 2.85738e-17

*RES
0 *64:g *37 0.01651  // $metal1_conn

*END

*D_NET *47 9.87526e-16

*CONN
*P *47 O *C 5.5000 0.8550 
*I *49:d B *C 4.4700 0.3975 
*I *50:d B *C 4.8800 0.3975 
*I *51:d B *C 4.8800 0.3975 
*I *53:d B *C 5.2900 0.3975 
*I *55:d B *C 5.2900 0.3975 
*I *57:d B *C 5.7000 0.3975 
*I *59:d B *C 5.7000 0.3975 
*I *61:d B *C 3.2400 0.3975 
*I *63:d B *C 3.2400 0.3975 
*I *1:d B *C 3.6500 0.3975 
*I *2:d B *C 3.6500 0.3975 
*I *3:d B *C 4.0600 0.3975 
*I *5:d B *C 4.0600 0.3975 
*I *6:d B *C 4.4700 0.3975 
*I *7:d B *C 1.5750 0.3975 
*I *8:d B *C 2.0100 0.3975 
*I *9:d B *C 2.0100 0.3975 
*I *10:d B *C 2.4200 0.3975 
*I *11:d B *C 2.4200 0.3975 
*I *13:d B *C 2.8300 0.3975 
*I *14:d B *C 2.8300 0.3975 
*I *15:d B *C 0.3200 0.3975 
*I *16:d B *C 0.3200 0.3975 
*I *17:d B *C 0.7300 0.3975 
*I *18:d B *C 0.7300 0.3975 
*I *19:d B *C 1.1400 0.3975 
*I *20:d B *C 1.1400 0.3975 
*I *21:d B *C 1.5750 0.3975 
*I *52:d B *C 4.6750 1.1225 
*I *54:d B *C 4.6750 1.1225 
*I *56:d B *C 5.0850 1.1225 
*I *58:d B *C 5.0850 1.1225 
*I *60:d B *C 5.4950 1.1225 
*I *62:d B *C 5.4950 1.1225 
*I *64:d B *C 5.8950 1.1225 

*CAP
0 *7:d 3.39363e-16
1 *49:d 3.74953e-16
2 *47 2.7321e-16

*RES
0 *47 *49:d 0.237343  // $metal1_conn
1 *49:d *7:d 0.28744  // $metal1_conn

*END

*D_NET *48 5.23302e-16

*CONN
*I *29:s B *C 1.5750 1.1225 
*I *30:s B *C 2.0100 1.1225 
*I *31:s B *C 2.0100 1.1225 
*I *33:s B *C 2.4200 1.1225 
*I *35:s B *C 2.4200 1.1225 
*I *38:s B *C 2.8300 1.1225 
*I *39:s B *C 2.8300 1.1225 
*I *40:d B *C 0.3200 1.1225 
*I *41:d B *C 0.3200 1.1225 
*I *42:d B *C 0.7300 1.1225 
*I *43:d B *C 0.7300 1.1225 
*I *44:d B *C 1.1400 1.1225 
*I *45:d B *C 1.1400 1.1225 
*I *46:d B *C 1.5750 1.1225 

*CAP
0 *38:s 5.23302e-16


*END

*D_NET *23 5.10151e-16

*CONN
*I *52:s B *C 4.4700 1.1225 
*I *54:s B *C 4.8800 1.1225 
*I *56:s B *C 4.8800 1.1225 
*I *58:s B *C 5.2900 1.1225 
*I *60:s B *C 5.2900 1.1225 
*I *62:s B *C 5.7000 1.1225 
*I *64:s B *C 5.7000 1.1225 
*I *65:d B *C 3.2400 1.1225 
*I *66:d B *C 3.2400 1.1225 
*I *24:d B *C 3.6500 1.1225 
*I *25:d B *C 3.6500 1.1225 
*I *26:d B *C 4.0600 1.1225 
*I *27:d B *C 4.0600 1.1225 
*I *28:d B *C 4.4700 1.1225 

*CAP
0 *62:s 5.10151e-16


*END

*D_NET *22 4.61398e-16

*CONN
*I *65:s B *C 3.0350 1.1225 
*I *66:s B *C 3.4450 1.1225 
*I *24:s B *C 3.4450 1.1225 
*I *25:s B *C 3.8550 1.1225 
*I *26:s B *C 3.8550 1.1225 
*I *27:s B *C 4.2650 1.1225 
*I *28:s B *C 4.2650 1.1225 
*I *29:d B *C 1.8050 1.1225 
*I *30:d B *C 1.8050 1.1225 
*I *31:d B *C 2.2150 1.1225 
*I *33:d B *C 2.2150 1.1225 
*I *35:d B *C 2.6250 1.1225 
*I *38:d B *C 2.6250 1.1225 
*I *39:d B *C 3.0350 1.1225 

*CAP
0 *27:s 4.61398e-16


*END

