*SPEF "IEEE 1481-1999"
*DESIGN  "NOR4X1"
*DATE "Mon Sep 27 10:29:46 2010"
*VENDOR "Cadence Design Systems"
*PROGRAM "Assura RCX"
*VERSION "3.2 Red Hat Linux release 7.2 (Enigma) - (09/09/2009-10:39)"
*DESIGN_FLOW "Physical Verification"
*DIVIDER /
*DELIMITER :
*BUS_DELIMITER []
*T_UNIT 1 PS
*C_UNIT 1e15 FF
*R_UNIT 1 OHM
*L_UNIT 1 MH
// DeviceFingerDelim "@"
// MATCHED
// caps2d version: 10

*NAME_MAP
*1 mp0
*2 mp1
*3 mp2
*4 mp3
*5 VSS
*6 n2
*7 n1
*8 n0
*9 mn0
*10 mn1
*11 A
*12 VDD
*13 mn2
*14 Y
*15 B
*16 mn3
*17 C
*18 D

*GROUND_NETS VSS

*PORTS
*12 I
*5 I
*11 I
*15 I
*17 I
*18 I
*14 O

*D_NET *12 1.09785e-16

*CONN
*P *12 I *C 0.1000 1.7100 
*I *1:s B *C 0.1700 1.0950 
*N *12:1 *C 0.5000 1.7100 
*N *12:2 *C 0.1600 1.7100 

*CAP
0 *1:s 4.82385e-17
1 *12:2 2.86183e-18
2 *12:1 5.67014e-17
3 *12 1.98299e-18

*RES
0 *12:1 *12:2 15.17028  // $metal1_conn
1 *12:2 *12 0.029632  // $metal1_conn
2 *12:2 *1:s 21.057705  // $metal1_conn

*END

*D_NET *5 0

*CONN
*P *5 I *C 0.1000 0.0000 
*I *9:s B *C 0.1150 0.4800 
*I *10:s B *C 0.4750 0.4800 
*I *13:s B *C 0.4750 0.4800 
*I *16:s B *C 0.8800 0.4800 
*N *5:2 *C 0.5000 0.0000 
*N *5:3 *C 0.5000 0.0000 


*RES
0 *16:s *5:3 75.462654  // $metal1_conn
1 *5:3 *5 0.200918  // $metal1_conn
2 *5 *9:s 75.062233  // $metal1_conn
3 *5:3 *10:s 75.265862  // $metal1_conn
4 *5:2 *5:3 12.4  // $metal1_conn

*END

*D_NET *11 1.92279e-16

*CONN
*P *11 I *C 0.0700 0.6650 
*I *9:g B *C 0.1625 0.4800 
*I *1:g B *C 0.2625 1.0950 
*N *11:2 *C 0.1900 0.7300 

*CAP
0 *1:g 6.84519e-17
1 *9:g 2.96553e-17
2 *11:2 7.43329e-17
3 *11 1.98391e-17

*RES
0 *1:g *11:2 37.322365  // $poly_conn
1 *11:2 *9:g 19.962778  // $poly_conn
2 *11 *11:2 45.084656  // $metal1_conn

*END

*D_NET *15 2.50216e-16

*CONN
*P *15 I *C 0.3650 0.8250 
*I *10:g B *C 0.3675 0.4800 
*I *2:g B *C 0.3675 1.0950 
*N *15:2 *C 0.3950 0.7900 

*CAP
0 *2:g 6.92106e-17
1 *10:g 4.5198e-17
2 *15:2 1.35808e-16

*RES
0 *2:g *15:2 19.691952  // $poly_conn
1 *15:2 *10:g 37.640671  // $poly_conn
2 *15:2 *15 45.005714  // $metal1_conn

*END

*D_NET *17 2.41551e-16

*CONN
*P *17 I *C 0.5650 0.9850 
*I *13:g B *C 0.5825 0.4800 
*I *3:g B *C 0.5825 1.0950 
*N *17:2 *C 0.5650 0.7900 

*CAP
0 *3:g 4.78262e-17
1 *13:g 4.07812e-17
2 *17:2 8.47217e-17
3 *17 6.82219e-17

*RES
0 *3:g *17:2 17.320902  // $poly_conn
1 *17:2 *13:g 35.269619  // $poly_conn
2 *17 *17:2 45.116943  // $metal1_conn

*END

*D_NET *18 2.37952e-16

*CONN
*P *18 I *C 0.7650 1.1450 
*I *16:g B *C 0.7875 0.4800 
*I *4:g B *C 0.7325 1.0950 
*N *18:2 *C 0.7575 0.7900 

*CAP
0 *4:g 4.24729e-17
1 *16:g 2.89969e-17
2 *18:2 9.42511e-17
3 *18 7.22308e-17

*RES
0 *16:g *18:2 35.319275  // $poly_conn
1 *18:2 *4:g 17.370556  // $poly_conn
2 *18 *18:2 45.236553  // $metal1_conn

*END

*D_NET *14 2.25736e-16

*CONN
*P *14 O *C 0.9050 0.6650 
*I *9:d B *C 0.2650 0.4800 
*I *10:d B *C 0.2650 0.4800 
*I *13:d B *C 0.6850 0.4800 
*I *16:d B *C 0.6850 0.4800 
*I *4:d B *C 0.8550 1.0950 
*N *14:3 *C 0.6850 0.5500 

*CAP
0 *4:d 7.62665e-17
1 *13:d 4.87102e-17
2 *9:d 3.9645e-17
3 *14 6.11141e-17

*RES
0 *4:d *14 20.957516  // $metal1_conn
1 *14 *14:3 0.177697  // $metal1_conn
2 *14:3 *9:d 75.289589  // $metal1_conn
3 *13:d *14:3 75  // $metal1_conn

*END

*D_NET *8 0

*CONN
*I *1:d B *C 0.3150 1.0950 
*I *2:s B *C 0.3150 1.0950 


*RES
0 *2:s *1:d 0.001  // $mwires

*END

*D_NET *7 6.57081e-18

*CONN
*I *2:d B *C 0.4750 1.0950 
*I *3:s B *C 0.4750 1.0950 

*CAP
0 *2:d 6.57081e-18

*RES
0 *3:s *2:d 0.001  // $mwires

*END

*D_NET *6 0

*CONN
*I *3:d B *C 0.6575 1.0950 
*I *4:s B *C 0.6575 1.0950 


*RES
0 *4:s *3:d 0.001  // $mwires

*END

