*SPEF "IEEE 1481-1999"
*DESIGN  "NOR4BX4"
*DATE "Mon Sep 27 10:29:01 2010"
*VENDOR "Cadence Design Systems"
*PROGRAM "Assura RCX"
*VERSION "3.2 Red Hat Linux release 7.2 (Enigma) - (09/09/2009-10:39)"
*DESIGN_FLOW "Physical Verification"
*DIVIDER /
*DELIMITER :
*BUS_DELIMITER []
*T_UNIT 1 PS
*C_UNIT 1e15 FF
*R_UNIT 1 OHM
*L_UNIT 1 MH
// DeviceFingerDelim "@"
// MATCHED
// caps2d version: 10

*NAME_MAP
*1 Y
*2 mp0
*3 mp1
*4 mp1\@1
*5 mp1\@2
*6 mp1\@3
*7 mp2\@1
*8 mp2\@2
*9 mp2\@3
*10 VDD
*11 AN
*12 mn2
*13 mn3
*14 mn3\@1
*15 mn3\@2
*16 mn3\@3
*17 VSS
*18 mn4
*19 mp2
*20 mn4\@1
*21 mp3
*22 mn4\@2
*23 mp3\@1
*24 mn4\@3
*25 mp3\@2
*26 mp3\@3
*27 mp4
*28 n3
*29 mp4\@1
*30 n1
*31 mp4\@2
*32 mp4\@3
*33 B
*34 C
*35 D
*36 mn0
*37 mn1
*38 mn1\@1
*39 mn1\@2
*40 mn1\@3
*41 mn2\@1
*42 mn2\@2
*43 mn2\@3
*44 n0
*45 n2

*GROUND_NETS VSS

*PORTS
*10 I
*17 I
*11 I
*33 I
*34 I
*35 I
*1 O

*D_NET *10 5.06833e-16

*CONN
*P *10 I *C 0.1000 1.7100 
*I *2:s B *C 0.1850 1.0950 
*I *3:s B *C 0.8900 1.2400 
*I *4:s B *C 0.8900 1.2400 
*I *5:s B *C 1.3000 1.2400 
*I *6:s B *C 1.3000 1.2400 
*N *10:1 *C 3.3000 1.7100 
*N *10:5 *C 0.1750 1.7100 

*CAP
0 *5:s 1.21774e-16
1 *2:s 2.20423e-17
2 *10:5 8.14315e-18
3 *10:1 3.53004e-16
4 *10 1.87059e-18

*RES
0 *10:5 *10 0.037113  // $metal1_conn
1 *10:1 *5:s 7.834808  // $metal1_conn
2 *10:1 *5:s 6.818182  // $metal1_conn
3 *10:5 *2:s 62.339134  // $metal1_conn
4 *5:s *10:5 0.342723  // $metal1_conn

*END

*D_NET *17 0

*CONN
*P *17 I *C 0.1000 0.0000 
*I *12:s B *C 2.3450 0.4650 
*I *13:s B *C 2.3450 0.4650 
*I *14:s B *C 2.7550 0.4650 
*I *15:s B *C 2.7550 0.4650 
*I *16:s B *C 3.1650 0.4650 
*I *18:s B *C 3.1650 0.4650 
*I *20:s B *C 3.5750 0.4650 
*I *22:s B *C 3.5750 0.4650 
*I *24:s B *C 3.9750 0.4650 
*I *36:s B *C 0.1850 0.5100 
*I *37:s B *C 0.7600 0.4650 
*I *38:s B *C 1.1150 0.4650 
*I *39:s B *C 1.1150 0.4650 
*I *40:s B *C 1.5250 0.4650 
*I *41:s B *C 1.5250 0.4650 
*I *42:s B *C 1.9350 0.4650 
*I *43:s B *C 1.9350 0.4650 
*N *17:3 *C 3.3000 0.0000 
*N *17:12 *C 0.1750 0.0000 


*RES
0 *17:12 *17 0.037113  // $metal1_conn
1 *17:3 *24:s 5.636364  // $metal1_conn
2 *17:3 *24:s 5.636364  // $metal1_conn
3 *17:12 *36:s 75.272873  // $metal1_conn
4 *24:s *17:12 0.250057  // $metal1_conn

*END

*D_NET *11 1.56295e-16

*CONN
*P *11 I *C 0.1000 0.6650 
*I *36:g B *C 0.2775 0.5100 
*I *2:g B *C 0.2775 1.0950 
*N *11:2 *C 0.2400 0.7400 

*CAP
0 *2:g 3.06597e-17
1 *36:g 2.33902e-17
2 *11:2 7.09147e-17
3 *11 3.13306e-17

*RES
0 *2:g *11:2 31.539833  // $poly_conn
1 *11:2 *36:g 16.15522  // $poly_conn
2 *11:2 *11 45.073662  // $metal1_conn

*END

*D_NET *33 3.71363e-16

*CONN
*P *33 I *C 1.9000 0.8550 
*I *12:g B *C 2.2425 0.4650 
*I *41:g B *C 1.6275 0.4650 
*I *42:g B *C 1.8325 0.4650 
*I *43:g B *C 2.0375 0.4650 
*I *19:g B *C 2.2475 1.2400 
*I *7:g B *C 1.6225 1.2400 
*I *8:g B *C 1.8275 1.2400 
*I *9:g B *C 2.0425 1.2400 

*CAP
0 *33 3.71363e-16


*END

*D_NET *34 4.04877e-16

*CONN
*P *34 I *C 2.9000 0.8550 
*I *13:g B *C 2.4475 0.4650 
*I *14:g B *C 2.6525 0.4650 
*I *15:g B *C 2.8575 0.4650 
*I *16:g B *C 3.0625 0.4650 
*I *21:g B *C 2.6525 1.2100 
*I *23:g B *C 2.8575 1.2100 
*I *25:g B *C 3.0625 1.2100 
*I *26:g B *C 3.2675 1.2100 

*CAP
0 *34 4.04877e-16


*END

*D_NET *35 3.66203e-16

*CONN
*P *35 I *C 3.5000 0.8550 
*I *18:g B *C 3.2675 0.4650 
*I *20:g B *C 3.4725 0.4650 
*I *22:g B *C 3.6775 0.4650 
*I *24:g B *C 3.8825 0.4650 
*I *27:g B *C 3.4725 1.2100 
*I *29:g B *C 3.6775 1.2100 
*I *31:g B *C 3.8825 1.2100 
*I *32:g B *C 4.0875 1.2100 

*CAP
0 *35 3.66203e-16


*END

*D_NET *1 1.01195e-15

*CONN
*P *1 O *C 1.7000 1.0450 
*I *12:d B *C 2.1400 0.4650 
*I *13:d B *C 2.5500 0.4650 
*I *14:d B *C 2.5500 0.4650 
*I *15:d B *C 2.9600 0.4650 
*I *16:d B *C 2.9600 0.4650 
*I *18:d B *C 3.3700 0.4650 
*I *20:d B *C 3.3700 0.4650 
*I *22:d B *C 3.7800 0.4650 
*I *24:d B *C 3.7800 0.4650 
*I *37:d B *C 0.9100 0.4650 
*I *38:d B *C 0.9100 0.4650 
*I *39:d B *C 1.3200 0.4650 
*I *40:d B *C 1.3200 0.4650 
*I *41:d B *C 1.7300 0.4650 
*I *42:d B *C 1.7300 0.4650 
*I *43:d B *C 2.1400 0.4650 
*I *27:d B *C 3.5750 1.2100 
*I *29:d B *C 3.5750 1.2100 
*I *31:d B *C 3.9850 1.2100 
*I *32:d B *C 3.9850 1.2100 
*N *1:12 *C 1.6650 0.5850 

*CAP
0 *31:d 3.33767e-16
1 *37:d 1.0526e-16
2 *18:d 9.23169e-17
3 *13:d 1.14636e-16
4 *12:d 9.0599e-17
5 *1:12 4.20553e-17
6 *1 2.33318e-16

*RES
0 *1:12 *1 0.305993  // $metal1_conn
1 *1 *31:d 1.458868  // $metal1_conn
2 *18:d *13:d 0.264127  // $metal1_conn
3 *13:d *12:d 0.264127  // $metal1_conn
4 *12:d *1:12 0.047807  // $metal1_conn
5 *1:12 *37:d 0.237751  // $metal1_conn

*END

*D_NET *30 3.86861e-16

*CONN
*I *19:s B *C 2.3400 1.2400 
*I *3:d B *C 0.7150 1.2400 
*I *4:d B *C 1.0950 1.2400 
*I *5:d B *C 1.0950 1.2400 
*I *6:d B *C 1.5125 1.2400 
*I *7:s B *C 1.5125 1.2400 
*I *8:s B *C 1.9350 1.2400 
*I *9:s B *C 1.9350 1.2400 

*CAP
0 *19:s 3.86861e-16


*END

*D_NET *28 3.58562e-16

*CONN
*I *21:d B *C 2.5600 1.2100 
*I *23:d B *C 2.9600 1.2100 
*I *25:d B *C 2.9600 1.2100 
*I *26:d B *C 3.3700 1.2100 
*I *27:s B *C 3.3700 1.2100 
*I *29:s B *C 3.7800 1.2100 
*I *31:s B *C 3.7800 1.2100 
*I *32:s B *C 4.1800 1.2100 

*CAP
0 *32:s 3.58562e-16


*END

*D_NET *45 3.26345e-16

*CONN
*I *19:d B *C 2.1450 1.2400 
*I *21:s B *C 2.7550 1.2100 
*I *23:s B *C 2.7550 1.2100 
*I *25:s B *C 3.1650 1.2100 
*I *26:s B *C 3.1650 1.2100 
*I *7:d B *C 1.7250 1.2400 
*I *8:d B *C 1.7250 1.2400 
*I *9:d B *C 2.1450 1.2400 

*CAP
0 *25:s 1.6797e-16
1 *19:d 1.58375e-16

*RES
0 *25:s *19:d 0.437944  // $metal1_conn

*END

*D_NET *44 3.82894e-16

*CONN
*I *36:d B *C 0.5025 0.5800 
*I *37:g B *C 0.8075 0.4650 
*I *38:g B *C 1.0125 0.4650 
*I *39:g B *C 1.2175 0.4650 
*I *40:g B *C 1.4225 0.4650 
*I *2:d B *C 0.4375 0.9600 
*I *3:g B *C 0.7875 1.2400 
*I *4:g B *C 0.9925 1.2400 
*I *5:g B *C 1.1975 1.2400 
*I *6:g B *C 1.4025 1.2400 
*N *44:16 *C 0.4150 0.7450 

*CAP
0 *6:g 3.04905e-16
1 *2:d 2.01874e-17
2 *36:d 1.58509e-17
3 *44:16 4.19509e-17

*RES
0 *6:g *44:16 0.372823  // $metal1_conn
1 *44:16 *36:d 75.117233  // $metal1_conn
2 *44:16 *2:d 62.163891  // $metal1_conn

*END

