*SPEF "IEEE 1481-1999"
*DESIGN  "NOR4X6"
*DATE "Mon Sep 27 10:30:53 2010"
*VENDOR "Cadence Design Systems"
*PROGRAM "Assura RCX"
*VERSION "3.2 Red Hat Linux release 7.2 (Enigma) - (09/09/2009-10:39)"
*DESIGN_FLOW "Physical Verification"
*DIVIDER /
*DELIMITER :
*BUS_DELIMITER []
*T_UNIT 1 PS
*C_UNIT 1e15 FF
*R_UNIT 1 OHM
*L_UNIT 1 MH
// DeviceFingerDelim "@"
// MATCHED
// caps2d version: 10

*NAME_MAP
*1 mn0\@3
*2 mn0\@4
*3 mn1
*4 mn1\@1
*5 mn1\@2
*6 mn1\@3
*7 mn1\@4
*8 mp3\@4
*9 mp0
*10 mp0\@1
*11 mp0\@2
*12 mp0\@3
*13 mp0\@4
*14 mp1
*15 mp1\@1
*16 mp1\@2
*17 mp1\@3
*18 n2
*19 mp2
*20 mp2\@1
*21 mp2\@2
*22 mp2\@3
*23 mp2\@4
*24 mp3
*25 mp3\@1
*26 mp1\@4
*27 mp3\@2
*28 mp3\@3
*29 VSS
*30 A
*31 B
*32 C
*33 D
*34 mn2
*35 mn2\@1
*36 mn2\@2
*37 mn2\@3
*38 mn2\@4
*39 VDD
*40 mn3
*41 mn3\@1
*42 mn3\@2
*43 mn3\@3
*44 n0
*45 n1
*46 Y
*47 mn3\@4
*48 mn0
*49 mn0\@1
*50 mn0\@2

*GROUND_NETS VSS

*PORTS
*39 I
*29 I
*30 I
*31 I
*32 I
*33 I
*46 O

*D_NET *39 4.38473e-16

*CONN
*P *39 I *C 0.1000 1.7100 
*I *9:s B *C 0.1650 1.1350 
*I *10:s B *C 0.5650 1.1350 
*I *11:s B *C 0.5650 1.1350 
*I *12:s B *C 0.9750 1.1350 
*I *13:s B *C 0.9750 1.1350 
*N *39:1 *C 3.6000 1.7100 
*N *39:2 *C 1.2000 1.7100 

*CAP
0 *12:s 1.55982e-16
1 *39:1 2.82491e-16

*RES
0 *12:s *39 0.02712  // $metal1_conn
1 *39:1 *39:2 6.25  // $metal1_conn
2 *39:1 *39:2 7.453157  // $metal1_conn
3 *39:2 *12:s 0.1126  // $metal1_conn

*END

*D_NET *29 0

*CONN
*P *29 I *C 0.1000 0.0000 
*I *34:s B *C 2.3150 0.5050 
*I *35:s B *C 2.7800 0.5050 
*I *36:s B *C 2.7800 0.5050 
*I *37:s B *C 3.1900 0.5050 
*I *38:s B *C 3.1900 0.5050 
*I *40:s B *C 3.6950 0.5050 
*I *41:s B *C 3.6950 0.5050 
*I *42:s B *C 4.1050 0.5050 
*I *43:s B *C 4.1050 0.5050 
*I *47:s B *C 4.5050 0.5050 
*I *48:s B *C 0.1650 0.5050 
*I *49:s B *C 0.5650 0.5050 
*I *50:s B *C 0.5650 0.5050 
*I *1:s B *C 0.9750 0.5050 
*I *2:s B *C 0.9750 0.5050 
*I *3:s B *C 1.4400 0.5050 
*I *4:s B *C 1.4400 0.5050 
*I *5:s B *C 1.8500 0.5050 
*I *6:s B *C 1.8500 0.5050 
*I *7:s B *C 2.3150 0.5050 
*N *29:4 *C 3.6000 0.0000 
*N *29:5 *C 3.6000 0.0000 
*N *29:11 *C 1.2000 0.0000 


*RES
0 *1:s *29 0.02712  // $metal1_conn
1 *29:4 *29:5 5.166667  // $metal1_conn
2 *29:4 *29:11 5.166667  // $metal1_conn
3 *47:s *29:5 0.047429  // $metal1_conn
4 *29:5 *37:s 0.205343  // $metal1_conn
5 *37:s *29:11 0.12012  // $metal1_conn
6 *29:11 *1:s 0.1126  // $metal1_conn

*END

*D_NET *30 3.29368e-16

*CONN
*P *30 I *C 0.7000 0.8550 
*I *48:g B *C 0.2575 0.5050 
*I *49:g B *C 0.4625 0.5050 
*I *50:g B *C 0.6675 0.5050 
*I *1:g B *C 0.8725 0.5050 
*I *2:g B *C 1.0775 0.5050 
*I *9:g B *C 0.2575 1.1350 
*I *10:g B *C 0.4625 1.1350 
*I *11:g B *C 0.6675 1.1350 
*I *12:g B *C 0.8725 1.1350 
*I *13:g B *C 1.0775 1.1350 

*CAP
0 *13:g 3.1e-16
1 *30 1.93677e-17

*RES
0 *30 *13:g 0.032706  // $metal1_conn

*END

*D_NET *31 3.55402e-16

*CONN
*P *31 I *C 1.5000 0.8550 
*I *3:g B *C 1.3375 0.5050 
*I *4:g B *C 1.5425 0.5050 
*I *5:g B *C 1.7475 0.5050 
*I *6:g B *C 1.9525 0.5050 
*I *7:g B *C 2.1575 0.5050 
*I *14:g B *C 1.2825 1.1350 
*I *15:g B *C 1.4875 1.1350 
*I *16:g B *C 1.7475 1.1350 
*I *17:g B *C 1.9525 1.1350 
*I *26:g B *C 2.1575 1.1350 

*CAP
0 *26:g 3.2851e-16
1 *31 2.68921e-17

*RES
0 *26:g *31 0.027214  // $metal1_conn

*END

*D_NET *32 3.85412e-16

*CONN
*P *32 I *C 3.1000 0.8550 
*I *34:g B *C 2.4725 0.5050 
*I *35:g B *C 2.6775 0.5050 
*I *36:g B *C 2.8825 0.5050 
*I *37:g B *C 3.0875 0.5050 
*I *38:g B *C 3.2925 0.5050 
*I *19:g B *C 2.4175 1.1350 
*I *20:g B *C 2.6225 1.1350 
*I *21:g B *C 2.8275 1.1350 
*I *22:g B *C 3.0325 1.1350 
*I *23:g B *C 3.2375 1.1350 

*CAP
0 *23:g 3.67427e-16
1 *32 1.79848e-17

*RES
0 *32 *23:g 0.032963  // $metal1_conn

*END

*D_NET *33 3.27058e-16

*CONN
*P *33 I *C 3.9000 0.8550 
*I *40:g B *C 3.5925 0.5050 
*I *41:g B *C 3.7975 0.5050 
*I *42:g B *C 4.0025 0.5050 
*I *43:g B *C 4.2075 0.5050 
*I *47:g B *C 4.4125 0.5050 
*I *24:g B *C 3.5175 1.1350 
*I *25:g B *C 3.7225 1.1350 
*I *27:g B *C 3.9275 1.1350 
*I *28:g B *C 4.1975 1.1350 
*I *8:g B *C 4.4025 1.1350 

*CAP
0 *8:g 3.08997e-16
1 *33 1.80607e-17

*RES
0 *33 *8:g 0.042845  // $metal1_conn

*END

*D_NET *46 1.04198e-15

*CONN
*P *46 O *C 4.3000 0.6650 
*I *34:d B *C 2.5750 0.5050 
*I *35:d B *C 2.5750 0.5050 
*I *36:d B *C 2.9850 0.5050 
*I *37:d B *C 2.9850 0.5050 
*I *38:d B *C 3.4425 0.5050 
*I *40:d B *C 3.4425 0.5050 
*I *41:d B *C 3.9000 0.5050 
*I *42:d B *C 3.9000 0.5050 
*I *43:d B *C 4.3100 0.5050 
*I *47:d B *C 4.3100 0.5050 
*I *48:d B *C 0.3600 0.5050 
*I *49:d B *C 0.3600 0.5050 
*I *50:d B *C 0.7700 0.5050 
*I *1:d B *C 0.7700 0.5050 
*I *2:d B *C 1.2075 0.5050 
*I *3:d B *C 1.2075 0.5050 
*I *4:d B *C 1.6450 0.5050 
*I *5:d B *C 1.6450 0.5050 
*I *6:d B *C 2.0550 0.5050 
*I *7:d B *C 2.0550 0.5050 
*I *24:d B *C 3.6200 1.1350 
*I *25:d B *C 3.6200 1.1350 
*I *27:d B *C 4.0625 1.1350 
*I *28:d B *C 4.0625 1.1350 
*I *8:d B *C 4.4950 1.1350 

*CAP
0 *8:d 2.04965e-16
1 *48:d 4.10565e-16
2 *34:d 4.06646e-16
3 *46 1.98026e-17

*RES
0 *8:d *46 0.193346  // $metal1_conn
1 *46 *34:d 0.037891  // $metal1_conn
2 *34:d *48:d 0.371974  // $metal1_conn

*END

*D_NET *18 3.93072e-16

*CONN
*I *19:d B *C 2.5200 1.1350 
*I *20:d B *C 2.5200 1.1350 
*I *21:d B *C 2.9300 1.1350 
*I *22:d B *C 2.9300 1.1350 
*I *23:d B *C 3.3775 1.1350 
*I *24:s B *C 3.3775 1.1350 
*I *25:s B *C 3.8250 1.1350 
*I *27:s B *C 3.8250 1.1350 
*I *28:s B *C 4.3000 1.1350 
*I *8:s B *C 4.3000 1.1350 

*CAP
0 *28:s 3.93072e-16


*END

*D_NET *45 3.69977e-16

*CONN
*I *19:s B *C 2.2875 1.1350 
*I *20:s B *C 2.7250 1.1350 
*I *21:s B *C 2.7250 1.1350 
*I *22:s B *C 3.1350 1.1350 
*I *23:s B *C 3.1350 1.1350 
*I *14:d B *C 1.3850 1.1350 
*I *15:d B *C 1.3850 1.1350 
*I *16:d B *C 1.8500 1.1350 
*I *17:d B *C 1.8500 1.1350 
*I *26:d B *C 2.2875 1.1350 

*CAP
0 *22:s 3.69977e-16


*END

*D_NET *44 3.80761e-16

*CONN
*I *9:d B *C 0.3600 1.1350 
*I *10:d B *C 0.3600 1.1350 
*I *11:d B *C 0.7700 1.1350 
*I *12:d B *C 0.7700 1.1350 
*I *13:d B *C 1.1800 1.1350 
*I *14:s B *C 1.1800 1.1350 
*I *15:s B *C 1.6175 1.1350 
*I *16:s B *C 1.6175 1.1350 
*I *17:s B *C 2.0550 1.1350 
*I *26:s B *C 2.0550 1.1350 

*CAP
0 *17:s 3.80761e-16


*END

