*SPEF "IEEE 1481-1999"
*DESIGN  "OA21XL"
*DATE "Mon Sep 27 10:33:07 2010"
*VENDOR "Cadence Design Systems"
*PROGRAM "Assura RCX"
*VERSION "3.2 Red Hat Linux release 7.2 (Enigma) - (09/09/2009-10:39)"
*DESIGN_FLOW "Physical Verification"
*DIVIDER /
*DELIMITER :
*BUS_DELIMITER []
*T_UNIT 1 PS
*C_UNIT 1e15 FF
*R_UNIT 1 OHM
*L_UNIT 1 MH
// DeviceFingerDelim "@"
// MATCHED
// caps2d version: 10

*NAME_MAP
*1 A0
*2 A1
*3 mp0
*4 mp1
*5 mp2
*6 mp3
*7 VSS
*8 net107
*9 net95
*10 net98
*11 mn0
*12 mn1
*13 VDD
*14 mn2
*15 Y
*16 B0
*17 mn3

*GROUND_NETS VSS

*PORTS
*13 I
*7 I
*1 I
*2 I
*16 I
*15 O

*D_NET *13 1.40542e-16

*CONN
*P *13 I *C 0.1000 1.7100 
*I *3:s B *C 0.2250 1.1725 
*I *5:s B *C 0.8750 1.1725 
*I *6:s B *C 0.8750 1.1725 
*N *13:2 *C 0.8000 1.7100 
*N *13:3 *C 0.8000 1.7100 
*N *13:4 *C 0.2150 1.7100 

*CAP
0 *5:s 3.02684e-17
1 *3:s 1.41412e-17
2 *13:4 7.64762e-18
3 *13:2 8.84843e-17

*RES
0 *5:s *13:3 62.374939  // $metal1_conn
1 *13:3 *13:4 0.290407  // $metal1_conn
2 *13:4 *13 0.056684  // $metal1_conn
3 *13:4 *3:s 62.301743  // $metal1_conn
4 *13:2 *13:3 9.375  // $metal1_conn

*END

*D_NET *7 0

*CONN
*P *7 I *C 0.1000 0.0000 
*I *11:s B *C 0.3800 0.4425 
*I *12:s B *C 0.3800 0.4425 
*I *17:s B *C 1.1700 0.5875 
*N *7:2 *C 0.8000 0.0000 
*N *7:3 *C 0.8000 0.0000 
*N *7:4 *C 0.3650 0.0000 


*RES
0 *17:s *7:3 75.278931  // $metal1_conn
1 *7:3 *7:4 0.215894  // $metal1_conn
2 *7:4 *7 0.131197  // $metal1_conn
3 *7:4 *11:s 75.073067  // $metal1_conn
4 *7:2 *7:3 7.75  // $metal1_conn

*END

*D_NET *1 2.25897e-16

*CONN
*P *1 I *C 0.3000 0.8550 
*I *11:g B *C 0.2325 0.4425 
*I *3:g B *C 0.3175 1.1725 
*N *1:2 *C 0.2900 0.8500 
*N *1:4 *C 0.2900 0.8500 

*CAP
0 *3:g 4.64112e-17
1 *11:g 4.31739e-17
2 *1:2 4.90158e-17
3 *1 8.72959e-17

*RES
0 *3:g *1:2 44.321754  // $poly_conn
1 *1:2 *11:g 79.015343  // $poly_conn
2 *1:4 *1 0.003068  // $metal1_conn
3 *1:2 *1:4 45  // $metal1_conn

*END

*D_NET *2 2.83464e-16

*CONN
*P *2 I *C 0.5000 1.0450 
*I *12:g B *C 0.4275 0.4425 
*I *4:g B *C 0.4275 1.1725 
*N *2:1 *C 0.4900 0.6700 
*N *2:2 *C 0.4275 0.6700 

*CAP
0 *4:g 6.63641e-17
1 *12:g 3.77642e-17
2 *2:2 5.26592e-17
3 *2:1 6.04985e-17
4 *2 6.61775e-17

*RES
0 *2:1 *2:2 46.195099  // $poly_conn
1 *2:2 *12:g 33.073196  // $poly_conn
2 *2:2 *4:g 94.611664  // $poly_conn
3 *2 *2:1 0.222898  // $metal1_conn

*END

*D_NET *16 2.35908e-16

*CONN
*P *16 I *C 0.7000 0.2850 
*I *14:g B *C 0.6825 0.4425 
*I *5:g B *C 0.7725 1.1725 
*N *16:2 *C 0.7100 0.6250 

*CAP
0 *5:g 4.57403e-17
1 *14:g 2.23568e-17
2 *16:2 1.20406e-16
3 *16 4.74049e-17

*RES
0 *5:g *16:2 105.711021  // $poly_conn
1 *16:2 *14:g 17.398676  // $poly_conn
2 *16 *16:2 45.202095  // $metal1_conn

*END

*D_NET *15 1.01571e-16

*CONN
*P *15 O *C 1.3000 0.6650 
*I *17:d B *C 1.3100 0.5875 
*I *6:d B *C 1.0700 1.1725 

*CAP
0 *6:d 3.96327e-17
1 *15 6.19378e-17

*RES
0 *6:d *15 62.372017  // $metal1_conn
1 *15 *17:d 75.035683  // $metal1_conn

*END

*D_NET *10 0

*CONN
*I *3:d B *C 0.3725 1.1725 
*I *4:s B *C 0.3725 1.1725 


*RES
0 *4:s *3:d 0.001  // $mwires

*END

*D_NET *9 3.01187e-16

*CONN
*I *14:d B *C 0.8175 0.4425 
*I *17:g B *C 1.2175 0.5875 
*I *4:d B *C 0.6000 1.1725 
*I *5:d B *C 0.6000 1.1725 
*I *6:g B *C 0.9775 1.1725 
*N *9:2 *C 0.9775 0.7850 
*N *9:3 *C 0.9200 0.7850 

*CAP
0 *6:g 3.44935e-17
1 *4:d 6.15179e-17
2 *17:g 2.48775e-17
3 *14:d 4.47393e-17
4 *9:2 2.09212e-17
5 *9:3 1.14638e-16

*RES
0 *17:g *9:2 80.974808  // $poly_conn
1 *9:2 *9:3 48.400734  // $poly_conn
2 *9:2 *6:g 61.980618  // $poly_conn
3 *14:d *9:3 75.226097  // $metal1_conn
4 *9:3 *4:d 62.367481  // $metal1_conn

*END

*D_NET *8 9.06762e-17

*CONN
*I *11:d B *C 0.1400 0.4425 
*I *12:d B *C 0.5550 0.4425 
*I *14:s B *C 0.5550 0.4425 

*CAP
0 *12:d 6.18924e-17
1 *11:d 2.87837e-17

*RES
0 *11:d *12:d 150.231812  // $metal1_conn

*END

