*SPEF "IEEE 1481-1999"
*DESIGN  "OA21X1"
*DATE "Mon Sep 27 10:32:00 2010"
*VENDOR "Cadence Design Systems"
*PROGRAM "Assura RCX"
*VERSION "3.2 Red Hat Linux release 7.2 (Enigma) - (09/09/2009-10:39)"
*DESIGN_FLOW "Physical Verification"
*DIVIDER /
*DELIMITER :
*BUS_DELIMITER []
*T_UNIT 1 PS
*C_UNIT 1e15 FF
*R_UNIT 1 OHM
*L_UNIT 1 MH
// DeviceFingerDelim "@"
// MATCHED
// caps2d version: 10

*NAME_MAP
*1 A0
*2 A1
*3 mp0
*4 mp1
*5 mp2
*6 mp3
*7 VSS
*8 net107
*9 net95
*10 net98
*11 mn0
*12 mn1
*13 VDD
*14 mn2
*15 Y
*16 B0
*17 mn3

*GROUND_NETS VSS

*PORTS
*13 I
*7 I
*1 I
*2 I
*16 I
*15 O

*D_NET *13 1.73538e-16

*CONN
*P *13 I *C 0.1000 1.7100 
*I *3:s B *C 0.1100 1.1725 
*I *5:s B *C 0.7550 1.2600 
*I *6:s B *C 0.7550 1.2600 
*N *13:2 *C 0.6000 1.7100 
*N *13:3 *C 0.6000 1.7100 

*CAP
0 *5:s 5.91501e-17
1 *3:s 1.7874e-17
2 *13:2 9.334e-17
3 *13 3.17366e-18

*RES
0 *5:s *13:3 21.057999  // $metal1_conn
1 *13:3 *13 0.250291  // $metal1_conn
2 *13 *3:s 62.315052  // $metal1_conn
3 *13:2 *13:3 12.5  // $metal1_conn

*END

*D_NET *7 0

*CONN
*P *7 I *C 0.1000 0.0000 
*I *11:s B *C 0.3500 0.4425 
*I *12:s B *C 0.3500 0.4425 
*I *17:s B *C 0.9300 0.5300 
*N *7:2 *C 0.6000 0.0000 
*N *7:3 *C 0.6000 0.0000 
*N *7:4 *C 0.3350 0.0000 


*RES
0 *17:s *7:3 75.278389  // $metal1_conn
1 *7:3 *7:4 0.132432  // $metal1_conn
2 *7:4 *7 0.117167  // $metal1_conn
3 *7:4 *11:s 75.07399  // $metal1_conn
4 *7:2 *7:3 10.333333  // $metal1_conn

*END

*D_NET *1 1.81204e-16

*CONN
*P *1 I *C 0.1150 0.8650 
*I *11:g B *C 0.2025 0.4425 
*I *3:g B *C 0.2025 1.1725 
*N *1:2 *C 0.2025 0.6200 
*N *1:3 *C 0.1250 0.6200 

*CAP
0 *3:g 4.32915e-17
1 *11:g 3.20403e-17
2 *1:2 2.81348e-17
3 *1:3 5.05212e-17
4 *1 2.72163e-17

*RES
0 *3:g *1:2 111.347878  // $poly_conn
1 *1:2 *1:3 47.826286  // $poly_conn
2 *1:2 *11:g 24.16839  // $poly_conn
3 *1 *1:3 0.146462  // $metal1_conn

*END

*D_NET *2 2.47304e-16

*CONN
*P *2 I *C 0.3800 1.0150 
*I *12:g B *C 0.3975 0.4425 
*I *4:g B *C 0.3975 1.1725 
*N *2:2 *C 0.4050 0.6500 

*CAP
0 *4:g 5.26755e-17
1 *12:g 3.61177e-17
2 *2:2 1.14846e-16
3 *2 4.36656e-17

*RES
0 *4:g *2:2 95.603798  // $poly_conn
1 *2:2 *12:g 23.808931  // $poly_conn
2 *2 *2:2 45.224293  // $metal1_conn

*END

*D_NET *16 2.36901e-16

*CONN
*P *16 I *C 0.5800 0.7000 
*I *14:g B *C 0.6125 0.4425 
*I *5:g B *C 0.6125 1.1725 
*N *16:2 *C 0.5700 0.6250 
*N *16:4 *C 0.5700 0.6250 
*N *16:5 *C 0.5750 0.6250 
*N *16:6 *C 0.5750 0.7000 

*CAP
0 *5:g 6.02865e-17
1 *14:g 2.72348e-17
2 *16:5 4.28698e-17
3 *16:2 5.4549e-17
4 *16 5.19613e-17

*RES
0 *5:g *16:2 102.014053  // $poly_conn
1 *16:2 *14:g 17.398676  // $poly_conn
2 *16:4 *16:5 0.001154  // $metal1_conn
3 *16:6 *16 0.001269  // $metal1_conn
4 *16:5 *16:6 0.050104  // $metal1_conn
5 *16:2 *16:4 45  // $metal1_conn

*END

*D_NET *15 1.24551e-16

*CONN
*P *15 O *C 1.0700 0.6650 
*I *17:d B *C 1.0700 0.5300 
*I *6:d B *C 0.9400 1.2600 

*CAP
0 *6:d 5.64052e-17
1 *17:d 1.39558e-17
2 *15 5.41898e-17

*RES
0 *17:d *15 37.589325  // $metal1_conn
1 *15 *6:d 21.093075  // $metal1_conn

*END

*D_NET *10 0

*CONN
*I *3:d B *C 0.3000 1.1725 
*I *4:s B *C 0.3000 1.1725 


*RES
0 *4:s *3:d 0.001  // $mwires

*END

*D_NET *9 3.11747e-16

*CONN
*I *14:d B *C 0.7050 0.4425 
*I *17:g B *C 0.9775 0.5300 
*I *4:d B *C 0.5050 1.1725 
*I *5:d B *C 0.5050 1.1725 
*I *6:g B *C 0.8475 1.2600 
*N *9:2 *C 0.8475 0.9050 
*N *9:3 *C 0.7700 0.9050 

*CAP
0 *6:g 4.43143e-17
1 *4:d 6.18058e-17
2 *17:g 3.58581e-17
3 *14:d 5.22008e-17
4 *9:2 1.58016e-17
5 *9:3 1.01767e-16

*RES
0 *17:g *9:2 81.571129  // $poly_conn
1 *9:2 *9:3 47.826286  // $poly_conn
2 *9:2 *6:g 38.270954  // $poly_conn
3 *14:d *9:3 75.299057  // $metal1_conn
4 *9:3 *4:d 62.307766  // $metal1_conn

*END

*D_NET *8 9.67741e-17

*CONN
*I *11:d B *C 0.1100 0.4425 
*I *12:d B *C 0.5050 0.4425 
*I *14:s B *C 0.5050 0.4425 

*CAP
0 *12:d 5.8274e-17
1 *11:d 3.85e-17

*RES
0 *12:d *11:d 150.224457  // $metal1_conn

*END

