*SPEF "IEEE 1481-1999"
*DESIGN  "OAI2BB1X2"
*DATE "Mon Sep 27 10:42:49 2010"
*VENDOR "Cadence Design Systems"
*PROGRAM "Assura RCX"
*VERSION "3.2 Red Hat Linux release 7.2 (Enigma) - (09/09/2009-10:39)"
*DESIGN_FLOW "Physical Verification"
*DIVIDER /
*DELIMITER :
*BUS_DELIMITER []
*T_UNIT 1 PS
*C_UNIT 1e15 FF
*R_UNIT 1 OHM
*L_UNIT 1 MH
// DeviceFingerDelim "@"
// MATCHED
// caps2d version: 10

*NAME_MAP
*1 n1
*2 mp2
*3 mp3
*4 mp3\@1
*5 mp2\@1
*6 mp0
*7 mp1
*8 VDD
*9 A1N
*10 n0
*11 n2
*12 mn2
*13 n2\@1
*14 mn3
*15 mn3\@1
*16 mn2\@1
*17 mn0
*18 mn1
*19 B0
*20 A0N
*21 Y
*22 VSS

*GROUND_NETS VSS

*PORTS
*8 I
*22 I
*20 I
*9 I
*19 I
*21 O

*D_NET *8 2.64891e-16

*CONN
*P *8 I *C 0.1000 1.7100 
*I *2:s B *C 0.2250 1.2850 
*I *3:s B *C 0.6250 1.2850 
*I *4:s B *C 0.6250 1.2850 
*I *5:s B *C 1.0900 1.5700 
*I *6:s B *C 1.0900 1.5700 
*I *7:s B *C 1.5300 1.3600 
*N *8:3 *C 0.9000 1.7100 

*CAP
0 *7:s 1.6545e-17
1 *5:s 5.49016e-17
2 *3:s 3.19237e-17
3 *8:3 1.57039e-16
4 *8 4.48106e-18

*RES
0 *5:s *8 0.05692  // $metal1_conn
1 *8:3 *5:s 8.333333  // $metal1_conn
2 *7:s *5:s 62.311596  // $metal1_conn
3 *5:s *3:s 62.18214  // $metal1_conn

*END

*D_NET *22 0

*CONN
*P *22 I *C 0.1000 0.0000 
*I *12:s B *C 0.3250 0.5200 
*I *16:s B *C 1.0725 0.5775 
*I *17:s B *C 1.0725 0.5775 
*N *22:2 *C 0.9000 0.0000 
*N *22:3 *C 0.9000 0.0000 
*N *22:4 *C 0.3150 0.0000 


*RES
0 *16:s *22:3 75.260651  // $metal1_conn
1 *22:3 *22:4 0.291613  // $metal1_conn
2 *22:4 *22 0.107049  // $metal1_conn
3 *22:4 *12:s 75.277542  // $metal1_conn
4 *22:2 *22:3 6.888889  // $metal1_conn

*END

*D_NET *20 2.091e-16

*CONN
*P *20 I *C 1.1000 0.6650 
*I *17:g B *C 1.1725 0.5775 
*I *6:g B *C 1.1725 1.1975 
*N *20:2 *C 1.1450 0.8000 

*CAP
0 *6:g 4.89295e-17
1 *17:g 2.80485e-17
2 *20:2 1.06424e-16
3 *20 2.56979e-17

*RES
0 *6:g *20:2 65.845795  // $poly_conn
1 *20:2 *17:g 29.94836  // $poly_conn
2 *20:2 *20 45.070122  // $metal1_conn

*END

*D_NET *9 1.67983e-16

*CONN
*P *9 I *C 1.7000 1.2350 
*I *18:g B *C 1.4325 0.5775 
*I *7:g B *C 1.4325 1.1975 
*N *9:1 *C 1.6650 0.8850 
*N *9:2 *C 1.4325 0.8850 

*CAP
0 *7:g 2.44952e-17
1 *18:g 2.7671e-17
2 *9:2 2.85342e-17
3 *9:1 5.9338e-17
4 *9 2.79443e-17

*RES
0 *9:1 *9:2 64.315651  // $poly_conn
1 *9:2 *18:g 55.178871  // $poly_conn
2 *9:2 *7:g 47.486561  // $poly_conn
3 *9 *9:1 0.206594  // $metal1_conn

*END

*D_NET *19 4.5103e-16

*CONN
*P *19 I *C 0.5000 0.8550 
*I *12:g B *C 0.4175 0.5200 
*I *16:g B *C 0.8325 0.5200 
*I *2:g B *C 0.3175 1.2850 
*I *5:g B *C 0.9325 1.2850 

*CAP
0 *5:g 3.23073e-16
1 *16:g 6.05856e-17
2 *12:g 5.02663e-17
3 *19 1.71045e-17

*RES
0 *5:g *16:g 26.786449  // $poly_conn
1 *12:g *5:g 26.786451  // $poly_conn
2 *5:g *19 0.008402  // $metal1_conn

*END

*D_NET *21 3.08715e-16

*CONN
*P *21 O *C 0.1000 1.0450 
*I *14:d B *C 0.6250 0.5200 
*I *15:d B *C 0.6250 0.5200 
*I *2:d B *C 0.4200 1.2850 
*I *3:d B *C 0.4200 1.2850 
*I *4:d B *C 0.8300 1.2850 
*I *5:d B *C 0.8300 1.2850 
*N *21:3 *C 0.2000 1.0750 

*CAP
0 *4:d 1.37901e-16
1 *14:d 8.70175e-17
2 *21:3 6.43592e-17
3 *21 1.94376e-17

*RES
0 *21:3 *21 0.035171  // $metal1_conn
1 *21:3 *14:d 75.549706  // $metal1_conn
2 *4:d *21:3 0.182013  // $metal1_conn

*END

*D_NET *1 0

*CONN
*I *17:d B *C 1.3025 0.5775 
*I *18:s B *C 1.3025 0.5775 


*RES
0 *18:s *17:d 0.001  // $mwires

*END

*D_NET *13 0

*CONN
*I *15:s B *C 0.7800 0.5200 
*I *16:d B *C 0.7800 0.5200 


*RES
0 *16:d *15:s 0.001  // $mwires

*END

*D_NET *11 1.49756e-18

*CONN
*I *12:d B *C 0.4700 0.5200 
*I *14:s B *C 0.4700 0.5200 

*CAP
0 *12:d 1.49756e-18

*RES
0 *14:s *12:d 0.001  // $mwires

*END

*D_NET *10 4.90172e-16

*CONN
*I *14:g B *C 0.5225 0.5200 
*I *15:g B *C 0.7275 0.5200 
*I *18:d B *C 1.5250 0.5775 
*I *3:g B *C 0.5225 1.2850 
*I *4:g B *C 0.7275 1.2850 
*I *6:d B *C 1.3025 1.1975 
*I *7:d B *C 1.3025 1.1975 
*N *10:3 *C 0.7000 0.8875 
*N *10:8 *C 1.3300 0.9800 

*CAP
0 *6:d 1.74869e-17
1 *4:g 1.67465e-16
2 *18:d 4.22238e-17
3 *15:g 5.52946e-17
4 *14:g 6.39754e-17
5 *10:8 1.00793e-16
6 *10:3 4.29333e-17

*RES
0 *10:3 *15:g 57.73457  // $poly_conn
1 *10:3 *14:g 90.681992  // $poly_conn
2 *4:g *10:3 7.028393  // $poly_conn
3 *10:8 *4:g 45.469051  // $metal1_conn
4 *6:d *10:8 62.093674  // $metal1_conn
5 *10:8 *18:d 75.398376  // $metal1_conn

*END

