*SPEF "IEEE 1481-1999"
*DESIGN  "OAI2BB1X1"
*DATE "Mon Sep 27 10:42:28 2010"
*VENDOR "Cadence Design Systems"
*PROGRAM "Assura RCX"
*VERSION "3.2 Red Hat Linux release 7.2 (Enigma) - (09/09/2009-10:39)"
*DESIGN_FLOW "Physical Verification"
*DIVIDER /
*DELIMITER :
*BUS_DELIMITER []
*T_UNIT 1 PS
*C_UNIT 1e15 FF
*R_UNIT 1 OHM
*L_UNIT 1 MH
// DeviceFingerDelim "@"
// MATCHED
// caps2d version: 10

*NAME_MAP
*1 mp3
*2 A1N
*3 mp2
*4 mp0
*5 mp1
*6 VSS
*7 A0N
*8 n0
*9 n1
*10 n2
*11 mn3
*12 mn2
*13 VDD
*14 mn0
*15 Y
*16 B0
*17 mn1

*GROUND_NETS VSS

*PORTS
*13 I
*6 I
*7 I
*2 I
*16 I
*15 O

*D_NET *13 1.90704e-16

*CONN
*P *13 I *C 0.1000 1.7100 
*I *1:s B *C 0.1100 1.1450 
*I *3:s B *C 0.5600 1.2325 
*I *4:s B *C 0.5600 1.2325 
*I *5:s B *C 0.9150 1.3775 
*N *13:2 *C 0.5000 1.7100 
*N *13:3 *C 0.5000 1.7100 

*CAP
0 *5:s 1.22066e-17
1 *3:s 4.40613e-17
2 *1:s 4.54805e-17
3 *13:2 8.38848e-17
4 *13 5.07127e-18

*RES
0 *5:s *13:3 62.281757  // $metal1_conn
1 *13:3 *13 0.201118  // $metal1_conn
2 *13 *1:s 21.042063  // $metal1_conn
3 *13:3 *3:s 62.297718  // $metal1_conn
4 *13:2 *13:3 15  // $metal1_conn

*END

*D_NET *6 0

*CONN
*P *6 I *C 0.1000 0.0000 
*I *12:s B *C 0.5950 0.4475 
*I *14:s B *C 0.5950 0.4475 
*N *6:2 *C 0.5000 0.0000 
*N *6:3 *C 0.5000 0.0000 


*RES
0 *12:s *6:3 37.729977  // $metal1_conn
1 *6:3 *6 0.200815  // $metal1_conn
2 *6:2 *6:3 12.4  // $metal1_conn

*END

*D_NET *7 3.25069e-16

*CONN
*P *7 I *C 0.6050 0.7600 
*I *14:g B *C 0.6425 0.4475 
*I *4:g B *C 0.6125 1.2325 
*N *7:2 *C 0.6150 0.8400 
*N *7:4 *C 0.6150 0.8400 

*CAP
0 *4:g 5.1361e-17
1 *14:g 6.50901e-17
2 *7:2 1.66171e-16
3 *7 4.24469e-17

*RES
0 *14:g *7:2 73.538101  // $poly_conn
1 *7:2 *4:g 62.807129  // $poly_conn
2 *7 *7:4 0.046798  // $metal1_conn
3 *7:2 *7:4 45  // $metal1_conn

*END

*D_NET *2 2.42819e-16

*CONN
*P *2 I *C 0.8850 0.9200 
*I *17:g B *C 0.7475 0.4475 
*I *5:g B *C 0.8175 1.2325 
*N *2:2 *C 0.8175 0.7300 
*N *2:4 *C 0.8750 0.7300 

*CAP
0 *5:g 4.12276e-17
1 *17:g 5.03388e-17
2 *2:2 4.16443e-17
3 *2:4 5.12976e-17
4 *2 5.83106e-17

*RES
0 *5:g *2:2 89.413292  // $poly_conn
1 *2:2 *17:g 57.308502  // $poly_conn
2 *2:2 *2:4 47.969933  // $poly_conn
3 *2 *2:4 0.127338  // $metal1_conn

*END

*D_NET *16 3.24957e-16

*CONN
*P *16 I *C 0.4450 1.0800 
*I *12:g B *C 0.4075 0.3900 
*I *3:g B *C 0.4075 1.1450 
*N *16:2 *C 0.4350 0.7800 

*CAP
0 *3:g 5.84683e-17
1 *12:g 7.62937e-17
2 *16:2 1.27707e-16
3 *16 6.24874e-17

*RES
0 *3:g *16:2 35.076569  // $poly_conn
1 *16:2 *12:g 58.153492  // $poly_conn
2 *16 *16:2 45.188255  // $metal1_conn

*END

*D_NET *15 2.18975e-16

*CONN
*P *15 O *C 0.1500 0.4750 
*I *11:d B *C 0.2100 0.3900 
*I *1:d B *C 0.3050 1.1450 
*I *3:d B *C 0.3050 1.1450 

*CAP
0 *1:d 1.33367e-16
1 *15 8.56072e-17

*RES
0 *1:d *15 21.315907  // $metal1_conn
1 *15 *11:d 37.516479  // $metal1_conn

*END

*D_NET *10 0

*CONN
*I *11:s B *C 0.3550 0.3900 
*I *12:d B *C 0.3550 0.3900 


*RES
0 *12:d *11:s 0.001  // $mwires

*END

*D_NET *9 0

*CONN
*I *14:d B *C 0.6950 0.4475 
*I *17:s B *C 0.6950 0.4475 


*RES
0 *17:s *14:d 0.001  // $mwires

*END

*D_NET *8 4.75911e-16

*CONN
*I *11:g B *C 0.3025 0.3900 
*I *17:d B *C 0.8500 0.4475 
*I *1:g B *C 0.2025 1.1450 
*I *4:d B *C 0.7150 1.2325 
*I *5:d B *C 0.7150 1.2325 
*N *8:2 *C 0.2750 0.7100 
*N *8:5 *C 0.7550 0.6300 

*CAP
0 *4:d 8.81253e-17
1 *1:g 4.06184e-17
2 *17:d 4.17573e-17
3 *11:g 5.859e-17
4 *8:5 1.17255e-16
5 *8:2 1.29565e-16

*RES
0 *11:g *8:2 37.042862  // $poly_conn
1 *8:2 *1:g 55.112999  // $poly_conn
2 *4:d *8:5 62.643124  // $metal1_conn
3 *8:5 *8:2 45.404633  // $metal1_conn
4 *8:5 *17:d 75.17231  // $metal1_conn

*END

