*SPEF "IEEE 1481-1999"
*DESIGN  "OAI221X4"
*DATE "Mon Sep 27 10:38:41 2010"
*VENDOR "Cadence Design Systems"
*PROGRAM "Assura RCX"
*VERSION "3.2 Red Hat Linux release 7.2 (Enigma) - (09/09/2009-10:39)"
*DESIGN_FLOW "Physical Verification"
*DIVIDER /
*DELIMITER :
*BUS_DELIMITER []
*T_UNIT 1 PS
*C_UNIT 1e15 FF
*R_UNIT 1 OHM
*L_UNIT 1 MH
// DeviceFingerDelim "@"
// MATCHED
// caps2d version: 10

*NAME_MAP
*1 mn1\@1
*2 mn0\@1
*3 mn0\@2
*4 mn1\@2
*5 mn1\@3
*6 mn0\@3
*7 B0
*8 B1
*9 mn2\@3
*10 C0
*11 mp4\@2
*12 mp4\@3
*13 mp0
*14 mp1
*15 mp1\@1
*16 mp0\@1
*17 mp0\@2
*18 mp1\@2
*19 mp1\@3
*20 mp0\@3
*21 net128
*22 mp3
*23 net115
*24 mp3\@1
*25 net115\@1
*26 mp2\@1
*27 net115\@2
*28 mp2\@2
*29 net115\@3
*30 mp3\@2
*31 net123
*32 mp3\@3
*33 net123\@1
*34 mp2\@3
*35 net123\@2
*36 mp2
*37 mp4
*38 net123\@3
*39 mp4\@1
*40 VSS
*41 mn3
*42 mn2
*43 mn2\@1
*44 mn3\@1
*45 mn3\@2
*46 VDD
*47 mn2\@2
*48 mn4
*49 mn4\@1
*50 mn4\@2
*51 A0
*52 net132
*53 A1
*54 Y
*55 mn4\@3
*56 mn3\@3
*57 mn0
*58 mn1

*GROUND_NETS VSS

*PORTS
*46 I
*40 I
*51 I
*53 I
*7 I
*8 I
*10 I
*54 O

*D_NET *46 6.57243e-16

*CONN
*P *46 I *C 0.1000 1.7100 
*I *26:s B *C 2.7650 1.2650 
*I *28:s B *C 2.7650 1.2650 
*I *34:s B *C 3.5400 1.2650 
*I *37:s B *C 3.5400 1.2650 
*I *39:s B *C 3.9500 1.2650 
*I *11:s B *C 3.9500 1.2650 
*I *12:s B *C 4.3850 1.2650 
*I *13:s B *C 0.3000 1.2650 
*I *16:s B *C 1.2000 1.2650 
*I *17:s B *C 1.2000 1.2650 
*I *20:s B *C 1.9175 1.2650 
*I *36:s B *C 1.9175 1.2650 
*N *46:3 *C 3.5000 1.7100 
*N *46:5 *C 2.7350 1.7100 
*N *46:6 *C 1.7600 1.7100 
*N *46:7 *C 1.2000 1.7100 
*N *46:8 *C 0.8800 1.7100 
*N *46:9 *C 0.2900 1.7100 

*CAP
0 *20:s 4.29481e-17
1 *16:s 3.3648e-17
2 *13:s 1.26855e-17
3 *12:s 1.49478e-16
4 *26:s 3.46213e-17
5 *46:9 1.38544e-17
6 *46:8 1.60161e-17
7 *46:6 2.73227e-17
8 *46:5 3.62205e-17
9 *46:3 2.90448e-16

*RES
0 *46:9 *46 0.094772  // $metal1_conn
1 *46:3 *12:s 6.818182  // $metal1_conn
2 *46:3 *46:7 6.25  // $metal1_conn
3 *46:5 *26:s 62.183346  // $metal1_conn
4 *46:6 *20:s 62.183346  // $metal1_conn
5 *46:8 *16:s 62.183346  // $metal1_conn
6 *46:9 *13:s 62.187  // $metal1_conn
7 *12:s *46:5 0.383387  // $metal1_conn
8 *46:5 *46:6 0.488228  // $metal1_conn
9 *46:6 *46:7 0.280447  // $metal1_conn
10 *46:7 *46:8 0.160171  // $metal1_conn
11 *46:8 *46:9 0.295286  // $metal1_conn

*END

*D_NET *40 0

*CONN
*P *40 I *C 0.1000 0.0000 
*I *57:s B *C 0.1500 0.5250 
*I *58:s B *C 0.5600 0.5250 
*I *1:s B *C 0.5600 0.5250 
*I *2:s B *C 0.9700 0.5250 
*I *3:s B *C 0.9700 0.5250 
*I *4:s B *C 1.3800 0.5250 
*I *5:s B *C 1.3800 0.5250 
*I *6:s B *C 1.7800 0.5250 
*N *40:1 *C 3.5000 0.0000 


*RES
0 *6:s *40 0.019595  // $metal1_conn
1 *40:1 *6:s 6.493131  // $metal1_conn
2 *40:1 *6:s 5.166667  // $metal1_conn

*END

*D_NET *51 8.43007e-16

*CONN
*P *51 I *C 0.3000 0.8550 
*I *57:g B *C 0.2425 0.5250 
*I *2:g B *C 0.8675 0.5250 
*I *3:g B *C 1.0725 0.5250 
*I *6:g B *C 1.6875 0.5250 
*I *13:g B *C 0.3925 1.2650 
*I *16:g B *C 0.8075 1.2650 
*I *17:g B *C 1.2725 1.2650 
*I *20:g B *C 1.6875 1.2650 

*CAP
0 *20:g 6.0681e-17
1 *17:g 8.22962e-17
2 *16:g 8.60413e-17
3 *13:g 6.63949e-17
4 *6:g 5.2723e-16
5 *51 2.03641e-17

*RES
0 *20:g *6:g 16.15522  // $poly_conn
1 *17:g *6:g 66.850616  // $poly_conn
2 *6:g *16:g 67.651459  // $poly_conn
3 *13:g *6:g 46.424732  // $poly_conn
4 *6:g *51 0.017652  // $metal1_conn

*END

*D_NET *53 6.99251e-16

*CONN
*P *53 I *C 0.7000 0.8550 
*I *58:g B *C 0.4575 0.5250 
*I *1:g B *C 0.6625 0.5250 
*I *4:g B *C 1.2775 0.5250 
*I *5:g B *C 1.4825 0.5250 
*I *14:g B *C 0.4975 1.2650 
*I *15:g B *C 0.7025 1.2650 
*I *18:g B *C 1.3775 1.2650 
*I *19:g B *C 1.5825 1.2650 
*N *53:8 *C 1.4150 0.8575 

*CAP
0 *19:g 7.29618e-17
1 *18:g 6.6686e-17
2 *15:g 6.61299e-17
3 *14:g 7.12137e-17
4 *53 4.22259e-16

*RES
0 *19:g *53:8 79.653122  // $poly_conn
1 *53:8 *18:g 55.530209  // $poly_conn
2 *15:g *53 41.514191  // $poly_conn
3 *53 *14:g 73.061714  // $poly_conn
4 *53:8 *53 2.191501  // $poly_conn

*END

*D_NET *7 7.99422e-16

*CONN
*P *7 I *C 3.5000 1.0450 
*I *42:g B *C 2.7075 0.5250 
*I *43:g B *C 2.9125 0.5250 
*I *47:g B *C 3.5275 0.5250 
*I *9:g B *C 2.0925 0.5250 
*I *26:g B *C 2.6625 1.2650 
*I *28:g B *C 2.8675 1.2650 
*I *34:g B *C 3.4375 1.2650 
*I *36:g B *C 2.1475 1.2650 

*CAP
0 *36:g 3.31838e-17
1 *34:g 3.91965e-17
2 *28:g 5.61426e-17
3 *26:g 7.20146e-17
4 *7 5.98884e-16

*RES
0 *7 *34:g 20.232069  // $poly_conn
1 *7 *28:g 14.611425  // $poly_conn
2 *7 *26:g 51.41053  // $poly_conn
3 *36:g *7 26.102209  // $poly_conn

*END

*D_NET *8 5.73333e-16

*CONN
*P *8 I *C 3.1000 0.8550 
*I *41:g B *C 2.5025 0.5250 
*I *44:g B *C 3.1175 0.5250 
*I *45:g B *C 3.3225 0.5250 
*I *56:g B *C 2.2975 0.5250 
*I *22:g B *C 2.3525 1.2650 
*I *24:g B *C 2.5575 1.2650 
*I *30:g B *C 2.9725 1.2650 
*I *32:g B *C 3.1775 1.2650 
*N *8:2 *C 2.5300 0.8575 

*CAP
0 *32:g 3.16895e-17
1 *30:g 6.86566e-17
2 *24:g 6.65694e-17
3 *22:g 3.88234e-17
4 *45:g 3.18326e-16
5 *8:2 4.92684e-17

*RES
0 *45:g *32:g 57.677101  // $poly_conn
1 *45:g *30:g 65.369408  // $poly_conn
2 *24:g *8:2 54.837543  // $poly_conn
3 *8:2 *22:g 84.271729  // $poly_conn
4 *8:2 *45:g 2.606361  // $poly_conn
5 *45:g *8 0.005687  // $metal1_conn

*END

*D_NET *10 3.1706e-16

*CONN
*P *10 I *C 3.9000 0.8550 
*I *48:g B *C 3.7325 0.5250 
*I *49:g B *C 3.9375 0.5250 
*I *50:g B *C 4.1425 0.5250 
*I *55:g B *C 4.3475 0.5250 
*I *37:g B *C 3.6425 1.2650 
*I *39:g B *C 3.8475 1.2650 
*I *11:g B *C 4.0525 1.2650 
*I *12:g B *C 4.2575 1.2650 

*CAP
0 *10 3.1706e-16


*END

*D_NET *54 8.51051e-16

*CONN
*P *54 O *C 4.3000 0.8550 
*I *48:d B *C 3.8350 0.5250 
*I *49:d B *C 3.8350 0.5250 
*I *50:d B *C 4.2450 0.5250 
*I *55:d B *C 4.2450 0.5250 
*I *22:d B *C 2.4550 1.2650 
*I *24:d B *C 2.4550 1.2650 
*I *30:d B *C 3.0750 1.2650 
*I *32:d B *C 3.0750 1.2650 
*I *37:d B *C 3.7450 1.2650 
*I *39:d B *C 3.7450 1.2650 
*I *11:d B *C 4.1550 1.2650 
*I *12:d B *C 4.1550 1.2650 
*I *14:d B *C 0.6000 1.2650 
*I *15:d B *C 0.6000 1.2650 
*I *18:d B *C 1.4800 1.2650 
*I *19:d B *C 1.4800 1.2650 
*N *54:9 *C 3.0750 1.2700 
*N *54:11 *C 2.4550 1.2700 
*N *54:13 *C 1.4800 1.2700 

*CAP
0 *18:d 1.39549e-16
1 *14:d 8.97566e-17
2 *11:d 2.01546e-16
3 *30:d 1.21423e-16
4 *22:d 1.41446e-16
5 *48:d 1.1572e-16
6 *54 4.16094e-17

*RES
0 *48:d *54 0.16441  // $metal1_conn
1 *54 *11:d 0.337581  // $metal1_conn
2 *30:d *54:9 62  // $metal1_conn
3 *22:d *54:11 62  // $metal1_conn
4 *18:d *54:13 62  // $metal1_conn
5 *54:13 *14:d 62.648109  // $metal1_conn
6 *11:d *54:9 0.468132  // $metal1_conn
7 *54:9 *54:11 0.456423  // $metal1_conn
8 *54:11 *54:13 0.6917  // $metal1_conn

*END

*D_NET *38 8.53288e-18

*CONN
*I *32:s B *C 3.3075 1.2650 
*I *34:d B *C 3.3075 1.2650 

*CAP
0 *32:s 8.53288e-18

*RES
0 *34:d *32:s 0.001  // $mwires

*END

*D_NET *35 2.39145e-18

*CONN
*I *28:d B *C 2.9200 1.2650 
*I *30:s B *C 2.9200 1.2650 

*CAP
0 *28:d 2.39145e-18

*RES
0 *30:s *28:d 0.001  // $mwires

*END

*D_NET *33 2.39145e-18

*CONN
*I *24:s B *C 2.6100 1.2650 
*I *26:d B *C 2.6100 1.2650 

*CAP
0 *24:s 2.39145e-18

*RES
0 *26:d *24:s 0.001  // $mwires

*END

*D_NET *31 6.35869e-18

*CONN
*I *22:s B *C 2.2500 1.2650 
*I *36:d B *C 2.2500 1.2650 

*CAP
0 *22:s 6.35869e-18

*RES
0 *36:d *22:s 0.001  // $mwires

*END

*D_NET *29 1.84995e-18

*CONN
*I *19:s B *C 1.6350 1.2650 
*I *20:d B *C 1.6350 1.2650 

*CAP
0 *19:s 1.84995e-18

*RES
0 *20:d *19:s 0.001  // $mwires

*END

*D_NET *27 1.84995e-18

*CONN
*I *17:d B *C 1.3250 1.2650 
*I *18:s B *C 1.3250 1.2650 

*CAP
0 *17:d 1.84995e-18

*RES
0 *18:s *17:d 0.001  // $mwires

*END

*D_NET *25 1.84995e-18

*CONN
*I *15:s B *C 0.7550 1.2650 
*I *16:d B *C 0.7550 1.2650 

*CAP
0 *15:s 1.84995e-18

*RES
0 *16:d *15:s 0.001  // $mwires

*END

*D_NET *23 0

*CONN
*I *13:d B *C 0.4450 1.2650 
*I *14:s B *C 0.4450 1.2650 


*RES
0 *14:s *13:d 0.001  // $mwires

*END

*D_NET *21 5.98279e-16

*CONN
*I *41:s B *C 2.6050 0.5250 
*I *42:s B *C 2.6050 0.5250 
*I *43:s B *C 3.0150 0.5250 
*I *44:s B *C 3.0150 0.5250 
*I *45:s B *C 3.4250 0.5250 
*I *47:s B *C 3.4250 0.5250 
*I *56:s B *C 2.1950 0.5250 
*I *57:d B *C 0.3500 0.5250 
*I *58:d B *C 0.3500 0.5250 
*I *1:d B *C 0.7650 0.5250 
*I *2:d B *C 0.7650 0.5250 
*I *3:d B *C 1.1750 0.5250 
*I *4:d B *C 1.1750 0.5250 
*I *5:d B *C 1.5850 0.5250 
*I *6:d B *C 1.5850 0.5250 
*I *9:s B *C 2.1950 0.5250 

*CAP
0 *5:d 2.6848e-16
1 *45:s 3.29799e-16

*RES
0 *45:s *5:d 0.44263  // $metal1_conn

*END

*D_NET *52 4.42504e-16

*CONN
*I *41:d B *C 2.4000 0.5250 
*I *42:d B *C 2.8100 0.5250 
*I *43:d B *C 2.8100 0.5250 
*I *44:d B *C 3.2200 0.5250 
*I *45:d B *C 3.2200 0.5250 
*I *47:d B *C 3.6300 0.5250 
*I *48:s B *C 3.6300 0.5250 
*I *49:s B *C 4.0400 0.5250 
*I *50:s B *C 4.0400 0.5250 
*I *55:s B *C 4.4400 0.5250 
*I *56:d B *C 2.4000 0.5250 
*I *9:d B *C 2.0000 0.5250 

*CAP
0 *55:s 4.42504e-16


*END

