*SPEF "IEEE 1481-1999"
*DESIGN  "OAI22XL"
*DATE "Mon Sep 27 10:42:04 2010"
*VENDOR "Cadence Design Systems"
*PROGRAM "Assura RCX"
*VERSION "3.2 Red Hat Linux release 7.2 (Enigma) - (09/09/2009-10:39)"
*DESIGN_FLOW "Physical Verification"
*DIVIDER /
*DELIMITER :
*BUS_DELIMITER []
*T_UNIT 1 PS
*C_UNIT 1e15 FF
*R_UNIT 1 OHM
*L_UNIT 1 MH
// DeviceFingerDelim "@"
// MATCHED
// caps2d version: 10

*NAME_MAP
*1 A0
*2 A1
*3 mp0
*4 mp1
*5 mp3
*6 mp2
*7 VSS
*8 net102
*9 net85
*10 net93
*11 mn0
*12 mn1
*13 VDD
*14 mn3
*15 Y
*16 B0
*17 mn2
*18 B1

*GROUND_NETS VSS

*PORTS
*13 I
*7 I
*1 I
*2 I
*16 I
*18 I
*15 O

*D_NET *13 1.40139e-16

*CONN
*P *13 I *C 0.1000 1.7100 
*I *3:s B *C 0.1150 1.2225 
*I *6:s B *C 0.9550 1.2225 
*N *13:2 *C 0.6000 1.7100 
*N *13:3 *C 0.6000 1.7100 

*CAP
0 *6:s 1.99418e-17
1 *3:s 2.70417e-17
2 *13:2 8.73541e-17
3 *13 5.80112e-18

*RES
0 *6:s *13:3 62.474331  // $metal1_conn
1 *13:3 *13 0.250676  // $metal1_conn
2 *13 *3:s 62.281307  // $metal1_conn
3 *13:2 *13:3 12.5  // $metal1_conn

*END

*D_NET *7 0

*CONN
*P *7 I *C 0.1000 0.0000 
*I *11:s B *C 0.3550 0.4625 
*I *12:s B *C 0.3550 0.4625 
*N *7:1 *C 0.6000 0.0000 
*N *7:2 *C 0.3400 0.0000 


*RES
0 *7:1 *7:2 10.463436  // $metal1_conn
1 *7:2 *7 0.119829  // $metal1_conn
2 *7:2 *11:s 75.074203  // $metal1_conn

*END

*D_NET *1 2.24765e-16

*CONN
*P *1 I *C 0.1000 0.6650 
*I *11:g B *C 0.2075 0.4625 
*I *3:g B *C 0.2075 1.2225 
*N *1:2 *C 0.2075 0.6600 
*N *1:3 *C 0.1100 0.6600 

*CAP
0 *3:g 4.59403e-17
1 *11:g 3.39761e-17
2 *1:2 3.96286e-17
3 *1:3 1.19947e-17
4 *1 9.32254e-17

*RES
0 *3:g *1:2 113.911972  // $poly_conn
1 *1:2 *1:3 49.953949  // $poly_conn
2 *1:2 *11:g 29.296595  // $poly_conn
3 *1:3 *1 0.003106  // $metal1_conn

*END

*D_NET *2 2.57981e-16

*CONN
*P *2 I *C 0.3000 0.8550 
*I *12:g B *C 0.4025 0.4625 
*I *4:g B *C 0.3675 1.2225 
*N *2:2 *C 0.3400 0.6700 

*CAP
0 *4:g 5.55081e-17
1 *12:g 3.39336e-17
2 *2:2 9.83974e-17
3 *2 7.01423e-17

*RES
0 *12:g *2:2 28.86861  // $poly_conn
1 *2:2 *4:g 102.427475  // $poly_conn
2 *2:2 *2 45.107754  // $metal1_conn

*END

*D_NET *16 1.78142e-16

*CONN
*P *16 I *C 0.9000 1.0450 
*I *17:g B *C 0.9175 0.4625 
*I *6:g B *C 0.8625 1.2225 
*N *16:2 *C 0.8900 0.6700 

*CAP
0 *6:g 3.98696e-17
1 *17:g 2.4077e-17
2 *16:2 7.37046e-17
3 *16 4.04904e-17

*RES
0 *17:g *16:2 26.102209  // $poly_conn
1 *16:2 *6:g 105.589386  // $poly_conn
2 *16 *16:2 45.224461  // $metal1_conn

*END

*D_NET *18 2.29901e-16

*CONN
*P *18 I *C 0.7000 1.2350 
*I *14:g B *C 0.6625 0.4625 
*I *5:g B *C 0.6625 1.2225 
*N *18:2 *C 0.6900 0.8600 

*CAP
0 *5:g 3.73022e-17
1 *14:g 4.35231e-17
2 *18:2 1.01889e-16
3 *18 4.71873e-17

*RES
0 *5:g *18:2 56.871437  // $poly_conn
1 *18:2 *14:g 74.820152  // $poly_conn
2 *18 *18:2 45.224461  // $metal1_conn

*END

*D_NET *15 1.77609e-16

*CONN
*P *15 O *C 0.5000 1.0450 
*I *14:d B *C 0.7900 0.4625 
*I *17:d B *C 0.7900 0.4625 
*I *4:d B *C 0.5150 1.2225 
*I *5:d B *C 0.5150 1.2225 

*CAP
0 *4:d 2.19419e-17
1 *14:d 8.1339e-17
2 *15 7.43278e-17

*RES
0 *14:d *15 75.568726  // $metal1_conn
1 *15 *4:d 62.091053  // $metal1_conn

*END

*D_NET *10 0

*CONN
*I *3:d B *C 0.2875 1.2225 
*I *4:s B *C 0.2875 1.2225 


*RES
0 *4:s *3:d 0.001  // $mwires

*END

*D_NET *9 6.98412e-18

*CONN
*I *5:s B *C 0.7625 1.2225 
*I *6:d B *C 0.7625 1.2225 

*CAP
0 *5:s 6.98412e-18

*RES
0 *6:d *5:s 0.001  // $mwires

*END

*D_NET *8 1.96346e-16

*CONN
*I *11:d B *C 0.1150 0.4625 
*I *12:d B *C 0.5325 0.4625 
*I *14:s B *C 0.5325 0.4625 
*I *17:s B *C 1.0100 0.4625 
*N *8:3 *C 0.5050 0.4500 

*CAP
0 *17:s 6.00669e-17
1 *12:d 9.71718e-17
2 *11:d 3.91069e-17

*RES
0 *17:s *8:3 75.629837  // $metal1_conn
1 *8:3 *11:d 75.273888  // $metal1_conn
2 *12:d *8:3 75  // $metal1_conn

*END

