*SPEF "IEEE 1481-1999"
*DESIGN  "OAI21X2"
*DATE "Mon Sep 27 10:36:52 2010"
*VENDOR "Cadence Design Systems"
*PROGRAM "Assura RCX"
*VERSION "3.2 Red Hat Linux release 7.2 (Enigma) - (09/09/2009-10:39)"
*DESIGN_FLOW "Physical Verification"
*DIVIDER /
*DELIMITER :
*BUS_DELIMITER []
*T_UNIT 1 PS
*C_UNIT 1e15 FF
*R_UNIT 1 OHM
*L_UNIT 1 MH
// DeviceFingerDelim "@"
// MATCHED
// caps2d version: 10

*NAME_MAP
*1 mp0
*2 mp1
*3 mp1\@1
*4 mp0\@1
*5 mp2
*6 A0
*7 mp2\@1
*8 A1
*9 VDD
*10 n0
*11 n1
*12 mn0
*13 n1\@1
*14 mn1
*15 mn1\@1
*16 mn0\@1
*17 mn2
*18 mn2\@1
*19 B0
*20 Y
*21 VSS

*GROUND_NETS VSS

*PORTS
*9 I
*21 I
*6 I
*8 I
*19 I
*20 O

*D_NET *9 2.62908e-16

*CONN
*P *9 I *C 0.1000 1.7100 
*I *1:s B *C 0.3450 1.2850 
*I *4:s B *C 1.0025 1.2850 
*I *5:s B *C 1.0025 1.2850 
*I *7:s B *C 1.4200 1.2850 
*N *9:3 *C 0.9000 1.7100 
*N *9:4 *C 0.9000 1.7100 
*N *9:5 *C 0.3300 1.7100 

*CAP
0 *7:s 9.73515e-17
1 *1:s 4.81719e-17
2 *9:5 1.11236e-17
3 *9:3 1.06261e-16

*RES
0 *9:5 *9 0.114379  // $metal1_conn
1 *9:3 *9:4 8.333333  // $metal1_conn
2 *9:5 *1:s 20.929224  // $metal1_conn
3 *7:s *9:4 0.042229  // $metal1_conn
4 *9:4 *9:5 0.284367  // $metal1_conn

*END

*D_NET *21 0

*CONN
*P *21 I *C 0.1000 0.0000 
*I *12:s B *C 0.4700 0.5300 
*I *14:s B *C 0.4700 0.5300 
*I *15:s B *C 0.8800 0.5300 
*I *16:s B *C 0.8800 0.5300 
*N *21:2 *C 0.9000 0.0000 


*RES
0 *15:s *21 0.184271  // $metal1_conn
1 *21:2 *15:s 6.888889  // $metal1_conn

*END

*D_NET *6 4.62288e-16

*CONN
*P *6 I *C 0.9000 0.8550 
*I *12:g B *C 0.3675 0.5300 
*I *16:g B *C 0.9825 0.5300 
*I *1:g B *C 0.4425 1.2850 
*I *4:g B *C 0.8825 1.2850 

*CAP
0 *4:g 8.37776e-17
1 *1:g 6.42302e-17
2 *6 3.1428e-16

*RES
0 *6 *4:g 52.427479  // $poly_conn
1 *1:g *6 64.579376  // $poly_conn

*END

*D_NET *8 3.54682e-16

*CONN
*P *8 I *C 0.5000 1.2350 
*I *14:g B *C 0.5725 0.5300 
*I *15:g B *C 0.7775 0.5300 
*I *2:g B *C 0.5725 1.2850 
*I *3:g B *C 0.7775 1.2850 

*CAP
0 *3:g 6.09117e-17
1 *2:g 4.18672e-17
2 *15:g 2.00025e-16
3 *8 5.18783e-17

*RES
0 *3:g *15:g 31.540302  // $poly_conn
1 *15:g *2:g 16.15522  // $poly_conn
2 *15:g *8 45.191452  // $metal1_conn

*END

*D_NET *19 2.33859e-16

*CONN
*P *19 I *C 1.5000 0.8550 
*I *17:g B *C 1.2525 0.5300 
*I *18:g B *C 1.4575 0.5300 
*I *5:g B *C 1.1225 1.2850 
*I *7:g B *C 1.3275 1.2850 

*CAP
0 *7:g 2.1831e-16
1 *19 1.55492e-17

*RES
0 *19 *7:g 45.020142  // $metal1_conn

*END

*D_NET *20 2.86631e-16

*CONN
*P *20 O *C 1.1000 0.8550 
*I *17:d B *C 1.3550 0.5300 
*I *18:d B *C 1.3550 0.5300 
*I *2:d B *C 0.6750 1.2850 
*I *3:d B *C 0.6750 1.2850 
*I *5:d B *C 1.2250 1.2850 
*I *7:d B *C 1.2250 1.2850 
*N *20:2 *C 1.2700 0.8900 
*N *20:4 *C 1.2250 1.2000 
*N *20:6 *C 0.6750 1.2000 

*CAP
0 *5:d 8.60576e-17
1 *2:d 9.28002e-17
2 *17:d 3.82827e-17
3 *20:2 4.40908e-17
4 *20 2.53994e-17

*RES
0 *20:2 *20 0.11297  // $metal1_conn
1 *5:d *20:4 62  // $metal1_conn
2 *20:4 *5:d 62.155514  // $metal1_conn
3 *20:6 *2:d 62.152271  // $metal1_conn
4 *2:d *20:6 62  // $metal1_conn
5 *17:d *20:2 75.248085  // $metal1_conn
6 *20:2 *20:4 0.239095  // $metal1_conn
7 *20:4 *20:6 0.35992  // $metal1_conn

*END

*D_NET *13 1.86068e-18

*CONN
*I *3:s B *C 0.8300 1.2850 
*I *4:d B *C 0.8300 1.2850 

*CAP
0 *3:s 1.86068e-18

*RES
0 *4:d *3:s 0.001  // $mwires

*END

*D_NET *11 3.4798e-18

*CONN
*I *1:d B *C 0.5075 1.2850 
*I *2:s B *C 0.5075 1.2850 

*CAP
0 *1:d 3.4798e-18

*RES
0 *2:s *1:d 0.001  // $mwires

*END

*D_NET *10 2.54993e-16

*CONN
*I *12:d B *C 0.2750 0.5300 
*I *14:d B *C 0.6750 0.5300 
*I *15:d B *C 0.6750 0.5300 
*I *16:d B *C 1.1175 0.5300 
*I *17:s B *C 1.1175 0.5300 
*I *18:s B *C 1.5500 0.5300 

*CAP
0 *18:s 1.59018e-16
1 *14:d 9.59752e-17

*RES
0 *14:d *18:s 75  // $metal1_conn

*END

