*SPEF "IEEE 1481-1999"
*DESIGN  "OAI222XL"
*DATE "Mon Sep 27 10:40:34 2010"
*VENDOR "Cadence Design Systems"
*PROGRAM "Assura RCX"
*VERSION "3.2 Red Hat Linux release 7.2 (Enigma) - (09/09/2009-10:39)"
*DESIGN_FLOW "Physical Verification"
*DIVIDER /
*DELIMITER :
*BUS_DELIMITER []
*T_UNIT 1 PS
*C_UNIT 1e15 FF
*R_UNIT 1 OHM
*L_UNIT 1 MH
// DeviceFingerDelim "@"
// MATCHED
// caps2d version: 10

*NAME_MAP
*1 mp0
*2 mp1
*3 mp3
*4 mn0
*5 n1
*6 C0
*7 mp2
*8 mn1
*9 n0
*10 C1
*11 VSS
*12 mp4
*13 mn3
*14 n2
*15 mp5
*16 mn2
*17 n3
*18 A0
*19 mn4
*20 n4
*21 A1
*22 mn5
*23 Y
*24 B0
*25 B1
*26 VDD

*GROUND_NETS VSS

*PORTS
*26 I
*11 I
*18 I
*21 I
*24 I
*25 I
*6 I
*10 I
*23 O

*D_NET *26 2.33542e-16

*CONN
*P *26 I *C 0.1000 1.7100 
*I *1:s B *C 0.1700 1.2975 
*I *7:s B *C 1.0400 1.2975 
*I *12:s B *C 1.0400 1.2975 
*N *26:2 *C 0.8000 1.7100 
*N *26:3 *C 0.8000 1.7100 
*N *26:4 *C 0.1600 1.7100 

*CAP
0 *7:s 3.97488e-17
1 *1:s 1.59395e-17
2 *26:4 1.08801e-17
3 *26:2 1.66974e-16

*RES
0 *7:s *26:3 62.293533  // $metal1_conn
1 *26:3 *26:4 0.320699  // $metal1_conn
2 *26:4 *26 0.029632  // $metal1_conn
3 *26:4 *1:s 62.224449  // $metal1_conn
4 *26:2 *26:3 9.375  // $metal1_conn

*END

*D_NET *11 0

*CONN
*P *11 I *C 0.1000 0.0000 
*I *4:s B *C 0.1150 0.5125 
*I *8:s B *C 0.5250 0.1400 
*N *11:1 *C 0.8000 0.0000 
*N *11:2 *C 0.5000 0.0000 


*RES
0 *11:1 *11:2 7.900224  // $metal1_conn
1 *11:2 *11 0.200415  // $metal1_conn
2 *11 *4:s 75.084061  // $metal1_conn
3 *11:2 *8:s 75.074516  // $metal1_conn

*END

*D_NET *18 2.22797e-16

*CONN
*P *18 I *C 0.1800 1.0450 
*I *4:g B *C 0.1625 0.5125 
*I *1:g B *C 0.2625 1.2975 
*N *18:2 *C 0.1900 0.7200 

*CAP
0 *1:g 7.10571e-17
1 *4:g 2.60745e-17
2 *18:2 8.84466e-17
3 *18 3.72189e-17

*RES
0 *1:g *18:2 114.087357  // $poly_conn
1 *18:2 *4:g 22.940296  // $poly_conn
2 *18 *18:2 45.194908  // $metal1_conn

*END

*D_NET *21 2.22716e-16

*CONN
*P *21 I *C 0.3800 0.8550 
*I *8:g B *C 0.3675 0.5125 
*I *2:g B *C 0.3675 1.2975 
*N *21:2 *C 0.3950 0.8250 
*N *21:4 *C 0.3875 0.8250 
*N *21:5 *C 0.3950 0.8250 
*N *21:6 *C 0.3875 0.8550 

*CAP
0 *2:g 6.8784e-17
1 *8:g 3.88653e-17
2 *21:6 3.87794e-17
3 *21:4 1.90158e-17
4 *21:2 5.72718e-17

*RES
0 *2:g *21:2 85.076569  // $poly_conn
1 *21:2 *8:g 53.025284  // $poly_conn
2 *21:4 *21:5 0.001497  // $metal1_conn
3 *21 *21:6 0.001397  // $metal1_conn
4 *21:4 *21:6 0.019608  // $metal1_conn
5 *21:2 *21:5 45  // $metal1_conn

*END

*D_NET *24 2.44081e-16

*CONN
*P *24 I *C 0.9500 0.8550 
*I *16:g B *C 0.9375 0.5125 
*I *7:g B *C 0.9125 1.2975 
*N *24:2 *C 0.9400 0.8200 
*N *24:4 *C 0.9400 0.8200 
*N *24:6 *C 0.9450 0.8550 

*CAP
0 *7:g 5.38226e-17
1 *16:g 3.55834e-17
2 *24:4 3.10012e-17
3 *24:2 6.01363e-17
4 *24 6.35378e-17

*RES
0 *16:g *24:2 49.98661  // $poly_conn
1 *24:2 *7:g 86.35862  // $poly_conn
2 *24:6 *24 0.001081  // $metal1_conn
3 *24:4 *24:6 0.021776  // $metal1_conn
4 *24:2 *24:4 45  // $metal1_conn

*END

*D_NET *25 2.10381e-16

*CONN
*P *25 I *C 0.7500 1.0450 
*I *13:g B *C 0.7325 0.5125 
*I *3:g B *C 0.7325 1.2975 
*N *25:2 *C 0.7600 0.9950 
*N *25:4 *C 0.7550 0.9950 

*CAP
0 *3:g 3.88659e-17
1 *13:g 4.67946e-17
2 *25:4 5.02171e-17
3 *25:2 4.89838e-17
4 *25 2.55199e-17

*RES
0 *3:g *25:2 41.486824  // $poly_conn
1 *25:2 *13:g 96.615036  // $poly_conn
2 *25:4 *25 0.031109  // $metal1_conn
3 *25:2 *25:4 45  // $metal1_conn

*END

*D_NET *6 2.68457e-16

*CONN
*P *6 I *C 1.1500 1.0450 
*I *19:g B *C 1.1675 0.5125 
*I *12:g B *C 1.1675 1.2975 
*N *6:2 *C 1.1400 0.8000 

*CAP
0 *12:g 7.62168e-17
1 *19:g 3.78829e-17
2 *6:2 1.08326e-16
3 *6 4.60315e-17

*RES
0 *12:g *6:2 91.486824  // $poly_conn
1 *6:2 *19:g 46.615028  // $poly_conn
2 *6 *6:2 45.146931  // $metal1_conn

*END

*D_NET *10 2.67296e-16

*CONN
*P *10 I *C 1.3500 0.8550 
*I *22:g B *C 1.3775 0.5125 
*I *15:g B *C 1.2725 1.2975 
*N *10:2 *C 1.3400 0.8200 
*N *10:4 *C 1.3400 0.8200 
*N *10:6 *C 1.3450 0.8550 

*CAP
0 *15:g 6.90908e-17
1 *22:g 3.12222e-17
2 *10:2 8.9001e-17
3 *10 7.79818e-17

*RES
0 *22:g *10:2 50.770603  // $poly_conn
1 *10:2 *15:g 90.962837  // $poly_conn
2 *10:6 *10 0.001081  // $metal1_conn
3 *10:4 *10:6 0.024108  // $metal1_conn
4 *10:2 *10:4 45  // $metal1_conn

*END

*D_NET *23 3.30939e-16

*CONN
*P *23 O *C 1.4700 1.2750 
*I *19:d B *C 1.2725 0.5125 
*I *22:d B *C 1.2725 0.5125 
*I *2:d B *C 0.5500 1.2975 
*I *3:d B *C 0.5500 1.2975 
*I *15:d B *C 1.3650 1.2975 
*N *23:3 *C 1.3750 1.2500 

*CAP
0 *15:d 7.59401e-17
1 *2:d 8.43893e-17
2 *19:d 9.68863e-17
3 *23 7.37237e-17

*RES
0 *19:d *23 75.715584  // $metal1_conn
1 *23 *23:3 0.037243  // $metal1_conn
2 *23:3 *2:d 62.508362  // $metal1_conn
3 *15:d *23:3 62  // $metal1_conn

*END

*D_NET *20 1.35183e-18

*CONN
*I *12:d B *C 1.2200 1.2975 
*I *15:s B *C 1.2200 1.2975 

*CAP
0 *12:d 1.35183e-18

*RES
0 *15:s *12:d 0.001  // $mwires

*END

*D_NET *17 3.04162e-18

*CONN
*I *3:s B *C 0.8225 1.2975 
*I *7:d B *C 0.8225 1.2975 

*CAP
0 *3:s 3.04162e-18

*RES
0 *7:d *3:s 0.001  // $mwires

*END

*D_NET *14 0

*CONN
*I *1:d B *C 0.3150 1.2975 
*I *2:s B *C 0.3150 1.2975 


*RES
0 *2:s *1:d 0.001  // $mwires

*END

*D_NET *9 2.41976e-16

*CONN
*I *13:d B *C 0.6400 0.5125 
*I *16:d B *C 1.0525 0.5125 
*I *19:s B *C 1.0525 0.5125 
*I *22:s B *C 1.4700 0.5125 
*N *9:3 *C 1.0400 0.5000 

*CAP
0 *22:s 6.65417e-17
1 *16:d 9.58342e-17
2 *13:d 7.96002e-17

*RES
0 *13:d *9:3 75.466003  // $metal1_conn
1 *9:3 *22:s 75.479324  // $metal1_conn
2 *16:d *9:3 75  // $metal1_conn

*END

*D_NET *5 1.45905e-16

*CONN
*I *4:d B *C 0.2650 0.5125 
*I *8:d B *C 0.2650 0.5125 
*I *13:s B *C 0.8350 0.5125 
*I *16:s B *C 0.8350 0.5125 

*CAP
0 *13:s 9.10977e-17
1 *4:d 5.48074e-17

*RES
0 *13:s *4:d 150.600327  // $metal1_conn

*END

