*SPEF "IEEE 1481-1999"
*DESIGN  "OAI21XL"
*DATE "Mon Sep 27 10:37:36 2010"
*VENDOR "Cadence Design Systems"
*PROGRAM "Assura RCX"
*VERSION "3.2 Red Hat Linux release 7.2 (Enigma) - (09/09/2009-10:39)"
*DESIGN_FLOW "Physical Verification"
*DIVIDER /
*DELIMITER :
*BUS_DELIMITER []
*T_UNIT 1 PS
*C_UNIT 1e15 FF
*R_UNIT 1 OHM
*L_UNIT 1 MH
// DeviceFingerDelim "@"
// MATCHED
// caps2d version: 10

*NAME_MAP
*1 mp1
*2 mn2
*3 VDD
*4 mp2
*5 n0
*6 Y
*7 n1
*8 B0
*9 A0
*10 mn0
*11 A1
*12 VSS
*13 mp0
*14 mn1

*GROUND_NETS VSS

*PORTS
*3 I
*12 I
*9 I
*11 I
*8 I
*6 O

*D_NET *3 1.70863e-16

*CONN
*P *3 I *C 0.1000 1.7100 
*I *13:s B *C 0.1750 1.3725 
*I *4:s B *C 0.8650 1.3725 
*N *3:2 *C 0.5000 1.7100 
*N *3:3 *C 0.5000 1.7100 
*N *3:4 *C 0.1650 1.7100 

*CAP
0 *4:s 2.59688e-17
1 *13:s 1.89219e-17
2 *3:4 4.90084e-18
3 *3:2 1.17262e-16
4 *3 3.80947e-18

*RES
0 *4:s *3:3 62.374138  // $metal1_conn
1 *3:3 *3:4 0.167717  // $metal1_conn
2 *3:4 *3 0.032127  // $metal1_conn
3 *3:4 *13:s 62.173977  // $metal1_conn
4 *3:2 *3:3 15  // $metal1_conn

*END

*D_NET *12 0

*CONN
*P *12 I *C 0.1000 0.0000 
*I *10:s B *C 0.3700 0.4525 
*I *14:s B *C 0.3700 0.4525 
*N *12:1 *C 0.5000 0.0000 
*N *12:2 *C 0.3700 0.0000 


*RES
0 *12:1 *12:2 12.464964  // $metal1_conn
1 *12:2 *12 0.134886  // $metal1_conn
2 *12:2 *10:s 75.281311  // $metal1_conn

*END

*D_NET *9 1.94603e-16

*CONN
*P *9 I *C 0.1000 1.0450 
*I *10:g B *C 0.2675 0.4525 
*I *13:g B *C 0.2675 1.3725 
*N *9:2 *C 0.2675 1.0400 
*N *9:3 *C 0.1100 1.0400 

*CAP
0 *13:g 2.9898e-17
1 *10:g 4.74157e-17
2 *9:2 3.39856e-17
3 *9:3 1.31371e-17
4 *9 7.01668e-17

*RES
0 *13:g *9:2 54.381268  // $poly_conn
1 *9:2 *9:3 54.440712  // $poly_conn
2 *9:2 *10:g 128.74025  // $poly_conn
3 *9:3 *9 0.003108  // $metal1_conn

*END

*D_NET *11 2.35467e-16

*CONN
*P *11 I *C 0.5000 1.2350 
*I *14:g B *C 0.4725 0.4525 
*I *1:g B *C 0.4725 1.3725 
*N *11:2 *C 0.5000 0.8600 

*CAP
0 *1:g 4.66084e-17
1 *14:g 4.5835e-17
2 *11:2 9.86609e-17
3 *11 4.43624e-17

*RES
0 *1:g *11:2 95.332977  // $poly_conn
1 *11:2 *14:g 77.384254  // $poly_conn
2 *11 *11:2 45.224606  // $metal1_conn

*END

*D_NET *8 2.21179e-16

*CONN
*P *8 I *C 0.7000 0.6650 
*I *2:g B *C 0.6825 0.4525 
*I *4:g B *C 0.7725 1.3725 
*N *8:2 *C 0.7100 0.6600 
*N *8:4 *C 0.7100 0.6600 

*CAP
0 *4:g 3.98038e-17
1 *2:g 2.62621e-17
2 *8:2 4.2307e-17
3 *8 1.12806e-16

*RES
0 *4:g *8:2 148.018723  // $poly_conn
1 *8:2 *2:g 23.808931  // $poly_conn
2 *8:4 *8 0.003108  // $metal1_conn
3 *8:2 *8:4 45  // $metal1_conn

*END

*D_NET *6 1.9883e-16

*CONN
*P *6 O *C 0.9000 1.0450 
*I *2:d B *C 0.7750 0.4525 
*I *1:d B *C 0.6225 1.3725 
*I *4:d B *C 0.6225 1.3725 

*CAP
0 *1:d 6.25182e-17
1 *2:d 5.71142e-17
2 *6 7.9198e-17

*RES
0 *2:d *6 75.477791  // $metal1_conn
1 *6 *1:d 62.336605  // $metal1_conn

*END

*D_NET *7 0

*CONN
*I *13:d B *C 0.3700 1.3725 
*I *1:s B *C 0.3700 1.3725 


*RES
0 *1:s *13:d 0.001  // $mwires

*END

*D_NET *5 1.21731e-16

*CONN
*I *10:d B *C 0.1750 0.4525 
*I *14:d B *C 0.5775 0.4525 
*I *2:s B *C 0.5775 0.4525 
*N *5:3 *C 0.5755 0.4400 

*CAP
0 *14:d 7.32796e-17
1 *10:d 4.84509e-17

*RES
0 *10:d *5:3 75.484024  // $metal1_conn
1 *14:d *5:3 75  // $metal1_conn

*END

