*SPEF "IEEE 1481-1999"
*DESIGN  "OAI2BB1X4"
*DATE "Mon Sep 27 10:43:12 2010"
*VENDOR "Cadence Design Systems"
*PROGRAM "Assura RCX"
*VERSION "3.2 Red Hat Linux release 7.2 (Enigma) - (09/09/2009-10:39)"
*DESIGN_FLOW "Physical Verification"
*DIVIDER /
*DELIMITER :
*BUS_DELIMITER []
*T_UNIT 1 PS
*C_UNIT 1e15 FF
*R_UNIT 1 OHM
*L_UNIT 1 MH
// DeviceFingerDelim "@"
// MATCHED
// caps2d version: 10

*NAME_MAP
*1 VDD
*2 mn2
*3 mn3
*4 B0
*5 mn3\@1
*6 mn2\@1
*7 mn2\@2
*8 VSS
*9 mp1
*10 mn3\@2
*11 mn3\@3
*12 mn2\@3
*13 mn0
*14 A0N
*15 n2\@2
*16 n2\@3
*17 n1
*18 A1N
*19 n0
*20 Y
*21 n2
*22 mp2
*23 n2\@1
*24 mp3
*25 mp3\@1
*26 mp2\@1
*27 mp2\@2
*28 mp3\@2
*29 mp3\@3
*30 mp2\@3
*31 mp0
*32 mn1

*GROUND_NETS VSS

*PORTS
*1 I
*8 I
*14 I
*18 I
*4 I
*20 O

*D_NET *1 4.53961e-16

*CONN
*P *1 I *C 0.1000 1.7100 
*I *22:s B *C 0.1700 1.2450 
*I *24:s B *C 0.5700 1.2450 
*I *25:s B *C 0.5700 1.2450 
*I *26:s B *C 0.9900 1.2450 
*I *27:s B *C 0.9900 1.2450 
*I *28:s B *C 1.4000 1.2450 
*I *29:s B *C 1.4000 1.2450 
*I *30:s B *C 1.8400 1.2450 
*I *31:s B *C 1.8400 1.2450 
*I *9:s B *C 2.3800 1.2450 
*N *1:2 *C 2.0000 1.7100 
*N *1:3 *C 2.0000 1.7100 

*CAP
0 *9:s 3.40175e-17
1 *30:s 2.4447e-16
2 *1:2 1.72469e-16
3 *1 3.0046e-18

*RES
0 *30:s *1 0.029621  // $metal1_conn
1 *1:2 *1:3 12.5  // $metal1_conn
2 *1:2 *30:s 10.714286  // $metal1_conn
3 *9:s *1:3 62.440117  // $metal1_conn
4 *1:3 *30:s 0.095038  // $metal1_conn

*END

*D_NET *8 0

*CONN
*P *8 I *C 0.1000 0.0000 
*I *2:s B *C 0.2700 0.5300 
*I *6:s B *C 0.9350 0.5300 
*I *7:s B *C 0.9350 0.5300 
*I *12:s B *C 1.8400 0.5300 
*I *13:s B *C 1.8400 0.5300 
*N *8:1 *C 2.0000 0.0000 
*N *8:2 *C 1.8100 0.0000 
*N *8:3 *C 0.9050 0.0000 
*N *8:4 *C 0.7000 0.0000 
*N *8:5 *C 0.2300 0.0000 


*RES
0 *8:1 *8:2 10.428371  // $metal1_conn
1 *8:2 *8:3 0.453223  // $metal1_conn
2 *8:3 *8:4 0.102557  // $metal1_conn
3 *8:4 *8:5 0.235383  // $metal1_conn
4 *8:5 *8 0.064714  // $metal1_conn
5 *8:2 *12:s 75.286934  // $metal1_conn
6 *8:3 *6:s 75.283279  // $metal1_conn
7 *8:5 *2:s 75.283279  // $metal1_conn
8 *8:1 *8:4 8.857142  // $metal1_conn

*END

*D_NET *14 2.12738e-16

*CONN
*P *14 I *C 1.9000 0.6650 
*I *13:g B *C 1.9725 0.5300 
*I *31:g B *C 1.9725 1.2450 
*N *14:2 *C 1.9450 0.8500 

*CAP
0 *31:g 3.67568e-17
1 *13:g 4.2621e-17
2 *14:2 9.16861e-17
3 *14 4.16744e-17

*RES
0 *31:g *14:2 42.768875  // $poly_conn
1 *14:2 *13:g 40.204773  // $poly_conn
2 *14:2 *14 45.103916  // $metal1_conn

*END

*D_NET *18 1.89926e-16

*CONN
*P *18 I *C 2.5000 1.0450 
*I *32:g B *C 2.1275 0.5300 
*I *9:g B *C 2.2875 1.2450 
*N *18:2 *C 2.2875 0.8200 
*N *18:4 *C 2.3900 0.8200 

*CAP
0 *9:g 2.99475e-17
1 *32:g 5.34709e-17
2 *18:2 1.34449e-17
3 *18:4 4.41254e-17
4 *18 4.89377e-17

*RES
0 *9:g *18:2 49.202724  // $poly_conn
1 *18:2 *32:g 69.351112  // $poly_conn
2 *18:2 *18:4 53.006985  // $poly_conn
3 *18:4 *18 0.162652  // $metal1_conn

*END

*D_NET *4 7.17537e-16

*CONN
*P *4 I *C 0.5000 0.8550 
*I *2:g B *C 0.3625 0.5300 
*I *6:g B *C 0.8325 0.5300 
*I *7:g B *C 1.0375 0.5300 
*I *12:g B *C 1.7075 0.5300 
*I *22:g B *C 0.2625 1.2450 
*I *26:g B *C 0.8875 1.2450 
*I *27:g B *C 1.0925 1.2450 
*I *30:g B *C 1.7075 1.2450 

*CAP
0 *30:g 5.62768e-16
1 *12:g 2.68958e-17
2 *7:g 2.99551e-17
3 *6:g 3.32792e-17
4 *2:g 4.82997e-17
5 *4 1.63382e-17

*RES
0 *30:g *12:g 27.458193  // $poly_conn
1 *30:g *7:g 19.094141  // $poly_conn
2 *30:g *6:g 47.421162  // $poly_conn
3 *2:g *30:g 19.094143  // $poly_conn
4 *30:g *4 0.026953  // $metal1_conn

*END

*D_NET *20 6.39794e-16

*CONN
*P *20 O *C 0.1000 1.0450 
*I *3:d B *C 0.5700 0.5300 
*I *5:d B *C 0.5700 0.5300 
*I *10:d B *C 1.3000 0.5300 
*I *11:d B *C 1.3000 0.5300 
*I *22:d B *C 0.3650 1.2450 
*I *24:d B *C 0.3650 1.2450 
*I *25:d B *C 0.7800 1.2450 
*I *26:d B *C 0.7800 1.2450 
*I *27:d B *C 1.1950 1.2450 
*I *28:d B *C 1.1950 1.2450 
*I *29:d B *C 1.6050 1.2450 
*I *30:d B *C 1.6050 1.2450 
*N *20:9 *C 0.5700 0.6000 

*CAP
0 *29:d 3.29208e-16
1 *10:d 8.43193e-17
2 *3:d 1.5091e-16
3 *20 7.53567e-17

*RES
0 *29:d *20 0.242845  // $metal1_conn
1 *20 *20:9 0.631279  // $metal1_conn
2 *20:9 *10:d 75.513123  // $metal1_conn
3 *3:d *20:9 75  // $metal1_conn

*END

*D_NET *17 0

*CONN
*I *13:d B *C 2.0500 0.5300 
*I *32:s B *C 2.0500 0.5300 


*RES
0 *32:s *13:d 0.001  // $mwires

*END

*D_NET *16 0

*CONN
*I *11:s B *C 1.5550 0.5300 
*I *12:d B *C 1.5550 0.5300 


*RES
0 *12:d *11:s 0.001  // $mwires

*END

*D_NET *15 3.84319e-18

*CONN
*I *7:d B *C 1.1175 0.5300 
*I *10:s B *C 1.1175 0.5300 

*CAP
0 *7:d 3.84319e-18

*RES
0 *10:s *7:d 0.001  // $mwires

*END

*D_NET *23 3.55348e-18

*CONN
*I *5:s B *C 0.7525 0.5300 
*I *6:d B *C 0.7525 0.5300 

*CAP
0 *5:s 3.55348e-18

*RES
0 *6:d *5:s 0.001  // $mwires

*END

*D_NET *21 1.85166e-18

*CONN
*I *2:d B *C 0.4150 0.5300 
*I *3:s B *C 0.4150 0.5300 

*CAP
0 *2:d 1.85166e-18

*RES
0 *3:s *2:d 0.001  // $mwires

*END

*D_NET *19 8.19356e-16

*CONN
*I *3:g B *C 0.4675 0.5300 
*I *5:g B *C 0.6725 0.5300 
*I *10:g B *C 1.1975 0.5300 
*I *11:g B *C 1.4025 0.5300 
*I *32:d B *C 2.2200 0.5300 
*I *24:g B *C 0.4675 1.2450 
*I *25:g B *C 0.6725 1.2450 
*I *28:g B *C 1.2975 1.2450 
*I *29:g B *C 1.5025 1.2450 
*I *31:d B *C 2.1300 1.2450 
*I *9:d B *C 2.1300 1.2450 
*N *19:15 *C 2.1775 1.0300 

*CAP
0 *31:d 3.78944e-17
1 *29:g 4.87862e-16
2 *32:d 3.47095e-17
3 *11:g 2.84473e-17
4 *10:g 4.5098e-17
5 *5:g 2.89694e-17
6 *3:g 4.45673e-17
7 *19:15 1.11808e-16

*RES
0 *29:g *11:g 57.479973  // $poly_conn
1 *29:g *10:g 79.47197  // $poly_conn
2 *29:g *5:g 18.71979  // $poly_conn
3 *29:g *3:g 18.337015  // $poly_conn
4 *19:15 *31:d 20.803648  // $metal1_conn
5 *32:d *19:15 75.372185  // $metal1_conn
6 *19:15 *29:g 0.633919  // $metal1_conn

*END

