*SPEF "IEEE 1481-1999"
*DESIGN  "OAI211XL"
*DATE "Mon Sep 27 10:36:07 2010"
*VENDOR "Cadence Design Systems"
*PROGRAM "Assura RCX"
*VERSION "3.2 Red Hat Linux release 7.2 (Enigma) - (09/09/2009-10:39)"
*DESIGN_FLOW "Physical Verification"
*DIVIDER /
*DELIMITER :
*BUS_DELIMITER []
*T_UNIT 1 PS
*C_UNIT 1e15 FF
*R_UNIT 1 OHM
*L_UNIT 1 MH
// DeviceFingerDelim "@"
// MATCHED
// caps2d version: 10

*NAME_MAP
*1 A0
*2 A1
*3 mp0
*4 mp1
*5 mp2
*6 mp3
*7 VSS
*8 C0
*9 n0
*10 n2
*11 n1
*12 mn0
*13 mn1
*14 VDD
*15 mn2
*16 Y
*17 B0
*18 mn3

*GROUND_NETS VSS

*PORTS
*14 I
*7 I
*1 I
*2 I
*17 I
*8 I
*16 O

*D_NET *14 1.49476e-16

*CONN
*P *14 I *C 0.1000 1.7100 
*I *3:s B *C 0.3000 1.5700 
*I *5:s B *C 0.9000 1.5700 
*I *6:s B *C 0.9000 1.5700 
*N *14:2 *C 0.6000 1.7100 
*N *14:3 *C 0.6000 1.7100 
*N *14:4 *C 0.2750 1.7100 

*CAP
0 *5:s 2.40755e-17
1 *3:s 1.63371e-17
2 *14:4 2.66033e-18
3 *14:2 1.06403e-16

*RES
0 *5:s *14:3 62.232487  // $metal1_conn
1 *14:3 *14:4 0.162325  // $metal1_conn
2 *14:4 *14 0.087066  // $metal1_conn
3 *14:4 *3:s 62.073887  // $metal1_conn
4 *14:2 *14:3 12.5  // $metal1_conn

*END

*D_NET *7 0

*CONN
*P *7 I *C 0.1000 0.0000 
*I *12:s B *C 0.4350 0.3425 
*I *13:s B *C 0.4350 0.3425 
*N *7:1 *C 0.6000 0.0000 
*N *7:2 *C 0.4350 0.0000 


*RES
0 *7:1 *7:2 10.415648  // $metal1_conn
1 *7:2 *7 0.167076  // $metal1_conn
2 *7:2 *12:s 75.200256  // $metal1_conn

*END

*D_NET *1 2.16947e-16

*CONN
*P *1 I *C 0.3000 1.2350 
*I *12:g B *C 0.3325 0.3425 
*I *3:g B *C 0.3375 1.2325 
*N *1:2 *C 0.3100 0.8600 

*CAP
0 *3:g 4.13591e-17
1 *12:g 4.28505e-17
2 *1:2 9.27713e-17
3 *1 3.99661e-17

*RES
0 *3:g *1:2 57.142265  // $poly_conn
1 *1:2 *12:g 103.296112  // $poly_conn
2 *1 *1:2 45.224033  // $metal1_conn

*END

*D_NET *2 2.79886e-16

*CONN
*P *2 I *C 0.5000 0.8550 
*I *13:g B *C 0.5375 0.3425 
*I *4:g B *C 0.4825 1.2325 
*N *2:2 *C 0.5100 0.8500 
*N *2:4 *C 0.5100 0.8500 

*CAP
0 *4:g 5.23931e-17
1 *13:g 5.1087e-17
2 *2:2 5.94666e-17
3 *2 1.16939e-16

*RES
0 *13:g *2:2 103.025291  // $poly_conn
1 *2:2 *4:g 61.999645  // $poly_conn
2 *2:4 *2 0.003097  // $metal1_conn
3 *2:2 *2:4 45  // $metal1_conn

*END

*D_NET *17 3.00632e-16

*CONN
*P *17 I *C 0.7000 0.8550 
*I *15:g B *C 0.7425 0.3425 
*I *5:g B *C 0.7425 1.2325 
*N *17:2 *C 0.7150 0.7150 
*N *17:4 *C 0.7075 0.7150 

*CAP
0 *5:g 6.06786e-17
1 *15:g 5.16234e-17
2 *17:4 3.69069e-17
3 *17:2 6.64498e-17
4 *17 8.49737e-17

*RES
0 *5:g *17:2 96.615021  // $poly_conn
1 *17:2 *15:g 68.409897  // $poly_conn
2 *17:4 *17 0.082746  // $metal1_conn
3 *17:2 *17:4 45  // $metal1_conn

*END

*D_NET *8 2.70389e-16

*CONN
*P *8 I *C 0.9000 0.6650 
*I *18:g B *C 0.8825 0.3425 
*I *6:g B *C 0.9375 1.2325 
*N *8:2 *C 0.9100 1.0150 

*CAP
0 *6:g 3.56398e-17
1 *18:g 6.2477e-17
2 *8:2 1.14197e-16
3 *8 5.80743e-17

*RES
0 *6:g *8:2 19.691952  // $poly_conn
1 *8:2 *18:g 145.332977  // $poly_conn
2 *8 *8:2 45.209099  // $metal1_conn

*END

*D_NET *16 2.10669e-16

*CONN
*P *16 O *C 1.1000 1.3150 
*I *18:d B *C 1.0175 0.3425 
*I *4:d B *C 0.6125 1.2325 
*I *5:d B *C 0.6125 1.2325 
*I *6:d B *C 1.0550 1.2325 
*N *16:3 *C 1.0900 1.2500 

*CAP
0 *6:d 7.70985e-17
1 *4:d 4.62399e-17
2 *18:d 6.91876e-17
3 *16 1.81435e-17

*RES
0 *18:d *16:3 75.587532  // $metal1_conn
1 *16:3 *4:d 62.304287  // $metal1_conn
2 *16:3 *16 0.036487  // $metal1_conn
3 *6:d *16:3 62  // $metal1_conn

*END

*D_NET *11 0

*CONN
*I *15:d B *C 0.8125 0.3425 
*I *18:s B *C 0.8125 0.3425 


*RES
0 *18:s *15:d 0.001  // $mwires

*END

*D_NET *10 0

*CONN
*I *3:d B *C 0.4100 1.2325 
*I *4:s B *C 0.4100 1.2325 


*RES
0 *4:s *3:d 0.001  // $mwires

*END

*D_NET *9 1.14423e-16

*CONN
*I *12:d B *C 0.2400 0.3425 
*I *13:d B *C 0.6400 0.3425 
*I *15:s B *C 0.6400 0.3425 

*CAP
0 *13:d 6.84878e-17
1 *12:d 4.59348e-17

*RES
0 *12:d *13:d 150.447662  // $metal1_conn

*END

