*SPEF "IEEE 1481-1999"
*DESIGN  "OAI221X2"
*DATE "Mon Sep 27 10:38:20 2010"
*VENDOR "Cadence Design Systems"
*PROGRAM "Assura RCX"
*VERSION "3.2 Red Hat Linux release 7.2 (Enigma) - (09/09/2009-10:39)"
*DESIGN_FLOW "Physical Verification"
*DIVIDER /
*DELIMITER :
*BUS_DELIMITER []
*T_UNIT 1 PS
*C_UNIT 1e15 FF
*R_UNIT 1 OHM
*L_UNIT 1 MH
// DeviceFingerDelim "@"
// MATCHED
// caps2d version: 10

*NAME_MAP
*1 VDD
*2 mn0
*3 mn1
*4 B0
*5 mn1\@1
*6 B1
*7 mn0\@1
*8 mn2
*9 VSS
*10 mp4\@1
*11 mn3
*12 mn3\@1
*13 mn2\@1
*14 mn4
*15 C0
*16 net128
*17 net115
*18 net115\@1
*19 net123
*20 net123\@1
*21 Y
*22 mp0
*23 net132
*24 mp1
*25 mp1\@1
*26 A0
*27 mp0\@1
*28 A1
*29 mp2
*30 mp3
*31 mp3\@1
*32 mp2\@1
*33 mp4
*34 mn4\@1

*GROUND_NETS VSS

*PORTS
*1 I
*9 I
*26 I
*28 I
*4 I
*6 I
*15 I
*21 O

*D_NET *1 3.56646e-16

*CONN
*P *1 I *C 0.1000 1.7100 
*I *22:s B *C 0.3900 1.2100 
*I *27:s B *C 1.2000 1.2100 
*I *29:s B *C 1.2000 1.2100 
*I *32:s B *C 2.1650 1.2100 
*I *33:s B *C 2.1650 1.2100 
*I *10:s B *C 2.5925 1.2100 
*N *1:2 *C 2.1000 1.7100 
*N *1:4 *C 1.0150 1.7100 
*N *1:5 *C 0.7000 1.7100 
*N *1:6 *C 0.3800 1.7100 

*CAP
0 *10:s 9.88911e-17
1 *27:s 4.90772e-17
2 *22:s 1.74666e-17
3 *1:6 7.10215e-18
4 *1:4 1.88884e-17
5 *1:2 1.63974e-16
6 *1 1.24621e-18

*RES
0 *1:6 *1 0.139688  // $metal1_conn
1 *1:2 *10:s 10.714286  // $metal1_conn
2 *1:2 *1:5 10.714286  // $metal1_conn
3 *1:4 *27:s 62.219219  // $metal1_conn
4 *1:6 *22:s 62.222866  // $metal1_conn
5 *10:s *1:4 0.542825  // $metal1_conn
6 *1:4 *1:5 0.157456  // $metal1_conn
7 *1:5 *1:6 0.159958  // $metal1_conn

*END

*D_NET *9 0

*CONN
*P *9 I *C 0.1000 0.0000 
*I *2:s B *C 0.1500 0.4650 
*I *3:s B *C 0.6900 0.4650 
*I *5:s B *C 0.6900 0.4650 
*I *7:s B *C 1.0900 0.4650 
*N *9:1 *C 2.1000 0.0000 


*RES
0 *7:s *9 0.019569  // $metal1_conn
1 *9:1 *7:s 9.357428  // $metal1_conn
2 *9:1 *7:s 8.857142  // $metal1_conn
3 *7:s *3:s 75.258759  // $metal1_conn

*END

*D_NET *26 4.30441e-16

*CONN
*P *26 I *C 0.3000 0.8550 
*I *2:g B *C 0.2425 0.4650 
*I *7:g B *C 0.9975 0.4650 
*I *22:g B *C 0.4825 1.2100 
*I *27:g B *C 0.9425 1.2100 

*CAP
0 *27:g 4.17297e-17
1 *22:g 8.48418e-17
2 *7:g 2.88064e-16
3 *26 1.58059e-17

*RES
0 *7:g *27:g 19.691952  // $poly_conn
1 *22:g *7:g 41.896633  // $poly_conn
2 *7:g *26 0.017629  // $metal1_conn

*END

*D_NET *28 3.30805e-16

*CONN
*P *28 I *C 0.7000 0.8550 
*I *3:g B *C 0.5875 0.4650 
*I *5:g B *C 0.7925 0.4650 
*I *24:g B *C 0.5875 1.2100 
*I *25:g B *C 0.7925 1.2100 

*CAP
0 *25:g 4.76955e-17
1 *24:g 6.97422e-17
2 *5:g 1.61435e-16
3 *28 5.19325e-17

*RES
0 *25:g *5:g 66.476082  // $poly_conn
1 *5:g *24:g 59.744961  // $poly_conn
2 *5:g *28 45.044197  // $metal1_conn

*END

*D_NET *4 4.67129e-16

*CONN
*P *4 I *C 2.1000 0.8550 
*I *8:g B *C 1.4025 0.4650 
*I *13:g B *C 2.1175 0.4650 
*I *29:g B *C 1.4575 1.2100 
*I *32:g B *C 2.0625 1.2100 

*CAP
0 *32:g 4.1611e-17
1 *29:g 4.18752e-17
2 *13:g 2.74524e-16
3 *4 1.09119e-16

*RES
0 *13:g *32:g 27.38426  // $poly_conn
1 *29:g *13:g 19.691952  // $poly_conn
2 *4 *13:g 0.0124  // $metal1_conn

*END

*D_NET *6 2.93737e-16

*CONN
*P *6 I *C 1.7000 0.8550 
*I *11:g B *C 1.6075 0.4650 
*I *12:g B *C 1.8125 0.4650 
*I *30:g B *C 1.6075 1.2100 
*I *31:g B *C 1.8125 1.2100 

*CAP
0 *31:g 3.4684e-17
1 *30:g 4.74655e-17
2 *12:g 1.60139e-16
3 *6 5.14489e-17

*RES
0 *31:g *12:g 66.476082  // $poly_conn
1 *12:g *30:g 64.153229  // $poly_conn
2 *12:g *6 45.044197  // $metal1_conn

*END

*D_NET *15 2.64639e-16

*CONN
*P *15 I *C 2.3000 0.6650 
*I *14:g B *C 2.3675 0.4650 
*I *34:g B *C 2.5725 0.4650 
*I *33:g B *C 2.2675 1.2100 
*I *10:g B *C 2.4725 1.2100 
*N *15:9 *C 2.3050 0.7200 

*CAP
0 *10:g 1.48584e-16
1 *15:9 8.38097e-17
2 *15 3.22455e-17

*RES
0 *10:g *15:9 45  // $metal1_conn
1 *15 *15:9 0.034101  // $metal1_conn

*END

*D_NET *21 4.79586e-16

*CONN
*P *21 O *C 2.5000 0.8550 
*I *14:d B *C 2.4700 0.4650 
*I *34:d B *C 2.4700 0.4650 
*I *24:d B *C 0.6900 1.2100 
*I *25:d B *C 0.6900 1.2100 
*I *30:d B *C 1.7100 1.2100 
*I *31:d B *C 1.7100 1.2100 
*I *33:d B *C 2.3700 1.2100 
*I *10:d B *C 2.3700 1.2100 
*N *21:2 *C 2.3700 1.1850 
*N *21:4 *C 1.7100 1.2150 

*CAP
0 *33:d 3.19947e-17
1 *30:d 1.33094e-16
2 *24:d 1.08457e-16
3 *14:d 3.82004e-17
4 *21:2 9.0263e-17
5 *21 7.75773e-17

*RES
0 *14:d *21 75.223724  // $metal1_conn
1 *21 *21:2 0.307695  // $metal1_conn
2 *21:2 *33:d 31.049023  // $metal1_conn
3 *30:d *21:4 62  // $metal1_conn
4 *21:4 *24:d 62.717869  // $metal1_conn
5 *21:2 *21:4 0.488505  // $metal1_conn

*END

*D_NET *20 8.36795e-18

*CONN
*I *31:s B *C 1.9375 1.2100 
*I *32:d B *C 1.9375 1.2100 

*CAP
0 *31:s 8.36795e-18

*RES
0 *32:d *31:s 0.001  // $mwires

*END

*D_NET *19 4.45869e-18

*CONN
*I *29:d B *C 1.5325 1.2100 
*I *30:s B *C 1.5325 1.2100 

*CAP
0 *29:d 4.45869e-18

*RES
0 *30:s *29:d 0.001  // $mwires

*END

*D_NET *18 4.25141e-18

*CONN
*I *25:s B *C 0.8675 1.2100 
*I *27:d B *C 0.8675 1.2100 

*CAP
0 *25:s 4.25141e-18

*RES
0 *27:d *25:s 0.001  // $mwires

*END

*D_NET *17 1.54387e-18

*CONN
*I *22:d B *C 0.5350 1.2100 
*I *24:s B *C 0.5350 1.2100 

*CAP
0 *22:d 1.54387e-18

*RES
0 *24:s *22:d 0.001  // $mwires

*END

*D_NET *16 2.99873e-16

*CONN
*I *2:d B *C 0.4150 0.4650 
*I *3:d B *C 0.4150 0.4650 
*I *5:d B *C 0.8950 0.4650 
*I *7:d B *C 0.8950 0.4650 
*I *8:s B *C 1.5050 0.4650 
*I *11:s B *C 1.5050 0.4650 
*I *12:s B *C 1.9650 0.4650 
*I *13:s B *C 1.9650 0.4650 

*CAP
0 *12:s 1.72141e-16
1 *5:d 1.27732e-16

*RES
0 *12:s *5:d 0.443349  // $metal1_conn

*END

*D_NET *23 2.5133e-16

*CONN
*I *8:d B *C 1.3100 0.4650 
*I *11:d B *C 1.7100 0.4650 
*I *12:d B *C 1.7100 0.4650 
*I *13:d B *C 2.2425 0.4650 
*I *14:s B *C 2.2425 0.4650 
*I *34:s B *C 2.6650 0.4650 

*CAP
0 *34:s 1.69471e-16
1 *11:d 8.18596e-17

*RES
0 *11:d *34:s 75  // $metal1_conn

*END

