*SPEF "IEEE 1481-1999"
*DESIGN  "OAI2BB2XL"
*DATE "Mon Sep 27 10:45:04 2010"
*VENDOR "Cadence Design Systems"
*PROGRAM "Assura RCX"
*VERSION "3.2 Red Hat Linux release 7.2 (Enigma) - (09/09/2009-10:39)"
*DESIGN_FLOW "Physical Verification"
*DIVIDER /
*DELIMITER :
*BUS_DELIMITER []
*T_UNIT 1 PS
*C_UNIT 1e15 FF
*R_UNIT 1 OHM
*L_UNIT 1 MH
// DeviceFingerDelim "@"
// MATCHED
// caps2d version: 10

*NAME_MAP
*1 n0
*2 mp1
*3 n4
*4 mp0
*5 mp2
*6 mn1
*7 n1
*8 mp3
*9 mn0
*10 n2
*11 VSS
*12 mp5
*13 mn2
*14 n3
*15 mp4
*16 mn3
*17 mn5
*18 mn4
*19 A1N
*20 Y
*21 B0
*22 B1
*23 VDD
*24 A0N

*GROUND_NETS VSS

*PORTS
*23 I
*11 I
*24 I
*19 I
*21 I
*22 I
*20 O

*D_NET *23 2.44123e-16

*CONN
*P *23 I *C 0.1000 1.7100 
*I *2:s B *C 0.3650 1.1875 
*I *4:s B *C 0.3650 1.1875 
*I *5:s B *C 1.3150 1.2925 
*I *15:s B *C 1.9150 1.2925 
*N *23:2 *C 1.3050 1.7100 
*N *23:3 *C 1.1000 1.7100 
*N *23:4 *C 1.1000 1.7100 
*N *23:5 *C 0.3650 1.7100 

*CAP
0 *15:s 3.67347e-17
1 *5:s 1.4767e-17
2 *2:s 2.05499e-17
3 *23:5 1.09145e-17
4 *23:2 1.5929e-17
5 *23:3 1.39874e-16
6 *23 5.35444e-18

*RES
0 *5:s *23:2 62.228325  // $metal1_conn
1 *23:2 *23:4 0.102196  // $metal1_conn
2 *23:4 *23:5 0.368394  // $metal1_conn
3 *23:5 *23 0.132446  // $metal1_conn
4 *23:2 *15:s 62.550808  // $metal1_conn
5 *23:5 *2:s 62.298172  // $metal1_conn
6 *23:3 *23:4 6.818182  // $metal1_conn

*END

*D_NET *11 0

*CONN
*P *11 I *C 0.1000 0.0000 
*I *6:s B *C 0.4125 0.4425 
*I *9:s B *C 0.4125 0.4425 
*I *13:s B *C 1.3100 0.4025 
*I *16:s B *C 1.3100 0.4025 
*N *11:2 *C 1.1000 0.0000 
*N *11:3 *C 1.1000 0.0000 
*N *11:4 *C 0.3250 0.0000 


*RES
0 *13:s *11:3 75.379463  // $metal1_conn
1 *11:3 *11:4 0.388453  // $metal1_conn
2 *11:4 *11 0.112387  // $metal1_conn
3 *11:4 *6:s 75.074623  // $metal1_conn
4 *11:2 *11:3 5.636364  // $metal1_conn

*END

*D_NET *24 2.34015e-16

*CONN
*P *24 I *C 0.5000 0.6650 
*I *9:g B *C 0.4625 0.4425 
*I *4:g B *C 0.4675 1.1875 
*N *24:2 *C 0.4900 0.6500 
*N *24:4 *C 0.4900 0.6500 

*CAP
0 *4:g 4.44013e-17
1 *9:g 3.30198e-17
2 *24:4 2.13342e-17
3 *24:2 3.69155e-17
4 *24 9.83441e-17

*RES
0 *4:g *24:2 99.449959  // $poly_conn
1 *24:2 *9:g 23.808931  // $poly_conn
2 *24:4 *24 0.009337  // $metal1_conn
3 *24:2 *24:4 45  // $metal1_conn

*END

*D_NET *19 2.21414e-16

*CONN
*P *19 I *C 0.3000 0.6650 
*I *6:g B *C 0.2625 0.4425 
*I *2:g B *C 0.2625 1.1875 
*N *19:2 *C 0.2900 0.9400 

*CAP
0 *2:g 2.96892e-17
1 *6:g 4.16144e-17
2 *19:2 8.49524e-17
3 *19 6.51578e-17

*RES
0 *2:g *19:2 27.384262  // $poly_conn
1 *19:2 *6:g 100.461182  // $poly_conn
2 *19 *19:2 45.165028  // $metal1_conn

*END

*D_NET *21 2.45654e-16

*CONN
*P *21 I *C 2.1000 0.6650 
*I *18:g B *C 1.9725 0.4025 
*I *15:g B *C 1.8225 1.2925 
*N *21:2 *C 1.9725 0.9550 
*N *21:4 *C 2.0300 0.9550 

*CAP
0 *15:g 6.35209e-17
1 *18:g 3.88822e-17
2 *21:2 3.79622e-17
3 *21:4 5.39537e-17
4 *21 5.13352e-17

*RES
0 *18:g *21:2 111.208168  // $poly_conn
1 *21:2 *15:g 82.949532  // $poly_conn
2 *21:2 *21:4 47.969933  // $poly_conn
3 *21 *21:4 0.180547  // $metal1_conn

*END

*D_NET *22 2.94882e-16

*CONN
*P *22 I *C 1.7000 0.8550 
*I *17:g B *C 1.7175 0.4025 
*I *12:g B *C 1.7175 1.2925 
*N *22:2 *C 1.6900 0.8500 
*N *22:4 *C 1.6900 0.8500 

*CAP
0 *12:g 7.42993e-17
1 *17:g 4.37163e-17
2 *22:2 1.76866e-16

*RES
0 *12:g *22:2 77.384254  // $poly_conn
1 *22:2 *17:g 87.640671  // $poly_conn
2 *22:4 *22 0.003112  // $metal1_conn
3 *22:2 *22:4 45  // $metal1_conn

*END

*D_NET *20 2.2814e-16

*CONN
*P *20 O *C 1.7000 1.2350 
*I *17:d B *C 1.8450 0.4025 
*I *18:d B *C 1.8450 0.4025 
*I *8:d B *C 1.6150 1.2925 
*I *12:d B *C 1.6150 1.2925 

*CAP
0 *8:d 1.31406e-16
1 *17:d 9.67338e-17

*RES
0 *17:d *20 75.718834  // $metal1_conn
1 *20 *8:d 62.003178  // $metal1_conn

*END

*D_NET *14 6.77372e-18

*CONN
*I *12:s B *C 1.7700 1.2925 
*I *15:d B *C 1.7700 1.2925 

*CAP
0 *12:s 6.77372e-18

*RES
0 *15:d *12:s 0.001  // $mwires

*END

*D_NET *10 0

*CONN
*I *5:d B *C 1.4600 1.2925 
*I *8:s B *C 1.4600 1.2925 


*RES
0 *8:s *5:d 0.001  // $mwires

*END

*D_NET *7 6.82335e-16

*CONN
*I *6:d B *C 0.1550 0.4425 
*I *16:g B *C 1.5125 0.4025 
*I *2:d B *C 0.1700 1.1875 
*I *8:g B *C 1.5125 1.2925 
*N *7:3 *C 1.4850 0.2000 
*N *7:5 *C 0.1300 0.4300 

*CAP
0 *8:g 1.13858e-16
1 *2:d 6.20411e-17
2 *16:g 4.98381e-17
3 *6:d 2.10589e-16
4 *7:3 2.46008e-16

*RES
0 *8:g *16:g 182.05127  // $poly_conn
1 *16:g *7:3 69.82016  // $poly_conn
2 *7:3 *7:5 1.695977  // $metal1_conn
3 *7:5 *2:d 62.540794  // $metal1_conn
4 *6:d *7:5 75  // $metal1_conn

*END

*D_NET *3 3.77846e-16

*CONN
*I *13:d B *C 0.9575 0.4025 
*I *16:d B *C 1.6150 0.4025 
*I *17:s B *C 1.6150 0.4025 
*I *18:s B *C 2.0650 0.4025 
*N *3:3 *C 1.6150 0.3900 

*CAP
0 *18:s 5.7016e-17
1 *16:d 1.76547e-16
2 *13:d 1.44283e-16

*RES
0 *18:s *3:3 75.535805  // $metal1_conn
1 *3:3 *13:d 76.019783  // $metal1_conn
2 *16:d *3:3 75  // $metal1_conn

*END

*D_NET *1 3.47884e-16

*CONN
*I *9:d B *C 0.5950 0.4425 
*I *13:g B *C 1.1075 0.4025 
*I *4:d B *C 0.6100 1.1875 
*I *5:g B *C 1.4075 1.2925 
*N *1:2 *C 1.0700 0.9000 
*N *1:4 *C 0.6700 0.9000 

*CAP
0 *5:g 8.88079e-17
1 *4:d 2.86791e-17
2 *13:g 2.96547e-17
3 *9:d 5.68478e-17
4 *1:4 6.88402e-17
5 *1:2 7.50544e-17

*RES
0 *5:g *1:2 135.600174  // $poly_conn
1 *1:2 *13:g 99.488556  // $poly_conn
2 *1:2 *1:4 45.269817  // $metal1_conn
3 *1:4 *9:d 75.380325  // $metal1_conn
4 *1:4 *4:d 62.180256  // $metal1_conn

*END

