*SPEF "IEEE 1481-1999"
*DESIGN  "OAI221X1"
*DATE "Mon Sep 27 10:37:58 2010"
*VENDOR "Cadence Design Systems"
*PROGRAM "Assura RCX"
*VERSION "3.2 Red Hat Linux release 7.2 (Enigma) - (09/09/2009-10:39)"
*DESIGN_FLOW "Physical Verification"
*DIVIDER /
*DELIMITER :
*BUS_DELIMITER []
*T_UNIT 1 PS
*C_UNIT 1e15 FF
*R_UNIT 1 OHM
*L_UNIT 1 MH
// DeviceFingerDelim "@"
// MATCHED
// caps2d version: 10

*NAME_MAP
*1 mp2
*2 mp4
*3 mn0
*4 Y
*5 mn1
*6 mn3
*7 mn2
*8 mn4
*9 net128
*10 VDD
*11 net115
*12 net132
*13 net123
*14 B0
*15 B1
*16 VSS
*17 A0
*18 A1
*19 mp0
*20 mp1
*21 C0
*22 mp3

*GROUND_NETS VSS

*PORTS
*10 I
*16 I
*17 I
*18 I
*14 I
*15 I
*21 I
*4 O

*D_NET *10 2.45496e-16

*CONN
*P *10 I *C 0.1000 1.7100 
*I *19:s B *C 0.1700 1.2850 
*I *1:s B *C 0.9400 1.2850 
*I *2:s B *C 0.9400 1.2850 
*N *10:2 *C 0.7000 1.7100 
*N *10:3 *C 0.7000 1.7100 
*N *10:4 *C 0.1600 1.7100 

*CAP
0 *1:s 5.92473e-17
1 *19:s 3.66579e-17
2 *10:4 1.07958e-17
3 *10:2 1.38795e-16

*RES
0 *1:s *10:3 31.379143  // $metal1_conn
1 *10:3 *10:4 0.27056  // $metal1_conn
2 *10:4 *10 0.029632  // $metal1_conn
3 *10:4 *19:s 31.227779  // $metal1_conn
4 *10:2 *10:3 10.714286  // $metal1_conn

*END

*D_NET *16 0

*CONN
*P *16 I *C 0.1000 0.0000 
*I *3:s B *C 0.1150 0.5300 
*I *5:s B *C 0.4650 0.3700 
*N *16:1 *C 0.7000 0.0000 
*N *16:2 *C 0.4300 0.0000 


*RES
0 *16:1 *16:2 8.991375  // $metal1_conn
1 *16:2 *16 0.164674  // $metal1_conn
2 *16 *3:s 75.087303  // $metal1_conn
3 *16:2 *5:s 75.070877  // $metal1_conn

*END

*D_NET *17 2.07068e-16

*CONN
*P *17 I *C 0.1850 1.0600 
*I *3:g B *C 0.1625 0.5300 
*I *19:g B *C 0.2625 1.2850 
*N *17:2 *C 0.1900 0.8600 

*CAP
0 *19:g 6.81537e-17
1 *3:g 3.23771e-17
2 *17:2 7.275e-17
3 *17 3.3787e-17

*RES
0 *19:g *17:2 52.548897  // $poly_conn
1 *17:2 *3:g 39.60696  // $poly_conn
2 *17 *17:2 45.119942  // $metal1_conn

*END

*D_NET *18 2.53389e-16

*CONN
*P *18 I *C 0.3850 1.2550 
*I *5:g B *C 0.3675 0.5300 
*I *20:g B *C 0.3675 1.2850 
*N *18:2 *C 0.3950 0.9800 

*CAP
0 *20:g 6.28983e-17
1 *5:g 5.05519e-17
2 *18:2 1.06133e-16
3 *18 3.38062e-17

*RES
0 *20:g *18:2 19.691952  // $poly_conn
1 *18:2 *5:g 73.538109  // $poly_conn
2 *18 *18:2 45.164921  // $metal1_conn

*END

*D_NET *14 2.78333e-16

*CONN
*P *14 I *C 0.9100 0.7600 
*I *7:g B *C 0.9375 0.5300 
*I *1:g B *C 0.8375 1.2850 
*N *14:2 *C 0.9000 0.7600 

*CAP
0 *1:g 9.53968e-17
1 *7:g 3.7911e-17
2 *14:2 5.7058e-17
3 *14 8.79676e-17

*RES
0 *7:g *14:2 16.15522  // $poly_conn
1 *14:2 *1:g 80.206429  // $poly_conn
2 *14 *14:2 45  // $metal1_conn

*END

*D_NET *15 2.42103e-16

*CONN
*P *15 I *C 0.7100 0.9200 
*I *6:g B *C 0.7325 0.5300 
*I *22:g B *C 0.7325 1.2850 
*N *15:2 *C 0.7050 0.8500 

*CAP
0 *22:g 7.76714e-17
1 *6:g 5.01396e-17
2 *15:2 9.19415e-17
3 *15 2.23502e-17

*RES
0 *22:g *15:2 53.025284  // $poly_conn
1 *15:2 *6:g 40.204773  // $poly_conn
2 *15 *15:2 45.041981  // $metal1_conn

*END

*D_NET *21 2.33113e-16

*CONN
*P *21 I *C 1.0700 0.5900 
*I *8:g B *C 1.1425 0.5300 
*I *2:g B *C 1.0425 1.2850 
*N *21:2 *C 1.1150 0.8500 

*CAP
0 *2:g 4.42764e-17
1 *8:g 3.14379e-17
2 *21:2 1.05449e-16
3 *21 5.19494e-17

*RES
0 *8:g *21:2 37.042862  // $poly_conn
1 *21:2 *2:g 55.112999  // $poly_conn
2 *21 *21:2 45.148785  // $metal1_conn

*END

*D_NET *4 2.78846e-16

*CONN
*P *4 O *C 1.2350 1.4250 
*I *8:d B *C 1.2350 0.5300 
*I *20:d B *C 0.5500 1.2850 
*I *22:d B *C 0.5500 1.2850 
*I *2:d B *C 1.1350 1.2850 
*N *4:2 *C 1.1850 1.1200 
*N *4:5 *C 1.1455 1.2850 

*CAP
0 *2:d 2.39017e-17
1 *20:d 7.86118e-17
2 *8:d 5.48447e-17
3 *4:2 8.50186e-17
4 *4 3.64694e-17

*RES
0 *8:d *4:2 75.373238  // $metal1_conn
1 *4:2 *20:d 31.505922  // $metal1_conn
2 *4:2 *4:5 0.058636  // $metal1_conn
3 *4:5 *4 0.04746  // $metal1_conn
4 *2:d *4:5 20.666666  // $metal1_conn

*END

*D_NET *13 2.65126e-18

*CONN
*I *22:s B *C 0.7850 1.2850 
*I *1:d B *C 0.7850 1.2850 

*CAP
0 *22:s 2.65126e-18

*RES
0 *1:d *22:s 0.001  // $mwires

*END

*D_NET *11 0

*CONN
*I *19:d B *C 0.3150 1.2850 
*I *20:s B *C 0.3150 1.2850 


*RES
0 *20:s *19:d 0.001  // $mwires

*END

*D_NET *9 1.44071e-16

*CONN
*I *3:d B *C 0.2650 0.5300 
*I *5:d B *C 0.2650 0.5300 
*I *6:s B *C 0.8350 0.5300 
*I *7:s B *C 0.8350 0.5300 

*CAP
0 *6:s 1.04973e-16
1 *3:d 3.9098e-17

*RES
0 *6:s *3:d 150.42128  // $metal1_conn

*END

*D_NET *12 1.20858e-16

*CONN
*I *6:d B *C 0.6400 0.5300 
*I *7:d B *C 1.0400 0.5300 
*I *8:s B *C 1.0400 0.5300 

*CAP
0 *7:d 5.78934e-17
1 *6:d 6.29641e-17

*RES
0 *7:d *6:d 150.306625  // $metal1_conn

*END

