*SPEF "IEEE 1481-1999"
*DESIGN  "OAI211X4"
*DATE "Mon Sep 27 10:35:45 2010"
*VENDOR "Cadence Design Systems"
*PROGRAM "Assura RCX"
*VERSION "3.2 Red Hat Linux release 7.2 (Enigma) - (09/09/2009-10:39)"
*DESIGN_FLOW "Physical Verification"
*DIVIDER /
*DELIMITER :
*BUS_DELIMITER []
*T_UNIT 1 PS
*C_UNIT 1e15 FF
*R_UNIT 1 OHM
*L_UNIT 1 MH
// DeviceFingerDelim "@"
// MATCHED
// caps2d version: 10

*NAME_MAP
*1 C0
*2 VDD
*3 Y
*4 mp2
*5 mp2\@1
*6 n1
*7 mp2\@2
*8 n0
*9 mp2\@3
*10 mp3
*11 mp3\@1
*12 mp3\@2
*13 mp3\@3
*14 mp1
*15 mp0
*16 mp1\@1
*17 mp0\@1
*18 mp0\@2
*19 mp1\@2
*20 mp1\@3
*21 mp0\@3
*22 mn1
*23 mn1\@1
*24 mn0\@1
*25 mn0\@2
*26 mn1\@2
*27 mn1\@3
*28 mn0\@3
*29 VSS
*30 A0
*31 A1
*32 n2
*33 n2\@1
*34 n2\@2
*35 mn2
*36 n2\@3
*37 mn2\@1
*38 B0
*39 mn2\@2
*40 mn2\@3
*41 mn3
*42 mn3\@1
*43 mn3\@2
*44 mn3\@3
*45 mn0

*GROUND_NETS VSS

*PORTS
*2 I
*29 I
*30 I
*31 I
*38 I
*1 I
*3 O

*D_NET *2 4.65253e-16

*CONN
*P *2 I *C 0.1000 1.7100 
*I *4:s B *C 1.7850 1.1500 
*I *5:s B *C 2.2250 1.1500 
*I *7:s B *C 2.2250 1.1500 
*I *9:s B *C 2.6350 1.1500 
*I *10:s B *C 2.6350 1.1500 
*I *11:s B *C 3.0450 1.1500 
*I *12:s B *C 3.0450 1.1500 
*I *13:s B *C 3.4450 1.1500 
*I *15:s B *C 0.2250 1.1500 
*I *17:s B *C 1.0800 1.1500 
*I *18:s B *C 1.0800 1.1500 
*I *21:s B *C 1.7850 1.1500 
*N *2:3 *C 2.9000 1.7100 
*N *2:8 *C 1.0800 1.7100 
*N *2:9 *C 1.0000 1.7100 
*N *2:10 *C 0.2150 1.7100 

*CAP
0 *17:s 3.73158e-17
1 *15:s 2.45791e-17
2 *13:s 2.43434e-16
3 *2:10 7.89632e-18
4 *2:8 1.07532e-17
5 *2:3 1.41274e-16

*RES
0 *2:10 *2 0.057205  // $metal1_conn
1 *2:3 *13:s 8.333333  // $metal1_conn
2 *2:3 *2:9 7.5  // $metal1_conn
3 *2:8 *17:s 62.264053  // $metal1_conn
4 *2:10 *15:s 31.33226  // $metal1_conn
5 *13:s *2:8 0.337996  // $metal1_conn
6 *2:8 *2:9 0.039902  // $metal1_conn
7 *2:9 *2:10 0.393337  // $metal1_conn

*END

*D_NET *30 7.76136e-16

*CONN
*P *30 I *C 0.3000 0.8550 
*I *45:g B *C 0.2175 0.4350 
*I *24:g B *C 0.8325 0.4350 
*I *25:g B *C 1.0375 0.4350 
*I *28:g B *C 1.6525 0.4350 
*I *15:g B *C 0.3175 1.1500 
*I *17:g B *C 0.9775 1.1500 
*I *18:g B *C 1.1825 1.1500 
*I *21:g B *C 1.6525 1.1500 
*N *30:5 *C 1.0050 0.8575 

*CAP
0 *21:g 6.0044e-17
1 *18:g 7.49009e-17
2 *17:g 4.10701e-17
3 *15:g 3.17712e-17
4 *28:g 5.25853e-16
5 *30:5 2.42339e-17
6 *30 1.82637e-17

*RES
0 *21:g *28:g 60.71759  // $poly_conn
1 *18:g *30:5 54.827171  // $poly_conn
2 *30:5 *17:g 25.265127  // $poly_conn
3 *15:g *28:g 58.462914  // $poly_conn
4 *30:5 *28:g 15.190368  // $poly_conn
5 *28:g *30 0.095842  // $metal1_conn

*END

*D_NET *31 6.05841e-16

*CONN
*P *31 I *C 1.3000 0.8550 
*I *22:g B *C 0.4225 0.4350 
*I *23:g B *C 0.6275 0.4350 
*I *26:g B *C 1.2425 0.4350 
*I *27:g B *C 1.4475 0.4350 
*I *14:g B *C 0.6275 1.1500 
*I *16:g B *C 0.8325 1.1500 
*I *19:g B *C 1.2875 1.1500 
*I *20:g B *C 1.4925 1.1500 

*CAP
0 *20:g 4.89434e-17
1 *19:g 5.86104e-17
2 *16:g 5.75281e-17
3 *14:g 2.19582e-17
4 *31 4.18801e-16

*RES
0 *20:g *31 55.112999  // $poly_conn
1 *31 *19:g 17.152769  // $poly_conn
2 *16:g *31 50.183949  // $poly_conn
3 *31 *14:g 18.719322  // $poly_conn

*END

*D_NET *38 3.75623e-16

*CONN
*P *38 I *C 2.3000 0.8550 
*I *35:g B *C 2.0925 0.4350 
*I *37:g B *C 2.2975 0.4350 
*I *39:g B *C 2.5325 0.4350 
*I *40:g B *C 2.7375 0.4350 
*I *4:g B *C 1.9175 1.1500 
*I *5:g B *C 2.1225 1.1500 
*I *7:g B *C 2.3275 1.1500 
*I *9:g B *C 2.5325 1.1500 

*CAP
0 *38 3.75623e-16


*END

*D_NET *1 3.04329e-16

*CONN
*P *1 I *C 3.1000 0.8550 
*I *41:g B *C 2.9425 0.4350 
*I *42:g B *C 3.1475 0.4350 
*I *43:g B *C 3.3525 0.4350 
*I *44:g B *C 3.5575 0.4350 
*I *10:g B *C 2.7375 1.1500 
*I *11:g B *C 2.9425 1.1500 
*I *12:g B *C 3.1475 1.1500 
*I *13:g B *C 3.3525 1.1500 

*CAP
0 *1 3.04329e-16


*END

*D_NET *3 8.69931e-16

*CONN
*P *3 O *C 2.1000 1.0450 
*I *41:d B *C 3.0450 0.4350 
*I *42:d B *C 3.0450 0.4350 
*I *43:d B *C 3.4550 0.4350 
*I *44:d B *C 3.4550 0.4350 
*I *4:d B *C 2.0200 1.1500 
*I *5:d B *C 2.0200 1.1500 
*I *7:d B *C 2.4300 1.1500 
*I *9:d B *C 2.4300 1.1500 
*I *10:d B *C 2.8400 1.1500 
*I *11:d B *C 2.8400 1.1500 
*I *12:d B *C 3.2500 1.1500 
*I *13:d B *C 3.2500 1.1500 
*I *14:d B *C 0.7300 1.1500 
*I *16:d B *C 0.7300 1.1500 
*I *19:d B *C 1.3900 1.1500 
*I *20:d B *C 1.3900 1.1500 
*N *3:7 *C 1.3900 1.0650 
*N *3:11 *C 0.7300 1.0650 

*CAP
0 *19:d 1.11959e-16
1 *14:d 9.15442e-17
2 *12:d 1.42709e-16
3 *41:d 2.27261e-16
4 *3 2.96458e-16

*RES
0 *19:d *3:7 62  // $metal1_conn
1 *3:7 *19:d 62.146393  // $metal1_conn
2 *3:11 *14:d 62.146393  // $metal1_conn
3 *14:d *3:11 62  // $metal1_conn
4 *41:d *3 1.158579  // $metal1_conn
5 *3 *3:7 0.412447  // $metal1_conn
6 *3:7 *3:11 0.48545  // $metal1_conn
7 *3 *12:d 0.31654  // $metal1_conn

*END

*D_NET *36 3.99993e-18

*CONN
*I *20:s B *C 1.5725 1.1500 
*I *21:d B *C 1.5725 1.1500 

*CAP
0 *20:s 3.99993e-18

*RES
0 *21:d *20:s 0.001  // $mwires

*END

*D_NET *34 1.94902e-18

*CONN
*I *18:d B *C 1.2350 1.1500 
*I *19:s B *C 1.2350 1.1500 

*CAP
0 *18:d 1.94902e-18

*RES
0 *19:s *18:d 0.001  // $mwires

*END

*D_NET *33 3.24837e-18

*CONN
*I *16:s B *C 0.9050 1.1500 
*I *17:d B *C 0.9050 1.1500 

*CAP
0 *16:s 3.24837e-18

*RES
0 *17:d *16:s 0.001  // $mwires

*END

*D_NET *32 0

*CONN
*I *15:d B *C 0.4725 1.1500 
*I *14:s B *C 0.4725 1.1500 


*RES
0 *14:s *15:d 0.001  // $mwires

*END

*D_NET *8 5.193e-16

*CONN
*I *35:s B *C 2.1950 0.4350 
*I *37:s B *C 2.1950 0.4350 
*I *39:s B *C 2.6350 0.4350 
*I *40:s B *C 2.6350 0.4350 
*I *45:d B *C 0.3200 0.4350 
*I *22:d B *C 0.3200 0.4350 
*I *23:d B *C 0.7300 0.4350 
*I *24:d B *C 0.7300 0.4350 
*I *25:d B *C 1.1400 0.4350 
*I *26:d B *C 1.1400 0.4350 
*I *27:d B *C 1.5500 0.4350 
*I *28:d B *C 1.5500 0.4350 

*CAP
0 *27:d 3.19103e-16
1 *39:s 2.00197e-16

*RES
0 *39:s *27:d 0.480884  // $metal1_conn

*END

*D_NET *6 3.37427e-16

*CONN
*I *35:d B *C 1.9925 0.4350 
*I *37:d B *C 2.4150 0.4350 
*I *39:d B *C 2.4150 0.4350 
*I *40:d B *C 2.8400 0.4350 
*I *41:s B *C 2.8400 0.4350 
*I *42:s B *C 3.2500 0.4350 
*I *43:s B *C 3.2500 0.4350 
*I *44:s B *C 3.6500 0.4350 

*CAP
0 *44:s 3.37427e-16


*END

