*SPEF "IEEE 1481-1999"
*DESIGN  "OAI2BB1XL"
*DATE "Mon Sep 27 10:43:34 2010"
*VENDOR "Cadence Design Systems"
*PROGRAM "Assura RCX"
*VERSION "3.2 Red Hat Linux release 7.2 (Enigma) - (09/09/2009-10:39)"
*DESIGN_FLOW "Physical Verification"
*DIVIDER /
*DELIMITER :
*BUS_DELIMITER []
*T_UNIT 1 PS
*C_UNIT 1e15 FF
*R_UNIT 1 OHM
*L_UNIT 1 MH
// DeviceFingerDelim "@"
// MATCHED
// caps2d version: 10

*NAME_MAP
*1 mp3
*2 A1N
*3 mp2
*4 mp0
*5 mp1
*6 VSS
*7 A0N
*8 n0
*9 n1
*10 n2
*11 mn3
*12 mn2
*13 VDD
*14 mn0
*15 Y
*16 B0
*17 mn1

*GROUND_NETS VSS

*PORTS
*13 I
*6 I
*7 I
*2 I
*16 I
*15 O

*D_NET *13 1.3654e-16

*CONN
*P *13 I *C 0.1000 1.7100 
*I *1:s B *C 0.3000 1.5700 
*I *3:s B *C 0.7000 1.5700 
*I *4:s B *C 0.7000 1.5700 
*I *5:s B *C 1.0700 1.3775 
*N *13:2 *C 0.6750 1.7100 
*N *13:3 *C 0.6000 1.7100 
*N *13:4 *C 0.6000 1.7100 
*N *13:5 *C 0.2750 1.7100 

*CAP
0 *5:s 1.00118e-17
1 *3:s 4.9178e-18
2 *1:s 1.44671e-17
3 *13:5 4.43161e-18
4 *13:2 4.18546e-18
5 *13:3 9.85263e-17

*RES
0 *5:s *13:2 62.267166  // $metal1_conn
1 *13:2 *13:4 0.037332  // $metal1_conn
2 *13:4 *13:5 0.16246  // $metal1_conn
3 *13:5 *13 0.087138  // $metal1_conn
4 *13:2 *3:s 62.073994  // $metal1_conn
5 *13:5 *1:s 62.073994  // $metal1_conn
6 *13:3 *13:4 12.5  // $metal1_conn

*END

*D_NET *6 0

*CONN
*P *6 I *C 0.1000 0.0000 
*I *12:s B *C 0.6275 0.3125 
*I *14:s B *C 0.6275 0.3125 
*N *6:2 *C 0.6000 0.0000 
*N *6:3 *C 0.6000 0.0000 


*RES
0 *12:s *6:3 75.16481  // $metal1_conn
1 *6:3 *6 0.250092  // $metal1_conn
2 *6:2 *6:3 10.333333  // $metal1_conn

*END

*D_NET *7 3.35187e-16

*CONN
*P *7 I *C 0.7000 1.0450 
*I *14:g B *C 0.7375 0.3125 
*I *4:g B *C 0.7375 1.2325 
*N *7:2 *C 0.7100 1.0150 
*N *7:4 *C 0.7050 1.0150 

*CAP
0 *4:g 3.96536e-17
1 *14:g 9.23563e-17
2 *7:4 9.40616e-17
3 *7:2 8.25487e-17
4 *7 2.65666e-17

*RES
0 *4:g *7:2 19.691952  // $poly_conn
1 *7:2 *14:g 153.025284  // $poly_conn
2 *7:4 *7 0.018601  // $metal1_conn
3 *7:2 *7:4 45  // $metal1_conn

*END

*D_NET *2 2.54984e-16

*CONN
*P *2 I *C 1.1000 1.0450 
*I *17:g B *C 0.8425 0.3125 
*I *5:g B *C 0.9725 1.2325 
*N *2:2 *C 0.9725 1.0150 
*N *2:4 *C 1.0900 1.0150 

*CAP
0 *5:g 2.36429e-17
1 *17:g 8.76125e-17
2 *2:2 5.63708e-17
3 *2:4 6.83629e-17
4 *2 1.89947e-17

*RES
0 *5:g *2:2 16.33637  // $poly_conn
1 *2:2 *17:g 180.385437  // $poly_conn
2 *2:2 *2:4 53.123444  // $poly_conn
3 *2:4 *2 0.018601  // $metal1_conn

*END

*D_NET *16 3.20279e-16

*CONN
*P *16 I *C 0.5000 0.8550 
*I *12:g B *C 0.5175 0.3125 
*I *3:g B *C 0.5425 1.2325 
*N *16:2 *C 0.5100 0.8500 
*N *16:4 *C 0.5100 0.8500 

*CAP
0 *3:g 5.57619e-17
1 *12:g 7.69252e-17
2 *16:2 6.68462e-17
3 *16 1.20746e-16

*RES
0 *3:g *16:2 65.205376  // $poly_conn
1 *16:2 *12:g 108.424309  // $poly_conn
2 *16:4 *16 0.0031  // $metal1_conn
3 *16:2 *16:4 45  // $metal1_conn

*END

*D_NET *15 1.99687e-16

*CONN
*P *15 O *C 0.1000 0.4750 
*I *11:d B *C 0.3200 0.3125 
*I *1:d B *C 0.4400 1.2325 
*I *3:d B *C 0.4400 1.2325 

*CAP
0 *1:d 8.19174e-17
1 *11:d 3.15435e-17
2 *15 8.62262e-17

*RES
0 *11:d *15 75.221893  // $metal1_conn
1 *15 *1:d 62.751644  // $metal1_conn

*END

*D_NET *10 0

*CONN
*I *11:s B *C 0.4650 0.3125 
*I *12:d B *C 0.4650 0.3125 


*RES
0 *12:d *11:s 0.001  // $mwires

*END

*D_NET *9 0

*CONN
*I *14:d B *C 0.7900 0.3125 
*I *17:s B *C 0.7900 0.3125 


*RES
0 *17:s *14:d 0.001  // $mwires

*END

*D_NET *8 3.92269e-16

*CONN
*I *11:g B *C 0.4125 0.3125 
*I *17:d B *C 0.9350 0.3125 
*I *1:g B *C 0.3375 1.2325 
*I *4:d B *C 0.8550 1.2325 
*I *5:d B *C 0.8550 1.2325 
*N *8:2 *C 0.3750 0.4900 
*N *8:5 *C 0.8700 0.4800 

*CAP
0 *4:d 7.21484e-17
1 *1:g 5.75897e-17
2 *17:d 1.83792e-17
3 *11:g 4.15572e-17
4 *8:5 9.56822e-17
5 *8:2 1.06913e-16

*RES
0 *11:g *8:2 19.707582  // $poly_conn
1 *8:2 *1:g 155.605026  // $poly_conn
2 *17:d *8:5 75.16198  // $metal1_conn
3 *8:5 *8:2 45.359791  // $metal1_conn
4 *8:5 *4:d 62.535446  // $metal1_conn

*END

