*SPEF "IEEE 1481-1999"
*DESIGN  "OAI211X1"
*DATE "Mon Sep 27 10:34:59 2010"
*VENDOR "Cadence Design Systems"
*PROGRAM "Assura RCX"
*VERSION "3.2 Red Hat Linux release 7.2 (Enigma) - (09/09/2009-10:39)"
*DESIGN_FLOW "Physical Verification"
*DIVIDER /
*DELIMITER :
*BUS_DELIMITER []
*T_UNIT 1 PS
*C_UNIT 1e15 FF
*R_UNIT 1 OHM
*L_UNIT 1 MH
// DeviceFingerDelim "@"
// MATCHED
// caps2d version: 10

*NAME_MAP
*1 A0
*2 A1
*3 mp0
*4 mp1
*5 mp2
*6 mp3
*7 VSS
*8 C0
*9 n0
*10 n2
*11 n1
*12 mn0
*13 mn1
*14 VDD
*15 mn2
*16 Y
*17 B0
*18 mn3

*GROUND_NETS VSS

*PORTS
*14 I
*7 I
*1 I
*2 I
*17 I
*8 I
*16 O

*D_NET *14 1.95033e-16

*CONN
*P *14 I *C 0.1000 1.7100 
*I *3:s B *C 0.1100 1.2550 
*I *5:s B *C 0.6900 1.2550 
*I *6:s B *C 0.6900 1.2550 
*N *14:2 *C 0.5000 1.7100 
*N *14:3 *C 0.5000 1.7100 

*CAP
0 *5:s 5.86441e-17
1 *3:s 3.80133e-17
2 *14:2 9.36865e-17
3 *14 4.689e-18

*RES
0 *5:s *14:3 31.371786  // $metal1_conn
1 *14:3 *14 0.200846  // $metal1_conn
2 *14 *3:s 31.246439  // $metal1_conn
3 *14:2 *14:3 15  // $metal1_conn

*END

*D_NET *7 0

*CONN
*P *7 I *C 0.1000 0.0000 
*I *12:s B *C 0.3050 0.3700 
*I *13:s B *C 0.3050 0.3700 
*N *7:1 *C 0.5000 0.0000 
*N *7:2 *C 0.3050 0.0000 


*RES
0 *7:1 *7:2 12.497691  // $metal1_conn
1 *7:2 *7 0.10246  // $metal1_conn
2 *7:2 *12:s 37.723335  // $metal1_conn

*END

*D_NET *1 2.4316e-16

*CONN
*P *1 I *C 0.0950 1.0450 
*I *12:g B *C 0.2025 0.3700 
*I *3:g B *C 0.2025 1.2550 
*N *1:2 *C 0.2025 0.9600 
*N *1:3 *C 0.1150 0.9600 
*N *1:5 *C 0.1050 0.9600 
*N *1:6 *C 0.1050 1.0450 

*CAP
0 *3:g 6.11187e-17
1 *12:g 5.38221e-17
2 *1:6 3.20416e-17
3 *1:5 3.94248e-17
4 *1:2 4.58161e-17
5 *1:3 1.09372e-17

*RES
0 *3:g *1:2 22.886339  // $poly_conn
1 *1:2 *1:3 48.890118  // $poly_conn
2 *1:2 *12:g 115.194031  // $poly_conn
3 *1:5 *1:3 0.001838  // $metal1_conn
4 *1 *1:6 0.001746  // $metal1_conn
5 *1:5 *1:6 0.04836  // $metal1_conn

*END

*D_NET *2 2.8962e-16

*CONN
*P *2 I *C 0.3550 0.8550 
*I *13:g B *C 0.4075 0.3700 
*I *4:g B *C 0.3075 1.2550 
*N *2:2 *C 0.3350 0.7500 
*N *2:4 *C 0.3350 0.7500 
*N *2:5 *C 0.3450 0.7500 
*N *2:6 *C 0.3450 0.8550 

*CAP
0 *4:g 8.36452e-17
1 *13:g 4.60009e-17
2 *2:5 3.67561e-17
3 *2:2 6.53408e-17
4 *2 5.78766e-17

*RES
0 *13:g *2:2 57.677101  // $poly_conn
1 *2:2 *4:g 67.812088  // $poly_conn
2 *2:4 *2:5 0.001675  // $metal1_conn
3 *2:6 *2 0.001759  // $metal1_conn
4 *2:5 *2:6 0.059739  // $metal1_conn
5 *2:2 *2:4 45  // $metal1_conn

*END

*D_NET *17 2.52256e-16

*CONN
*P *17 I *C 0.5550 0.6800 
*I *15:g B *C 0.6125 0.3700 
*I *5:g B *C 0.5875 1.2550 
*N *17:2 *C 0.5850 0.8200 
*N *17:4 *C 0.5700 0.6800 
*N *17:5 *C 0.5700 0.8200 
*N *17:6 *C 0.5850 0.8200 

*CAP
0 *5:g 5.1223e-17
1 *15:g 5.18007e-17
2 *17:5 5.25007e-17
3 *17:4 3.91948e-17
4 *17:2 5.75373e-17

*RES
0 *15:g *17:2 73.538101  // $poly_conn
1 *17:2 *5:g 51.268669  // $poly_conn
2 *17 *17:4 0.003149  // $metal1_conn
3 *17:5 *17:6 0.003257  // $metal1_conn
4 *17:4 *17:5 0.076943  // $metal1_conn
5 *17:2 *17:6 45  // $metal1_conn

*END

*D_NET *8 2.56707e-16

*CONN
*P *8 I *C 0.7350 0.4750 
*I *18:g B *C 0.7925 0.3700 
*I *6:g B *C 0.7925 1.2550 
*N *8:2 *C 0.7550 0.7900 

*CAP
0 *6:g 4.92743e-17
1 *18:g 3.96981e-17
2 *8:2 1.18471e-16
3 *8 4.92636e-17

*RES
0 *6:g *8:2 59.744961  // $poly_conn
1 *8:2 *18:g 64.873169  // $poly_conn
2 *8 *8:2 45.178345  // $metal1_conn

*END

*D_NET *16 2.5312e-16

*CONN
*P *16 O *C 0.9050 1.2350 
*I *18:d B *C 0.8850 0.3700 
*I *4:d B *C 0.4475 1.2550 
*I *5:d B *C 0.4475 1.2550 
*I *6:d B *C 0.8850 1.2550 
*N *16:2 *C 0.8950 1.0900 

*CAP
0 *4:d 8.24546e-17
1 *18:d 8.07972e-17
2 *16:2 6.03114e-17
3 *16 2.95569e-17

*RES
0 *18:d *16:2 38.02689  // $metal1_conn
1 *16:2 *4:d 21.052151  // $metal1_conn
2 *16:2 *16 0.103713  // $metal1_conn
3 *16 *6:d 20.679039  // $metal1_conn

*END

*D_NET *11 2.46539e-18

*CONN
*I *15:d B *C 0.7025 0.3700 
*I *18:s B *C 0.7025 0.3700 

*CAP
0 *15:d 2.46539e-18

*RES
0 *18:s *15:d 0.001  // $mwires

*END

*D_NET *10 0

*CONN
*I *3:d B *C 0.2550 1.2550 
*I *4:s B *C 0.2550 1.2550 


*RES
0 *4:s *3:d 0.001  // $mwires

*END

*D_NET *9 1.3425e-16

*CONN
*I *12:d B *C 0.1100 0.3700 
*I *13:d B *C 0.5100 0.3700 
*I *15:s B *C 0.5100 0.3700 

*CAP
0 *13:d 8.78807e-17
1 *12:d 4.63696e-17

*RES
0 *13:d *12:d 150.494125  // $metal1_conn

*END

