*SPEF "IEEE 1481-1999"
*DESIGN  "OAI32X1"
*DATE "Mon Sep 27 10:46:58 2010"
*VENDOR "Cadence Design Systems"
*PROGRAM "Assura RCX"
*VERSION "3.2 Red Hat Linux release 7.2 (Enigma) - (09/09/2009-10:39)"
*DESIGN_FLOW "Physical Verification"
*DIVIDER /
*DELIMITER :
*BUS_DELIMITER []
*T_UNIT 1 PS
*C_UNIT 1e15 FF
*R_UNIT 1 OHM
*L_UNIT 1 MH
// DeviceFingerDelim "@"
// MATCHED
// caps2d version: 10

*NAME_MAP
*1 mp4
*2 mp3
*3 mn0
*4 Y
*5 mn1
*6 mn2
*7 mn4
*8 mn3
*9 n1
*10 VDD
*11 n2
*12 n0
*13 n4
*14 B0
*15 B1
*16 VSS
*17 A0
*18 A1
*19 A2
*20 mp0
*21 mp1
*22 mp2

*GROUND_NETS VSS

*PORTS
*10 I
*16 I
*17 I
*18 I
*19 I
*14 I
*15 I
*4 O

*D_NET *10 1.89201e-16

*CONN
*P *10 I *C 0.1000 1.7100 
*I *20:s B *C 0.1100 1.1650 
*I *2:s B *C 1.0800 1.1650 
*N *10:2 *C 0.7000 1.7100 
*N *10:3 *C 0.7000 1.7100 

*CAP
0 *2:s 5.045e-17
1 *20:s 5.23171e-17
2 *10:2 7.69088e-17
3 *10 9.52546e-18

*RES
0 *2:s *10:3 21.230186  // $metal1_conn
1 *10:3 *10 0.300941  // $metal1_conn
2 *10 *20:s 21.019997  // $metal1_conn
3 *10:2 *10:3 10.714286  // $metal1_conn

*END

*D_NET *16 0

*CONN
*P *16 I *C 0.1000 0.0000 
*I *3:s B *C 0.1100 0.4300 
*I *5:s B *C 0.5100 0.4300 
*I *6:s B *C 0.5100 0.4300 
*N *16:1 *C 0.7000 0.0000 
*N *16:2 *C 0.4800 0.0000 


*RES
0 *16:1 *16:2 8.967661  // $metal1_conn
1 *16:2 *16 0.190419  // $metal1_conn
2 *16 *3:s 37.779926  // $metal1_conn
3 *16:2 *5:s 75.235504  // $metal1_conn

*END

*D_NET *17 2.01395e-16

*CONN
*P *17 I *C 0.1250 0.8550 
*I *3:g B *C 0.2025 0.4300 
*I *20:g B *C 0.2025 1.1650 
*N *17:2 *C 0.2025 0.8500 
*N *17:3 *C 0.1350 0.8500 

*CAP
0 *20:g 4.40129e-17
1 *3:g 3.72019e-17
2 *17:2 3.16636e-17
3 *17:3 1.03188e-17
4 *17 7.81973e-17

*RES
0 *20:g *17:2 27.458193  // $poly_conn
1 *17:2 *17:3 46.611767  // $poly_conn
2 *17:2 *3:g 71.047935  // $poly_conn
3 *17:3 *17 0.003112  // $metal1_conn

*END

*D_NET *18 2.60347e-16

*CONN
*P *18 I *C 0.3250 1.2350 
*I *5:g B *C 0.4075 0.4300 
*I *21:g B *C 0.3625 1.1650 
*N *18:2 *C 0.3350 0.8600 

*CAP
0 *21:g 4.90187e-17
1 *5:g 4.97605e-17
2 *18:2 1.18026e-16
3 *18 4.35419e-17

*RES
0 *5:g *18:2 70.497612  // $poly_conn
1 *18:2 *21:g 16.530039  // $poly_conn
2 *18 *18:2 45.225037  // $metal1_conn

*END

*D_NET *19 2.5328e-16

*CONN
*P *19 I *C 0.5250 1.0450 
*I *6:g B *C 0.6125 0.4300 
*I *22:g B *C 0.5925 1.1650 
*N *19:2 *C 0.6025 0.7500 
*N *19:3 *C 0.5550 0.7500 

*CAP
0 *22:g 4.17949e-17
1 *6:g 4.42665e-17
2 *19:3 1.06605e-16
3 *19 6.06138e-17

*RES
0 *6:g *19:2 47.811821  // $poly_conn
1 *19:2 *19:3 45.794373  // $poly_conn
2 *19:2 *22:g 59.289711  // $poly_conn
3 *19 *19:3 0.175694  // $metal1_conn

*END

*D_NET *14 2.19374e-16

*CONN
*P *14 I *C 1.0900 0.7800 
*I *8:g B *C 1.0225 0.4300 
*I *2:g B *C 0.9875 1.1650 
*N *14:2 *C 1.0275 0.6700 
*N *14:4 *C 1.0800 0.6700 

*CAP
0 *2:g 7.88453e-17
1 *8:g 2.97809e-17
2 *14:2 2.95796e-17
3 *14:4 4.38127e-17
4 *14 3.73552e-17

*RES
0 *8:g *14:2 17.730585  // $poly_conn
1 *14:2 *2:g 75.41272  // $poly_conn
2 *14:2 *14:4 47.542171  // $poly_conn
3 *14 *14:4 0.066011  // $metal1_conn

*END

*D_NET *15 2.95968e-16

*CONN
*P *15 I *C 0.8550 1.2350 
*I *7:g B *C 0.8175 0.4300 
*I *1:g B *C 0.8825 1.1650 
*N *15:2 *C 0.8450 0.8700 

*CAP
0 *1:g 6.47397e-17
1 *7:g 5.53688e-17
2 *15:2 1.12365e-16
3 *15 6.34951e-17

*RES
0 *1:g *15:2 16.15522  // $poly_conn
1 *15:2 *7:g 70.001373  // $poly_conn
2 *15 *15:2 45.219826  // $metal1_conn

*END

*D_NET *4 2.74392e-16

*CONN
*P *4 O *C 0.7050 0.8550 
*I *7:d B *C 0.9200 0.4300 
*I *8:d B *C 0.9200 0.4300 
*I *22:d B *C 0.7375 1.1650 
*I *1:d B *C 0.7375 1.1650 

*CAP
0 *22:d 8.54241e-17
1 *7:d 8.92971e-17
2 *4 9.96705e-17

*RES
0 *7:d *4 37.964958  // $metal1_conn
1 *4 *22:d 20.908394  // $metal1_conn

*END

*D_NET *13 0

*CONN
*I *1:s B *C 0.9350 1.1650 
*I *2:d B *C 0.9350 1.1650 


*RES
0 *2:d *1:s 0.001  // $mwires

*END

*D_NET *11 4.90899e-18

*CONN
*I *21:d B *C 0.4775 1.1650 
*I *22:s B *C 0.4775 1.1650 

*CAP
0 *21:d 4.90899e-18

*RES
0 *22:s *21:d 0.001  // $mwires

*END

*D_NET *9 3.74666e-18

*CONN
*I *20:d B *C 0.2825 1.1650 
*I *21:s B *C 0.2825 1.1650 

*CAP
0 *20:d 3.74666e-18

*RES
0 *21:s *20:d 0.001  // $mwires

*END

*D_NET *12 2.53607e-16

*CONN
*I *3:d B *C 0.3050 0.4300 
*I *5:d B *C 0.3050 0.4300 
*I *6:d B *C 0.7150 0.4300 
*I *7:s B *C 0.7150 0.4300 
*I *8:s B *C 1.1150 0.4300 
*N *12:3 *C 0.7150 0.4250 

*CAP
0 *8:s 8.50048e-17
1 *6:d 9.8937e-17
2 *3:d 6.96652e-17

*RES
0 *8:s *12:3 38.08374  // $metal1_conn
1 *12:3 *3:d 37.844559  // $metal1_conn
2 *6:d *12:3 37.5  // $metal1_conn

*END

