*SPEF "IEEE 1481-1999"
*DESIGN  "OAI31XL"
*DATE "Mon Sep 27 10:46:36 2010"
*VENDOR "Cadence Design Systems"
*PROGRAM "Assura RCX"
*VERSION "3.2 Red Hat Linux release 7.2 (Enigma) - (09/09/2009-10:39)"
*DESIGN_FLOW "Physical Verification"
*DIVIDER /
*DELIMITER :
*BUS_DELIMITER []
*T_UNIT 1 PS
*C_UNIT 1e15 FF
*R_UNIT 1 OHM
*L_UNIT 1 MH
// DeviceFingerDelim "@"
// MATCHED
// caps2d version: 10

*NAME_MAP
*1 A0
*2 A1
*3 A2
*4 mp0
*5 mp1
*6 mp2
*7 mp3
*8 VSS
*9 n0
*10 n2
*11 n1
*12 mn0
*13 mn1
*14 VDD
*15 mn2
*16 Y
*17 B0
*18 mn3

*GROUND_NETS VSS

*PORTS
*14 I
*8 I
*1 I
*2 I
*3 I
*17 I
*16 O

*D_NET *14 1.62964e-16

*CONN
*P *14 I *C 0.1000 1.7100 
*I *4:s B *C 0.2700 1.2225 
*I *7:s B *C 1.0200 1.2225 
*N *14:2 *C 0.7000 1.7100 
*N *14:3 *C 0.7000 1.7100 
*N *14:4 *C 0.2600 1.7100 

*CAP
0 *7:s 2.86303e-17
1 *4:s 1.85701e-17
2 *14:4 3.19228e-18
3 *14:2 1.07142e-16
4 *14 5.42886e-18

*RES
0 *7:s *14:3 62.467022  // $metal1_conn
1 *14:3 *14:4 0.219832  // $metal1_conn
2 *14:4 *14 0.079565  // $metal1_conn
3 *14:4 *4:s 62.272106  // $metal1_conn
4 *14:2 *14:3 10.714286  // $metal1_conn

*END

*D_NET *8 0

*CONN
*P *8 I *C 0.1000 0.0000 
*I *12:s B *C 0.1100 0.3025 
*I *13:s B *C 0.5700 0.3025 
*I *15:s B *C 0.5700 0.3025 
*N *8:1 *C 0.7000 0.0000 
*N *8:2 *C 0.5700 0.0000 


*RES
0 *8:1 *8:2 8.921955  // $metal1_conn
1 *8:2 *8 0.234885  // $metal1_conn
2 *8 *12:s 75.182465  // $metal1_conn
3 *8:2 *13:s 75.178322  // $metal1_conn

*END

*D_NET *1 2.02002e-16

*CONN
*P *1 I *C 0.1000 0.6650 
*I *12:g B *C 0.2025 0.3025 
*I *4:g B *C 0.3625 1.2225 
*N *1:2 *C 0.2025 0.6600 
*N *1:3 *C 0.1100 0.6600 

*CAP
0 *4:g 7.29821e-17
1 *12:g 2.80394e-17
2 *1:2 3.60783e-17
3 *1:3 1.19421e-17
4 *1 5.29601e-17

*RES
0 *4:g *1:2 142.553238  // $poly_conn
1 *1:2 *1:3 48.73896  // $poly_conn
2 *1:2 *12:g 69.765884  // $poly_conn
3 *1:3 *1 0.003097  // $metal1_conn

*END

*D_NET *2 2.59483e-16

*CONN
*P *2 I *C 0.5000 1.0450 
*I *13:g B *C 0.4675 0.3025 
*I *5:g B *C 0.4675 1.2225 
*N *2:2 *C 0.4950 1.0050 
*N *2:4 *C 0.4950 1.0050 

*CAP
0 *5:g 5.25983e-17
1 *13:g 5.93636e-17
2 *2:2 1.34036e-16
3 *2 1.34846e-17

*RES
0 *5:g *2:2 19.691952  // $poly_conn
1 *2:2 *13:g 153.025284  // $poly_conn
2 *2:4 *2 0.024772  // $metal1_conn
3 *2:2 *2:4 45  // $metal1_conn

*END

*D_NET *3 2.62605e-16

*CONN
*P *3 I *C 0.7000 0.8550 
*I *15:g B *C 0.6725 0.3025 
*I *6:g B *C 0.6725 1.2225 
*N *3:2 *C 0.7000 0.6700 

*CAP
0 *6:g 5.33726e-17
1 *15:g 3.91525e-17
2 *3:2 9.81945e-17
3 *3 7.18851e-17

*RES
0 *6:g *3:2 105.589386  // $poly_conn
1 *3:2 *15:g 67.127846  // $poly_conn
2 *3 *3:2 45.110523  // $metal1_conn

*END

*D_NET *17 2.39858e-16

*CONN
*P *17 I *C 0.9000 0.6650 
*I *18:g B *C 0.9275 0.3025 
*I *7:g B *C 0.9275 1.2225 
*N *17:2 *C 0.9000 0.6600 

*CAP
0 *7:g 3.91586e-17
1 *18:g 3.03346e-17
2 *17:2 4.52847e-17
3 *17 1.2508e-16

*RES
0 *7:g *17:2 108.153488  // $poly_conn
1 *17:2 *18:g 64.563744  // $poly_conn
2 *17:2 *17 45  // $metal1_conn

*END

*D_NET *16 2.1031e-16

*CONN
*P *16 O *C 1.1000 1.0450 
*I *18:d B *C 1.0600 0.3025 
*I *6:d B *C 0.8000 1.2225 
*I *7:d B *C 0.8000 1.2225 
*N *16:3 *C 0.8250 1.2700 

*CAP
0 *6:d 6.86482e-17
1 *18:d 6.3859e-17
2 *16 7.78025e-17

*RES
0 *18:d *16 75.52684  // $metal1_conn
1 *16 *16:3 0.227514  // $metal1_conn
2 *6:d *16:3 62  // $metal1_conn

*END

*D_NET *11 0

*CONN
*I *4:d B *C 0.4150 1.2225 
*I *5:s B *C 0.4150 1.2225 


*RES
0 *5:s *4:d 0.001  // $mwires

*END

*D_NET *10 0

*CONN
*I *5:d B *C 0.5700 1.2225 
*I *6:s B *C 0.5700 1.2225 


*RES
0 *6:s *5:d 0.001  // $mwires

*END

*D_NET *9 1.31964e-16

*CONN
*I *12:d B *C 0.3350 0.3025 
*I *13:d B *C 0.3350 0.3025 
*I *15:d B *C 0.8000 0.3025 
*I *18:s B *C 0.8000 0.3025 

*CAP
0 *15:d 7.2319e-17
1 *12:d 5.96447e-17

*RES
0 *12:d *15:d 150.485153  // $metal1_conn

*END

