*SPEF "IEEE 1481-1999"
*DESIGN  "OAI31X4"
*DATE "Mon Sep 27 10:46:13 2010"
*VENDOR "Cadence Design Systems"
*PROGRAM "Assura RCX"
*VERSION "3.2 Red Hat Linux release 7.2 (Enigma) - (09/09/2009-10:39)"
*DESIGN_FLOW "Physical Verification"
*DIVIDER /
*DELIMITER :
*BUS_DELIMITER []
*T_UNIT 1 PS
*C_UNIT 1e15 FF
*R_UNIT 1 OHM
*L_UNIT 1 MH
// DeviceFingerDelim "@"
// MATCHED
// caps2d version: 10

*NAME_MAP
*1 VDD
*2 Y
*3 mp2
*4 mp2\@1
*5 n0
*6 mp1\@1
*7 n1\@3
*8 mp0\@1
*9 mp3
*10 mp3\@1
*11 mp3\@2
*12 mp3\@3
*13 mp1\@2
*14 mp0\@2
*15 mp2\@2
*16 mp2\@3
*17 mp1\@3
*18 mp0\@3
*19 mp0
*20 mp1
*21 mn1\@1
*22 mn2\@2
*23 mn2\@3
*24 mn1\@2
*25 mn0\@2
*26 mn0\@3
*27 mn1\@3
*28 VSS
*29 A0
*30 A1
*31 A2
*32 n1\@4
*33 n1\@5
*34 n1\@6
*35 mn2
*36 n1\@7
*37 mn2\@1
*38 n1
*39 B0
*40 mn1
*41 n1\@1
*42 mn0
*43 n1\@2
*44 mn3
*45 mn3\@1
*46 mn3\@2
*47 mn3\@3
*48 mn0\@1

*GROUND_NETS VSS

*PORTS
*1 I
*28 I
*29 I
*30 I
*31 I
*39 I
*2 O

*D_NET *1 4.9116e-16

*CONN
*P *1 I *C 0.1000 1.7100 
*I *8:s B *C 2.8775 1.2100 
*I *9:s B *C 2.8775 1.2100 
*I *10:s B *C 3.3100 1.2100 
*I *11:s B *C 3.3100 1.2100 
*I *12:s B *C 3.7100 1.2100 
*I *14:s B *C 0.2800 1.2100 
*I *18:s B *C 1.5225 1.2100 
*I *19:s B *C 1.5225 1.2100 
*N *1:3 *C 3.0000 1.7100 
*N *1:6 *C 1.5200 1.7100 
*N *1:7 *C 1.0000 1.7100 
*N *1:8 *C 0.2700 1.7100 

*CAP
0 *18:s 3.92555e-17
1 *14:s 3.91077e-17
2 *12:s 1.68234e-16
3 *1:8 1.19871e-17
4 *1:6 3.2146e-17
5 *1:3 2.00157e-16
6 *1 2.73393e-19

*RES
0 *1:8 *1 0.084749  // $metal1_conn
1 *1:3 *12:s 7.5  // $metal1_conn
2 *1:3 *1:7 7.5  // $metal1_conn
3 *1:6 *18:s 62.223495  // $metal1_conn
4 *1:8 *14:s 20.973104  // $metal1_conn
5 *12:s *1:6 0.668641  // $metal1_conn
6 *1:6 *1:7 0.260401  // $metal1_conn
7 *1:7 *1:8 0.365642  // $metal1_conn

*END

*D_NET *28 0

*CONN
*P *28 I *C 0.1000 0.0000 
*I *35:s B *C 2.3100 0.4450 
*I *37:s B *C 2.3100 0.4450 
*I *40:s B *C 2.7800 0.4450 
*I *42:s B *C 2.7800 0.4450 
*I *48:s B *C 0.4300 0.4450 
*I *21:s B *C 0.4300 0.4450 
*I *22:s B *C 0.9000 0.4450 
*I *23:s B *C 0.9000 0.4450 
*I *24:s B *C 1.3700 0.4450 
*I *25:s B *C 1.3700 0.4450 
*I *26:s B *C 1.8400 0.4450 
*I *27:s B *C 1.8400 0.4450 
*N *28:1 *C 3.0000 0.0000 


*RES
0 *40:s *28 0.107502  // $metal1_conn
1 *28:1 *40:s 6.367689  // $metal1_conn
2 *28:1 *40:s 6.2  // $metal1_conn

*END

*D_NET *29 1.01963e-15

*CONN
*P *29 I *C 0.3000 0.8550 
*I *42:g B *C 2.8275 0.4450 
*I *48:g B *C 0.2125 0.4450 
*I *25:g B *C 1.4175 0.4450 
*I *26:g B *C 1.6225 0.4450 
*I *8:g B *C 2.7525 1.2100 
*I *14:g B *C 0.3725 1.2100 
*I *18:g B *C 1.4175 1.2100 
*I *19:g B *C 1.6275 1.2100 

*CAP
0 *19:g 3.13793e-17
1 *18:g 2.49381e-17
2 *14:g 6.62934e-17
3 *8:g 4.27846e-17
4 *42:g 8.28016e-16
5 *29 2.62167e-17

*RES
0 *42:g *8:g 18.425531  // $poly_conn
1 *19:g *42:g 45.354649  // $poly_conn
2 *42:g *18:g 20.563484  // $poly_conn
3 *14:g *42:g 26.411629  // $poly_conn
4 *42:g *29 0.017642  // $metal1_conn

*END

*D_NET *30 1.07362e-15

*CONN
*P *30 I *C 2.3000 0.6650 
*I *40:g B *C 2.5625 0.4450 
*I *21:g B *C 0.4775 0.4450 
*I *24:g B *C 1.1525 0.4450 
*I *27:g B *C 1.8875 0.4450 
*I *6:g B *C 2.5625 1.2100 
*I *13:g B *C 0.4775 1.2100 
*I *17:g B *C 1.1525 1.2100 
*I *20:g B *C 1.8325 1.2100 

*CAP
0 *20:g 4.62066e-17
1 *17:g 7.68936e-17
2 *13:g 8.56113e-17
3 *6:g 5.87962e-17
4 *30 8.06108e-16

*RES
0 *6:g *30 76.102211  // $poly_conn
1 *30 *20:g 37.640671  // $poly_conn
2 *17:g *30 37.640671  // $poly_conn
3 *13:g *30 76.102211  // $poly_conn

*END

*D_NET *31 6.67656e-16

*CONN
*P *31 I *C 1.1000 0.6650 
*I *35:g B *C 2.0925 0.4450 
*I *37:g B *C 2.3575 0.4450 
*I *22:g B *C 0.6825 0.4450 
*I *23:g B *C 0.9475 0.4450 
*I *3:g B *C 2.0925 1.2100 
*I *4:g B *C 2.2975 1.2100 
*I *15:g B *C 0.8425 1.2100 
*I *16:g B *C 1.0475 1.2100 
*N *31:2 *C 0.9475 0.9175 
*N *31:10 *C 2.0925 0.9175 

*CAP
0 *16:g 6.43124e-17
1 *15:g 2.31142e-17
2 *4:g 3.62585e-17
3 *3:g 2.64317e-17
4 *31:10 2.10663e-17
5 *31:2 3.16253e-17
6 *31 4.64848e-16

*RES
0 *31:10 *4:g 66.950577  // $poly_conn
1 *31:10 *3:g 23.847994  // $poly_conn
2 *16:g *31:2 43.575005  // $poly_conn
3 *31:2 *15:g 44.857056  // $poly_conn
4 *31 *31:10 51.541676  // $poly_conn
5 *31:2 *31 47.994167  // $poly_conn

*END

*D_NET *39 3.13984e-16

*CONN
*P *39 I *C 3.5000 0.8550 
*I *44:g B *C 3.1025 0.4450 
*I *45:g B *C 3.3075 0.4450 
*I *46:g B *C 3.5125 0.4450 
*I *47:g B *C 3.7175 0.4450 
*I *9:g B *C 3.0025 1.2100 
*I *10:g B *C 3.2075 1.2100 
*I *11:g B *C 3.4125 1.2100 
*I *12:g B *C 3.6175 1.2100 

*CAP
0 *12:g 3.13984e-16

*RES
0 *12:g *39 0.008964  // $metal1_conn

*END

*D_NET *2 7.14912e-16

*CONN
*P *2 O *C 3.1000 1.0450 
*I *44:d B *C 3.2050 0.4450 
*I *45:d B *C 3.2050 0.4450 
*I *46:d B *C 3.6150 0.4450 
*I *47:d B *C 3.6150 0.4450 
*I *3:d B *C 2.1950 1.2100 
*I *4:d B *C 2.1950 1.2100 
*I *9:d B *C 3.1050 1.2100 
*I *10:d B *C 3.1050 1.2100 
*I *11:d B *C 3.5150 1.2100 
*I *12:d B *C 3.5150 1.2100 
*I *15:d B *C 0.9450 1.2100 
*I *16:d B *C 0.9450 1.2100 
*N *2:9 *C 2.1950 1.1550 

*CAP
0 *15:d 1.42434e-16
1 *11:d 1.94495e-16
2 *3:d 2.13353e-17
3 *44:d 1.45358e-16
4 *2:9 1.83829e-16
5 *2 2.74608e-17

*RES
0 *2 *44:d 0.361932  // $metal1_conn
1 *11:d *2 0.023262  // $metal1_conn
2 *2:9 *3:d 31.059114  // $metal1_conn
3 *2:9 *15:d 32.003658  // $metal1_conn
4 *11:d *2:9 0.660694  // $metal1_conn

*END

*D_NET *43 5.54553e-18

*CONN
*I *6:s B *C 2.6575 1.2100 
*I *8:d B *C 2.6575 1.2100 

*CAP
0 *6:s 5.54553e-18

*RES
0 *8:d *6:s 0.001  // $mwires

*END

*D_NET *41 8.38108e-18

*CONN
*I *4:s B *C 2.4300 1.2100 
*I *6:d B *C 2.4300 1.2100 

*CAP
0 *4:s 8.38108e-18

*RES
0 *6:d *4:s 0.001  // $mwires

*END

*D_NET *38 8.31256e-18

*CONN
*I *3:s B *C 1.9625 1.2100 
*I *20:s B *C 1.9625 1.2100 

*CAP
0 *3:s 8.31256e-18

*RES
0 *20:s *3:s 0.001  // $mwires

*END

*D_NET *36 6.16076e-18

*CONN
*I *19:d B *C 1.7300 1.2100 
*I *20:d B *C 1.7300 1.2100 

*CAP
0 *19:d 6.16076e-18

*RES
0 *20:d *19:d 0.001  // $mwires

*END

*D_NET *34 9.09249e-18

*CONN
*I *17:s B *C 1.2850 1.2100 
*I *18:d B *C 1.2850 1.2100 

*CAP
0 *17:s 9.09249e-18

*RES
0 *18:d *17:s 0.001  // $mwires

*END

*D_NET *33 2.31028e-18

*CONN
*I *16:s B *C 1.1000 1.2100 
*I *17:d B *C 1.1000 1.2100 

*CAP
0 *16:s 2.31028e-18

*RES
0 *17:d *16:s 0.001  // $mwires

*END

*D_NET *32 7.97704e-18

*CONN
*I *13:s B *C 0.6600 1.2100 
*I *15:s B *C 0.6600 1.2100 

*CAP
0 *13:s 7.97704e-18

*RES
0 *15:s *13:s 0.001  // $mwires

*END

*D_NET *7 0

*CONN
*I *14:d B *C 0.4250 1.2100 
*I *13:d B *C 0.4250 1.2100 


*RES
0 *13:d *14:d 0.001  // $mwires

*END

*D_NET *5 5.34695e-16

*CONN
*I *35:d B *C 1.9900 0.4450 
*I *37:d B *C 2.4600 0.4450 
*I *40:d B *C 2.4600 0.4450 
*I *42:d B *C 2.9650 0.4450 
*I *44:s B *C 2.9650 0.4450 
*I *45:s B *C 3.4100 0.4450 
*I *46:s B *C 3.4100 0.4450 
*I *47:s B *C 3.8100 0.4450 
*I *48:d B *C 0.1200 0.4450 
*I *21:d B *C 0.5800 0.4450 
*I *22:d B *C 0.5800 0.4450 
*I *23:d B *C 1.0500 0.4450 
*I *24:d B *C 1.0500 0.4450 
*I *25:d B *C 1.5200 0.4450 
*I *26:d B *C 1.5200 0.4450 
*I *27:d B *C 1.9900 0.4450 

*CAP
0 *47:s 5.34695e-16


*END

