*SPEF "IEEE 1481-1999"
*DESIGN  "OAI33X4"
*DATE "Mon Sep 27 10:49:15 2010"
*VENDOR "Cadence Design Systems"
*PROGRAM "Assura RCX"
*VERSION "3.2 Red Hat Linux release 7.2 (Enigma) - (09/09/2009-10:39)"
*DESIGN_FLOW "Physical Verification"
*DIVIDER /
*DELIMITER :
*BUS_DELIMITER []
*T_UNIT 1 PS
*C_UNIT 1e15 FF
*R_UNIT 1 OHM
*L_UNIT 1 MH
// DeviceFingerDelim "@"
// MATCHED
// caps2d version: 10

*NAME_MAP
*1 mn0
*2 mn0\@1
*3 mn0\@2
*4 mn0\@3
*5 A0
*6 mn1\@2
*7 A1
*8 mn1\@3
*9 A2
*10 mp4\@1
*11 mp4\@2
*12 mp4\@3
*13 B0
*14 mp0
*15 B1
*16 mp0\@1
*17 B2
*18 mp0\@2
*19 mp0\@3
*20 mp1
*21 mp1\@1
*22 mp1\@2
*23 mp1\@3
*24 mp2
*25 VDD
*26 mp2\@1
*27 mp2\@2
*28 mp2\@3
*29 mn3
*30 mn3\@1
*31 mp5
*32 mn4
*33 mp5\@1
*34 mn4\@1
*35 VSS
*36 mp5\@2
*37 mn4\@2
*38 mp5\@3
*39 mn4\@3
*40 mp3
*41 mn5
*42 mp3\@1
*43 mn5\@1
*44 mp3\@2
*45 mn5\@2
*46 mp3\@3
*47 mp4
*48 Y
*49 n2
*50 n4
*51 n1
*52 n3
*53 no
*54 mn5\@3
*55 mn3\@2
*56 mn3\@3
*57 mn1
*58 mn1\@1
*59 mn2
*60 mn2\@1
*61 mn2\@2
*62 mn2\@3

*GROUND_NETS VSS

*PORTS
*25 I
*35 I
*5 I
*7 I
*9 I
*13 I
*15 I
*17 I
*48 O

*D_NET *25 6.05017e-16

*CONN
*P *25 I *C 0.1000 1.7100 
*I *47:d B *C 4.9450 1.1800 
*I *10:d B *C 4.9450 1.1800 
*I *11:d B *C 5.3550 1.1800 
*I *12:d B *C 5.3550 1.1800 
*I *14:s B *C 0.4150 1.1900 
*I *16:s B *C 0.4150 1.1900 
*I *18:s B *C 0.8250 1.1900 
*I *19:s B *C 0.8250 1.1900 
*N *25:3 *C 4.8000 1.7100 
*N *25:4 *C 4.8000 1.7100 
*N *25:5 *C 2.9000 1.7100 
*N *25:6 *C 1.0000 1.7100 

*CAP
0 *18:s 9.87047e-17
1 *11:d 1.02407e-16
2 *25:3 3.97571e-16
3 *25 6.33443e-18

*RES
0 *18:s *25 0.157415  // $metal1_conn
1 *25:3 *25:4 7.5  // $metal1_conn
2 *25:3 *25:5 8.333333  // $metal1_conn
3 *25:3 *25:6 7.5  // $metal1_conn
4 *11:d *25:4 0.072471  // $metal1_conn
5 *25:4 *25:5 0.952182  // $metal1_conn
6 *25:5 *25:6 0.952182  // $metal1_conn
7 *25:6 *18:s 0.087505  // $metal1_conn

*END

*D_NET *35 0

*CONN
*P *35 I *C 0.1000 0.0000 
*I *57:s B *C 1.8500 0.4350 
*I *58:s B *C 1.8500 0.4350 
*I *59:s B *C 2.2600 0.4350 
*I *60:s B *C 2.2600 0.4350 
*I *61:s B *C 2.6800 0.4350 
*I *62:s B *C 2.6800 0.4350 
*I *1:s B *C 0.6200 0.4350 
*I *2:s B *C 0.6200 0.4350 
*I *3:s B *C 1.0300 0.4350 
*I *4:s B *C 1.0300 0.4350 
*I *6:s B *C 1.4400 0.4350 
*I *8:s B *C 1.4400 0.4350 
*N *35:1 *C 4.8000 0.0000 
*N *35:2 *C 2.9000 0.0000 


*RES
0 *3:s *35 0.245116  // $metal1_conn
1 *35:1 *35:2 7.152182  // $metal1_conn
2 *35:1 *35:2 6.888889  // $metal1_conn
3 *35:1 *3:s 6.2  // $metal1_conn
4 *35:2 *61:s 0.125091  // $metal1_conn
5 *61:s *57:s 0.205079  // $metal1_conn
6 *57:s *3:s 0.205582  // $metal1_conn

*END

*D_NET *5 3.15457e-16

*CONN
*P *5 I *C 0.9000 0.8550 
*I *1:g B *C 0.5175 0.4350 
*I *2:g B *C 0.7225 0.4350 
*I *3:g B *C 0.9275 0.4350 
*I *4:g B *C 1.1325 0.4350 
*I *14:g B *C 0.3125 1.1900 
*I *16:g B *C 0.5175 1.1900 
*I *18:g B *C 0.7225 1.1900 
*I *19:g B *C 0.9275 1.1900 

*CAP
0 *5 3.15457e-16


*END

*D_NET *7 3.55961e-16

*CONN
*P *7 I *C 1.7000 0.8550 
*I *57:g B *C 1.7475 0.4350 
*I *58:g B *C 1.9525 0.4350 
*I *6:g B *C 1.3375 0.4350 
*I *8:g B *C 1.5425 0.4350 
*I *20:g B *C 1.1325 1.1900 
*I *21:g B *C 1.3375 1.1900 
*I *22:g B *C 1.5425 1.1900 
*I *23:g B *C 1.7475 1.1900 

*CAP
0 *7 3.55961e-16


*END

*D_NET *9 3.80268e-16

*CONN
*P *9 I *C 2.5000 0.8550 
*I *59:g B *C 2.1575 0.4350 
*I *60:g B *C 2.3625 0.4350 
*I *61:g B *C 2.5775 0.4350 
*I *62:g B *C 2.7825 0.4350 
*I *24:g B *C 2.1575 1.1500 
*I *26:g B *C 2.3625 1.1500 
*I *27:g B *C 2.5775 1.1500 
*I *28:g B *C 2.7825 1.1500 

*CAP
0 *9 3.80268e-16


*END

*D_NET *13 3.38701e-16

*CONN
*P *13 I *C 5.1000 0.8550 
*I *32:g B *C 4.6375 0.4350 
*I *34:g B *C 4.8425 0.4350 
*I *37:g B *C 5.0475 0.4350 
*I *39:g B *C 5.2525 0.4350 
*I *47:g B *C 4.8425 1.1800 
*I *10:g B *C 5.0475 1.1800 
*I *11:g B *C 5.2525 1.1800 
*I *12:g B *C 5.4575 1.1800 

*CAP
0 *13 3.38701e-16


*END

*D_NET *15 3.60188e-16

*CONN
*P *15 I *C 4.1000 0.8550 
*I *29:g B *C 4.2275 0.4350 
*I *30:g B *C 4.4325 0.4350 
*I *55:g B *C 3.8175 0.4350 
*I *56:g B *C 4.0225 0.4350 
*I *40:g B *C 4.0225 1.1800 
*I *42:g B *C 4.2275 1.1800 
*I *44:g B *C 4.4325 1.1800 
*I *46:g B *C 4.6375 1.1800 

*CAP
0 *15 3.60188e-16


*END

*D_NET *17 3.55857e-16

*CONN
*P *17 I *C 3.3000 0.8550 
*I *41:g B *C 2.9875 0.4350 
*I *43:g B *C 3.1925 0.4350 
*I *45:g B *C 3.4075 0.4350 
*I *54:g B *C 3.6125 0.4350 
*I *31:g B *C 2.9875 1.1500 
*I *33:g B *C 3.1925 1.1500 
*I *36:g B *C 3.4075 1.1500 
*I *38:g B *C 3.6125 1.1500 

*CAP
0 *17 3.55857e-16


*END

*D_NET *48 1.03505e-15

*CONN
*P *48 O *C 2.1000 0.8550 
*I *29:d B *C 4.3300 0.4350 
*I *30:d B *C 4.3300 0.4350 
*I *32:d B *C 4.7400 0.4350 
*I *34:d B *C 4.7400 0.4350 
*I *37:d B *C 5.1500 0.4350 
*I *39:d B *C 5.1500 0.4350 
*I *41:d B *C 3.0900 0.4350 
*I *43:d B *C 3.0900 0.4350 
*I *45:d B *C 3.5100 0.4350 
*I *54:d B *C 3.5100 0.4350 
*I *55:d B *C 3.9200 0.4350 
*I *56:d B *C 3.9200 0.4350 
*I *31:d B *C 2.8850 1.1500 
*I *33:d B *C 3.3000 1.1500 
*I *36:d B *C 3.3000 1.1500 
*I *38:d B *C 3.7050 1.1500 
*I *24:d B *C 2.0650 1.1500 
*I *26:d B *C 2.4700 1.1500 
*I *27:d B *C 2.4700 1.1500 
*I *28:d B *C 2.8850 1.1500 
*N *48:13 *C 2.1350 0.8550 

*CAP
0 *38:d 3.75672e-16
1 *41:d 2.10502e-16
2 *32:d 1.42562e-16
3 *29:d 1.6087e-16
4 *48:13 1.31406e-16
5 *48 1.40413e-17

*RES
0 *48:13 *48 0.0027  // $metal1_conn
1 *32:d *29:d 0.283043  // $metal1_conn
2 *29:d *41:d 0.283043  // $metal1_conn
3 *41:d *48:13 0.937353  // $metal1_conn
4 *48:13 *38:d 0.106851  // $metal1_conn

*END

*D_NET *53 8.67709e-16

*CONN
*I *29:s B *C 4.1250 0.4350 
*I *30:s B *C 4.5350 0.4350 
*I *32:s B *C 4.5350 0.4350 
*I *34:s B *C 4.9450 0.4350 
*I *37:s B *C 4.9450 0.4350 
*I *39:s B *C 5.3450 0.4350 
*I *41:s B *C 2.8850 0.4350 
*I *43:s B *C 3.3000 0.4350 
*I *45:s B *C 3.3000 0.4350 
*I *54:s B *C 3.7150 0.4350 
*I *55:s B *C 3.7150 0.4350 
*I *56:s B *C 4.1250 0.4350 
*I *57:d B *C 1.6450 0.4350 
*I *58:d B *C 2.0550 0.4350 
*I *59:d B *C 2.0550 0.4350 
*I *60:d B *C 2.4700 0.4350 
*I *61:d B *C 2.4700 0.4350 
*I *62:d B *C 2.8850 0.4350 
*I *1:d B *C 0.4250 0.4350 
*I *2:d B *C 0.8250 0.4350 
*I *3:d B *C 0.8250 0.4350 
*I *4:d B *C 1.2350 0.4350 
*I *6:d B *C 1.2350 0.4350 
*I *8:d B *C 1.6450 0.4350 

*CAP
0 *39:s 8.67709e-16


*END

*D_NET *52 3.43589e-16

*CONN
*I *40:d B *C 3.9300 1.1800 
*I *42:d B *C 4.3300 1.1800 
*I *44:d B *C 4.3300 1.1800 
*I *46:d B *C 4.7400 1.1800 
*I *47:s B *C 4.7400 1.1800 
*I *10:s B *C 5.1500 1.1800 
*I *11:s B *C 5.1500 1.1800 
*I *12:s B *C 5.5500 1.1800 

*CAP
0 *12:s 3.43589e-16


*END

*D_NET *51 3.42955e-16

*CONN
*I *14:d B *C 0.2200 1.1900 
*I *16:d B *C 0.6200 1.1900 
*I *18:d B *C 0.6200 1.1900 
*I *19:d B *C 1.0300 1.1900 
*I *20:s B *C 1.0300 1.1900 
*I *21:s B *C 1.4400 1.1900 
*I *22:s B *C 1.4400 1.1900 
*I *23:s B *C 1.8400 1.1900 

*CAP
0 *23:s 3.42955e-16


*END

*D_NET *50 2.4943e-16

*CONN
*I *31:s B *C 3.0900 1.1500 
*I *33:s B *C 3.0900 1.1500 
*I *36:s B *C 3.5100 1.1500 
*I *38:s B *C 3.5100 1.1500 
*I *40:s B *C 4.1250 1.1800 
*I *42:s B *C 4.1250 1.1800 
*I *44:s B *C 4.5350 1.1800 
*I *46:s B *C 4.5350 1.1800 

*CAP
0 *44:s 1.1937e-16
1 *36:s 1.30061e-16

*RES
0 *44:s *36:s 0.40818  // $metal1_conn

*END

*D_NET *49 2.56742e-16

*CONN
*I *20:d B *C 1.2350 1.1900 
*I *21:d B *C 1.2350 1.1900 
*I *22:d B *C 1.6450 1.1900 
*I *23:d B *C 1.6450 1.1900 
*I *24:s B *C 2.2600 1.1500 
*I *26:s B *C 2.2600 1.1500 
*I *27:s B *C 2.6800 1.1500 
*I *28:s B *C 2.6800 1.1500 

*CAP
0 *27:s 1.32818e-16
1 *22:d 1.23924e-16

*RES
0 *27:s *22:d 0.409607  // $metal1_conn

*END

