*SPEF "IEEE 1481-1999"
*DESIGN  "OAI32X4"
*DATE "Mon Sep 27 10:47:44 2010"
*VENDOR "Cadence Design Systems"
*PROGRAM "Assura RCX"
*VERSION "3.2 Red Hat Linux release 7.2 (Enigma) - (09/09/2009-10:39)"
*DESIGN_FLOW "Physical Verification"
*DIVIDER /
*DELIMITER :
*BUS_DELIMITER []
*T_UNIT 1 PS
*C_UNIT 1e15 FF
*R_UNIT 1 OHM
*L_UNIT 1 MH
// DeviceFingerDelim "@"
// MATCHED
// caps2d version: 10

*NAME_MAP
*1 mn2\@1
*2 mn2\@2
*3 mn1\@2
*4 mn0\@2
*5 mn0\@3
*6 mn1\@3
*7 B0
*8 B1
*9 mn2\@3
*10 mp4\@3
*11 mp3\@3
*12 mp0\@1
*13 mp1\@1
*14 mp2\@1
*15 mp2\@2
*16 mp1\@2
*17 mp0\@2
*18 mp0\@3
*19 mp1\@3
*20 n1\@2
*21 mp2
*22 n1\@3
*23 mp1
*24 n1\@4
*25 mp0
*26 n1\@5
*27 mp3
*28 n1\@6
*29 mp4
*30 n1\@7
*31 mp4\@1
*32 n1
*33 mp3\@1
*34 n1\@1
*35 mp2\@3
*36 mp3\@2
*37 n4
*38 mp4\@2
*39 n4\@1
*40 n4\@2
*41 n4\@3
*42 VSS
*43 mn1
*44 mn0
*45 mn3
*46 mn4
*47 mn4\@1
*48 VDD
*49 mn3\@1
*50 mn3\@2
*51 mn4\@2
*52 mn4\@3
*53 A0
*54 n0
*55 A1
*56 A2
*57 Y
*58 mn3\@3
*59 mn2
*60 mn0\@1
*61 mn1\@1

*GROUND_NETS VSS

*PORTS
*48 I
*42 I
*53 I
*55 I
*56 I
*7 I
*8 I
*57 O

*D_NET *48 5.10686e-16

*CONN
*P *48 I *C 0.1000 1.7100 
*I *25:s B *C 2.9800 1.2100 
*I *27:s B *C 2.9800 1.2100 
*I *33:s B *C 3.5900 1.2100 
*I *36:s B *C 3.5900 1.2100 
*I *11:s B *C 4.2000 1.2100 
*I *12:s B *C 0.3150 1.2100 
*I *17:s B *C 1.6250 1.2100 
*I *18:s B *C 1.6250 1.2100 
*N *48:2 *C 3.6000 1.7100 
*N *48:3 *C 3.6000 1.7100 
*N *48:4 *C 2.8650 1.7100 
*N *48:5 *C 1.5950 1.7100 
*N *48:6 *C 1.2000 1.7100 
*N *48:7 *C 0.3050 1.7100 

*CAP
0 *17:s 4.411e-17
1 *12:s 2.46061e-17
2 *11:s 2.91151e-17
3 *33:s 3.6025e-17
4 *25:s 3.2462e-17
5 *48:7 1.45541e-17
6 *48:5 3.06645e-17
7 *48:4 3.09266e-17
8 *48:2 2.67743e-16
9 *48 4.79374e-19

*RES
0 *11:s *48:3 62.573193  // $metal1_conn
1 *48:3 *48:4 0.367351  // $metal1_conn
2 *48:4 *48:5 0.634689  // $metal1_conn
3 *48:5 *48:6 0.197329  // $metal1_conn
4 *48:6 *48:7 0.447361  // $metal1_conn
5 *48:7 *48 0.102067  // $metal1_conn
6 *48:3 *33:s 62.228378  // $metal1_conn
7 *48:4 *25:s 62.179268  // $metal1_conn
8 *48:5 *17:s 62.21891  // $metal1_conn
9 *48:7 *12:s 62.222553  // $metal1_conn
10 *48:2 *48:3 6.25  // $metal1_conn
11 *48:2 *48:6 6.25  // $metal1_conn

*END

*D_NET *42 0

*CONN
*P *42 I *C 0.1000 0.0000 
*I *43:s B *C 2.7700 0.4450 
*I *44:s B *C 2.7700 0.4450 
*I *59:s B *C 2.3000 0.4450 
*I *60:s B *C 0.4200 0.4450 
*I *61:s B *C 0.4200 0.4450 
*I *1:s B *C 0.8900 0.4450 
*I *2:s B *C 0.8900 0.4450 
*I *3:s B *C 1.3600 0.4450 
*I *4:s B *C 1.3600 0.4450 
*I *5:s B *C 1.8300 0.4450 
*I *6:s B *C 1.8300 0.4450 
*I *9:s B *C 2.3000 0.4450 
*N *42:1 *C 3.6000 0.0000 


*RES
0 *43:s *42 0.102067  // $metal1_conn
1 *42:1 *43:s 5.639031  // $metal1_conn
2 *42:1 *43:s 5.166667  // $metal1_conn

*END

*D_NET *53 1.08895e-15

*CONN
*P *53 I *C 0.3000 0.8550 
*I *44:g B *C 2.8175 0.4450 
*I *60:g B *C 0.2025 0.4450 
*I *4:g B *C 1.4075 0.4450 
*I *5:g B *C 1.6125 0.4450 
*I *25:g B *C 2.7625 1.2100 
*I *12:g B *C 0.4075 1.2100 
*I *17:g B *C 1.5225 1.2100 
*I *18:g B *C 1.7275 1.2100 

*CAP
0 *18:g 7.62584e-17
1 *17:g 1.97106e-17
2 *12:g 6.01997e-17
3 *25:g 4.95392e-17
4 *44:g 8.68178e-16
5 *53 1.50623e-17

*RES
0 *44:g *25:g 16.15522  // $poly_conn
1 *18:g *44:g 70.215561  // $poly_conn
2 *44:g *17:g 16.15522  // $poly_conn
3 *12:g *44:g 30.413  // $poly_conn
4 *44:g *53 0.030656  // $metal1_conn

*END

*D_NET *55 1.07383e-15

*CONN
*P *55 I *C 0.7000 0.8550 
*I *43:g B *C 2.5525 0.4450 
*I *61:g B *C 0.4675 0.4450 
*I *3:g B *C 1.1425 0.4450 
*I *6:g B *C 1.8775 0.4450 
*I *23:g B *C 2.5525 1.2100 
*I *13:g B *C 0.5125 1.2100 
*I *16:g B *C 1.1425 1.2100 
*I *19:g B *C 1.8325 1.2100 

*CAP
0 *19:g 7.46942e-17
1 *16:g 7.17901e-17
2 *13:g 7.35903e-17
3 *23:g 4.41622e-17
4 *55 8.0959e-16

*RES
0 *23:g *55 29.948362  // $poly_conn
1 *55 *19:g 27.655087  // $poly_conn
2 *16:g *55 35.076569  // $poly_conn
3 *13:g *55 35.076569  // $poly_conn

*END

*D_NET *56 6.5323e-16

*CONN
*P *56 I *C 1.1000 0.6650 
*I *59:g B *C 2.3475 0.4450 
*I *1:g B *C 0.6725 0.4450 
*I *2:g B *C 0.9375 0.4450 
*I *9:g B *C 2.0825 0.4450 
*I *21:g B *C 2.2875 1.2100 
*I *14:g B *C 0.8325 1.2100 
*I *15:g B *C 1.0375 1.2100 
*I *35:g B *C 2.0825 1.2100 
*N *56:2 *C 0.9375 0.9175 
*N *56:10 *C 2.0825 0.9175 

*CAP
0 *35:g 2.72741e-17
1 *15:g 6.28771e-17
2 *14:g 2.63026e-17
3 *21:g 3.79421e-17
4 *56:10 2.14252e-17
5 *56:2 3.40033e-17
6 *56 4.43406e-16

*RES
0 *56:10 *21:g 66.950577  // $poly_conn
1 *56:10 *35:g 23.847994  // $poly_conn
2 *15:g *56:2 43.575005  // $poly_conn
3 *56:2 *14:g 44.857056  // $poly_conn
4 *56 *56:10 51.541676  // $poly_conn
5 *56:2 *56 47.994167  // $poly_conn

*END

*D_NET *7 8.5903e-16

*CONN
*P *7 I *C 4.3000 0.8545 
*I *45:g B *C 3.0225 0.4450 
*I *49:g B *C 3.6375 0.4450 
*I *50:g B *C 3.8425 0.4450 
*I *58:g B *C 4.4575 0.4450 
*I *27:g B *C 3.0275 1.2100 
*I *33:g B *C 3.4875 1.2100 
*I *36:g B *C 3.6925 1.2100 
*I *11:g B *C 4.1075 1.2100 

*CAP
0 *11:g 5.69487e-17
1 *36:g 5.57506e-17
2 *33:g 7.23144e-17
3 *27:g 6.0435e-17
4 *58:g 5.91105e-16
5 *7 2.24767e-17

*RES
0 *58:g *11:g 16.15522  // $poly_conn
1 *58:g *36:g 16.15522  // $poly_conn
2 *58:g *33:g 50.423443  // $poly_conn
3 *27:g *58:g 17.398676  // $poly_conn
4 *7 *58:g 0.103362  // $metal1_conn

*END

*D_NET *8 6.58677e-16

*CONN
*P *8 I *C 3.9000 0.8550 
*I *46:g B *C 3.2275 0.4450 
*I *47:g B *C 3.4325 0.4450 
*I *51:g B *C 4.0475 0.4450 
*I *52:g B *C 4.2525 0.4450 
*I *29:g B *C 3.1775 1.2100 
*I *31:g B *C 3.3825 1.2100 
*I *38:g B *C 3.7975 1.2100 
*I *10:g B *C 4.0025 1.2100 
*N *8:3 *C 3.3550 0.8225 

*CAP
0 *10:g 6.26331e-17
1 *38:g 6.90003e-17
2 *31:g 6.56584e-17
3 *29:g 5.85883e-17
4 *8:3 6.04966e-17
5 *8 3.423e-16

*RES
0 *8 *10:g 35.103935  // $poly_conn
1 *8 *38:g 66.651459  // $poly_conn
2 *8:3 *31:g 49.709343  // $poly_conn
3 *8:3 *29:g 79.143524  // $poly_conn
4 *8 *8:3 4.400733  // $poly_conn

*END

*D_NET *57 9.59738e-16

*CONN
*P *57 O *C 2.5000 1.2350 
*I *45:d B *C 3.1250 0.4450 
*I *46:d B *C 3.1250 0.4450 
*I *47:d B *C 3.5350 0.4450 
*I *49:d B *C 3.5350 0.4450 
*I *50:d B *C 3.9450 0.4450 
*I *51:d B *C 3.9450 0.4450 
*I *52:d B *C 4.3550 0.4450 
*I *58:d B *C 4.3550 0.4450 
*I *21:d B *C 2.1850 1.2100 
*I *29:d B *C 3.2800 1.2100 
*I *31:d B *C 3.2800 1.2100 
*I *38:d B *C 3.9000 1.2100 
*I *10:d B *C 3.9000 1.2100 
*I *14:d B *C 0.9350 1.2100 
*I *15:d B *C 0.9350 1.2100 
*I *35:d B *C 2.1850 1.2100 
*N *57:9 *C 2.8850 1.1850 
*N *57:10 *C 2.5000 1.1850 
*N *57:12 *C 2.1850 1.2150 
*N *57:15 *C 3.2800 1.2150 

*CAP
0 *14:d 1.2539e-16
1 *38:d 7.78065e-17
2 *29:d 9.49557e-17
3 *21:d 1.49751e-16
4 *52:d 3.39975e-16
5 *57:10 5.72232e-17
6 *57:9 1.02823e-16
7 *57 1.18127e-17

*RES
0 *57:10 *57 0.009662  // $metal1_conn
1 *57:15 *38:d 62.454494  // $metal1_conn
2 *29:d *57:15 62  // $metal1_conn
3 *21:d *57:12 62  // $metal1_conn
4 *57:12 *14:d 62.917004  // $metal1_conn
5 *52:d *57:9 0.57349  // $metal1_conn
6 *57:9 *57:10 0.299865  // $metal1_conn
7 *57:9 *57:15 0.285692  // $metal1_conn
8 *57:10 *57:12 0.242551  // $metal1_conn

*END

*D_NET *41 1.54387e-18

*CONN
*I *10:s B *C 4.0550 1.2100 
*I *11:d B *C 4.0550 1.2100 

*CAP
0 *10:s 1.54387e-18

*RES
0 *11:d *10:s 0.001  // $mwires

*END

*D_NET *40 2.44041e-18

*CONN
*I *36:d B *C 3.7450 1.2100 
*I *38:s B *C 3.7450 1.2100 

*CAP
0 *36:d 2.44041e-18

*RES
0 *38:s *36:d 0.001  // $mwires

*END

*D_NET *39 2.44041e-18

*CONN
*I *31:s B *C 3.4350 1.2100 
*I *33:d B *C 3.4350 1.2100 

*CAP
0 *31:s 2.44041e-18

*RES
0 *33:d *31:s 0.001  // $mwires

*END

*D_NET *37 4.02544e-18

*CONN
*I *27:d B *C 3.1025 1.2100 
*I *29:s B *C 3.1025 1.2100 

*CAP
0 *27:d 4.02544e-18

*RES
0 *29:s *27:d 0.001  // $mwires

*END

*D_NET *34 6.96574e-18

*CONN
*I *23:s B *C 2.6575 1.2100 
*I *25:d B *C 2.6575 1.2100 

*CAP
0 *23:s 6.96574e-18

*RES
0 *25:d *23:s 0.001  // $mwires

*END

*D_NET *32 9.26711e-18

*CONN
*I *21:s B *C 2.4200 1.2100 
*I *23:d B *C 2.4200 1.2100 

*CAP
0 *21:s 9.26711e-18

*RES
0 *23:d *21:s 0.001  // $mwires

*END

*D_NET *30 9.10776e-18

*CONN
*I *19:s B *C 1.9575 1.2100 
*I *35:s B *C 1.9575 1.2100 

*CAP
0 *19:s 9.10776e-18

*RES
0 *35:s *19:s 0.001  // $mwires

*END

*D_NET *28 2.44041e-18

*CONN
*I *18:d B *C 1.7800 1.2100 
*I *19:d B *C 1.7800 1.2100 

*CAP
0 *18:d 2.44041e-18

*RES
0 *19:d *18:d 0.001  // $mwires

*END

*D_NET *26 1.47041e-17

*CONN
*I *16:s B *C 1.3325 1.2100 
*I *17:d B *C 1.3325 1.2100 

*CAP
0 *16:s 1.47041e-17

*RES
0 *17:d *16:s 0.001  // $mwires

*END

*D_NET *24 2.44041e-18

*CONN
*I *15:s B *C 1.0900 1.2100 
*I *16:d B *C 1.0900 1.2100 

*CAP
0 *15:s 2.44041e-18

*RES
0 *16:d *15:s 0.001  // $mwires

*END

*D_NET *22 8.06998e-18

*CONN
*I *13:s B *C 0.6725 1.2100 
*I *14:s B *C 0.6725 1.2100 

*CAP
0 *13:s 8.06998e-18

*RES
0 *14:s *13:s 0.001  // $mwires

*END

*D_NET *20 1.56659e-18

*CONN
*I *12:d B *C 0.4600 1.2100 
*I *13:d B *C 0.4600 1.2100 

*CAP
0 *12:d 1.56659e-18

*RES
0 *13:d *12:d 0.001  // $mwires

*END

*D_NET *54 6.67405e-16

*CONN
*I *43:d B *C 2.4500 0.4450 
*I *44:d B *C 2.9200 0.4450 
*I *45:s B *C 2.9200 0.4450 
*I *46:s B *C 3.3300 0.4450 
*I *47:s B *C 3.3300 0.4450 
*I *49:s B *C 3.7400 0.4450 
*I *50:s B *C 3.7400 0.4450 
*I *51:s B *C 4.1500 0.4450 
*I *52:s B *C 4.1500 0.4450 
*I *58:s B *C 4.5500 0.4450 
*I *59:d B *C 2.4500 0.4450 
*I *60:d B *C 0.1100 0.4450 
*I *61:d B *C 0.5700 0.4450 
*I *1:d B *C 0.5700 0.4450 
*I *2:d B *C 1.0400 0.4450 
*I *3:d B *C 1.0400 0.4450 
*I *4:d B *C 1.5100 0.4450 
*I *5:d B *C 1.5100 0.4450 
*I *6:d B *C 1.9800 0.4450 
*I *9:d B *C 1.9800 0.4450 

*CAP
0 *58:s 6.67405e-16


*END

