*SPEF "IEEE 1481-1999"
*DESIGN  "OAI32X2"
*DATE "Mon Sep 27 10:47:20 2010"
*VENDOR "Cadence Design Systems"
*PROGRAM "Assura RCX"
*VERSION "3.2 Red Hat Linux release 7.2 (Enigma) - (09/09/2009-10:39)"
*DESIGN_FLOW "Physical Verification"
*DIVIDER /
*DELIMITER :
*BUS_DELIMITER []
*T_UNIT 1 PS
*C_UNIT 1e15 FF
*R_UNIT 1 OHM
*L_UNIT 1 MH
// DeviceFingerDelim "@"
// MATCHED
// caps2d version: 10

*NAME_MAP
*1 VDD
*2 mn0
*3 mn1
*4 B0
*5 mn2
*6 B1
*7 mn2\@1
*8 mn1\@1
*9 VSS
*10 mp3\@1
*11 mn0\@1
*12 mn3
*13 mn4
*14 mn4\@1
*15 n1
*16 n1\@1
*17 n1\@2
*18 n1\@3
*19 n4
*20 n4\@1
*21 Y
*22 mp0
*23 n0
*24 mp1
*25 mp2
*26 A0
*27 mp2\@1
*28 A1
*29 mp1\@1
*30 A2
*31 mp0\@1
*32 mp3
*33 mp4
*34 mp4\@1
*35 mn3\@1

*GROUND_NETS VSS

*PORTS
*1 I
*9 I
*26 I
*28 I
*30 I
*4 I
*6 I
*21 O

*D_NET *1 2.72173e-16

*CONN
*P *1 I *C 0.1000 1.7100 
*I *22:s B *C 0.3050 1.1700 
*I *31:s B *C 1.6025 1.1700 
*I *32:s B *C 1.6025 1.1700 
*I *10:s B *C 2.2200 1.1700 
*N *1:2 *C 2.0000 1.7100 
*N *1:3 *C 2.0000 1.7100 
*N *1:4 *C 1.4500 1.7100 
*N *1:5 *C 0.7000 1.7100 
*N *1:6 *C 0.2950 1.7100 

*CAP
0 *10:s 3.47206e-17
1 *31:s 3.69038e-17
2 *22:s 4.58739e-17
3 *1:6 5.12269e-18
4 *1:4 1.66492e-17
5 *1:2 1.32698e-16
6 *1 2.04694e-19

*RES
0 *10:s *1:3 21.143843  // $metal1_conn
1 *1:3 *1:4 0.275298  // $metal1_conn
2 *1:4 *1:5 0.375477  // $metal1_conn
3 *1:5 *1:6 0.202668  // $metal1_conn
4 *1:6 *1 0.097229  // $metal1_conn
5 *1:4 *31:s 62.159897  // $metal1_conn
6 *1:6 *22:s 21.005802  // $metal1_conn
7 *1:2 *1:3 12.5  // $metal1_conn
8 *1:2 *1:5 10.714286  // $metal1_conn

*END

*D_NET *9 0

*CONN
*P *9 I *C 0.1000 0.0000 
*I *2:s B *C 0.4450 0.4150 
*I *3:s B *C 0.4450 0.4150 
*I *5:s B *C 0.9150 0.4150 
*I *7:s B *C 0.9150 0.4150 
*I *8:s B *C 1.3850 0.4150 
*I *11:s B *C 1.3850 0.4150 
*N *9:1 *C 2.0000 0.0000 


*RES
0 *8:s *9 0.11476  // $metal1_conn
1 *9:1 *8:s 10.698792  // $metal1_conn
2 *9:1 *8:s 8.857142  // $metal1_conn
3 *8:s *5:s 75.097031  // $metal1_conn

*END

*D_NET *26 6.11173e-16

*CONN
*P *26 I *C 1.3000 0.6650 
*I *2:g B *C 0.2275 0.4150 
*I *11:g B *C 1.4325 0.4150 
*I *22:g B *C 0.3975 1.1700 
*I *31:g B *C 1.3475 1.1700 

*CAP
0 *31:g 6.03727e-17
1 *22:g 8.26549e-17
2 *26 4.68145e-16

*RES
0 *26 *31:g 68.719322  // $poly_conn
1 *22:g *26 83.520584  // $poly_conn

*END

*D_NET *28 5.31753e-16

*CONN
*P *28 I *C 0.9000 0.8550 
*I *3:g B *C 0.4925 0.4150 
*I *8:g B *C 1.1675 0.4150 
*I *24:g B *C 0.5025 1.1700 
*I *29:g B *C 1.1675 1.1700 

*CAP
0 *29:g 5.71626e-17
1 *24:g 9.07513e-17
2 *8:g 3.58137e-16
3 *28 2.57016e-17

*RES
0 *29:g *8:g 53.296108  // $poly_conn
1 *24:g *8:g 60.119781  // $poly_conn
2 *28 *8:g 0.053593  // $metal1_conn

*END

*D_NET *30 2.88674e-16

*CONN
*P *30 I *C 0.5000 1.0450 
*I *5:g B *C 0.6975 0.4150 
*I *7:g B *C 0.9625 0.4150 
*I *25:g B *C 0.7375 1.1700 
*I *27:g B *C 0.9425 1.1700 
*N *30:3 *C 0.7000 0.8750 

*CAP
0 *27:g 3.90796e-17
1 *25:g 2.47596e-17
2 *7:g 9.79025e-17
3 *30:3 7.33113e-17
4 *30 5.36212e-17

*RES
0 *30:3 *27:g 70.215569  // $poly_conn
1 *30:3 *25:g 16.15522  // $poly_conn
2 *7:g *30:3 45.430065  // $poly_conn
3 *30:3 *30 45.200912  // $metal1_conn

*END

*D_NET *4 4.92185e-16

*CONN
*P *4 I *C 1.7000 0.8550 
*I *12:g B *C 1.6875 0.4150 
*I *35:g B *C 2.3025 0.4150 
*I *32:g B *C 1.6875 1.1700 
*I *10:g B *C 2.1275 1.1700 

*CAP
0 *10:g 6.90322e-17
1 *32:g 8.5894e-17
2 *35:g 3.0517e-16
3 *4 3.20888e-17

*RES
0 *35:g *10:g 70.471977  // $poly_conn
1 *32:g *35:g 63.281693  // $poly_conn
2 *35:g *4 0.090582  // $metal1_conn

*END

*D_NET *6 3.35514e-16

*CONN
*P *6 I *C 1.9000 1.0450 
*I *13:g B *C 1.8925 0.4150 
*I *14:g B *C 2.0975 0.4150 
*I *33:g B *C 1.7925 1.1700 
*I *34:g B *C 1.9975 1.1700 
*N *6:3 *C 1.9200 0.8550 

*CAP
0 *34:g 4.58757e-17
1 *33:g 6.05477e-17
2 *14:g 8.81105e-17
3 *6:3 1.04542e-16
4 *6 3.64381e-17

*RES
0 *6:3 *34:g 28.097212  // $poly_conn
1 *6:3 *33:g 37.518135  // $poly_conn
2 *14:g *6:3 40.301857  // $poly_conn
3 *6 *6:3 45.100079  // $metal1_conn

*END

*D_NET *21 4.61518e-16

*CONN
*P *21 O *C 1.3000 1.0450 
*I *12:d B *C 1.7900 0.4150 
*I *13:d B *C 1.7900 0.4150 
*I *14:d B *C 2.2000 0.4150 
*I *35:d B *C 2.2000 0.4150 
*I *25:d B *C 0.8400 1.1700 
*I *27:d B *C 0.8400 1.1700 
*I *33:d B *C 1.8950 1.1700 
*I *34:d B *C 1.8950 1.1700 
*N *21:5 *C 1.4700 1.0450 
*N *21:7 *C 0.8400 1.0850 

*CAP
0 *33:d 6.18558e-17
1 *25:d 5.37943e-17
2 *14:d 2.17157e-16
3 *21:5 9.47744e-17
4 *21 3.39361e-17

*RES
0 *21:5 *21 0.086574  // $metal1_conn
1 *21 *21:7 0.314568  // $metal1_conn
2 *21:5 *33:d 62.444832  // $metal1_conn
3 *21:7 *25:d 62.145771  // $metal1_conn
4 *25:d *21:7 62  // $metal1_conn
5 *14:d *21:5 0.616954  // $metal1_conn

*END

*D_NET *20 0

*CONN
*I *34:s B *C 2.0625 1.1700 
*I *10:d B *C 2.0625 1.1700 


*RES
0 *10:d *34:s 0.001  // $mwires

*END

*D_NET *19 1.71951e-18

*CONN
*I *32:d B *C 1.7400 1.1700 
*I *33:s B *C 1.7400 1.1700 

*CAP
0 *32:d 1.71951e-18

*RES
0 *33:s *32:d 0.001  // $mwires

*END

*D_NET *18 4.66173e-18

*CONN
*I *29:s B *C 1.2575 1.1700 
*I *31:d B *C 1.2575 1.1700 

*CAP
0 *29:s 4.66173e-18

*RES
0 *31:d *29:s 0.001  // $mwires

*END

*D_NET *17 6.06395e-18

*CONN
*I *27:s B *C 1.0550 1.1700 
*I *29:d B *C 1.0550 1.1700 

*CAP
0 *27:s 6.06395e-18

*RES
0 *29:d *27:s 0.001  // $mwires

*END

*D_NET *16 1.52163e-18

*CONN
*I *24:s B *C 0.6200 1.1700 
*I *25:s B *C 0.6200 1.1700 

*CAP
0 *24:s 1.52163e-18

*RES
0 *25:s *24:s 0.001  // $mwires

*END

*D_NET *15 1.24857e-18

*CONN
*I *22:d B *C 0.4500 1.1700 
*I *24:d B *C 0.4500 1.1700 

*CAP
0 *22:d 1.24857e-18

*RES
0 *24:d *22:d 0.001  // $mwires

*END

*D_NET *23 4.18414e-16

*CONN
*I *2:d B *C 0.1350 0.4150 
*I *3:d B *C 0.5950 0.4150 
*I *5:d B *C 0.5950 0.4150 
*I *7:d B *C 1.0650 0.4150 
*I *8:d B *C 1.0650 0.4150 
*I *11:d B *C 1.5600 0.4150 
*I *12:s B *C 1.5600 0.4150 
*I *13:s B *C 1.9950 0.4150 
*I *14:s B *C 1.9950 0.4150 
*I *35:s B *C 2.3950 0.4150 

*CAP
0 *35:s 3.38174e-16
1 *13:s 8.02397e-17

*RES
0 *13:s *35:s 75  // $metal1_conn

*END

