*SPEF "IEEE 1481-1999"
*DESIGN  "OAI32XL"
*DATE "Mon Sep 27 10:48:07 2010"
*VENDOR "Cadence Design Systems"
*PROGRAM "Assura RCX"
*VERSION "3.2 Red Hat Linux release 7.2 (Enigma) - (09/09/2009-10:39)"
*DESIGN_FLOW "Physical Verification"
*DIVIDER /
*DELIMITER :
*BUS_DELIMITER []
*T_UNIT 1 PS
*C_UNIT 1e15 FF
*R_UNIT 1 OHM
*L_UNIT 1 MH
// DeviceFingerDelim "@"
// MATCHED
// caps2d version: 10

*NAME_MAP
*1 mp4
*2 mp3
*3 mn0
*4 Y
*5 mn1
*6 mn2
*7 mn4
*8 mn3
*9 n1
*10 VDD
*11 n2
*12 n0
*13 n4
*14 B0
*15 B1
*16 VSS
*17 A0
*18 A1
*19 A2
*20 mp0
*21 mp1
*22 mp2

*GROUND_NETS VSS

*PORTS
*10 I
*16 I
*17 I
*18 I
*19 I
*14 I
*15 I
*4 O

*D_NET *10 1.95205e-16

*CONN
*P *10 I *C 0.1000 1.7100 
*I *20:s B *C 0.2750 1.2225 
*I *2:s B *C 1.5200 1.2225 
*N *10:2 *C 0.9000 1.7100 
*N *10:3 *C 0.9000 1.7100 
*N *10:4 *C 0.2650 1.7100 

*CAP
0 *2:s 3.61502e-17
1 *20:s 2.66365e-17
2 *10:4 9.80764e-18
3 *10:2 1.22611e-16

*RES
0 *2:s *10:3 62.611298  // $metal1_conn
1 *10:3 *10:4 0.316291  // $metal1_conn
2 *10:4 *10 0.081792  // $metal1_conn
3 *10:4 *20:s 62.270584  // $metal1_conn
4 *10:2 *10:3 8.333333  // $metal1_conn

*END

*D_NET *16 0

*CONN
*P *16 I *C 0.1000 0.0000 
*I *3:s B *C 0.2750 0.4625 
*I *5:s B *C 0.6750 0.4625 
*I *6:s B *C 0.6750 0.4625 
*N *16:1 *C 0.9000 0.0000 
*N *16:2 *C 0.6450 0.0000 
*N *16:3 *C 0.2650 0.0000 


*RES
0 *16:1 *16:2 7.015787  // $metal1_conn
1 *16:2 *16:3 0.189003  // $metal1_conn
2 *16:3 *16 0.081792  // $metal1_conn
3 *16:2 *5:s 75.293419  // $metal1_conn
4 *16:3 *3:s 75.279709  // $metal1_conn

*END

*D_NET *17 1.87833e-16

*CONN
*P *17 I *C 0.3000 1.0450 
*I *3:g B *C 0.3675 0.4625 
*I *20:g B *C 0.3675 1.2225 
*N *17:2 *C 0.3675 0.6700 
*N *17:3 *C 0.3100 0.6700 

*CAP
0 *20:g 3.88985e-17
1 *3:g 2.39191e-17
2 *17:2 3.71253e-17
3 *17:3 4.49552e-17
4 *17 4.2935e-17

*RES
0 *20:g *17:2 110.791527  // $poly_conn
1 *17:2 *17:3 45.778431  // $poly_conn
2 *17:2 *3:g 31.304344  // $poly_conn
3 *17 *17:3 0.223464  // $metal1_conn

*END

*D_NET *18 2.39111e-16

*CONN
*P *18 I *C 0.5000 0.8550 
*I *5:g B *C 0.5725 0.4625 
*I *21:g B *C 0.5725 1.2225 
*N *18:2 *C 0.5300 0.8500 
*N *18:4 *C 0.5300 0.8500 

*CAP
0 *21:g 4.38046e-17
1 *5:g 4.4408e-17
2 *18:2 6.00189e-17
3 *18 9.08797e-17

*RES
0 *21:g *18:2 58.462914  // $poly_conn
1 *18:2 *5:g 71.283424  // $poly_conn
2 *18 *18:4 0.003944  // $metal1_conn
3 *18:2 *18:4 45  // $metal1_conn

*END

*D_NET *19 2.03444e-16

*CONN
*P *19 I *C 0.7000 0.8550 
*I *6:g B *C 0.7775 0.4625 
*I *22:g B *C 0.7775 1.2225 
*N *19:2 *C 0.7400 0.7700 

*CAP
0 *22:g 3.76357e-17
1 *6:g 3.05241e-17
2 *19:2 1.04026e-16
3 *19 3.12585e-17

*RES
0 *22:g *19:2 78.975731  // $poly_conn
1 *19:2 *6:g 50.770603  // $poly_conn
2 *19 *19:2 45.039108  // $metal1_conn

*END

*D_NET *14 2.04865e-16

*CONN
*P *14 I *C 1.7000 0.8550 
*I *8:g B *C 1.3725 0.4625 
*I *2:g B *C 1.4275 1.2225 
*N *14:2 *C 1.4550 0.7150 

*CAP
0 *2:g 5.12523e-17
1 *8:g 2.90645e-17
2 *14:2 9.59244e-17
3 *14 2.86243e-17

*RES
0 *2:g *14:2 90.889023  // $poly_conn
1 *14:2 *8:g 42.292484  // $poly_conn
2 *14 *14:2 45.184921  // $metal1_conn

*END

*D_NET *15 2.37356e-16

*CONN
*P *15 I *C 1.5000 1.0450 
*I *7:g B *C 1.1675 0.4625 
*I *1:g B *C 1.2675 1.2225 
*N *15:2 *C 1.2950 0.9600 

*CAP
0 *1:g 3.56318e-17
1 *7:g 6.36835e-17
2 *15:2 9.1835e-17
3 *15 4.62059e-17

*RES
0 *1:g *15:2 31.230413  // $poly_conn
1 *15:2 *7:g 114.274185  // $poly_conn
2 *15:2 *15 45.164692  // $metal1_conn

*END

*D_NET *4 1.49211e-16

*CONN
*P *4 O *C 1.1000 1.0450 
*I *7:d B *C 1.2700 0.4625 
*I *8:d B *C 1.2700 0.4625 
*I *22:d B *C 1.0225 1.2225 
*I *1:d B *C 1.0225 1.2225 
*N *4:2 *C 1.1350 1.0450 

*CAP
0 *22:d 1.39579e-17
1 *7:d 6.54358e-17
2 *4:2 5.786e-17
3 *4 1.19572e-17

*RES
0 *7:d *4:2 75.490555  // $metal1_conn
1 *4:2 *4 0.002688  // $metal1_conn
2 *4:2 *22:d 62.101028  // $metal1_conn

*END

*D_NET *13 0

*CONN
*I *1:s B *C 1.3475 1.2225 
*I *2:d B *C 1.3475 1.2225 


*RES
0 *2:d *1:s 0.001  // $mwires

*END

*D_NET *11 0

*CONN
*I *21:d B *C 0.6750 1.2225 
*I *22:s B *C 0.6750 1.2225 


*RES
0 *22:s *21:d 0.001  // $mwires

*END

*D_NET *9 7.56037e-18

*CONN
*I *20:d B *C 0.4700 1.2225 
*I *21:s B *C 0.4700 1.2225 

*CAP
0 *20:d 7.56037e-18

*RES
0 *21:s *20:d 0.001  // $mwires

*END

*D_NET *12 2.59994e-16

*CONN
*I *3:d B *C 0.4700 0.4625 
*I *5:d B *C 0.4700 0.4625 
*I *6:d B *C 0.9725 0.4625 
*I *7:s B *C 0.9725 0.4625 
*I *8:s B *C 1.4650 0.4625 
*N *12:3 *C 0.8800 0.4500 

*CAP
0 *8:s 7.05604e-17
1 *6:d 1.18891e-16
2 *3:d 7.05424e-17

*RES
0 *8:s *12:3 75.613281  // $metal1_conn
1 *12:3 *3:d 75.486526  // $metal1_conn
2 *6:d *12:3 75  // $metal1_conn

*END

