*SPEF "IEEE 1481-1999"
*DESIGN  "OAI31X1"
*DATE "Mon Sep 27 10:45:27 2010"
*VENDOR "Cadence Design Systems"
*PROGRAM "Assura RCX"
*VERSION "3.2 Red Hat Linux release 7.2 (Enigma) - (09/09/2009-10:39)"
*DESIGN_FLOW "Physical Verification"
*DIVIDER /
*DELIMITER :
*BUS_DELIMITER []
*T_UNIT 1 PS
*C_UNIT 1e15 FF
*R_UNIT 1 OHM
*L_UNIT 1 MH
// DeviceFingerDelim "@"
// MATCHED
// caps2d version: 10

*NAME_MAP
*1 A0
*2 A1
*3 A2
*4 mp0
*5 mp1
*6 mp2
*7 mp3
*8 VSS
*9 n0
*10 n2
*11 n1
*12 mn0
*13 mn1
*14 VDD
*15 mn2
*16 Y
*17 B0
*18 mn3

*GROUND_NETS VSS

*PORTS
*14 I
*8 I
*1 I
*2 I
*3 I
*17 I
*16 O

*D_NET *14 1.90892e-16

*CONN
*P *14 I *C 0.1000 1.7100 
*I *4:s B *C 0.2850 1.2850 
*I *7:s B *C 0.9550 1.2850 
*N *14:2 *C 0.6000 1.7100 
*N *14:3 *C 0.6000 1.7100 
*N *14:4 *C 0.2750 1.7100 

*CAP
0 *7:s 4.7792e-17
1 *4:s 3.36059e-17
2 *14:4 5.59685e-18
3 *14:2 9.98296e-17
4 *14 4.06745e-18

*RES
0 *7:s *14:3 31.425871  // $metal1_conn
1 *14:3 *14:4 0.162786  // $metal1_conn
2 *14:4 *14 0.087313  // $metal1_conn
3 *14:4 *4:s 20.931473  // $metal1_conn
4 *14:2 *14:3 12.5  // $metal1_conn

*END

*D_NET *8 0

*CONN
*P *8 I *C 0.1000 0.0000 
*I *12:s B *C 0.1850 0.3600 
*I *13:s B *C 0.5900 0.3600 
*I *15:s B *C 0.5900 0.3600 
*N *8:2 *C 0.6000 0.0000 
*N *8:3 *C 0.6000 0.0000 
*N *8:4 *C 0.1750 0.0000 


*RES
0 *13:s *8:3 75.120956  // $metal1_conn
1 *8:3 *8:4 0.213651  // $metal1_conn
2 *8:4 *8 0.037158  // $metal1_conn
3 *8:4 *12:s 37.723656  // $metal1_conn
4 *8:2 *8:3 10.333333  // $metal1_conn

*END

*D_NET *1 2.4593e-16

*CONN
*P *1 I *C 0.1000 0.8550 
*I *12:g B *C 0.2775 0.3600 
*I *4:g B *C 0.3775 1.2850 
*N *1:2 *C 0.2775 0.6700 
*N *1:3 *C 0.2200 0.6700 

*CAP
0 *4:g 9.2299e-17
1 *12:g 3.47405e-17
2 *1:2 4.71359e-17
3 *1:3 3.51179e-17
4 *1 3.66368e-17

*RES
0 *4:g *1:2 118.903831  // $poly_conn
1 *1:2 *1:3 48.026802  // $poly_conn
2 *1:2 *12:g 34.256653  // $poly_conn
3 *1:3 *1 0.141777  // $metal1_conn

*END

*D_NET *2 2.99773e-16

*CONN
*P *2 I *C 0.5000 1.0450 
*I *13:g B *C 0.4825 0.3600 
*I *5:g B *C 0.4825 1.2850 
*N *2:2 *C 0.5100 0.6700 

*CAP
0 *5:g 1.03781e-16
1 *13:g 4.172e-17
2 *2:2 1.13421e-16
3 *2 4.08509e-17

*RES
0 *5:g *2:2 99.179131  // $poly_conn
1 *2:2 *13:g 37.640671  // $poly_conn
2 *2 *2:2 45.225037  // $metal1_conn

*END

*D_NET *3 2.80285e-16

*CONN
*P *3 I *C 0.7000 0.8550 
*I *15:g B *C 0.6975 0.3600 
*I *6:g B *C 0.6575 1.2850 
*N *3:2 *C 0.6900 0.8500 
*N *3:4 *C 0.6900 0.8500 

*CAP
0 *6:g 5.88672e-17
1 *15:g 5.30855e-17
2 *3:2 5.62567e-17
3 *3 1.12076e-16

*RES
0 *15:g *3:2 81.501236  // $poly_conn
1 *3:2 *6:g 50.73201  // $poly_conn
2 *3:4 *3 0.003112  // $metal1_conn
3 *3:2 *3:4 45  // $metal1_conn

*END

*D_NET *17 2.52071e-16

*CONN
*P *17 I *C 0.9000 0.8550 
*I *18:g B *C 0.9175 0.3600 
*I *7:g B *C 0.8625 1.2850 
*N *17:2 *C 0.8900 0.9600 
*N *17:5 *C 0.8900 0.9600 

*CAP
0 *7:g 3.68265e-17
1 *18:g 5.0168e-17
2 *17:5 3.71621e-17
3 *17:2 4.78358e-17
4 *17 8.00791e-17

*RES
0 *18:g *17:2 111.999641  // $poly_conn
1 *17:2 *7:g 24.820156  // $poly_conn
2 *17 *17:5 0.06867  // $metal1_conn
3 *17:2 *17:5 45  // $metal1_conn

*END

*D_NET *16 2.29213e-16

*CONN
*P *16 O *C 1.0300 0.4750 
*I *18:d B *C 1.0100 0.3600 
*I *6:d B *C 0.7600 1.2850 
*I *7:d B *C 0.7600 1.2850 

*CAP
0 *6:d 1.16386e-16
1 *18:d 2.63478e-17
2 *16 8.64793e-17

*RES
0 *18:d *16 37.577694  // $metal1_conn
1 *16 *6:d 21.4702  // $metal1_conn

*END

*D_NET *11 0

*CONN
*I *4:d B *C 0.4300 1.2850 
*I *5:s B *C 0.4300 1.2850 


*RES
0 *5:s *4:d 0.001  // $mwires

*END

*D_NET *10 1.63832e-18

*CONN
*I *5:d B *C 0.5700 1.2850 
*I *6:s B *C 0.5700 1.2850 

*CAP
0 *5:d 1.63832e-18

*RES
0 *6:s *5:d 0.001  // $mwires

*END

*D_NET *9 1.37676e-16

*CONN
*I *12:d B *C 0.3800 0.3600 
*I *13:d B *C 0.3800 0.3600 
*I *15:d B *C 0.8075 0.3600 
*I *18:s B *C 0.8075 0.3600 

*CAP
0 *15:d 7.41052e-17
1 *12:d 6.35705e-17

*RES
0 *15:d *12:d 75.343224  // $metal1_conn

*END

