*SPEF "IEEE 1481-1999"
*DESIGN  "OAI33XL"
*DATE "Mon Sep 27 10:49:37 2010"
*VENDOR "Cadence Design Systems"
*PROGRAM "Assura RCX"
*VERSION "3.2 Red Hat Linux release 7.2 (Enigma) - (09/09/2009-10:39)"
*DESIGN_FLOW "Physical Verification"
*DIVIDER /
*DELIMITER :
*BUS_DELIMITER []
*T_UNIT 1 PS
*C_UNIT 1e15 FF
*R_UNIT 1 OHM
*L_UNIT 1 MH
// DeviceFingerDelim "@"
// MATCHED
// caps2d version: 10

*NAME_MAP
*1 mp0
*2 mp1
*3 mp2
*4 mn0
*5 no
*6 mp5
*7 mn1
*8 n1
*9 VSS
*10 mp3
*11 mn2
*12 n2
*13 mp4
*14 mn5
*15 n4
*16 A0
*17 mn3
*18 n3
*19 A1
*20 mn4
*21 A2
*22 Y
*23 B0
*24 B1
*25 B2
*26 VDD

*GROUND_NETS VSS

*PORTS
*26 I
*9 I
*16 I
*19 I
*21 I
*23 I
*24 I
*25 I
*22 O

*D_NET *26 2.57699e-16

*CONN
*P *26 I *C 0.1000 1.7100 
*I *1:s B *C 0.2850 1.3575 
*I *13:d B *C 1.5350 1.3575 
*N *26:2 *C 0.9000 1.7100 
*N *26:3 *C 0.9000 1.7100 
*N *26:4 *C 0.2750 1.7100 

*CAP
0 *13:d 4.24561e-17
1 *1:s 1.58644e-17
2 *26:4 1.259e-17
3 *26:2 1.83853e-16
4 *26 2.93623e-18

*RES
0 *13:d *26:3 62.536243  // $metal1_conn
1 *26:3 *26:4 0.313126  // $metal1_conn
2 *26:4 *26 0.087284  // $metal1_conn
3 *26:4 *1:s 62.184204  // $metal1_conn
4 *26:2 *26:3 8.333333  // $metal1_conn

*END

*D_NET *9 0

*CONN
*P *9 I *C 0.1000 0.0000 
*I *4:s B *C 0.1850 0.3075 
*I *7:s B *C 0.6000 0.3075 
*I *11:s B *C 0.6000 0.3075 
*N *9:1 *C 0.9000 0.0000 
*N *9:2 *C 0.5850 0.0000 
*N *9:3 *C 0.1750 0.0000 


*RES
0 *9:1 *9:2 7.046607  // $metal1_conn
1 *9:2 *9:3 0.205147  // $metal1_conn
2 *9:3 *9 0.037145  // $metal1_conn
3 *9:2 *7:s 75.185699  // $metal1_conn
4 *9:3 *4:s 75.180138  // $metal1_conn

*END

*D_NET *16 2.63859e-16

*CONN
*P *16 I *C 0.1000 0.6650 
*I *4:g B *C 0.2775 0.3075 
*I *1:g B *C 0.3775 1.3575 
*N *16:2 *C 0.2500 0.7100 

*CAP
0 *1:g 8.6583e-17
1 *4:g 3.71681e-17
2 *16:2 1.135e-16
3 *16 2.66078e-17

*RES
0 *1:g *16:2 146.138641  // $poly_conn
1 *16:2 *4:g 72.9403  // $poly_conn
2 *16:2 *16 45.084965  // $metal1_conn

*END

*D_NET *19 3.22357e-16

*CONN
*P *19 I *C 0.5000 0.8550 
*I *7:g B *C 0.4825 0.3075 
*I *2:g B *C 0.4825 1.3575 
*N *19:2 *C 0.5100 0.8050 
*N *19:4 *C 0.5050 0.8050 

*CAP
0 *2:g 7.8647e-17
1 *7:g 4.88044e-17
2 *19:4 2.59786e-17
3 *19:2 8.84947e-17
4 *19 8.04324e-17

*RES
0 *2:g *19:2 105.589386  // $poly_conn
1 *19:2 *7:g 100.461182  // $poly_conn
2 *19:4 *19 0.031093  // $metal1_conn
3 *19:2 *19:4 45  // $metal1_conn

*END

*D_NET *21 2.53057e-16

*CONN
*P *21 I *C 0.7000 0.8550 
*I *11:g B *C 0.7175 0.3075 
*I *3:g B *C 0.7175 1.3575 
*N *21:2 *C 0.6900 0.8500 
*N *21:4 *C 0.6900 0.8500 

*CAP
0 *3:g 4.09484e-17
1 *11:g 4.32784e-17
2 *21:2 1.6883e-16

*RES
0 *3:g *21:2 94.050926  // $poly_conn
1 *21:2 *11:g 111.999641  // $poly_conn
2 *21:4 *21 0.003109  // $metal1_conn
3 *21:2 *21:4 45  // $metal1_conn

*END

*D_NET *23 2.84637e-16

*CONN
*P *23 I *C 1.5000 0.6650 
*I *20:g B *C 1.5225 0.3075 
*I *13:g B *C 1.4425 1.3575 
*N *23:2 *C 1.4700 0.6450 
*N *23:4 *C 1.4700 0.6450 

*CAP
0 *13:g 7.18375e-17
1 *20:g 3.46663e-17
2 *23:2 1.78133e-16

*RES
0 *20:g *23:2 64.158623  // $poly_conn
1 *23:2 *13:g 143.45311  // $poly_conn
2 *23:4 *23 0.008206  // $metal1_conn
3 *23:2 *23:4 45  // $metal1_conn

*END

*D_NET *24 3.06687e-16

*CONN
*P *24 I *C 1.3000 0.8550 
*I *17:g B *C 1.3175 0.3075 
*I *10:g B *C 1.3175 1.3575 
*N *24:2 *C 1.2900 0.8500 
*N *24:4 *C 1.2900 0.8500 

*CAP
0 *10:g 7.01647e-17
1 *17:g 5.4283e-17
2 *24:2 1.82239e-16

*RES
0 *10:g *24:2 94.050926  // $poly_conn
1 *24:2 *17:g 111.999641  // $poly_conn
2 *24:4 *24 0.003109  // $metal1_conn
3 *24:2 *24:4 45  // $metal1_conn

*END

*D_NET *25 2.45029e-16

*CONN
*P *25 I *C 0.9000 0.8550 
*I *14:g B *C 1.0975 0.3075 
*I *6:g B *C 1.0975 1.3575 
*N *25:2 *C 1.0700 1.0350 

*CAP
0 *6:g 3.48961e-17
1 *14:g 5.66148e-17
2 *25:2 1.13865e-16
3 *25 3.96534e-17

*RES
0 *6:g *25:2 46.615028  // $poly_conn
1 *25:2 *14:g 159.435547  // $poly_conn
2 *25:2 *25 45.201298  // $metal1_conn

*END

*D_NET *22 3.44472e-16

*CONN
*P *22 O *C 1.7000 1.0450 
*I *14:d B *C 1.2075 0.3075 
*I *17:d B *C 1.2075 0.3075 
*I *20:d B *C 1.6150 0.3075 
*I *3:d B *C 0.9075 1.3575 
*I *6:d B *C 0.9075 1.3575 
*N *22:2 *C 1.6675 0.4550 

*CAP
0 *3:d 8.19172e-17
1 *20:d 2.87018e-17
2 *14:d 6.4581e-17
3 *22:2 6.85321e-17
4 *22 1.0074e-16

*RES
0 *14:d *22:2 75.369995  // $metal1_conn
1 *22:2 *22 0.445367  // $metal1_conn
2 *22 *3:d 62.658791  // $metal1_conn
3 *22:2 *20:d 75.057823  // $metal1_conn

*END

*D_NET *18 0

*CONN
*I *10:d B *C 1.3800 1.3575 
*I *13:s B *C 1.3800 1.3575 


*RES
0 *13:s *10:d 0.001  // $mwires

*END

*D_NET *15 3.94002e-19

*CONN
*I *6:s B *C 1.2075 1.3575 
*I *10:s B *C 1.2075 1.3575 

*CAP
0 *6:s 3.94002e-19

*RES
0 *10:s *6:s 0.001  // $mwires

*END

*D_NET *12 3.93205e-18

*CONN
*I *2:d B *C 0.6000 1.3575 
*I *3:s B *C 0.6000 1.3575 

*CAP
0 *2:d 3.93205e-18

*RES
0 *3:s *2:d 0.001  // $mwires

*END

*D_NET *8 0

*CONN
*I *1:d B *C 0.4300 1.3575 
*I *2:s B *C 0.4300 1.3575 


*RES
0 *2:s *1:d 0.001  // $mwires

*END

*D_NET *5 2.53186e-16

*CONN
*I *4:d B *C 0.3800 0.3075 
*I *7:d B *C 0.3800 0.3075 
*I *11:d B *C 0.9075 0.3075 
*I *14:s B *C 0.9075 0.3075 
*I *17:s B *C 1.4200 0.3075 
*I *20:s B *C 1.4200 0.3075 
*N *5:3 *C 0.8200 0.2950 

*CAP
0 *17:s 1.06235e-16
1 *11:d 9.21053e-17
2 *4:d 5.48462e-17

*RES
0 *4:d *5:3 75.53286  // $metal1_conn
1 *5:3 *17:s 75.568413  // $metal1_conn
2 *11:d *5:3 75  // $metal1_conn

*END

