*SPEF "IEEE 1481-1999"
*DESIGN  "OR2X6"
*DATE "Mon Sep 27 10:51:07 2010"
*VENDOR "Cadence Design Systems"
*PROGRAM "Assura RCX"
*VERSION "3.2 Red Hat Linux release 7.2 (Enigma) - (09/09/2009-10:39)"
*DESIGN_FLOW "Physical Verification"
*DIVIDER /
*DELIMITER :
*BUS_DELIMITER []
*T_UNIT 1 PS
*C_UNIT 1e15 FF
*R_UNIT 1 OHM
*L_UNIT 1 MH
// DeviceFingerDelim "@"
// MATCHED
// caps2d version: 10

*NAME_MAP
*1 mp1\@1
*2 mp0\@1
*3 mp2
*4 mp2\@1
*5 Y
*6 mp2\@2
*7 mp2\@3
*8 mp2\@4
*9 mn0
*10 mn1
*11 mn1\@1
*12 mn0\@1
*13 mn2
*14 mn2\@1
*15 mn2\@2
*16 mn2\@3
*17 mn2\@4
*18 VDD
*19 A
*20 B
*21 n0
*22 n1
*23 n1\@1
*24 VSS
*25 mp0
*26 mp1

*GROUND_NETS VSS

*PORTS
*18 I
*24 I
*19 I
*20 I
*5 O

*D_NET *18 3.97583e-16

*CONN
*P *18 I *C 0.1000 1.7100 
*I *25:s B *C 0.2400 1.2350 
*I *2:s B *C 0.9800 1.1950 
*I *3:s B *C 0.9800 1.1950 
*I *4:s B *C 1.3600 1.1950 
*I *6:s B *C 1.3600 1.1950 
*I *7:s B *C 1.7700 1.1950 
*I *8:s B *C 1.7700 1.1950 
*N *18:3 *C 1.1000 1.7100 
*N *18:6 *C 0.2300 1.7100 

*CAP
0 *7:s 2.43794e-16
1 *25:s 4.18272e-17
2 *18:6 1.35278e-17
3 *18:3 9.73234e-17
4 *18 1.1111e-18

*RES
0 *18:6 *18 0.064789  // $metal1_conn
1 *18:3 *7:s 6.818182  // $metal1_conn
2 *18:6 *25:s 20.966543  // $metal1_conn
3 *7:s *18:6 0.325789  // $metal1_conn

*END

*D_NET *24 0

*CONN
*P *24 I *C 0.1000 0.0000 
*I *9:s B *C 0.1100 0.4800 
*I *10:s B *C 0.5250 0.4800 
*I *11:s B *C 0.5250 0.4800 
*I *12:s B *C 0.9800 0.5050 
*I *13:s B *C 0.9800 0.5050 
*I *14:s B *C 1.3600 0.5050 
*I *15:s B *C 1.3600 0.5050 
*I *16:s B *C 1.7700 0.5050 
*I *17:s B *C 1.7700 0.5050 
*N *24:3 *C 1.1000 0.0000 


*RES
0 *24:3 *24 5.636364  // $metal1_conn
1 *24 *10:s 37.816654  // $metal1_conn

*END

*D_NET *19 5.02355e-16

*CONN
*P *19 I *C 0.2000 0.8400 
*I *9:g B *C 0.2025 0.4800 
*I *12:g B *C 0.8325 0.4800 
*I *25:g B *C 0.3325 1.2350 
*I *2:g B *C 0.7775 1.2350 

*CAP
0 *2:g 8.62518e-17
1 *25:g 5.8143e-17
2 *12:g 2.68282e-16
3 *19 8.96782e-17

*RES
0 *12:g *2:g 50.461182  // $poly_conn
1 *25:g *12:g 57.677105  // $poly_conn
2 *12:g *19 0.018503  // $metal1_conn

*END

*D_NET *20 3.14529e-16

*CONN
*P *20 I *C 0.4000 0.9700 
*I *10:g B *C 0.4225 0.4800 
*I *11:g B *C 0.6275 0.4800 
*I *26:g B *C 0.4675 1.2350 
*I *1:g B *C 0.6725 1.2350 
*N *20:2 *C 0.5050 0.9400 

*CAP
0 *1:g 7.4189e-17
1 *26:g 4.10731e-17
2 *11:g 8.90263e-17
3 *20:2 5.51093e-17
4 *20 5.51315e-17

*RES
0 *1:g *20:2 51.618866  // $poly_conn
1 *20:2 *26:g 14.611425  // $poly_conn
2 *20:2 *11:g 36.385349  // $poly_conn
3 *20:2 *20 45.060638  // $metal1_conn

*END

*D_NET *5 5.51174e-16

*CONN
*P *5 O *C 1.8550 0.7000 
*I *13:d B *C 1.1550 0.5050 
*I *14:d B *C 1.1550 0.5050 
*I *15:d B *C 1.5650 0.5050 
*I *16:d B *C 1.5650 0.5050 
*I *17:d B *C 1.9650 0.5050 
*I *3:d B *C 1.1550 1.1950 
*I *4:d B *C 1.1550 1.1950 
*I *6:d B *C 1.5650 1.1950 
*I *7:d B *C 1.5650 1.1950 
*I *8:d B *C 1.9650 1.1950 

*CAP
0 *8:d 2.66e-16
1 *5 2.85174e-16

*RES
0 *8:d *5 0.149844  // $metal1_conn

*END

*D_NET *23 1.36103e-18

*CONN
*I *1:s B *C 0.7250 1.2350 
*I *2:d B *C 0.7250 1.2350 

*CAP
0 *1:s 1.36103e-18

*RES
0 *2:d *1:s 0.001  // $mwires

*END

*D_NET *22 4.51495e-18

*CONN
*I *25:d B *C 0.4000 1.2350 
*I *26:s B *C 0.4000 1.2350 

*CAP
0 *25:d 4.51495e-18

*RES
0 *26:s *25:d 0.001  // $mwires

*END

*D_NET *21 8.05342e-16

*CONN
*I *9:d B *C 0.3125 0.4800 
*I *10:d B *C 0.3125 0.4800 
*I *11:d B *C 0.7300 0.4800 
*I *12:d B *C 0.7300 0.4800 
*I *13:g B *C 1.0525 0.5050 
*I *14:g B *C 1.2575 0.5050 
*I *15:g B *C 1.4625 0.5050 
*I *16:g B *C 1.6675 0.5050 
*I *17:g B *C 1.8725 0.5050 
*I *26:d B *C 0.5700 1.2350 
*I *1:d B *C 0.5700 1.2350 
*I *3:g B *C 1.0525 1.1950 
*I *4:g B *C 1.2575 1.1950 
*I *6:g B *C 1.4625 1.1950 
*I *7:g B *C 1.6675 1.1950 
*I *8:g B *C 1.8725 1.1950 
*N *21:18 *C 0.9950 0.8100 
*N *21:22 *C 0.5700 1.1500 

*CAP
0 *8:g 3.91778e-16
1 *26:d 1.11014e-16
2 *9:d 2.29063e-16
3 *21:18 7.34876e-17

*RES
0 *8:g *21:18 0.237485  // $metal1_conn
1 *21:22 *26:d 62.147648  // $metal1_conn
2 *26:d *21:22 62  // $metal1_conn
3 *21:18 *9:d 0.299475  // $metal1_conn
4 *21:18 *21:22 0.51775  // $metal1_conn

*END

