*SPEF "IEEE 1481-1999"
*DESIGN  "OR2X4"
*DATE "Mon Sep 27 10:50:45 2010"
*VENDOR "Cadence Design Systems"
*PROGRAM "Assura RCX"
*VERSION "3.2 Red Hat Linux release 7.2 (Enigma) - (09/09/2009-10:39)"
*DESIGN_FLOW "Physical Verification"
*DIVIDER /
*DELIMITER :
*BUS_DELIMITER []
*T_UNIT 1 PS
*C_UNIT 1e15 FF
*R_UNIT 1 OHM
*L_UNIT 1 MH
// DeviceFingerDelim "@"
// MATCHED
// caps2d version: 10

*NAME_MAP
*1 mp2\@1
*2 mp2\@2
*3 mp2\@3
*4 mn1
*5 Y
*6 mn0
*7 mn2
*8 mn2\@1
*9 mn2\@2
*10 n0
*11 mn2\@3
*12 n1
*13 A
*14 VDD
*15 B
*16 VSS
*17 mp1
*18 mp0
*19 mp2

*GROUND_NETS VSS

*PORTS
*14 I
*16 I
*13 I
*15 I
*5 O

*D_NET *14 2.99001e-16

*CONN
*P *14 I *C 0.1000 1.7100 
*I *18:s B *C 0.5775 1.2100 
*I *19:s B *C 0.5775 1.2100 
*I *1:s B *C 1.0025 1.2100 
*I *2:s B *C 1.0025 1.2100 
*I *3:s B *C 1.4100 1.2100 
*N *14:3 *C 0.8000 1.7100 

*CAP
0 *3:s 2.05902e-16
1 *14:3 8.12362e-17
2 *14 1.18633e-17

*RES
0 *3:s *14 0.235368  // $metal1_conn
1 *14:3 *3:s 9.375  // $metal1_conn

*END

*D_NET *16 0

*CONN
*P *16 I *C 0.1000 0.0000 
*I *4:s B *C 0.1700 0.3600 
*I *6:s B *C 0.5775 0.3600 
*I *7:s B *C 0.5775 0.3600 
*I *8:s B *C 1.0025 0.3600 
*I *9:s B *C 1.0025 0.3600 
*I *11:s B *C 1.4100 0.3600 
*N *16:3 *C 0.8000 0.0000 
*N *16:6 *C 0.1600 0.0000 


*RES
0 *16:6 *16 0.029653  // $metal1_conn
1 *16:3 *11:s 7.75  // $metal1_conn
2 *16:6 *4:s 37.732059  // $metal1_conn
3 *11:s *16:6 0.205319  // $metal1_conn

*END

*D_NET *13 2.73448e-16

*CONN
*P *13 I *C 0.4850 0.9750 
*I *6:g B *C 0.4675 0.3600 
*I *18:g B *C 0.4675 1.2100 
*N *13:2 *C 0.4950 0.8000 

*CAP
0 *18:g 8.11e-17
1 *6:g 4.86968e-17
2 *13:2 1.15968e-16
3 *13 2.76826e-17

*RES
0 *18:g *13:2 46.615028  // $poly_conn
1 *13:2 *6:g 70.973999  // $poly_conn
2 *13 *13:2 45.105217  // $metal1_conn

*END

*D_NET *15 2.52254e-16

*CONN
*P *15 I *C 0.1800 0.8150 
*I *4:g B *C 0.2625 0.3600 
*I *17:g B *C 0.3625 1.2100 
*N *15:2 *C 0.2625 0.6600 
*N *15:3 *C 0.1900 0.6600 

*CAP
0 *17:g 8.76251e-17
1 *4:g 3.23057e-17
2 *15:2 4.25225e-17
3 *15:3 5.64228e-17
4 *15 3.33782e-17

*RES
0 *17:g *15:2 104.051727  // $poly_conn
1 *15:2 *15:3 49.900734  // $poly_conn
2 *15:2 *4:g 33.77549  // $poly_conn
3 *15 *15:3 0.098099  // $metal1_conn

*END

*D_NET *5 4.5757e-16

*CONN
*P *5 O *C 1.2850 0.6550 
*I *7:d B *C 0.7900 0.3600 
*I *8:d B *C 0.7900 0.3600 
*I *9:d B *C 1.2150 0.3600 
*I *11:d B *C 1.2150 0.3600 
*I *19:d B *C 0.7900 1.2100 
*I *1:d B *C 0.7900 1.2100 
*I *2:d B *C 1.2150 1.2100 
*I *3:d B *C 1.2150 1.2100 

*CAP
0 *2:d 2.42536e-16
1 *7:d 1.93257e-16
2 *5 2.17772e-17

*RES
0 *2:d *5 0.166466  // $metal1_conn
1 *5 *7:d 0.111948  // $metal1_conn

*END

*D_NET *12 0

*CONN
*I *17:s B *C 0.4150 1.2100 
*I *18:d B *C 0.4150 1.2100 


*RES
0 *18:d *17:s 0.001  // $mwires

*END

*D_NET *10 5.99646e-16

*CONN
*I *4:d B *C 0.3650 0.3600 
*I *6:d B *C 0.3650 0.3600 
*I *7:g B *C 0.6875 0.3600 
*I *8:g B *C 0.8925 0.3600 
*I *9:g B *C 1.1125 0.3600 
*I *11:g B *C 1.3175 0.3600 
*I *17:d B *C 0.2700 1.2100 
*I *19:g B *C 0.6875 1.2100 
*I *1:g B *C 0.8925 1.2100 
*I *2:g B *C 1.1125 1.2100 
*I *3:g B *C 1.3175 1.2100 
*N *10:14 *C 0.3750 0.6200 

*CAP
0 *3:g 3.64593e-16
1 *17:d 8.73556e-17
2 *4:d 4.56489e-17
3 *10:14 1.02049e-16

*RES
0 *3:g *10:14 0.394803  // $metal1_conn
1 *10:14 *17:d 21.093771  // $metal1_conn
2 *10:14 *4:d 37.693916  // $metal1_conn

*END

