*SPEF "IEEE 1481-1999"
*DESIGN  "OR2X2"
*DATE "Mon Sep 27 10:50:22 2010"
*VENDOR "Cadence Design Systems"
*PROGRAM "Assura RCX"
*VERSION "3.2 Red Hat Linux release 7.2 (Enigma) - (09/09/2009-10:39)"
*DESIGN_FLOW "Physical Verification"
*DIVIDER /
*DELIMITER :
*BUS_DELIMITER []
*T_UNIT 1 PS
*C_UNIT 1e15 FF
*R_UNIT 1 OHM
*L_UNIT 1 MH
// DeviceFingerDelim "@"
// MATCHED
// caps2d version: 10

*NAME_MAP
*1 mp1
*2 mp0
*3 mp2
*4 mp2\@1
*5 VSS
*6 n0
*7 n1
*8 mn1
*9 mn0
*10 A
*11 VDD
*12 mn2
*13 Y
*14 B
*15 mn2\@1

*GROUND_NETS VSS

*PORTS
*11 I
*5 I
*10 I
*14 I
*13 O

*D_NET *11 1.30234e-16

*CONN
*P *11 I *C 0.1000 1.7100 
*I *2:s B *C 0.5100 1.1450 
*I *3:s B *C 0.5100 1.1450 
*I *4:s B *C 0.9050 1.2900 
*N *11:2 *C 0.5000 1.7100 

*CAP
0 *4:s 6.70528e-17
1 *11:2 5.61335e-17
2 *11 7.04823e-18

*RES
0 *4:s *11 0.200549  // $metal1_conn
1 *11:2 *4:s 15  // $metal1_conn

*END

*D_NET *5 0

*CONN
*P *5 I *C 0.1000 0.0000 
*I *8:s B *C 0.1150 0.4875 
*I *9:s B *C 0.5300 0.5150 
*I *12:s B *C 0.5300 0.5150 
*I *15:s B *C 0.9050 0.3625 
*N *5:2 *C 0.5000 0.0000 


*RES
0 *5 *8:s 75.08477  // $metal1_conn
1 *15:s *5 0.200851  // $metal1_conn
2 *5:2 *15:s 12.4  // $metal1_conn

*END

*D_NET *10 2.44237e-16

*CONN
*P *10 I *C 0.3850 0.8100 
*I *9:g B *C 0.3675 0.4875 
*I *2:g B *C 0.3675 1.0575 
*N *10:2 *C 0.3950 0.7900 
*N *10:4 *C 0.3950 0.7900 

*CAP
0 *2:g 6.02363e-17
1 *9:g 4.07908e-17
2 *10:2 5.21378e-17
3 *10 9.10719e-17

*RES
0 *2:g *10:2 32.512466  // $poly_conn
1 *10:2 *9:g 50.461182  // $poly_conn
2 *10:4 *10 0.006997  // $metal1_conn
3 *10:2 *10:4 45  // $metal1_conn

*END

*D_NET *14 2.04638e-16

*CONN
*P *14 I *C 0.0850 0.5300 
*I *8:g B *C 0.1625 0.4875 
*I *1:g B *C 0.2625 1.0575 
*N *14:2 *C 0.1625 0.6600 
*N *14:3 *C 0.1050 0.6600 
*N *14:5 *C 0.0950 0.5300 
*N *14:6 *C 0.0950 0.6600 

*CAP
0 *1:g 6.80938e-17
1 *8:g 2.49323e-17
2 *14:6 4.2879e-17
3 *14:5 2.69341e-17
4 *14:2 3.1682e-17
5 *14:3 1.01165e-17

*RES
0 *1:g *14:2 87.385071  // $poly_conn
1 *14:2 *14:3 48.400734  // $poly_conn
2 *14:2 *8:g 15.826773  // $poly_conn
3 *14 *14:5 0.002236  // $metal1_conn
4 *14:6 *14:3 0.002354  // $metal1_conn
5 *14:5 *14:6 0.075791  // $metal1_conn

*END

*D_NET *13 1.44308e-16

*CONN
*P *13 O *C 0.8100 0.6900 
*I *12:d B *C 0.7050 0.5150 
*I *15:d B *C 0.7050 0.5150 
*I *3:d B *C 0.7050 1.1450 
*I *4:d B *C 0.7050 1.1450 

*CAP
0 *3:d 4.63265e-17
1 *12:d 4.03023e-17
2 *13 5.76794e-17

*RES
0 *13 *12:d 37.613724  // $metal1_conn
1 *3:d *13 21.032442  // $metal1_conn

*END

*D_NET *7 0

*CONN
*I *1:s B *C 0.3150 1.0575 
*I *2:d B *C 0.3150 1.0575 


*RES
0 *2:d *1:s 0.001  // $mwires

*END

*D_NET *6 3.71835e-16

*CONN
*I *8:d B *C 0.2650 0.4875 
*I *9:d B *C 0.2650 0.4875 
*I *12:g B *C 0.6025 0.5150 
*I *15:g B *C 0.8075 0.5150 
*I *1:d B *C 0.1900 1.0575 
*I *3:g B *C 0.6025 1.1450 
*I *4:g B *C 0.8075 1.1450 
*N *6:8 *C 0.2650 0.6350 

*CAP
0 *4:g 2.14539e-16
1 *1:d 4.30988e-17
2 *8:d 2.4743e-17
3 *6:8 8.94537e-17

*RES
0 *6:8 *8:d 75.077652  // $metal1_conn
1 *1:d *6:8 62.388332  // $metal1_conn
2 *6:8 *4:g 45.326252  // $metal1_conn

*END

