*SPEF "IEEE 1481-1999"
*DESIGN  "OR3X4"
*DATE "Mon Sep 27 10:52:59 2010"
*VENDOR "Cadence Design Systems"
*PROGRAM "Assura RCX"
*VERSION "3.2 Red Hat Linux release 7.2 (Enigma) - (09/09/2009-10:39)"
*DESIGN_FLOW "Physical Verification"
*DIVIDER /
*DELIMITER :
*BUS_DELIMITER []
*T_UNIT 1 PS
*C_UNIT 1e15 FF
*R_UNIT 1 OHM
*L_UNIT 1 MH
// DeviceFingerDelim "@"
// MATCHED
// caps2d version: 10

*NAME_MAP
*1 n2
*2 mp2
*3 n1
*4 mp1
*5 mp0
*6 mn2
*7 mp3
*8 mn1
*9 VSS
*10 mp3\@1
*11 mn0
*12 mp3\@2
*13 mn3
*14 mp3\@3
*15 mn3\@1
*16 mn3\@2
*17 mn3\@3
*18 Y
*19 A
*20 B
*21 C
*22 VDD
*23 n0

*GROUND_NETS VSS

*PORTS
*22 I
*9 I
*19 I
*20 I
*21 I
*18 O

*D_NET *22 3.30864e-16

*CONN
*P *22 I *C 0.1000 1.7100 
*I *5:s B *C 0.7300 1.2650 
*I *7:s B *C 0.7300 1.2650 
*I *10:s B *C 1.1400 1.2650 
*I *12:s B *C 1.1400 1.2650 
*I *14:s B *C 1.5400 1.2650 
*N *22:3 *C 0.9000 1.7100 

*CAP
0 *14:s 2.0131e-16
1 *22:3 1.08316e-16
2 *22 2.12372e-17

*RES
0 *14:s *22 0.31554  // $metal1_conn
1 *22:3 *14:s 8.333333  // $metal1_conn

*END

*D_NET *9 0

*CONN
*P *9 I *C 0.1000 0.0000 
*I *6:s B *C 0.3250 0.3600 
*I *8:s B *C 0.3250 0.3600 
*I *11:s B *C 0.7525 0.3600 
*I *13:s B *C 0.7525 0.3600 
*I *15:s B *C 1.1950 0.3600 
*I *16:s B *C 1.1950 0.3600 
*I *17:s B *C 1.6025 0.3600 
*N *9:3 *C 0.9000 0.0000 
*N *9:6 *C 0.3250 0.0000 


*RES
0 *9:6 *9 0.112406  // $metal1_conn
1 *9:3 *17:s 6.888889  // $metal1_conn
2 *9:6 *6:s 75.181648  // $metal1_conn
3 *17:s *9:6 0.20525  // $metal1_conn

*END

*D_NET *19 2.27076e-16

*CONN
*P *19 I *C 0.7000 1.0450 
*I *11:g B *C 0.6325 0.3600 
*I *5:g B *C 0.6275 1.2650 
*N *19:1 *C 0.6900 0.8000 
*N *19:2 *C 0.6300 0.8000 

*CAP
0 *5:g 4.86158e-17
1 *11:g 4.78305e-17
2 *19:2 4.62668e-17
3 *19:1 4.34988e-17
4 *19 4.08636e-17

*RES
0 *19:1 *19:2 46.326286  // $poly_conn
1 *19:2 *5:g 64.390587  // $poly_conn
2 *19:2 *11:g 74.83783  // $poly_conn
3 *19 *19:1 0.147118  // $metal1_conn

*END

*D_NET *20 2.89827e-16

*CONN
*P *20 I *C 0.3600 1.0450 
*I *8:g B *C 0.4275 0.3600 
*I *4:g B *C 0.3425 1.2650 
*N *20:2 *C 0.3700 0.7300 

*CAP
0 *4:g 8.4556e-17
1 *8:g 4.63063e-17
2 *20:2 1.16498e-16
3 *20 4.24672e-17

*RES
0 *8:g *20:2 54.012314  // $poly_conn
1 *20:2 *4:g 76.373032  // $poly_conn
2 *20 *20:2 45.189152  // $metal1_conn

*END

*D_NET *21 2.4223e-16

*CONN
*P *21 I *C 0.1000 0.8550 
*I *6:g B *C 0.2225 0.3600 
*I *2:g B *C 0.2375 1.2650 
*N *21:2 *C 0.2300 0.6700 
*N *21:3 *C 0.1100 0.6700 

*CAP
0 *2:g 8.43985e-17
1 *6:g 3.5891e-17
2 *21:2 4.69443e-17
3 *21:3 4.47563e-17
4 *21 3.02398e-17

*RES
0 *2:g *21:2 100.771187  // $poly_conn
1 *21:2 *21:3 51.809135  // $poly_conn
2 *21:2 *6:g 45.83054  // $poly_conn
3 *21 *21:3 0.111089  // $metal1_conn

*END

*D_NET *18 4.21994e-16

*CONN
*P *18 O *C 1.5300 0.6650 
*I *13:d B *C 0.9825 0.3600 
*I *15:d B *C 0.9825 0.3600 
*I *16:d B *C 1.4000 0.3600 
*I *17:d B *C 1.4000 0.3600 
*I *7:d B *C 0.9350 1.2650 
*I *10:d B *C 0.9350 1.2650 
*I *12:d B *C 1.3450 1.2650 
*I *14:d B *C 1.3450 1.2650 
*N *18:1 *C 1.4600 0.6650 

*CAP
0 *12:d 2.1974e-16
1 *13:d 1.58251e-16
2 *18:1 4.40034e-17

*RES
0 *18 *18:1 0.025945  // $metal1_conn
1 *18:1 *12:d 0.277635  // $metal1_conn
2 *18:1 *13:d 0.184412  // $metal1_conn

*END

*D_NET *3 1.02166e-17

*CONN
*I *4:s B *C 0.4850 1.2650 
*I *5:d B *C 0.4850 1.2650 

*CAP
0 *4:s 1.02166e-17

*RES
0 *5:d *4:s 0.001  // $mwires

*END

*D_NET *1 2.43473e-18

*CONN
*I *2:s B *C 0.2900 1.2650 
*I *4:d B *C 0.2900 1.2650 

*CAP
0 *2:s 2.43473e-18

*RES
0 *4:d *2:s 0.001  // $mwires

*END

*D_NET *23 6.64949e-16

*CONN
*I *6:d B *C 0.1300 0.3600 
*I *8:d B *C 0.5300 0.3600 
*I *11:d B *C 0.5300 0.3600 
*I *13:g B *C 0.8725 0.3600 
*I *15:g B *C 1.0925 0.3600 
*I *16:g B *C 1.2975 0.3600 
*I *17:g B *C 1.5025 0.3600 
*I *2:d B *C 0.1450 1.2650 
*I *7:g B *C 0.8325 1.2650 
*I *10:g B *C 1.0375 1.2650 
*I *12:g B *C 1.2425 1.2650 
*I *14:g B *C 1.4475 1.2650 
*N *23:14 *C 0.5300 0.6100 
*N *23:15 *C 0.5300 0.4800 

*CAP
0 *14:g 3.4548e-16
1 *2:d 7.23923e-17
2 *8:d 2.82627e-17
3 *6:d 4.82146e-17
4 *23:15 2.47117e-17
5 *23:14 1.45887e-16

*RES
0 *14:g *23:14 0.372204  // $metal1_conn
1 *23:14 *2:d 31.784224  // $metal1_conn
2 *23:15 *8:d 37.590256  // $metal1_conn
3 *23:15 *6:d 37.75872  // $metal1_conn
4 *23:14 *23:15 0.100271  // $metal1_conn

*END

