*SPEF "IEEE 1481-1999"
*DESIGN  "OR3X2"
*DATE "Mon Sep 27 10:52:37 2010"
*VENDOR "Cadence Design Systems"
*PROGRAM "Assura RCX"
*VERSION "3.2 Red Hat Linux release 7.2 (Enigma) - (09/09/2009-10:39)"
*DESIGN_FLOW "Physical Verification"
*DIVIDER /
*DELIMITER :
*BUS_DELIMITER []
*T_UNIT 1 PS
*C_UNIT 1e15 FF
*R_UNIT 1 OHM
*L_UNIT 1 MH
// DeviceFingerDelim "@"
// MATCHED
// caps2d version: 10

*NAME_MAP
*1 mp3
*2 mp3\@1
*3 mn2
*4 Y
*5 mn1
*6 mn0
*7 mn3
*8 mn3\@1
*9 n0
*10 A
*11 VDD
*12 n2
*13 B
*14 n1
*15 C
*16 VSS
*17 mp2
*18 mp1
*19 mp0

*GROUND_NETS VSS

*PORTS
*11 I
*16 I
*10 I
*13 I
*15 I
*4 O

*D_NET *11 1.82846e-16

*CONN
*P *11 I *C 0.1000 1.7100 
*I *19:s B *C 0.7650 1.1050 
*I *1:s B *C 0.7650 1.1050 
*I *2:s B *C 1.1800 1.1050 
*N *11:2 *C 0.7000 1.7100 

*CAP
0 *2:s 8.18204e-17
1 *11:2 8.66564e-17
2 *11 1.43697e-17

*RES
0 *2:s *11 0.300438  // $metal1_conn
1 *11:2 *2:s 10.714286  // $metal1_conn

*END

*D_NET *16 0

*CONN
*P *16 I *C 0.1000 0.0000 
*I *3:s B *C 0.3050 0.3025 
*I *5:s B *C 0.3050 0.3025 
*I *6:s B *C 0.8800 0.3600 
*I *7:s B *C 0.8800 0.3600 
*I *8:s B *C 1.2500 0.3600 
*N *16:2 *C 0.7000 0.0000 
*N *16:4 *C 0.3050 0.0000 


*RES
0 *16:4 *16 0.102289  // $metal1_conn
1 *16:2 *8:s 8.857142  // $metal1_conn
2 *16:4 *3:s 75.176315  // $metal1_conn
3 *8:s *16:4 0.197758  // $metal1_conn

*END

*D_NET *10 2.22489e-16

*CONN
*P *10 I *C 0.6950 0.6950 
*I *6:g B *C 0.6575 0.3025 
*I *19:g B *C 0.6225 1.1925 
*N *10:2 *C 0.6850 0.6850 

*CAP
0 *19:g 5.45417e-17
1 *6:g 3.7714e-17
2 *10:2 6.3295e-17
3 *10 6.69384e-17

*RES
0 *6:g *10:2 67.812088  // $poly_conn
1 *10:2 *19:g 97.126762  // $poly_conn
2 *10 *10:2 45.002663  // $metal1_conn

*END

*D_NET *13 2.39404e-16

*CONN
*P *13 I *C 0.3250 1.0250 
*I *5:g B *C 0.4075 0.3025 
*I *18:g B *C 0.4075 1.1925 
*N *13:2 *C 0.4075 0.8500 
*N *13:3 *C 0.3350 0.8500 

*CAP
0 *18:g 4.1245e-17
1 *5:g 5.04109e-17
2 *13:2 4.26418e-17
3 *13:3 7.67884e-17
4 *13 2.83178e-17

*RES
0 *18:g *13:2 56.94537  // $poly_conn
1 *13:2 *13:3 47.037205  // $poly_conn
2 *13:2 *5:g 118.483833  // $poly_conn
3 *13 *13:3 0.104749  // $metal1_conn

*END

*D_NET *15 2.06775e-16

*CONN
*P *15 I *C 0.1000 0.8650 
*I *3:g B *C 0.2025 0.3025 
*I *17:g B *C 0.2025 1.1925 
*N *15:2 *C 0.2025 0.6700 
*N *15:3 *C 0.1100 0.6700 

*CAP
0 *17:g 4.4671e-17
1 *3:g 3.48001e-17
2 *15:2 4.42321e-17
3 *15:3 5.50161e-17
4 *15 2.8056e-17

*RES
0 *17:g *15:2 103.099213  // $poly_conn
1 *15:2 *15:3 48.73896  // $poly_conn
2 *15:2 *3:g 72.329987  // $poly_conn
3 *15 *15:3 0.11672  // $metal1_conn

*END

*D_NET *4 1.72269e-16

*CONN
*P *4 O *C 1.1250 0.6650 
*I *7:d B *C 1.0550 0.3600 
*I *8:d B *C 1.0550 0.3600 
*I *1:d B *C 0.9600 1.1050 
*I *2:d B *C 0.9600 1.1050 
*N *4:1 *C 1.0550 0.6650 

*CAP
0 *1:d 7.3077e-17
1 *7:d 4.93396e-17
2 *4:1 4.9852e-17

*RES
0 *4 *4:1 0.025862  // $metal1_conn
1 *4:1 *1:d 21.025082  // $metal1_conn
2 *4:1 *7:d 37.73312  // $metal1_conn

*END

*D_NET *14 6.65966e-18

*CONN
*I *18:s B *C 0.5150 1.1925 
*I *19:d B *C 0.5150 1.1925 

*CAP
0 *18:s 6.65966e-18

*RES
0 *19:d *18:s 0.001  // $mwires

*END

*D_NET *12 5.10645e-18

*CONN
*I *17:s B *C 0.3050 1.1925 
*I *18:d B *C 0.3050 1.1925 

*CAP
0 *17:s 5.10645e-18

*RES
0 *18:d *17:s 0.001  // $mwires

*END

*D_NET *9 4.96914e-16

*CONN
*I *3:d B *C 0.1100 0.3025 
*I *5:d B *C 0.5325 0.3025 
*I *6:d B *C 0.5325 0.3025 
*I *7:g B *C 0.9525 0.3600 
*I *8:g B *C 1.1575 0.3600 
*I *17:d B *C 0.1100 1.1925 
*I *1:g B *C 0.8575 1.1050 
*I *2:g B *C 1.0625 1.1050 
*N *9:8 *C 0.5550 0.4875 
*N *9:9 *C 0.4950 0.4875 

*CAP
0 *2:g 2.17673e-16
1 *17:d 7.55749e-17
2 *5:d 2.29243e-17
3 *3:d 5.19842e-17
4 *9:9 1.28758e-16

*RES
0 *2:g *9:8 45.320034  // $metal1_conn
1 *9:9 *17:d 62.766579  // $metal1_conn
2 *9:8 *5:d 75.093285  // $metal1_conn
3 *9:9 *3:d 75.404694  // $metal1_conn
4 *9:8 *9:9 0.050716  // $metal1_conn

*END

