*SPEF "IEEE 1481-1999"
*DESIGN  "OR4X4"
*DATE "Mon Sep 27 10:55:16 2010"
*VENDOR "Cadence Design Systems"
*PROGRAM "Assura RCX"
*VERSION "3.2 Red Hat Linux release 7.2 (Enigma) - (09/09/2009-10:39)"
*DESIGN_FLOW "Physical Verification"
*DIVIDER /
*DELIMITER :
*BUS_DELIMITER []
*T_UNIT 1 PS
*C_UNIT 1e15 FF
*R_UNIT 1 OHM
*L_UNIT 1 MH
// DeviceFingerDelim "@"
// MATCHED
// caps2d version: 10

*NAME_MAP
*1 mp2
*2 mn4\@3
*3 mp1
*4 mp0
*5 VDD
*6 mp4
*7 n2
*8 mp4\@1
*9 n1
*10 mp4\@2
*11 mp4\@3
*12 Y
*13 n0
*14 n3
*15 A
*16 B
*17 C
*18 VSS
*19 D
*20 mn3
*21 mn2
*22 mn1
*23 mn0
*24 mn4
*25 mn4\@1
*26 mp3
*27 mn4\@2

*GROUND_NETS VSS

*PORTS
*5 I
*18 I
*15 I
*16 I
*17 I
*19 I
*12 O

*D_NET *5 3.06474e-16

*CONN
*P *5 I *C 0.1000 1.7100 
*I *4:s B *C 1.1750 1.1650 
*I *6:s B *C 1.1750 1.1650 
*I *8:s B *C 1.6200 1.1650 
*I *10:s B *C 1.6200 1.1650 
*I *11:s B *C 2.0400 1.1650 
*N *5:3 *C 1.1000 1.7100 

*CAP
0 *11:s 1.83379e-16
1 *5:3 1.0519e-16
2 *5 1.79055e-17

*RES
0 *11:s *5 0.500981  // $metal1_conn
1 *5:3 *11:s 6.818182  // $metal1_conn

*END

*D_NET *18 0

*CONN
*P *18 I *C 0.1000 0.0000 
*I *20:s B *C 0.2750 0.3950 
*I *21:s B *C 0.6750 0.3950 
*I *22:s B *C 0.6750 0.3950 
*I *23:s B *C 1.2025 0.3950 
*I *24:s B *C 1.2025 0.3950 
*I *25:s B *C 1.6750 0.3950 
*I *27:s B *C 1.6750 0.3950 
*I *2:s B *C 2.0750 0.3950 
*N *18:3 *C 1.1000 0.0000 
*N *18:5 *C 0.6750 0.0000 
*N *18:6 *C 0.2650 0.0000 


*RES
0 *18:6 *18 0.082257  // $metal1_conn
1 *18:3 *2:s 5.636364  // $metal1_conn
2 *18:5 *21:s 75.197235  // $metal1_conn
3 *18:6 *20:s 75.197235  // $metal1_conn
4 *2:s *18:5 0.212828  // $metal1_conn
5 *18:5 *18:6 0.205113  // $metal1_conn

*END

*D_NET *15 2.15128e-16

*CONN
*P *15 I *C 1.3000 0.6650 
*I *23:g B *C 1.0375 0.3950 
*I *4:g B *C 1.0375 1.1650 
*N *15:2 *C 1.0650 0.6800 

*CAP
0 *4:g 4.73456e-17
1 *23:g 2.74491e-17
2 *15:2 8.47039e-17
3 *15 5.56298e-17

*RES
0 *4:g *15:2 65.845795  // $poly_conn
1 *15:2 *23:g 31.230413  // $poly_conn
2 *15:2 *15 45.136269  // $metal1_conn

*END

*D_NET *16 2.71206e-16

*CONN
*P *16 I *C 0.7000 0.8550 
*I *22:g B *C 0.7775 0.3950 
*I *3:g B *C 0.7775 1.1650 
*N *16:2 *C 0.7775 0.8500 
*N *16:3 *C 0.7150 0.8500 

*CAP
0 *3:g 3.92377e-17
1 *22:g 4.68335e-17
2 *16:2 2.75766e-17
3 *16:3 1.57558e-16

*RES
0 *3:g *16:2 27.458193  // $poly_conn
1 *16:2 *16:3 46.195099  // $poly_conn
2 *16:2 *22:g 80.022293  // $poly_conn
3 *16:3 *16 0.002965  // $metal1_conn

*END

*D_NET *17 2.81092e-16

*CONN
*P *17 I *C 0.5000 1.0450 
*I *21:g B *C 0.5725 0.3950 
*I *1:g B *C 0.5575 1.1650 
*N *17:2 *C 0.5300 0.8600 

*CAP
0 *1:g 5.03013e-17
1 *21:g 5.21542e-17
2 *17:2 1.78636e-16

*RES
0 *21:g *17:2 75.361565  // $poly_conn
1 *17:2 *1:g 19.691952  // $poly_conn
2 *17:2 *17 45.003967  // $metal1_conn

*END

*D_NET *19 2.12854e-16

*CONN
*P *19 I *C 0.3000 1.0450 
*I *20:g B *C 0.3675 0.3950 
*I *26:g B *C 0.3975 1.1650 
*N *19:2 *C 0.3600 0.8700 
*N *19:3 *C 0.3100 0.8700 

*CAP
0 *26:g 4.12327e-17
1 *20:g 3.99256e-17
2 *19:2 3.4444e-17
3 *19:3 6.24025e-17
4 *19 3.48489e-17

*RES
0 *26:g *19:2 23.872686  // $poly_conn
1 *19:2 *19:3 47.239487  // $poly_conn
2 *19:2 *20:g 81.105751  // $poly_conn
3 *19 *19:3 0.104816  // $metal1_conn

*END

*D_NET *12 3.02625e-16

*CONN
*P *12 O *C 1.9000 1.2350 
*I *24:d B *C 1.4700 0.3950 
*I *25:d B *C 1.4700 0.3950 
*I *27:d B *C 1.8800 0.3950 
*I *2:d B *C 1.8800 0.3950 
*I *6:d B *C 1.4150 1.1650 
*I *8:d B *C 1.4150 1.1650 
*I *10:d B *C 1.8250 1.1650 
*I *11:d B *C 1.8250 1.1650 

*CAP
0 *10:d 1.7406e-16
1 *24:d 8.96602e-17
2 *12 3.89042e-17

*RES
0 *10:d *12 0.024521  // $metal1_conn
1 *24:d *10:d 0.401505  // $metal1_conn

*END

*D_NET *9 7.38651e-18

*CONN
*I *3:s B *C 0.9075 1.1650 
*I *4:d B *C 0.9075 1.1650 

*CAP
0 *3:s 7.38651e-18

*RES
0 *4:d *3:s 0.001  // $mwires

*END

*D_NET *7 9.74659e-18

*CONN
*I *1:s B *C 0.6675 1.1650 
*I *3:d B *C 0.6675 1.1650 

*CAP
0 *1:s 9.74659e-18

*RES
0 *3:d *1:s 0.001  // $mwires

*END

*D_NET *14 8.45528e-18

*CONN
*I *26:s B *C 0.4775 1.1650 
*I *1:d B *C 0.4775 1.1650 

*CAP
0 *26:s 8.45528e-18

*RES
0 *1:d *26:s 0.001  // $mwires

*END

*D_NET *13 6.42163e-16

*CONN
*I *20:d B *C 0.4700 0.3950 
*I *21:d B *C 0.4700 0.3950 
*I *22:d B *C 0.9075 0.3950 
*I *23:d B *C 0.9075 0.3950 
*I *24:g B *C 1.3675 0.3950 
*I *25:g B *C 1.5725 0.3950 
*I *27:g B *C 1.7775 0.3950 
*I *2:g B *C 1.9825 0.3950 
*I *26:d B *C 0.3050 1.1650 
*I *6:g B *C 1.3125 1.1650 
*I *8:g B *C 1.5175 1.1650 
*I *10:g B *C 1.7225 1.1650 
*I *11:g B *C 1.9275 1.1650 
*N *13:14 *C 0.8750 0.8600 
*N *13:16 *C 0.8800 0.4650 

*CAP
0 *11:g 3.06307e-16
1 *26:d 8.68104e-17
2 *22:d 6.06817e-17
3 *20:d 4.03907e-17
4 *13:14 1.47973e-16

*RES
0 *11:g *13:14 0.474657  // $metal1_conn
1 *13:14 *26:d 62.680973  // $metal1_conn
2 *22:d *13:16 75  // $metal1_conn
3 *13:16 *20:d 75.283203  // $metal1_conn
4 *13:14 *13:16 0.3011  // $metal1_conn

*END

