*SPEF "IEEE 1481-1999"
*DESIGN  "OR4X8"
*DATE "Mon Sep 27 10:56:03 2010"
*VENDOR "Cadence Design Systems"
*PROGRAM "Assura RCX"
*VERSION "3.2 Red Hat Linux release 7.2 (Enigma) - (09/09/2009-10:39)"
*DESIGN_FLOW "Physical Verification"
*DIVIDER /
*DELIMITER :
*BUS_DELIMITER []
*T_UNIT 1 PS
*C_UNIT 1e15 FF
*R_UNIT 1 OHM
*L_UNIT 1 MH
// DeviceFingerDelim "@"
// MATCHED
// caps2d version: 10

*NAME_MAP
*1 VSS
*2 mn0
*3 mn4
*4 mn1
*5 mn4\@1
*6 mn2
*7 mn4\@2
*8 mn3
*9 mn4\@3
*10 mn3\@1
*11 mn4\@4
*12 mn2\@1
*13 mn4\@5
*14 mn1\@1
*15 mn4\@6
*16 mn0\@1
*17 Y
*18 n0
*19 n3
*20 VDD
*21 mp2
*22 mp3
*23 mp3\@1
*24 mp2\@1
*25 mp1\@1
*26 mp0\@1
*27 n3\@1
*28 n3\@2
*29 n3\@3
*30 n3\@4
*31 n3\@5
*32 mp4
*33 mp4\@1
*34 mp4\@2
*35 mp4\@3
*36 mp4\@4
*37 mp4\@5
*38 mp4\@6
*39 mp0
*40 mp1
*41 A
*42 B
*43 C
*44 D

*GROUND_NETS VSS

*PORTS
*20 I
*1 I
*41 I
*42 I
*43 I
*44 I
*17 O

*D_NET *20 5.37132e-16

*CONN
*P *20 I *C 0.1000 1.7100 
*I *32:s B *C 1.9025 1.1225 
*I *33:s B *C 2.2600 1.1225 
*I *34:s B *C 2.2600 1.1225 
*I *35:s B *C 2.6700 1.1225 
*I *36:s B *C 2.6700 1.1225 
*I *37:s B *C 3.0800 1.1225 
*I *38:s B *C 3.0800 1.1225 
*I *39:s B *C 0.2950 1.2550 
*I *26:s B *C 1.9025 1.1225 
*N *20:2 *C 2.7000 1.7100 
*N *20:6 *C 0.9000 1.7100 
*N *20:7 *C 0.2850 1.7100 

*CAP
0 *39:s 3.79645e-17
1 *37:s 2.85001e-16
2 *20:7 1.41491e-17
3 *20:2 2.00018e-16

*RES
0 *20:7 *20 0.092312  // $metal1_conn
1 *20:2 *37:s 8.333333  // $metal1_conn
2 *20:2 *20:6 8.333333  // $metal1_conn
3 *20:7 *39:s 62.194462  // $metal1_conn
4 *37:s *20:6 0.457635  // $metal1_conn
5 *20:6 *20:7 0.308164  // $metal1_conn

*END

*D_NET *1 0

*CONN
*P *1 I *C 0.1000 0.0000 
*I *2:s B *C 1.9450 0.4225 
*I *3:s B *C 1.9450 0.4225 
*I *5:s B *C 2.3250 0.4225 
*I *7:s B *C 2.3250 0.4225 
*I *9:s B *C 2.7350 0.4225 
*I *11:s B *C 2.7350 0.4225 
*I *13:s B *C 3.1450 0.4225 
*I *15:s B *C 3.1450 0.4225 
*I *16:s B *C 0.1800 0.4050 
*I *4:s B *C 0.6025 0.4050 
*I *6:s B *C 0.6025 0.4050 
*I *8:s B *C 1.0350 0.4050 
*I *10:s B *C 1.0350 0.4050 
*I *12:s B *C 1.4700 0.4050 
*I *14:s B *C 1.4700 0.4050 
*N *1:2 *C 2.7000 0.0000 


*RES
0 *13:s *1 0.034645  // $metal1_conn
1 *1:2 *13:s 6.888889  // $metal1_conn
2 *1:2 *13:s 6.888889  // $metal1_conn
3 *13:s *8:s 75.200783  // $metal1_conn

*END

*D_NET *41 7.13901e-16

*CONN
*P *41 I *C 1.7000 0.8550 
*I *2:g B *C 1.7975 0.4050 
*I *16:g B *C 0.2725 0.4050 
*I *39:g B *C 0.3875 1.2550 
*I *26:g B *C 1.6825 1.2550 

*CAP
0 *26:g 6.48905e-17
1 *39:g 5.94755e-17
2 *41 5.89535e-16

*RES
0 *41 *26:g 46.017216  // $poly_conn
1 *39:g *41 32.036076  // $poly_conn

*END

*D_NET *42 6.67621e-16

*CONN
*P *42 I *C 0.5000 0.8550 
*I *4:g B *C 0.4925 0.4050 
*I *14:g B *C 1.5775 0.4050 
*I *40:g B *C 0.4925 1.2550 
*I *25:g B *C 1.5425 1.2550 

*CAP
0 *25:g 6.08046e-17
1 *40:g 7.26725e-17
2 *14:g 5.03367e-16
3 *42 3.07769e-17

*RES
0 *14:g *25:g 16.15522  // $poly_conn
1 *40:g *14:g 19.691952  // $poly_conn
2 *14:g *42 0.055374  // $metal1_conn

*END

*D_NET *43 5.11454e-16

*CONN
*P *43 I *C 1.3000 0.6650 
*I *6:g B *C 0.7125 0.4050 
*I *12:g B *C 1.3625 0.4050 
*I *21:g B *C 0.7125 1.2550 
*I *24:g B *C 1.3625 1.2550 

*CAP
0 *24:g 8.70387e-17
1 *21:g 4.4915e-17
2 *12:g 3.59214e-16
3 *43 2.02865e-17

*RES
0 *24:g *12:g 87.640671  // $poly_conn
1 *21:g *12:g 37.640671  // $poly_conn
2 *43 *12:g 0.021465  // $metal1_conn

*END

*D_NET *44 3.21116e-16

*CONN
*P *44 I *C 0.9000 0.6650 
*I *8:g B *C 0.9325 0.4050 
*I *10:g B *C 1.1375 0.4050 
*I *22:g B *C 0.9975 1.2550 
*I *23:g B *C 1.2025 1.2550 
*N *44:2 *C 1.0750 0.7000 

*CAP
0 *23:g 5.15256e-17
1 *22:g 3.44909e-17
2 *10:g 1.1574e-16
3 *44:2 3.10482e-17
4 *44 8.83114e-17

*RES
0 *23:g *44:2 99.984795  // $poly_conn
1 *44:2 *22:g 87.164284  // $poly_conn
2 *44:2 *10:g 1.794373  // $poly_conn
3 *44:2 *44 45.116615  // $metal1_conn

*END

*D_NET *17 6.52773e-16

*CONN
*P *17 O *C 3.1000 0.6650 
*I *3:d B *C 2.1200 0.4225 
*I *5:d B *C 2.1200 0.4225 
*I *7:d B *C 2.5300 0.4225 
*I *9:d B *C 2.5300 0.4225 
*I *11:d B *C 2.9400 0.4225 
*I *13:d B *C 2.9400 0.4225 
*I *15:d B *C 3.3400 0.4225 
*I *32:d B *C 2.0550 1.1225 
*I *33:d B *C 2.0550 1.1225 
*I *34:d B *C 2.4650 1.1225 
*I *35:d B *C 2.4650 1.1225 
*I *36:d B *C 2.8750 1.1225 
*I *37:d B *C 2.8750 1.1225 
*I *38:d B *C 3.2750 1.1225 

*CAP
0 *38:d 4.41506e-16
1 *3:d 2.00955e-16
2 *17 1.03123e-17

*RES
0 *38:d *17 0.089957  // $metal1_conn
1 *17 *3:d 0.070355  // $metal1_conn

*END

*D_NET *31 3.99416e-18

*CONN
*I *25:d B *C 1.6125 1.2550 
*I *26:d B *C 1.6125 1.2550 

*CAP
0 *25:d 3.99416e-18

*RES
0 *26:d *25:d 0.001  // $mwires

*END

*D_NET *30 6.68997e-18

*CONN
*I *24:s B *C 1.4525 1.2550 
*I *25:s B *C 1.4525 1.2550 

*CAP
0 *24:s 6.68997e-18

*RES
0 *25:s *24:s 0.001  // $mwires

*END

*D_NET *29 6.20333e-18

*CONN
*I *23:s B *C 1.2825 1.2550 
*I *24:d B *C 1.2825 1.2550 

*CAP
0 *23:s 6.20333e-18

*RES
0 *24:d *23:s 0.001  // $mwires

*END

*D_NET *28 9.13316e-18

*CONN
*I *21:s B *C 0.8550 1.2550 
*I *22:s B *C 0.8550 1.2550 

*CAP
0 *21:s 9.13316e-18

*RES
0 *22:s *21:s 0.001  // $mwires

*END

*D_NET *27 6.34788e-18

*CONN
*I *40:d B *C 0.6025 1.2550 
*I *21:d B *C 0.6025 1.2550 

*CAP
0 *40:d 6.34788e-18

*RES
0 *21:d *40:d 0.001  // $mwires

*END

*D_NET *19 2.72461e-18

*CONN
*I *39:d B *C 0.4400 1.2550 
*I *40:s B *C 0.4400 1.2550 

*CAP
0 *39:d 2.72461e-18

*RES
0 *40:s *39:d 0.001  // $mwires

*END

*D_NET *18 1.06844e-15

*CONN
*I *2:d B *C 1.6875 0.4050 
*I *3:g B *C 2.0175 0.4225 
*I *5:g B *C 2.2225 0.4225 
*I *7:g B *C 2.4275 0.4225 
*I *9:g B *C 2.6325 0.4225 
*I *11:g B *C 2.8375 0.4225 
*I *13:g B *C 3.0425 0.4225 
*I *15:g B *C 3.2475 0.4225 
*I *16:d B *C 0.3825 0.4050 
*I *4:d B *C 0.3825 0.4050 
*I *6:d B *C 0.8225 0.4050 
*I *8:d B *C 0.8225 0.4050 
*I *10:d B *C 1.2500 0.4050 
*I *12:d B *C 1.2500 0.4050 
*I *14:d B *C 1.6875 0.4050 
*I *32:g B *C 1.9525 1.1225 
*I *33:g B *C 2.1575 1.1225 
*I *34:g B *C 2.3625 1.1225 
*I *35:g B *C 2.5675 1.1225 
*I *36:g B *C 2.7725 1.1225 
*I *37:g B *C 2.9775 1.1225 
*I *38:g B *C 3.1825 1.1225 
*I *22:d B *C 1.1000 1.2550 
*I *23:d B *C 1.1000 1.2550 
*N *18:25 *C 1.8950 0.6850 

*CAP
0 *22:d 1.45359e-16
1 *38:g 5.22833e-16
2 *2:d 2.65851e-16
3 *18:25 1.34399e-16

*RES
0 *38:g *18:25 0.204001  // $metal1_conn
1 *18:25 *22:d 63.075352  // $metal1_conn
2 *18:25 *2:d 0.271649  // $metal1_conn

*END

