*SPEF "IEEE 1481-1999"
*DESIGN  "OR4X2"
*DATE "Mon Sep 27 10:54:53 2010"
*VENDOR "Cadence Design Systems"
*PROGRAM "Assura RCX"
*VERSION "3.2 Red Hat Linux release 7.2 (Enigma) - (09/09/2009-10:39)"
*DESIGN_FLOW "Physical Verification"
*DIVIDER /
*DELIMITER :
*BUS_DELIMITER []
*T_UNIT 1 PS
*C_UNIT 1e15 FF
*R_UNIT 1 OHM
*L_UNIT 1 MH
// DeviceFingerDelim "@"
// MATCHED
// caps2d version: 10

*NAME_MAP
*1 n2
*2 mp3
*3 n1
*4 mp2
*5 A
*6 mp1
*7 B
*8 mp0
*9 C
*10 mp4
*11 D
*12 mp4\@1
*13 VDD
*14 n0
*15 mn3
*16 n3
*17 mn2
*18 mn1
*19 mn0
*20 mn4
*21 mn4\@1
*22 Y
*23 VSS

*GROUND_NETS VSS

*PORTS
*13 I
*23 I
*5 I
*7 I
*9 I
*11 I
*22 O

*D_NET *13 2.22407e-16

*CONN
*P *13 I *C 0.1000 1.7100 
*I *8:s B *C 1.4950 1.1600 
*I *10:s B *C 1.4950 1.1600 
*I *12:s B *C 1.8850 1.1600 
*N *13:3 *C 1.0000 1.7100 
*N *13:4 *C 1.0000 1.7100 

*CAP
0 *12:s 1.16847e-16
1 *13:3 9.51862e-17
2 *13 1.03734e-17

*RES
0 *13:4 *13 0.449059  // $metal1_conn
1 *13:3 *13:4 7.5  // $metal1_conn
2 *12:s *13:4 0.241932  // $metal1_conn

*END

*D_NET *23 0

*CONN
*P *23 I *C 0.1000 0.0000 
*I *15:s B *C 0.2600 0.3325 
*I *17:s B *C 0.8125 0.3325 
*I *18:s B *C 0.8125 0.3325 
*I *19:s B *C 1.5150 0.3900 
*I *20:s B *C 1.5150 0.3900 
*I *21:s B *C 1.8850 0.3900 
*N *23:3 *C 1.0000 0.0000 
*N *23:4 *C 1.0000 0.0000 
*N *23:5 *C 0.6900 0.0000 
*N *23:6 *C 0.2500 0.0000 


*RES
0 *23:6 *23 0.07444  // $metal1_conn
1 *23:3 *23:4 6.2  // $metal1_conn
2 *23:5 *17:s 75.073677  // $metal1_conn
3 *23:6 *15:s 75.196671  // $metal1_conn
4 *21:s *23:4 0.241932  // $metal1_conn
5 *23:4 *23:5 0.154567  // $metal1_conn
6 *23:5 *23:6 0.219272  // $metal1_conn

*END

*D_NET *5 1.97522e-16

*CONN
*P *5 I *C 1.3000 0.6650 
*I *19:g B *C 1.2525 0.3325 
*I *8:g B *C 1.1975 1.0725 
*N *5:2 *C 1.2250 0.6850 

*CAP
0 *8:g 3.51244e-17
1 *19:g 2.94452e-17
2 *5:2 1.15047e-16
3 *5 1.79057e-17

*RES
0 *19:g *5:2 63.281693  // $poly_conn
1 *5:2 *8:g 63.281693  // $poly_conn
2 *5 *5:2 45.02813  // $metal1_conn

*END

*D_NET *7 1.97731e-16

*CONN
*P *7 I *C 0.7000 0.6650 
*I *18:g B *C 0.8975 0.3325 
*I *6:g B *C 0.8975 1.0725 
*N *7:2 *C 0.8700 0.5400 

*CAP
0 *6:g 4.01376e-17
1 *18:g 2.71509e-17
2 *7:2 9.08677e-17
3 *7 3.95747e-17

*RES
0 *6:g *7:2 100.461182  // $poly_conn
1 *7:2 *18:g 26.102209  // $poly_conn
2 *7:2 *7 45.151115  // $metal1_conn

*END

*D_NET *9 2.523e-16

*CONN
*P *9 I *C 0.5000 0.8550 
*I *17:g B *C 0.5575 0.3325 
*I *4:g B *C 0.5575 1.0725 
*N *9:2 *C 0.5300 0.8500 

*CAP
0 *4:g 3.44089e-17
1 *17:g 5.54547e-17
2 *9:2 5.16325e-17
3 *9 1.10804e-16

*RES
0 *4:g *9:2 20.974003  // $poly_conn
1 *9:2 *17:g 105.589386  // $poly_conn
2 *9:2 *9 45.003948  // $metal1_conn

*END

*D_NET *11 2.18699e-16

*CONN
*P *11 I *C 0.3000 0.8550 
*I *15:g B *C 0.3525 0.3325 
*I *2:g B *C 0.3975 1.0725 
*N *11:2 *C 0.3300 0.5400 

*CAP
0 *2:g 5.64252e-17
1 *15:g 2.71234e-17
2 *11:2 6.90656e-17
3 *11 6.60847e-17

*RES
0 *2:g *11:2 104.489937  // $poly_conn
1 *11:2 *15:g 25.129578  // $poly_conn
2 *11:2 *11 45.185745  // $metal1_conn

*END

*D_NET *22 1.34509e-16

*CONN
*P *22 O *C 1.7000 0.6650 
*I *20:d B *C 1.6900 0.3900 
*I *21:d B *C 1.6900 0.3900 
*I *10:d B *C 1.6900 1.1600 
*I *12:d B *C 1.6900 1.1600 

*CAP
0 *10:d 9.56528e-17
1 *20:d 1.80609e-17
2 *22 2.07956e-17

*RES
0 *22 *10:d 20.962013  // $metal1_conn
1 *22 *20:d 75.122314  // $metal1_conn

*END

*D_NET *3 8.64247e-18

*CONN
*I *6:s B *C 1.0475 1.0725 
*I *8:d B *C 1.0475 1.0725 

*CAP
0 *6:s 8.64247e-18

*RES
0 *8:d *6:s 0.001  // $mwires

*END

*D_NET *1 1.16927e-17

*CONN
*I *4:s B *C 0.7275 1.0725 
*I *6:d B *C 0.7275 1.0725 

*CAP
0 *4:s 1.16927e-17

*RES
0 *6:d *4:s 0.001  // $mwires

*END

*D_NET *16 4.20444e-18

*CONN
*I *2:s B *C 0.4775 1.0725 
*I *4:d B *C 0.4775 1.0725 

*CAP
0 *2:s 4.20444e-18

*RES
0 *4:d *2:s 0.001  // $mwires

*END

*D_NET *14 5.36458e-16

*CONN
*I *15:d B *C 0.4550 0.3325 
*I *17:d B *C 0.4550 0.3325 
*I *18:d B *C 1.0750 0.3325 
*I *19:d B *C 1.0750 0.3325 
*I *20:g B *C 1.5875 0.3900 
*I *21:g B *C 1.7925 0.3900 
*I *2:d B *C 0.3050 1.0725 
*I *10:g B *C 1.5875 1.1600 
*I *12:g B *C 1.7925 1.1600 
*N *14:5 *C 1.5300 0.8650 
*N *14:9 *C 1.0500 0.8950 
*N *14:12 *C 1.0500 0.3200 

*CAP
0 *12:g 1.30252e-16
1 *2:d 7.37346e-17
2 *18:d 9.81814e-17
3 *15:d 6.20255e-17
4 *14:9 1.07349e-16
5 *14:5 6.4915e-17

*RES
0 *12:g *14:5 45.794373  // $poly_conn
1 *14:5 *14:9 0.315853  // $metal1_conn
2 *18:d *14:12 75  // $metal1_conn
3 *14:12 *15:d 75.400841  // $metal1_conn
4 *14:9 *2:d 62.637596  // $metal1_conn
5 *14:9 *14:12 0.428217  // $metal1_conn

*END

