*SPEF "IEEE 1481-1999"
*DESIGN  "SDFFSX2"
*DATE "Mon Sep 27 11:09:26 2010"
*VENDOR "Cadence Design Systems"
*PROGRAM "Assura RCX"
*VERSION "3.2 Red Hat Linux release 7.2 (Enigma) - (09/09/2009-10:39)"
*DESIGN_FLOW "Physical Verification"
*DIVIDER /
*DELIMITER :
*BUS_DELIMITER []
*T_UNIT 1 PS
*C_UNIT 1e15 FF
*R_UNIT 1 OHM
*L_UNIT 1 MH
// DeviceFingerDelim "@"
// MATCHED
// caps2d version: 10

*NAME_MAP
*1 CK
*2 VDD
*3 mn13
*4 mn10
*5 mn57
*6 mn57\@1
*7 mn56
*8 mn55
*9 mn55\@1
*10 mn45
*11 mn50
*12 mn51
*13 QN
*14 mn52
*15 net492
*16 mn40
*17 net405
*18 mn21
*19 n20
*20 qbint
*21 SEb
*22 n35
*23 Db
*24 mout
*25 CKbb
*26 CKb
*27 mp35
*28 net417
*29 mp36
*30 net433
*31 SE
*32 mp25
*33 net441
*34 mp57
*35 net521
*36 mp57\@1
*37 net518
*38 mp56
*39 net442
*40 SI
*41 mp55
*42 net478
*43 D
*44 mp55\@1
*45 net494
*46 mp45
*47 net506
*48 mp50
*49 SN
*50 mp51
*51 VSS
*52 mp52
*53 mn30
*54 mp40
*55 mn31
*56 Q
*57 mp20
*58 mn35
*59 mp11
*60 mn36
*61 mp12
*62 mn25
*63 mp14
*64 mn20
*65 mp13
*66 mn11
*67 mp10
*68 mn12
*69 mp21
*70 mn14
*71 mp30
*72 mp31

*GROUND_NETS VSS

*PORTS
*2 I
*51 I
*1 I
*43 I
*31 I
*40 I
*49 I
*56 O
*13 O

*D_NET *2 9.20768e-16

*CONN
*P *2 I *C 0.1000 1.7100 
*I *57:s B *C 5.4375 1.3275 
*I *59:s B *C 5.4375 1.3275 
*I *65:s B *C 6.3700 1.3275 
*I *67:s B *C 6.3700 1.3275 
*I *69:s B *C 3.6450 1.0425 
*I *71:s B *C 3.6450 1.0425 
*I *72:s B *C 4.1025 1.0425 
*I *27:s B *C 4.1025 1.0425 
*I *34:s B *C 0.1150 1.0950 
*I *36:s B *C 0.5550 1.2300 
*I *38:s B *C 0.9650 1.0950 
*I *41:s B *C 0.9650 1.0950 
*I *44:s B *C 1.3750 1.5700 
*I *46:s B *C 1.3750 1.5700 
*I *48:s B *C 1.7700 1.3175 
*I *50:s B *C 2.1475 1.3175 
*N *2:2 *C 5.7000 1.7100 
*N *2:3 *C 5.7000 1.7100 
*N *2:4 *C 5.4150 1.7100 
*N *2:5 *C 4.1350 1.7100 
*N *2:6 *C 3.5000 1.7100 
*N *2:7 *C 2.1350 1.7100 
*N *2:8 *C 1.7400 1.7100 

*CAP
0 *50:s 3.2049e-17
1 *48:s 1.51268e-17
2 *44:s 1.68569e-17
3 *72:s 8.76994e-17
4 *69:s 1.33165e-17
5 *65:s 5.32844e-17
6 *57:s 3.73535e-17
7 *2:8 1.01971e-17
8 *2:7 2.78068e-17
9 *2:5 4.14496e-17
10 *2:4 3.47601e-17
11 *2:2 4.66879e-16
12 *2 8.39892e-17

*RES
0 *2:2 *2:3 6.818182  // $metal1_conn
1 *2:2 *2:6 6.818182  // $metal1_conn
2 *2:2 *44:s 6.25  // $metal1_conn
3 *65:s *2:3 62.581467  // $metal1_conn
4 *2:4 *57:s 62.200787  // $metal1_conn
5 *2:5 *72:s 62.431759  // $metal1_conn
6 *2:6 *69:s 62.060661  // $metal1_conn
7 *2:7 *50:s 62.207451  // $metal1_conn
8 *2:8 *48:s 62.211121  // $metal1_conn
9 *2:3 *2:4 0.142703  // $metal1_conn
10 *2:4 *2:5 0.641399  // $metal1_conn
11 *2:5 *2:6 0.31942  // $metal1_conn
12 *2:6 *2:7 0.684214  // $metal1_conn
13 *2:7 *2:8 0.197661  // $metal1_conn
14 *2:8 *44:s 0.195154  // $metal1_conn
15 *44:s *2 0.182619  // $metal1_conn

*END

*D_NET *51 0

*CONN
*P *51 I *C 0.1000 0.0000 
*I *53:s B *C 3.4250 0.5325 
*I *58:s B *C 4.2000 0.3975 
*I *64:s B *C 5.3925 0.4025 
*I *66:s B *C 5.3925 0.4025 
*I *3:s B *C 6.3700 0.4025 
*I *4:s B *C 6.3700 0.4025 
*I *5:s B *C 0.1150 0.5300 
*I *6:s B *C 0.5700 0.1400 
*I *7:s B *C 0.9200 0.5300 
*I *8:s B *C 0.9200 0.5300 
*I *9:s B *C 1.3700 0.5575 
*I *10:s B *C 1.3700 0.5575 
*I *11:s B *C 1.8500 0.5225 
*I *18:s B *C 3.4250 0.5325 
*N *51:2 *C 5.7000 0.0000 
*N *51:3 *C 5.7000 0.0000 
*N *51:4 *C 5.3400 0.0000 
*N *51:5 *C 4.1150 0.0000 
*N *51:6 *C 3.5000 0.0000 
*N *51:7 *C 3.2550 0.0000 
*N *51:8 *C 1.8100 0.0000 


*RES
0 *51:2 *51:3 5.636364  // $metal1_conn
1 *51:2 *51:6 5.636364  // $metal1_conn
2 *51:2 *9:s 5.166667  // $metal1_conn
3 *3:s *51:3 75.618118  // $metal1_conn
4 *51:4 *64:s 75.253693  // $metal1_conn
5 *51:5 *58:s 75.134491  // $metal1_conn
6 *51:7 *53:s 75.218559  // $metal1_conn
7 *51:8 *11:s 75.317398  // $metal1_conn
8 *51:3 *51:4 0.180308  // $metal1_conn
9 *51:4 *51:5 0.613822  // $metal1_conn
10 *51:5 *51:6 0.308164  // $metal1_conn
11 *51:6 *51:7 0.122647  // $metal1_conn
12 *51:7 *51:8 0.72413  // $metal1_conn
13 *51:8 *9:s 0.245294  // $metal1_conn
14 *9:s *51 0.182619  // $metal1_conn

*END

*D_NET *1 2.32058e-16

*CONN
*P *1 I *C 5.1000 1.0450 
*I *64:g B *C 5.2375 0.4025 
*I *57:g B *C 5.3275 1.3275 
*N *1:2 *C 5.2375 0.6650 
*N *1:3 *C 5.1050 0.6650 

*CAP
0 *57:g 4.76754e-17
1 *64:g 2.53623e-17
2 *1:2 4.32859e-17
3 *1:3 5.87452e-17
4 *1 5.69891e-17

*RES
0 *57:g *1:2 150.801895  // $poly_conn
1 *1:2 *1:3 53.677353  // $poly_conn
2 *1:2 *64:g 45.963261  // $poly_conn
3 *1:3 *1 0.190053  // $metal1_conn

*END

*D_NET *43 2.11294e-16

*CONN
*P *43 I *C 5.5000 0.6650 
*I *66:g B *C 5.5475 0.4025 
*I *59:g B *C 5.5475 1.3275 
*N *43:2 *C 5.5100 0.6100 

*CAP
0 *59:g 5.93741e-17
1 *66:g 2.04737e-17
2 *43:2 1.13149e-16
3 *43 1.82969e-17

*RES
0 *59:g *43:2 146.924454  // $poly_conn
1 *43:2 *66:g 25.129578  // $poly_conn
2 *43 *43:2 45.01992  // $metal1_conn

*END

*D_NET *31 5.09842e-16

*CONN
*P *31 I *C 6.3000 0.6650 
*I *70:g B *C 6.1625 0.4025 
*I *4:g B *C 6.4725 0.4025 
*I *61:g B *C 5.8525 1.3275 
*I *67:g B *C 6.4725 1.3275 
*N *31:2 *C 5.8900 1.0550 
*N *31:4 *C 6.1350 0.6450 
*N *31:6 *C 6.4450 0.6550 

*CAP
0 *67:g 6.06915e-17
1 *61:g 3.62944e-17
2 *4:g 2.88466e-17
3 *70:g 6.71926e-17
4 *31:2 1.04448e-16
5 *31:4 1.10662e-16
6 *31:6 8.09221e-17
7 *31 2.07852e-17

*RES
0 *61:g *31:2 76.501236  // $poly_conn
1 *70:g *31:4 80.076569  // $poly_conn
2 *67:g *31:6 136.358612  // $poly_conn
3 *31:6 *4:g 37.640671  // $poly_conn
4 *31:4 *31:2 0.418493  // $metal1_conn
5 *31:4 *31 0.099379  // $metal1_conn
6 *31 *31:6 45.102699  // $metal1_conn

*END

*D_NET *40 3.54273e-16

*CONN
*P *40 I *C 6.5000 0.8550 
*I *3:g B *C 6.2675 0.4025 
*I *65:g B *C 6.2675 1.3275 
*N *40:2 *C 6.3300 1.0050 

*CAP
0 *65:g 5.86994e-17
1 *3:g 1.00729e-16
2 *40:2 1.53844e-16
3 *40 4.10006e-17

*RES
0 *65:g *40:2 54.902214  // $poly_conn
1 *40:2 *3:g 137.776733  // $poly_conn
2 *40 *40:2 45.141815  // $metal1_conn

*END

*D_NET *49 7.44686e-16

*CONN
*P *49 I *C 2.3000 0.8550 
*I *53:g B *C 3.5875 0.5325 
*I *11:g B *C 1.9425 0.5225 
*I *71:g B *C 3.6925 1.0425 
*I *48:g B *C 1.8425 1.3175 
*N *49:2 *C 1.9150 0.8650 
*N *49:6 *C 3.4450 0.3600 
*N *49:7 *C 2.2650 0.8550 

*CAP
0 *48:g 5.68783e-17
1 *71:g 6.9712e-17
2 *11:g 4.92633e-17
3 *53:g 5.96592e-17
4 *49:7 1.65198e-16
5 *49:2 1.19877e-16
6 *49:6 1.97638e-16
7 *49 2.64592e-17

*RES
0 *11:g *49:2 60.71759  // $poly_conn
1 *49:2 *48:g 79.658791  // $poly_conn
2 *71:g *53:g 99.710434  // $poly_conn
3 *53:g *49:6 77.389587  // $poly_conn
4 *49:2 *49:7 45.287075  // $metal1_conn
5 *49:7 *49 0.027204  // $metal1_conn
6 *49:7 *49:6 1.385805  // $metal1_conn

*END

*D_NET *56 9.02609e-17

*CONN
*P *56 O *C 1.1000 0.6650 
*I *8:d B *C 1.1150 0.5300 
*I *9:d B *C 1.1150 0.5300 
*I *41:d B *C 1.1150 1.0950 
*I *44:d B *C 1.1150 1.0950 

*CAP
0 *41:d 4.52866e-17
1 *8:d 4.49743e-17

*RES
0 *41:d *56 20.928875  // $metal1_conn
1 *56 *8:d 75.043312  // $metal1_conn

*END

*D_NET *13 1.01802e-16

*CONN
*P *13 O *C 0.3000 0.6650 
*I *5:d B *C 0.3100 0.5300 
*I *6:d B *C 0.3100 0.5300 
*I *34:d B *C 0.3100 1.0950 
*I *36:d B *C 0.3100 1.0950 

*CAP
0 *34:d 7.16191e-17
1 *5:d 3.01827e-17

*RES
0 *13 *5:d 75.054138  // $metal1_conn
1 *34:d *13 20.98439  // $metal1_conn

*END

*D_NET *47 0

*CONN
*I *70:s B *C 6.2150 0.4025 
*I *3:d B *C 6.2150 0.4025 


*RES
0 *3:d *70:s 0.001  // $mwires

*END

*D_NET *45 5.73429e-18

*CONN
*I *66:d B *C 5.7525 0.4025 
*I *68:s B *C 5.7525 0.4025 

*CAP
0 *66:d 5.73429e-18

*RES
0 *68:s *66:d 0.001  // $mwires

*END

*D_NET *42 1.91044e-18

*CONN
*I *58:d B *C 4.3025 0.3975 
*I *60:s B *C 4.3025 0.3975 

*CAP
0 *58:d 1.91044e-18

*RES
0 *60:s *58:d 0.001  // $mwires

*END

*D_NET *39 4.05643e-19

*CONN
*I *53:d B *C 3.6400 0.5325 
*I *55:s B *C 3.6400 0.5325 

*CAP
0 *53:d 4.05643e-19

*RES
0 *55:s *53:d 0.001  // $mwires

*END

*D_NET *37 1.45409e-18

*CONN
*I *12:d B *C 2.1825 0.5225 
*I *14:s B *C 2.1825 0.5225 

*CAP
0 *12:d 1.45409e-18

*RES
0 *14:s *12:d 0.001  // $mwires

*END

*D_NET *35 0

*CONN
*I *11:d B *C 1.9950 0.5225 
*I *12:s B *C 1.9950 0.5225 


*RES
0 *12:s *11:d 0.001  // $mwires

*END

*D_NET *33 0

*CONN
*I *63:s B *C 6.2075 1.3275 
*I *65:d B *C 6.2075 1.3275 


*RES
0 *65:d *63:s 0.001  // $mwires

*END

*D_NET *30 5.53568e-18

*CONN
*I *59:d B *C 5.7000 1.3275 
*I *61:s B *C 5.7000 1.3275 

*CAP
0 *59:d 5.53568e-18

*RES
0 *61:s *59:d 0.001  // $mwires

*END

*D_NET *28 1.07651e-18

*CONN
*I *27:d B *C 4.3000 1.0425 
*I *29:s B *C 4.3000 1.0425 

*CAP
0 *27:d 1.07651e-18

*RES
0 *29:s *27:d 0.001  // $mwires

*END

*D_NET *26 1.24061e-15

*CONN
*I *62:g B *C 4.7175 0.3975 
*I *64:d B *C 5.1450 0.4025 
*I *14:g B *C 2.3175 0.5225 
*I *18:g B *C 3.0925 0.5325 
*I *57:d B *C 5.2350 1.3275 
*I *69:g B *C 3.4275 1.0425 
*I *29:g B *C 4.3525 1.0425 
*I *54:g B *C 2.7575 1.1375 
*N *26:1 *C 3.4000 1.3150 
*N *26:3 *C 3.0925 0.8375 
*N *26:8 *C 4.3800 1.2600 
*N *26:10 *C 4.7450 0.6650 
*N *26:12 *C 4.6150 1.2600 

*CAP
0 *54:g 1.05941e-16
1 *29:g 8.79869e-17
2 *69:g 3.92152e-17
3 *57:d 8.26427e-17
4 *18:g 2.72447e-17
5 *14:g 1.07799e-16
6 *64:d 8.79417e-17
7 *62:g 3.4073e-17
8 *26:12 8.36554e-17
9 *26:3 4.17547e-17
10 *26:1 1.75932e-16
11 *26:8 1.9181e-16
12 *26:10 1.74618e-16

*RES
0 *26:1 *69:g 78.79451  // $poly_conn
1 *69:g *26:3 103.831421  // $poly_conn
2 *26:3 *54:g 128.190384  // $poly_conn
3 *54:g *14:g 371.50531  // $poly_conn
4 *26:3 *18:g 54.915871  // $poly_conn
5 *29:g *26:8 64.691956  // $poly_conn
6 *62:g *26:10 86.486824  // $poly_conn
7 *57:d *26:12 62.517052  // $metal1_conn
8 *26:12 *26:8 0.144988  // $metal1_conn
9 *26:8 *26:1 1.279885  // $metal1_conn
10 *26:12 *26:10 0.517725  // $metal1_conn
11 *26:10 *64:d 75.689919  // $metal1_conn

*END

*D_NET *25 7.31348e-16

*CONN
*I *60:g B *C 4.3575 0.3975 
*I *16:g B *C 2.5525 0.5225 
*I *18:d B *C 2.9425 0.5325 
*I *69:d B *C 3.3350 1.0425 
*I *32:g B *C 4.5575 1.0425 
*I *52:g B *C 2.5525 1.1375 
*N *25:2 *C 2.5525 0.6925 
*N *25:4 *C 2.8450 0.7050 
*N *25:6 *C 4.3950 0.5700 
*N *25:9 *C 3.2950 0.7050 

*CAP
0 *52:g 6.81338e-17
1 *32:g 5.76078e-17
2 *69:d 4.14479e-17
3 *18:d 2.7453e-17
4 *16:g 2.58756e-17
5 *60:g 3.87589e-17
6 *25:9 1.44477e-16
7 *25:2 2.75294e-17
8 *25:4 8.73565e-17
9 *25:6 2.12709e-16

*RES
0 *52:g *25:2 85.386459  // $poly_conn
1 *25:2 *16:g 23.847994  // $poly_conn
2 *25:2 *25:4 104.494034  // $poly_conn
3 *32:g *25:6 102.418304  // $poly_conn
4 *25:6 *60:g 16.15522  // $poly_conn
5 *18:d *25:4 75.113373  // $metal1_conn
6 *25:4 *25:9 0.345238  // $metal1_conn
7 *25:9 *69:d 62.17564  // $metal1_conn
8 *25:9 *25:6 46.137589  // $metal1_conn

*END

*D_NET *24 6.34484e-16

*CONN
*I *55:d B *C 3.7850 0.5325 
*I *58:g B *C 4.2475 0.3975 
*I *16:s B *C 2.6450 0.5225 
*I *71:d B *C 3.8250 1.0425 
*I *72:d B *C 3.8250 1.0425 
*I *27:g B *C 4.2475 1.0425 
*I *54:s B *C 2.8500 1.1375 
*N *24:2 *C 4.2475 0.5800 
*N *24:3 *C 4.1750 0.5800 
*N *24:6 *C 3.7950 0.5450 
*N *24:8 *C 3.7950 0.9950 
*N *24:10 *C 2.8600 1.0900 

*CAP
0 *54:s 1.23746e-16
1 *27:g 7.24043e-17
2 *71:d 1.17889e-16
3 *16:s 9.21279e-17
4 *58:g 3.77801e-17
5 *55:d 7.49686e-17
6 *24:2 4.30241e-17
7 *24:3 7.25435e-17

*RES
0 *27:g *24:2 87.7146  // $poly_conn
1 *24:2 *24:3 47.037205  // $poly_conn
2 *24:2 *58:g 24.894089  // $poly_conn
3 *24:3 *24:6 0.297056  // $metal1_conn
4 *24:6 *24:8 0.340412  // $metal1_conn
5 *24:8 *24:10 0.820877  // $metal1_conn
6 *24:10 *16:s 75.552017  // $metal1_conn
7 *55:d *24:6 75  // $metal1_conn
8 *71:d *24:8 62  // $metal1_conn
9 *54:s *24:10 62  // $metal1_conn

*END

*D_NET *23 5.53178e-16

*CONN
*I *62:d B *C 4.8675 0.3975 
*I *68:d B *C 6.0600 0.4025 
*I *70:d B *C 6.0600 0.4025 
*I *61:d B *C 6.0000 1.3275 
*I *63:d B *C 6.0000 1.3275 
*I *32:s B *C 4.7225 1.0425 
*N *23:2 *C 5.7000 1.2150 
*N *23:3 *C 4.9050 1.0600 

*CAP
0 *32:s 2.44536e-17
1 *61:d 4.47015e-17
2 *68:d 9.4171e-17
3 *62:d 8.96688e-17
4 *23:3 1.51223e-16
5 *23:2 1.4896e-16

*RES
0 *68:d *23:2 75.763565  // $metal1_conn
1 *23:2 *23:3 0.696124  // $metal1_conn
2 *23:3 *32:s 62.052704  // $metal1_conn
3 *23:2 *61:d 62.225746  // $metal1_conn
4 *23:3 *62:d 75.511848  // $metal1_conn

*END

*D_NET *22 4.96809e-16

*CONN
*I *10:g B *C 1.4225 0.5575 
*I *14:d B *C 2.4350 0.5225 
*I *16:d B *C 2.4350 0.5225 
*I *46:g B *C 1.4225 1.0550 
*I *52:d B *C 2.6550 1.1375 
*I *54:d B *C 2.6550 1.1375 
*N *22:2 *C 1.4225 0.8225 
*N *22:4 *C 1.6850 0.8600 
*N *22:6 *C 2.5025 1.0250 

*CAP
0 *52:d 3.26656e-17
1 *46:g 4.8e-17
2 *14:d 7.2187e-17
3 *10:g 4.11561e-17
4 *22:6 1.32102e-16
5 *22:2 2.63547e-17
6 *22:4 1.44344e-16

*RES
0 *46:g *22:2 18.71979  // $poly_conn
1 *22:2 *10:g 40.514664  // $poly_conn
2 *22:2 *22:4 98.122368  // $poly_conn
3 *52:d *22:6 62.153103  // $metal1_conn
4 *22:6 *22:4 0.733871  // $metal1_conn
5 *22:6 *14:d 75.381866  // $metal1_conn

*END

*D_NET *21 4.48077e-16

*CONN
*I *68:g B *C 5.9575 0.4025 
*I *4:d B *C 6.5950 0.4025 
*I *63:g B *C 6.1475 1.3275 
*I *67:d B *C 6.5650 1.3275 
*N *21:2 *C 6.1100 0.9400 
*N *21:5 *C 6.5750 1.1850 

*CAP
0 *67:d 1.39345e-17
1 *63:g 5.59967e-17
2 *4:d 6.16476e-17
3 *68:g 5.67702e-17
4 *21:5 1.12397e-16
5 *21:2 1.47331e-16

*RES
0 *63:g *21:2 62.309063  // $poly_conn
1 *21:2 *68:g 133.692947  // $poly_conn
2 *4:d *21:5 75.713676  // $metal1_conn
3 *21:5 *21:2 45.489315  // $metal1_conn
4 *21:5 *67:d 62.04937  // $metal1_conn

*END

*D_NET *20 5.82743e-16

*CONN
*I *7:g B *C 0.7775 0.5875 
*I *8:g B *C 1.0125 0.5300 
*I *9:g B *C 1.2175 0.5300 
*I *10:d B *C 1.5150 0.5575 
*I *12:g B *C 2.0475 0.5225 
*I *38:g B *C 0.7775 1.0075 
*I *41:g B *C 1.0125 1.0950 
*I *44:g B *C 1.2175 1.0950 
*I *46:d B *C 1.5650 1.0300 
*I *50:g B *C 2.0475 1.3175 
*N *20:4 *C 0.7775 0.7575 
*N *20:7 *C 1.2750 0.7600 
*N *20:12 *C 2.0750 0.7050 
*N *20:15 *C 1.5250 0.7300 
*N *20:16 *C 1.5250 0.6575 

*CAP
0 *50:g 6.63703e-17
1 *46:d 3.3575e-17
2 *44:g 1.26438e-16
3 *38:g 2.45825e-17
4 *12:g 3.99294e-17
5 *10:d 1.38441e-17
6 *7:g 1.99922e-17
7 *20:15 4.7081e-17
8 *20:4 1.0593e-17
9 *20:7 4.98246e-17
10 *20:12 1.50513e-16

*RES
0 *50:g *20:12 120.973999  // $poly_conn
1 *20:4 *38:g 35.003685  // $poly_conn
2 *20:12 *12:g 19.691952  // $poly_conn
3 *20:4 *7:g 23.465221  // $poly_conn
4 *44:g *20:7 48.256718  // $poly_conn
5 *44:g *20:4 54.914085  // $poly_conn
6 *20:16 *20:12 45.441021  // $metal1_conn
7 *20:15 *20:7 0.152317  // $metal1_conn
8 *46:d *20:15 62.227715  // $metal1_conn
9 *20:16 *10:d 75.044968  // $metal1_conn
10 *20:15 *20:16 0.069903  // $metal1_conn

*END

*D_NET *19 4.07826e-16

*CONN
*I *55:g B *C 3.6925 0.5325 
*I *60:d B *C 4.5375 0.3975 
*I *62:s B *C 4.5375 0.3975 
*I *72:g B *C 3.9575 1.0425 
*I *29:d B *C 4.4550 1.0425 
*I *32:d B *C 4.4550 1.0425 
*N *19:2 *C 3.9850 0.7400 
*N *19:5 *C 4.4550 0.7400 

*CAP
0 *29:d 4.86107e-17
1 *72:g 3.35418e-17
2 *60:d 6.84799e-17
3 *55:g 7.133e-17
4 *19:5 7.60209e-17
5 *19:2 1.09843e-16

*RES
0 *72:g *19:2 38.324913  // $poly_conn
1 *19:2 *55:g 84.600174  // $poly_conn
2 *60:d *19:5 75.34568  // $metal1_conn
3 *19:5 *19:2 45.378941  // $metal1_conn
4 *19:5 *29:d 62.176811  // $metal1_conn

*END

*D_NET *17 1.53297e-16

*CONN
*I *48:d B *C 1.9450 1.3175 
*I *50:d B *C 1.9450 1.3175 
*I *52:s B *C 2.4600 1.1375 

*CAP
0 *52:s 7.07471e-17
1 *48:d 8.25502e-17

*RES
0 *52:s *48:d 124.333481  // $metal1_conn

*END

*D_NET *15 1.74734e-16

*CONN
*I *5:g B *C 0.2075 0.5300 
*I *6:g B *C 0.4125 0.5300 
*I *7:d B *C 0.6850 0.5875 
*I *34:g B *C 0.2075 1.0950 
*I *36:g B *C 0.4125 1.0950 
*I *38:d B *C 0.7050 1.0075 
*N *15:6 *C 0.5000 0.8000 
*N *15:9 *C 0.6650 0.8100 

*CAP
0 *38:d 1.4909e-17
1 *36:g 9.80821e-17
2 *7:d 1.79255e-17
3 *15:9 1.27712e-17
4 *15:6 3.10459e-17

*RES
0 *36:g *15:6 51.352463  // $poly_conn
1 *15:9 *15:6 0.083276  // $metal1_conn
2 *38:d *15:9 62.093658  // $metal1_conn
3 *15:9 *7:d 75.129639  // $metal1_conn

*END

