*SPEF "IEEE 1481-1999"
*DESIGN  "SDFFTRX1"
*DATE "Mon Sep 27 11:10:34 2010"
*VENDOR "Cadence Design Systems"
*PROGRAM "Assura RCX"
*VERSION "3.2 Red Hat Linux release 7.2 (Enigma) - (09/09/2009-10:39)"
*DESIGN_FLOW "Physical Verification"
*DIVIDER /
*DELIMITER :
*BUS_DELIMITER []
*T_UNIT 1 PS
*C_UNIT 1e15 FF
*R_UNIT 1 OHM
*L_UNIT 1 MH
// DeviceFingerDelim "@"
// MATCHED
// caps2d version: 10

*NAME_MAP
*1 mn20
*2 QN
*3 mn45
*4 mn50
*5 mn51
*6 mn40
*7 mn30
*8 RN
*9 mp35
*10 mp57
*11 SE
*12 mp56
*13 mp55
*14 mp20
*15 mp45
*16 SI
*17 mp50
*18 mp51
*19 mp40
*20 mp30
*21 net436
*22 mp36
*23 n20
*24 mp25
*25 mout
*26 mp21
*27 n30
*28 mp12
*29 SEb
*30 mp13
*31 Dbp
*32 mp11
*33 qbint
*34 mp10
*35 CKbb
*36 mp0
*37 Db
*38 mp1
*39 CKb
*40 net395
*41 CK
*42 net375
*43 net411
*44 net460
*45 net452
*46 net484
*47 net476
*48 VSS
*49 D
*50 mn36
*51 mn25
*52 mn21
*53 mn12
*54 Q
*55 mn13
*56 VDD
*57 mn11
*58 mn10
*59 mn0
*60 mn1
*61 mn35
*62 mn57
*63 mn56
*64 mn55

*GROUND_NETS VSS

*PORTS
*56 I
*48 I
*41 I
*49 I
*8 I
*11 I
*16 I
*54 O
*2 O

*D_NET *56 6.97139e-16

*CONN
*P *56 I *C 0.1000 1.7100 
*I *26:s B *C 4.1050 1.1925 
*I *28:s B *C 4.1050 1.1925 
*I *34:s B *C 5.5950 1.0075 
*I *36:s B *C 5.5950 1.0075 
*I *38:s B *C 6.0150 1.0075 
*I *9:s B *C 3.0950 1.0325 
*I *10:s B *C 0.5625 1.0075 
*I *12:s B *C 0.5625 1.0075 
*I *13:s B *C 1.2775 1.0475 
*I *14:s B *C 1.2775 1.0475 
*I *15:s B *C 2.1000 1.0325 
*I *17:s B *C 2.1000 1.0325 
*I *20:s B *C 3.0950 1.0325 
*N *56:2 *C 5.4650 1.7100 
*N *56:3 *C 5.3000 1.7100 
*N *56:4 *C 5.3000 1.7100 
*N *56:5 *C 4.1050 1.7100 
*N *56:6 *C 3.2000 1.7100 
*N *56:7 *C 3.0100 1.7100 
*N *56:8 *C 1.9850 1.7100 
*N *56:9 *C 1.1750 1.7100 
*N *56:10 *C 1.1000 1.7100 
*N *56:11 *C 0.5000 1.7100 

*CAP
0 *15:s 3.0375e-17
1 *13:s 3.46541e-17
2 *10:s 4.86361e-17
3 *9:s 7.57153e-18
4 *38:s 3.84723e-17
5 *34:s 2.05152e-17
6 *26:s 4.18967e-17
7 *56:11 1.23235e-17
8 *56:9 9.63647e-18
9 *56:8 2.80786e-17
10 *56:7 2.48203e-17
11 *56:5 3.15522e-17
12 *56:2 1.90635e-17
13 *56:3 3.42487e-16
14 *56 7.05728e-18

*RES
0 *38:s *56:2 62.743477  // $metal1_conn
1 *56:2 *56:4 0.082493  // $metal1_conn
2 *56:4 *56:5 0.598676  // $metal1_conn
3 *56:5 *56:6 0.453343  // $metal1_conn
4 *56:6 *56:7 0.095022  // $metal1_conn
5 *56:7 *56:8 0.513285  // $metal1_conn
6 *56:8 *56:9 0.405538  // $metal1_conn
7 *56:9 *56:10 0.037382  // $metal1_conn
8 *56:10 *56:11 0.300493  // $metal1_conn
9 *56:11 *56 0.200013  // $metal1_conn
10 *56:2 *34:s 62.177048  // $metal1_conn
11 *56:5 *26:s 62.293167  // $metal1_conn
12 *56:7 *9:s 62.074203  // $metal1_conn
13 *56:8 *15:s 62.24638  // $metal1_conn
14 *56:9 *13:s 62.277683  // $metal1_conn
15 *56:11 *10:s 62.433247  // $metal1_conn
16 *56:3 *56:4 6.818182  // $metal1_conn
17 *56:3 *56:6 7.5  // $metal1_conn
18 *56:3 *56:10 6.818182  // $metal1_conn

*END

*D_NET *48 0

*CONN
*P *48 I *C 0.1000 0.0000 
*I *52:s B *C 4.1050 0.4775 
*I *53:s B *C 4.1050 0.4775 
*I *58:s B *C 5.5100 0.3125 
*I *59:s B *C 5.5100 0.3125 
*I *61:s B *C 3.0950 0.4825 
*I *62:s B *C 0.5625 0.5875 
*I *63:s B *C 0.5625 0.5875 
*I *64:s B *C 1.2775 0.5775 
*I *1:s B *C 1.2775 0.5775 
*I *3:s B *C 2.0300 0.4825 
*I *4:s B *C 2.0300 0.4825 
*I *7:s B *C 3.0950 0.4825 
*N *48:2 *C 5.3000 0.0000 
*N *48:3 *C 5.3000 0.0000 
*N *48:4 *C 4.1050 0.0000 
*N *48:5 *C 3.2000 0.0000 
*N *48:6 *C 3.0100 0.0000 
*N *48:7 *C 2.0150 0.0000 
*N *48:8 *C 1.1750 0.0000 
*N *48:9 *C 1.1000 0.0000 
*N *48:10 *C 0.5300 0.0000 


*RES
0 *58:s *48:3 75.298393  // $metal1_conn
1 *48:3 *48:4 0.598676  // $metal1_conn
2 *48:4 *48:5 0.453343  // $metal1_conn
3 *48:5 *48:6 0.094073  // $metal1_conn
4 *48:6 *48:7 0.496353  // $metal1_conn
5 *48:7 *48:8 0.419624  // $metal1_conn
6 *48:8 *48:9 0.037382  // $metal1_conn
7 *48:9 *48:10 0.285459  // $metal1_conn
8 *48:10 *48 0.215047  // $metal1_conn
9 *48:4 *52:s 75.303856  // $metal1_conn
10 *48:6 *61:s 75.045784  // $metal1_conn
11 *48:7 *3:s 75.045784  // $metal1_conn
12 *48:8 *64:s 75.289482  // $metal1_conn
13 *48:10 *62:s 75.074203  // $metal1_conn
14 *48:2 *48:3 5.636364  // $metal1_conn
15 *48:2 *48:5 6.2  // $metal1_conn
16 *48:2 *48:9 5.636364  // $metal1_conn

*END

*D_NET *41 2.02312e-16

*CONN
*P *41 I *C 1.3000 1.0450 
*I *1:g B *C 1.3425 0.5775 
*I *14:g B *C 1.3425 1.0475 
*N *41:2 *C 1.3150 0.8300 

*CAP
0 *14:g 3.37462e-17
1 *1:g 4.08649e-17
2 *41:2 6.85359e-17
3 *41 5.91652e-17

*RES
0 *14:g *41:2 19.691952  // $poly_conn
1 *41:2 *1:g 37.640671  // $poly_conn
2 *41:2 *41 45.113785  // $metal1_conn

*END

*D_NET *49 2.16107e-16

*CONN
*P *49 I *C 6.1000 0.6650 
*I *60:g B *C 5.8925 0.3125 
*I *38:g B *C 5.8925 1.0075 
*N *49:2 *C 5.9300 0.6600 

*CAP
0 *38:g 3.15094e-17
1 *60:g 3.40969e-17
2 *49:2 7.43218e-17
3 *49 7.61793e-17

*RES
0 *38:g *49:2 52.052654  // $poly_conn
1 *49:2 *60:g 61.027016  // $poly_conn
2 *49:2 *49 45.072819  // $metal1_conn

*END

*D_NET *8 2.09661e-16

*CONN
*P *8 I *C 5.7000 0.8550 
*I *59:g B *C 5.6875 0.3125 
*I *36:g B *C 5.6875 1.0075 
*N *8:2 *C 5.6500 0.5200 

*CAP
0 *36:g 4.89345e-17
1 *59:g 2.55594e-17
2 *8:2 7.31356e-17
3 *8 6.20312e-17

*RES
0 *36:g *8:2 87.950089  // $poly_conn
1 *8:2 *59:g 25.129578  // $poly_conn
2 *8:2 *8 45.192123  // $metal1_conn

*END

*D_NET *11 3.83145e-16

*CONN
*P *11 I *C 5.3000 0.6650 
*I *55:g B *C 4.4175 0.4775 
*I *58:g B *C 5.3325 0.3125 
*I *32:g B *C 4.6675 1.1925 
*I *34:g B *C 5.3325 1.0075 
*N *11:2 *C 5.3050 0.7750 
*N *11:3 *C 4.6675 0.8125 

*CAP
0 *34:g 2.44859e-17
1 *32:g 3.26157e-17
2 *58:g 3.56057e-17
3 *55:g 5.06813e-17
4 *11:3 8.08256e-17
5 *11:2 9.36909e-17
6 *11 6.524e-17

*RES
0 *34:g *11:2 21.001371  // $poly_conn
1 *11:2 *11:3 152.82373  // $poly_conn
2 *11:3 *55:g 112.516205  // $poly_conn
3 *11:2 *58:g 88.324913  // $poly_conn
4 *11:3 *32:g 65.172279  // $poly_conn
5 *11:2 *11 45.034786  // $metal1_conn

*END

*D_NET *16 2.83397e-16

*CONN
*P *16 I *C 3.9000 0.8550 
*I *53:g B *C 4.2075 0.4775 
*I *28:g B *C 4.2075 1.1925 
*N *16:2 *C 4.1150 0.8450 

*CAP
0 *28:g 4.26758e-17
1 *53:g 5.15013e-17
2 *16:2 9.63399e-17
3 *16 9.28798e-17

*RES
0 *28:g *16:2 57.863922  // $poly_conn
1 *16:2 *53:g 71.966492  // $poly_conn
2 *16:2 *16 45.093269  // $metal1_conn

*END

*D_NET *54 1.48222e-16

*CONN
*P *54 O *C 0.9000 0.4750 
*I *64:d B *C 0.9800 0.5200 
*I *13:d B *C 0.9800 1.1350 
*N *54:3 *C 0.9700 0.4700 

*CAP
0 *13:d 8.16802e-17
1 *64:d 5.03766e-17
2 *54 1.61648e-17

*RES
0 *13:d *54:3 21.157701  // $metal1_conn
1 *54:3 *54 0.033623  // $metal1_conn
2 *64:d *54:3 75  // $metal1_conn

*END

*D_NET *2 9.44932e-17

*CONN
*P *2 O *C 0.1000 0.6650 
*I *62:d B *C 0.3050 0.5300 
*I *10:d B *C 0.3050 1.0950 
*N *2:3 *C 0.2950 0.6000 

*CAP
0 *10:d 4.44798e-17
1 *62:d 2.70459e-17
2 *2 2.29675e-17

*RES
0 *10:d *2:3 20.971601  // $metal1_conn
1 *2:3 *2 0.092795  // $metal1_conn
2 *62:d *2:3 75  // $metal1_conn

*END

*D_NET *47 0

*CONN
*I *59:d B *C 5.7900 0.3125 
*I *60:s B *C 5.7900 0.3125 


*RES
0 *60:s *59:d 0.001  // $mwires

*END

*D_NET *46 0

*CONN
*I *53:d B *C 4.3125 0.4775 
*I *55:s B *C 4.3125 0.4775 


*RES
0 *55:s *53:d 0.001  // $mwires

*END

*D_NET *45 0

*CONN
*I *50:s B *C 3.1950 0.4825 
*I *61:d B *C 3.1950 0.4825 


*RES
0 *61:d *50:s 0.001  // $mwires

*END

*D_NET *44 0

*CONN
*I *4:d B *C 2.1425 0.4825 
*I *5:s B *C 2.1425 0.4825 


*RES
0 *5:s *4:d 0.001  // $mwires

*END

*D_NET *43 0

*CONN
*I *28:d B *C 4.3350 1.1925 
*I *30:s B *C 4.3350 1.1925 


*RES
0 *30:s *28:d 0.001  // $mwires

*END

*D_NET *42 6.82116e-20

*CONN
*I *22:s B *C 3.1950 1.0325 
*I *9:d B *C 3.1950 1.0325 

*CAP
0 *22:s 6.82116e-20

*RES
0 *9:d *22:s 0.001  // $mwires

*END

*D_NET *40 2.45057e-18

*CONN
*I *17:d B *C 2.2975 1.0325 
*I *18:s B *C 2.2975 1.0325 

*CAP
0 *17:d 2.45057e-18

*RES
0 *18:s *17:d 0.001  // $mwires

*END

*D_NET *39 8.80067e-16

*CONN
*I *51:g B *C 3.4525 0.4825 
*I *52:g B *C 4.0025 0.4775 
*I *1:d B *C 1.4600 0.5775 
*I *5:g B *C 2.2075 0.4825 
*I *22:g B *C 3.2475 1.0325 
*I *26:g B *C 4.0025 1.1925 
*I *14:d B *C 1.4600 1.0475 
*I *19:g B *C 2.6525 1.0325 
*N *39:2 *C 2.2450 0.6950 
*N *39:4 *C 2.6150 1.3100 
*N *39:6 *C 3.9925 0.6625 
*N *39:7 *C 3.4525 0.6625 
*N *39:11 *C 3.2850 1.2400 
*N *39:12 *C 2.6150 1.2400 
*N *39:13 *C 2.2150 1.1450 
*N *39:15 *C 1.4950 1.0000 

*CAP
0 *19:g 5.41486e-17
1 *14:d 9.02228e-17
2 *26:g 5.98654e-17
3 *22:g 5.68399e-17
4 *5:g 5.05322e-17
5 *1:d 5.69342e-17
6 *52:g 2.09668e-17
7 *51:g 2.59192e-17
8 *39:13 8.97934e-17
9 *39:12 6.86241e-17
10 *39:7 6.6783e-17
11 *39:6 5.60533e-17
12 *39:2 7.57253e-17
13 *39:4 2.99156e-17
14 *39:11 7.77436e-17

*RES
0 *5:g *39:2 71.411629  // $poly_conn
1 *19:g *39:4 79.103935  // $poly_conn
2 *26:g *39:6 108.085236  // $poly_conn
3 *39:6 *39:7 135.2686  // $poly_conn
4 *39:7 *22:g 100.977737  // $poly_conn
5 *39:6 *52:g 27.131205  // $poly_conn
6 *39:7 *51:g 22.864588  // $poly_conn
7 *22:g *39:11 61.15522  // $poly_conn
8 *39:11 *39:12 0.468627  // $metal1_conn
9 *39:12 *39:13 0.35896  // $metal1_conn
10 *39:13 *39:15 0.575037  // $metal1_conn
11 *39:15 *1:d 75.272049  // $metal1_conn
12 *39:12 *39:4 0.020088  // $metal1_conn
13 *39:13 *39:2 0.316723  // $metal1_conn
14 *14:d *39:15 62  // $metal1_conn

*END

*D_NET *37 5.35037e-16

*CONN
*I *57:d B *C 4.7975 0.4775 
*I *60:d B *C 5.9850 0.3125 
*I *32:s B *C 4.7600 1.1925 
*I *36:d B *C 5.7900 1.0075 
*I *38:d B *C 5.7900 1.0075 
*N *37:3 *C 5.7900 1.0550 
*N *37:5 *C 4.7700 1.1450 

*CAP
0 *36:d 1.95602e-16
1 *32:s 1.25847e-16
2 *60:d 1.12982e-16
3 *57:d 1.00606e-16

*RES
0 *60:d *37:3 76.025467  // $metal1_conn
1 *37:3 *37:5 0.846475  // $metal1_conn
2 *37:5 *57:d 75.585213  // $metal1_conn
3 *36:d *37:3 62  // $metal1_conn
4 *32:s *37:5 62  // $metal1_conn

*END

*D_NET *35 8.45582e-16

*CONN
*I *50:g B *C 3.2475 0.4825 
*I *52:d B *C 3.9100 0.4775 
*I *6:g B *C 2.5475 0.4825 
*I *24:g B *C 3.5025 1.0325 
*I *26:d B *C 3.9100 1.1925 
*I *18:g B *C 2.4475 1.0325 
*N *35:2 *C 2.5950 0.6550 
*N *35:5 *C 3.2750 0.1900 
*N *35:7 *C 3.5400 0.7950 
*N *35:9 *C 3.5400 0.3050 
*N *35:10 *C 3.2750 0.3050 

*CAP
0 *18:g 4.13501e-17
1 *26:d 6.64245e-19
2 *24:g 3.86671e-17
3 *6:g 1.8081e-17
4 *52:d 6.30614e-17
5 *50:g 8.01774e-17
6 *35:10 9.01505e-17
7 *35:9 7.06422e-17
8 *35:2 1.55669e-16
9 *35:5 5.28196e-17
10 *35:7 2.34299e-16

*RES
0 *6:g *35:2 16.15522  // $poly_conn
1 *35:2 *18:g 73.557961  // $poly_conn
2 *50:g *35:5 92.897079  // $poly_conn
3 *24:g *35:7 68.847527  // $poly_conn
4 *26:d *35:7 62.612804  // $metal1_conn
5 *35:7 *35:9 0.357128  // $metal1_conn
6 *35:9 *35:10 0.209919  // $metal1_conn
7 *35:10 *35:2 45.730553  // $metal1_conn
8 *35:9 *52:d 75.367264  // $metal1_conn
9 *35:10 *35:5 0.042598  // $metal1_conn

*END

*D_NET *33 6.10759e-16

*CONN
*I *63:g B *C 0.6275 0.5875 
*I *64:g B *C 1.0725 0.5200 
*I *3:d B *C 1.7750 0.4825 
*I *4:g B *C 2.0775 0.4825 
*I *12:g B *C 0.6275 1.0075 
*I *13:g B *C 1.0725 1.1350 
*I *15:d B *C 1.7900 1.0325 
*I *17:g B *C 2.1475 1.0325 
*N *33:2 *C 1.0725 0.7500 
*N *33:3 *C 0.6275 0.7375 
*N *33:6 *C 1.1300 0.7500 
*N *33:9 *C 2.0775 0.6550 
*N *33:10 *C 2.0250 0.6550 
*N *33:12 *C 1.7500 0.6550 
*N *33:14 *C 1.7500 0.4900 

*CAP
0 *17:g 4.18759e-17
1 *15:d 4.27482e-17
2 *13:g 4.12835e-17
3 *12:g 2.88151e-17
4 *4:g 4.89313e-17
5 *3:d 7.79303e-17
6 *64:g 2.76259e-17
7 *63:g 2.56287e-17
8 *33:12 3.26647e-17
9 *33:3 3.04138e-17
10 *33:2 2.14992e-17
11 *33:6 1.11451e-16
12 *33:10 7.98911e-17

*RES
0 *13:g *33:2 45.368431  // $poly_conn
1 *33:2 *33:3 108.044167  // $poly_conn
2 *33:3 *63:g 18.337015  // $poly_conn
3 *33:2 *64:g 22.29151  // $poly_conn
4 *33:2 *33:6 48.256718  // $poly_conn
5 *33:3 *12:g 40.131889  // $poly_conn
6 *17:g *33:9 72.596771  // $poly_conn
7 *33:9 *33:10 45.294373  // $poly_conn
8 *33:9 *4:g 22.886339  // $poly_conn
9 *33:10 *33:12 0.169867  // $metal1_conn
10 *33:12 *33:14 0.110404  // $metal1_conn
11 *33:14 *33:6 0.696655  // $metal1_conn
12 *33:12 *15:d 62.223499  // $metal1_conn
13 *3:d *33:14 75  // $metal1_conn

*END

*D_NET *31 4.34033e-16

*CONN
*I *51:d B *C 3.6175 0.4825 
*I *55:d B *C 4.5450 0.4775 
*I *57:s B *C 4.5450 0.4775 
*I *24:s B *C 3.6425 1.0325 
*I *30:d B *C 4.5650 1.1925 
*I *32:d B *C 4.5650 1.1925 
*N *31:2 *C 4.2750 1.0500 
*N *31:4 *C 3.7000 1.0500 

*CAP
0 *30:d 4.44839e-17
1 *24:s 1.19733e-16
2 *55:d 8.0132e-17
3 *51:d 8.72679e-17
4 *31:2 1.02417e-16

*RES
0 *30:d *31:2 62.275372  // $metal1_conn
1 *31:2 *31:4 0.452453  // $metal1_conn
2 *31:4 *51:d 75.448303  // $metal1_conn
3 *31:2 *55:d 75.539856  // $metal1_conn
4 *24:s *31:4 62  // $metal1_conn

*END

*D_NET *29 5.54652e-16

*CONN
*I *57:g B *C 4.6725 0.4775 
*I *58:d B *C 5.2400 0.3125 
*I *30:g B *C 4.4625 1.1925 
*I *34:d B *C 5.2400 1.0075 
*N *29:2 *C 4.4350 0.8450 
*N *29:4 *C 4.7100 0.6800 
*N *29:7 *C 5.2300 0.3250 

*CAP
0 *34:d 1.15571e-16
1 *30:g 4.02022e-17
2 *58:d 1.23982e-16
3 *57:g 3.55381e-17
4 *29:2 9.3133e-17
5 *29:4 1.46227e-16

*RES
0 *30:g *29:2 98.025284  // $poly_conn
1 *57:g *29:4 68.847527  // $poly_conn
2 *34:d *29:7 62.704006  // $metal1_conn
3 *29:7 *29:4 0.650883  // $metal1_conn
4 *29:4 *29:2 0.259704  // $metal1_conn
5 *58:d *29:7 75  // $metal1_conn

*END

*D_NET *27 3.34241e-16

*CONN
*I *3:g B *C 1.8825 0.4825 
*I *5:d B *C 2.3775 0.4825 
*I *6:d B *C 2.3775 0.4825 
*I *15:g B *C 1.8825 1.0325 
*I *18:d B *C 2.5500 1.0325 
*I *19:d B *C 2.5500 1.0325 
*N *27:3 *C 1.8550 0.3000 
*N *27:6 *C 2.3100 0.4700 

*CAP
0 *18:d 6.71925e-17
1 *15:g 4.92662e-17
2 *5:d 9.36863e-17
3 *3:g 4.37098e-17
4 *27:3 8.03863e-17

*RES
0 *15:g *3:g 94.871796  // $poly_conn
1 *3:g *27:3 64.691956  // $poly_conn
2 *18:d *27:6 62.516556  // $metal1_conn
3 *27:6 *27:3 0.428165  // $metal1_conn
4 *5:d *27:6 75  // $metal1_conn

*END

*D_NET *25 3.58145e-16

*CONN
*I *61:g B *C 3.1425 0.4825 
*I *6:s B *C 2.7125 0.4825 
*I *7:d B *C 2.7125 0.4825 
*I *9:g B *C 3.1425 1.0325 
*I *19:s B *C 2.7650 1.0325 
*I *20:d B *C 2.7650 1.0325 
*N *25:2 *C 3.1150 0.6650 
*N *25:4 *C 2.7550 0.6650 

*CAP
0 *19:s 4.00604e-17
1 *9:g 7.89896e-17
2 *6:s 3.72613e-17
3 *61:g 5.31977e-17
4 *25:4 4.89891e-17
5 *25:2 9.96471e-17

*RES
0 *9:g *25:2 58.153492  // $poly_conn
1 *25:2 *61:g 19.691952  // $poly_conn
2 *25:2 *25:4 45.243225  // $metal1_conn
3 *25:4 *6:s 75.123459  // $metal1_conn
4 *25:4 *19:s 62.226418  // $metal1_conn

*END

*D_NET *23 3.04337e-16

*CONN
*I *50:d B *C 3.3500 0.4825 
*I *51:s B *C 3.3500 0.4825 
*I *7:g B *C 2.8775 0.4825 
*I *22:d B *C 3.3750 1.0325 
*I *24:d B *C 3.3750 1.0325 
*I *20:g B *C 2.8775 1.0325 
*N *23:1 *C 2.9450 0.8250 
*N *23:2 *C 2.8775 0.8250 
*N *23:6 *C 3.3500 0.8250 

*CAP
0 *20:g 4.08091e-17
1 *22:d 2.9877e-17
2 *7:g 4.19121e-17
3 *50:d 4.96177e-17
4 *23:6 5.22884e-17
5 *23:2 3.91114e-17
6 *23:1 5.07212e-17

*RES
0 *23:1 *23:2 46.794373  // $poly_conn
1 *23:2 *7:g 64.153229  // $poly_conn
2 *23:2 *20:g 20.563484  // $poly_conn
3 *22:d *23:6 62.11842  // $metal1_conn
4 *23:6 *23:1 0.271813  // $metal1_conn
5 *23:6 *50:d 75.251152  // $metal1_conn

*END

*D_NET *21 1.95285e-16

*CONN
*I *62:g B *C 0.3975 0.5300 
*I *63:d B *C 0.7200 0.5875 
*I *10:g B *C 0.3975 1.0950 
*I *12:d B *C 0.7200 1.0075 
*N *21:1 *C 0.4850 0.7600 
*N *21:2 *C 0.3975 0.7600 
*N *21:6 *C 0.7200 0.7700 

*CAP
0 *12:d 2.32338e-17
1 *10:g 4.25059e-17
2 *63:d 1.93192e-17
3 *62:g 3.6501e-17
4 *21:6 2.32103e-17
5 *21:2 6.38015e-18
6 *21:1 4.41341e-17

*RES
0 *21:1 *21:2 48.890118  // $poly_conn
1 *21:2 *62:g 20.563484  // $poly_conn
2 *21:2 *10:g 30.819893  // $poly_conn
3 *12:d *21:6 62.11742  // $metal1_conn
4 *21:6 *21:1 0.122162  // $metal1_conn
5 *21:6 *63:d 75.109444  // $metal1_conn

*END

