*SPEF "IEEE 1481-1999"
*DESIGN  "SDFFNSRX2"
*DATE "Mon Sep 27 10:58:42 2010"
*VENDOR "Cadence Design Systems"
*PROGRAM "Assura RCX"
*VERSION "3.2 Red Hat Linux release 7.2 (Enigma) - (09/09/2009-10:39)"
*DESIGN_FLOW "Physical Verification"
*DIVIDER /
*DELIMITER :
*BUS_DELIMITER []
*T_UNIT 1 PS
*C_UNIT 1e15 FF
*R_UNIT 1 OHM
*L_UNIT 1 MH
// DeviceFingerDelim "@"
// MATCHED
// caps2d version: 10

*NAME_MAP
*1 mn32
*2 mout
*3 CKNbb
*4 CKNb
*5 SEb
*6 Db
*7 net453
*8 net461
*9 net486
*10 mn10
*11 net478
*12 mn13
*13 net414
*14 mn14
*15 mn12
*16 mn11
*17 mn20
*18 CKN
*19 net538
*20 net546
*21 net582
*22 mp57
*23 mp57\@1
*24 mp56
*25 mp21
*26 mp25
*27 mp36
*28 mp35
*29 mp30
*30 mp32
*31 mp31
*32 mp10
*33 mp13
*34 VDD
*35 mp14
*36 mp12
*37 mp11
*38 mp20
*39 mn50
*40 mn45
*41 mp40
*42 mn22
*43 QN
*44 mp53
*45 mn55
*46 VSS
*47 mp51
*48 mn55\@1
*49 mp52
*50 mn57
*51 mp50
*52 mn57\@1
*53 mp45
*54 mn56
*55 mp22
*56 mn31
*57 mp55
*58 mp55\@1
*59 D
*60 RN
*61 Q
*62 SE
*63 SI
*64 SN
*65 qint
*66 qbint
*67 net498
*68 RNb
*69 net0363
*70 net566
*71 n35
*72 mn40
*73 net521
*74 mn53
*75 n20
*76 mn51
*77 mn52
*78 mn21
*79 mn25
*80 mn36
*81 mn35
*82 mn30

*GROUND_NETS VSS

*PORTS
*34 I
*46 I
*18 I
*59 I
*60 I
*62 I
*63 I
*64 I
*61 O
*43 O

*D_NET *34 1.15289e-15

*CONN
*P *34 I *C 0.1000 1.7100 
*I *47:s B *C 6.0050 1.0375 
*I *51:s B *C 6.6050 1.5700 
*I *53:s B *C 6.6050 1.5700 
*I *55:s B *C 7.2600 1.2150 
*I *57:s B *C 7.2600 1.2150 
*I *58:s B *C 7.7850 1.0950 
*I *22:s B *C 7.7850 1.0950 
*I *23:s B *C 8.2375 1.2325 
*I *24:s B *C 8.2375 1.2325 
*I *25:s B *C 2.2800 1.0225 
*I *28:s B *C 3.5475 1.0425 
*I *29:s B *C 3.5475 1.0425 
*I *31:s B *C 4.3200 1.4450 
*I *32:s B *C 0.4000 1.2625 
*I *33:s B *C 0.4000 1.2625 
*I *37:s B *C 1.2100 1.2625 
*I *38:s B *C 1.2100 1.2625 
*N *34:3 *C 6.5800 1.7100 
*N *34:4 *C 5.7400 1.7100 
*N *34:5 *C 5.4000 1.7100 
*N *34:6 *C 5.4000 1.7100 
*N *34:7 *C 4.2650 1.7100 
*N *34:8 *C 3.4050 1.7100 
*N *34:9 *C 3.3000 1.7100 
*N *34:10 *C 2.2400 1.7100 
*N *34:11 *C 1.1650 1.7100 
*N *34:12 *C 1.1000 1.7100 
*N *34:13 *C 0.3150 1.7100 
*N *34:21 *C 3.4050 1.5700 

*CAP
0 *37:s 2.94494e-17
1 *32:s 9.28115e-18
2 *31:s 2.85352e-17
3 *28:s 2.9857e-17
4 *25:s 4.15548e-17
5 *23:s 1.45737e-16
6 *51:s 1.2188e-17
7 *47:s 2.88853e-17
8 *34:13 2.74218e-17
9 *34:11 1.64088e-17
10 *34:10 2.52843e-17
11 *34:8 1.6441e-17
12 *34:7 4.36499e-17
13 *34:4 2.87045e-17
14 *34:3 3.82805e-17
15 *34:5 6.23095e-16
16 *34 8.11153e-18

*RES
0 *34:13 *34 0.107542  // $metal1_conn
1 *34:5 *34:6 7.5  // $metal1_conn
2 *34:5 *34:9 6.818182  // $metal1_conn
3 *34:5 *34:12 6.818182  // $metal1_conn
4 *34:5 *23:s 6.818182  // $metal1_conn
5 *34:3 *51:s 62.074623  // $metal1_conn
6 *34:4 *47:s 62.158035  // $metal1_conn
7 *34:7 *31:s 62.154362  // $metal1_conn
8 *34:21 *28:s 62.150143  // $metal1_conn
9 *28:s *34:21 62  // $metal1_conn
10 *34:10 *25:s 62.407902  // $metal1_conn
11 *34:11 *37:s 62.255501  // $metal1_conn
12 *34:13 *32:s 62.074623  // $metal1_conn
13 *23:s *34:3 0.32516  // $metal1_conn
14 *34:3 *34:4 0.420854  // $metal1_conn
15 *34:4 *34:6 0.170308  // $metal1_conn
16 *34:6 *34:7 0.568987  // $metal1_conn
17 *34:7 *34:8 0.430883  // $metal1_conn
18 *34:8 *34:9 0.05246  // $metal1_conn
19 *34:8 *34:21 0.074624  // $metal1_conn
20 *34:9 *34:10 0.531376  // $metal1_conn
21 *34:10 *34:11 0.538702  // $metal1_conn
22 *34:11 *34:12 0.032395  // $metal1_conn
23 *34:12 *34:13 0.393468  // $metal1_conn

*END

*D_NET *46 0

*CONN
*P *46 I *C 0.1000 0.0000 
*I *39:s B *C 6.5700 0.5575 
*I *40:s B *C 6.5700 0.5575 
*I *42:s B *C 7.2850 0.4850 
*I *45:s B *C 7.2850 0.4850 
*I *48:s B *C 7.7125 0.4850 
*I *50:s B *C 7.7125 0.4850 
*I *52:s B *C 8.2150 0.5425 
*I *54:s B *C 8.2150 0.5425 
*I *78:s B *C 2.3000 0.5625 
*I *81:s B *C 3.5600 0.4875 
*I *82:s B *C 3.5600 0.4875 
*I *10:s B *C 0.3375 0.3075 
*I *12:s B *C 0.3375 0.3075 
*I *16:s B *C 1.3650 0.5875 
*I *17:s B *C 1.3650 0.5875 
*N *46:3 *C 7.5000 0.0000 
*N *46:6 *C 6.5400 0.0000 
*N *46:7 *C 5.4000 0.0000 
*N *46:8 *C 3.7550 0.0000 
*N *46:9 *C 3.3000 0.0000 
*N *46:10 *C 2.1350 0.0000 
*N *46:11 *C 1.3100 0.0000 
*N *46:12 *C 1.1000 0.0000 
*N *46:13 *C 0.3300 0.0000 


*RES
0 *46:13 *46 0.114894  // $metal1_conn
1 *46:3 *52:s 5.636364  // $metal1_conn
2 *46:3 *46:7 6.2  // $metal1_conn
3 *46:3 *46:9 5.636364  // $metal1_conn
4 *46:3 *46:12 5.636364  // $metal1_conn
5 *46:6 *39:s 75.357208  // $metal1_conn
6 *46:8 *81:s 75.33886  // $metal1_conn
7 *46:10 *78:s 75.045815  // $metal1_conn
8 *46:11 *16:s 75.174377  // $metal1_conn
9 *46:13 *10:s 75.182503  // $metal1_conn
10 *52:s *46:6 0.329637  // $metal1_conn
11 *46:6 *46:7 0.571495  // $metal1_conn
12 *46:7 *46:8 0.824743  // $metal1_conn
13 *46:8 *46:9 0.227979  // $metal1_conn
14 *46:9 *46:10 0.583082  // $metal1_conn
15 *46:10 *46:11 0.412382  // $metal1_conn
16 *46:11 *46:12 0.105115  // $metal1_conn
17 *46:12 *46:13 0.385946  // $metal1_conn

*END

*D_NET *18 1.77927e-16

*CONN
*P *18 I *C 1.5000 0.8550 
*I *17:g B *C 1.4125 0.5875 
*I *38:g B *C 1.3575 1.2625 
*N *18:2 *C 1.3850 0.7700 

*CAP
0 *38:g 3.3545e-17
1 *17:g 2.56764e-17
2 *18:2 7.83673e-17
3 *18 4.03387e-17

*RES
0 *17:g *18:2 19.691952  // $poly_conn
1 *18:2 *38:g 90.204765  // $poly_conn
2 *18 *18:2 45.111843  // $metal1_conn

*END

*D_NET *59 2.33335e-16

*CONN
*P *59 I *C 1.1000 0.8550 
*I *16:g B *C 1.1175 0.3075 
*I *37:g B *C 1.0625 1.2625 
*N *59:2 *C 1.0900 0.8300 
*N *59:4 *C 1.0900 0.8300 

*CAP
0 *37:g 3.29451e-17
1 *16:g 5.46047e-17
2 *59:4 4.14326e-17
3 *59:2 5.07941e-17
4 *59 5.35589e-17

*RES
0 *16:g *59:2 106.871437  // $poly_conn
1 *59:2 *37:g 74.820152  // $poly_conn
2 *59:4 *59 0.015562  // $metal1_conn
3 *59:2 *59:4 45  // $metal1_conn

*END

*D_NET *60 2.663e-16

*CONN
*P *60 I *C 7.1000 1.0450 
*I *42:g B *C 7.1275 0.5425 
*I *55:g B *C 7.1275 1.3025 
*N *60:2 *C 7.0900 0.7500 

*CAP
0 *55:g 5.4627e-17
1 *42:g 3.69764e-17
2 *60:2 1.09021e-16
3 *60 6.56752e-17

*RES
0 *55:g *60:2 104.61676  // $poly_conn
1 *60:2 *42:g 25.129578  // $poly_conn
2 *60 *60:2 45.177029  // $metal1_conn

*END

*D_NET *62 4.10576e-16

*CONN
*P *62 I *C 0.5000 0.4750 
*I *10:g B *C 0.2275 0.3075 
*I *14:g B *C 0.5725 0.3075 
*I *32:g B *C 0.2275 1.1325 
*I *36:g B *C 0.7675 1.2625 
*N *62:2 *C 0.2550 0.4900 
*N *62:5 *C 0.6100 0.4800 

*CAP
0 *36:g 7.88278e-17
1 *32:g 6.23118e-17
2 *14:g 3.36817e-17
3 *10:g 2.63925e-17
4 *62:2 8.93809e-17
5 *62:5 9.04478e-17
6 *62 2.95339e-17

*RES
0 *32:g *62:2 128.666306  // $poly_conn
1 *62:2 *10:g 19.691952  // $poly_conn
2 *36:g *62:5 184.802628  // $poly_conn
3 *62:5 *14:g 18.425531  // $poly_conn
4 *62:2 *62 45.141716  // $metal1_conn
5 *62 *62:5 45.053757  // $metal1_conn

*END

*D_NET *63 3.13472e-16

*CONN
*P *63 I *C 0.3000 0.8550 
*I *12:g B *C 0.4475 0.3075 
*I *33:g B *C 0.4475 1.2625 
*N *63:2 *C 0.4200 0.8500 

*CAP
0 *33:g 8.06399e-17
1 *12:g 7.01138e-17
2 *63:2 1.27158e-16
3 *63 3.55597e-17

*RES
0 *33:g *63:2 69.691948  // $poly_conn
1 *63:2 *12:g 111.999641  // $poly_conn
2 *63 *63:2 45.028591  // $metal1_conn

*END

*D_NET *64 9.84381e-16

*CONN
*P *64 I *C 3.3000 0.4750 
*I *39:g B *C 6.4375 0.5275 
*I *82:g B *C 3.8575 0.4875 
*I *51:g B *C 6.4375 1.0725 
*I *29:g B *C 3.6525 1.0425 
*N *64:2 *C 3.6525 0.6575 
*N *64:3 *C 3.4050 0.6600 
*N *64:5 *C 3.6800 1.3150 
*N *64:7 *C 6.4000 1.4050 

*CAP
0 *29:g 3.45777e-17
1 *51:g 7.71268e-17
2 *82:g 5.66807e-17
3 *39:g 5.77086e-17
4 *64:2 3.09504e-17
5 *64:3 9.61816e-17
6 *64:5 2.93689e-16
7 *64:7 2.87864e-16
8 *64 4.96017e-17

*RES
0 *82:g *64:2 70.498085  // $poly_conn
1 *64:2 *64:3 97.039734  // $poly_conn
2 *64:2 *29:g 66.45433  // $poly_conn
3 *29:g *64:5 78.794518  // $poly_conn
4 *51:g *64:7 91.885849  // $poly_conn
5 *51:g *39:g 93.589745  // $poly_conn
6 *64:3 *64 0.16255  // $metal1_conn
7 *64:7 *64:5 2.12355  // $metal1_conn

*END

*D_NET *61 1.94398e-16

*CONN
*P *61 O *C 7.3000 1.0450 
*I *45:d B *C 7.4500 0.4850 
*I *48:d B *C 7.4500 0.4850 
*I *57:d B *C 7.4500 1.2150 
*I *58:d B *C 7.4500 1.2150 
*N *61:2 *C 7.4350 1.0450 

*CAP
0 *57:d 4.04267e-17
1 *45:d 7.49439e-17
2 *61:2 4.81211e-17
3 *61 3.0906e-17

*RES
0 *61:2 *61 0.050567  // $metal1_conn
1 *57:d *61:2 20.794468  // $metal1_conn
2 *61:2 *45:d 75.401939  // $metal1_conn

*END

*D_NET *43 1.0818e-16

*CONN
*P *43 O *C 7.9000 0.6650 
*I *50:d B *C 7.9600 0.4850 
*I *52:d B *C 7.9600 0.4850 
*I *22:d B *C 7.9600 1.0950 
*I *23:d B *C 7.9600 1.0950 
*N *43:3 *C 7.9600 0.5550 

*CAP
0 *22:d 4.83852e-17
1 *50:d 2.38228e-17
2 *43 3.5972e-17

*RES
0 *22:d *43 62.169319  // $metal1_conn
1 *43 *43:3 0.057943  // $metal1_conn
2 *50:d *43:3 75  // $metal1_conn

*END

*D_NET *21 0

*CONN
*I *80:s B *C 3.2100 0.4875 
*I *81:d B *C 3.2100 0.4875 


*RES
0 *81:d *80:s 0.001  // $mwires

*END

*D_NET *20 0

*CONN
*I *15:s B *C 1.0425 0.3075 
*I *16:d B *C 1.0425 0.3075 


*RES
0 *16:d *15:s 0.001  // $mwires

*END

*D_NET *19 0

*CONN
*I *12:d B *C 0.5100 0.3075 
*I *14:s B *C 0.5100 0.3075 


*RES
0 *14:s *12:d 0.001  // $mwires

*END

*D_NET *13 3.44561e-18

*CONN
*I *47:d B *C 6.1425 1.0375 
*I *49:s B *C 6.1425 1.0375 

*CAP
0 *47:d 3.44561e-18

*RES
0 *49:s *47:d 0.001  // $mwires

*END

*D_NET *11 2.29996e-18

*CONN
*I *30:s B *C 4.0625 1.0425 
*I *31:d B *C 4.0625 1.0425 

*CAP
0 *30:s 2.29996e-18

*RES
0 *31:d *30:s 0.001  // $mwires

*END

*D_NET *9 4.59603e-19

*CONN
*I *27:s B *C 3.2100 1.0425 
*I *28:d B *C 3.2100 1.0425 

*CAP
0 *27:s 4.59603e-19

*RES
0 *28:d *27:s 0.001  // $mwires

*END

*D_NET *8 5.19482e-18

*CONN
*I *36:s B *C 0.9150 1.2625 
*I *37:d B *C 0.9150 1.2625 

*CAP
0 *36:s 5.19482e-18

*RES
0 *37:d *36:s 0.001  // $mwires

*END

*D_NET *7 3.28294e-19

*CONN
*I *33:d B *C 0.5000 1.2625 
*I *35:s B *C 0.5000 1.2625 

*CAP
0 *33:d 3.28294e-19

*RES
0 *35:s *33:d 0.001  // $mwires

*END

*D_NET *6 6.35952e-16

*CONN
*I *79:d B *C 2.8000 0.4875 
*I *14:d B *C 0.7700 0.3075 
*I *15:d B *C 0.7700 0.3075 
*I *26:s B *C 2.6850 1.0425 
*I *35:d B *C 0.6600 1.2625 
*I *36:d B *C 0.6600 1.2625 
*N *6:3 *C 2.7900 0.4750 
*N *6:4 *C 0.7700 0.4475 

*CAP
0 *35:d 1.24874e-16
1 *26:s 7.58243e-17
2 *14:d 1.90786e-17
3 *79:d 1.84331e-16
4 *6:4 2.31844e-16

*RES
0 *26:s *6:3 62.401772  // $metal1_conn
1 *6:3 *6:4 1.552788  // $metal1_conn
2 *6:4 *35:d 62.720825  // $metal1_conn
3 *6:4 *14:d 75.091728  // $metal1_conn
4 *79:d *6:3 75  // $metal1_conn

*END

*D_NET *5 6.66336e-16

*CONN
*I *10:d B *C 0.1325 0.3075 
*I *15:g B *C 0.9675 0.3075 
*I *32:d B *C 0.1350 1.1325 
*I *35:g B *C 0.5525 1.2625 
*N *5:2 *C 0.5900 1.0550 
*N *5:4 *C 0.9300 0.6600 
*N *5:5 *C 0.4750 1.1500 
*N *5:7 *C 0.1250 1.1800 

*CAP
0 *35:g 5.83905e-17
1 *32:d 6.59516e-17
2 *15:g 4.27963e-17
3 *10:d 7.41352e-17
4 *5:5 1.33923e-16
5 *5:2 7.90239e-17
6 *5:4 2.12115e-16

*RES
0 *35:g *5:2 61.15522  // $poly_conn
1 *15:g *5:4 107.309067  // $poly_conn
2 *5:4 *5:5 1.195366  // $metal1_conn
3 *5:5 *5:7 0.251835  // $metal1_conn
4 *5:7 *10:d 75.643417  // $metal1_conn
5 *5:5 *5:2 0.150437  // $metal1_conn
6 *32:d *5:7 62  // $metal1_conn

*END

*D_NET *4 7.20549e-16

*CONN
*I *72:g B *C 5.1125 0.5275 
*I *78:g B *C 2.3725 0.5625 
*I *80:g B *C 3.1575 0.4875 
*I *17:d B *C 1.5775 0.5875 
*I *44:g B *C 5.2875 1.0375 
*I *25:g B *C 2.3725 1.0225 
*I *26:g B *C 2.7775 1.0425 
*I *38:d B *C 1.4500 1.2625 
*N *4:4 *C 2.7775 0.8375 
*N *4:5 *C 2.3725 0.8450 
*N *4:6 *C 2.3725 0.7700 
*N *4:7 *C 2.2950 0.7700 
*N *4:11 *C 1.7350 0.7700 

*CAP
0 *38:d 5.0651e-17
1 *26:g 1.90393e-17
2 *25:g 1.22731e-17
3 *44:g 6.83457e-17
4 *17:d 4.2203e-17
5 *80:g 2.02811e-16
6 *78:g 2.51484e-17
7 *72:g 1.21976e-16
8 *4:11 5.83613e-17
9 *4:6 1.5703e-17
10 *4:4 5.00672e-17
11 *4:7 5.39694e-17

*RES
0 *44:g *72:g 105.831116  // $poly_conn
1 *72:g *80:g 603.55658  // $poly_conn
2 *80:g *4:4 149.695694  // $poly_conn
3 *4:4 *4:5 99.655632  // $poly_conn
4 *4:5 *4:6 17.567785  // $poly_conn
5 *4:6 *4:7 47.445099  // $poly_conn
6 *4:4 *26:g 20.300484  // $poly_conn
7 *4:5 *25:g 18.337015  // $poly_conn
8 *4:6 *78:g 32.564102  // $poly_conn
9 *4:7 *4:11 0.361016  // $metal1_conn
10 *4:11 *38:d 62.485943  // $metal1_conn
11 *4:11 *17:d 75.17231  // $metal1_conn

*END

*D_NET *3 1.17091e-15

*CONN
*I *74:g B *C 5.3175 0.5275 
*I *78:d B *C 2.4850 0.5625 
*I *79:g B *C 2.8925 0.4875 
*I *41:g B *C 4.9875 1.0375 
*I *25:d B *C 2.4650 1.0225 
*I *27:g B *C 3.1575 1.0425 
*N *3:2 *C 2.8650 0.6950 
*N *3:4 *C 3.1200 1.2850 
*N *3:6 *C 5.0250 0.8300 
*N *3:8 *C 5.2800 0.2050 
*N *3:9 *C 3.1200 1.1550 
*N *3:10 *C 2.8650 1.1550 
*N *3:12 *C 2.4750 0.9750 

*CAP
0 *27:g 7.12363e-17
1 *25:d 6.75761e-17
2 *41:g 3.67198e-17
3 *79:g 3.75807e-17
4 *78:d 4.83828e-17
5 *74:g 3.9526e-17
6 *3:10 6.44002e-17
7 *3:9 2.08378e-16
8 *3:2 1.01956e-16
9 *3:4 4.29485e-17
10 *3:6 3.39805e-16
11 *3:8 1.12405e-16

*RES
0 *79:g *3:2 71.102211  // $poly_conn
1 *27:g *3:4 70.129578  // $poly_conn
2 *41:g *3:6 61.15522  // $poly_conn
3 *74:g *3:8 99.61676  // $poly_conn
4 *3:8 *3:6 0.624885  // $metal1_conn
5 *3:6 *3:9 1.651982  // $metal1_conn
6 *3:9 *3:10 0.206253  // $metal1_conn
7 *3:10 *3:12 0.401627  // $metal1_conn
8 *3:9 *3:4 0.050148  // $metal1_conn
9 *3:10 *3:2 0.348061  // $metal1_conn
10 *3:12 *78:d 75.288879  // $metal1_conn
11 *25:d *3:12 62  // $metal1_conn

*END

*D_NET *2 5.94886e-16

*CONN
*I *56:d B *C 4.1725 0.4875 
*I *72:d B *C 4.9475 0.5275 
*I *81:g B *C 3.2625 0.4875 
*I *1:d B *C 4.1725 0.4875 
*I *41:s B *C 4.8700 1.0375 
*I *28:g B *C 3.2625 1.0425 
*I *29:d B *C 3.8075 1.0425 
*I *30:d B *C 3.8075 1.0425 
*N *2:2 *C 3.3000 0.8350 
*N *2:5 *C 4.8650 0.8325 
*N *2:6 *C 4.1800 0.8325 
*N *2:7 *C 3.7250 0.8325 

*CAP
0 *29:d 3.38821e-17
1 *28:g 5.87816e-17
2 *41:s 3.39604e-17
3 *81:g 7.2908e-17
4 *72:d 4.10477e-17
5 *56:d 3.93886e-17
6 *2:7 7.34378e-17
7 *2:6 8.10084e-17
8 *2:5 5.28227e-17
9 *2:2 1.07649e-16

*RES
0 *28:g *2:2 16.15522  // $poly_conn
1 *2:2 *81:g 61.027016  // $poly_conn
2 *72:d *2:5 75.225876  // $metal1_conn
3 *2:5 *2:6 0.460802  // $metal1_conn
4 *2:6 *2:7 0.352649  // $metal1_conn
5 *2:7 *2:2 45.315693  // $metal1_conn
6 *2:5 *41:s 62.11084  // $metal1_conn
7 *2:6 *56:d 75.221458  // $metal1_conn
8 *2:7 *29:d 62.117809  // $metal1_conn

*END

*D_NET *75 5.52504e-16

*CONN
*I *79:s B *C 3.0250 0.4875 
*I *80:d B *C 3.0250 0.4875 
*I *1:g B *C 4.0625 0.4875 
*I *26:d B *C 2.9675 1.0425 
*I *27:d B *C 2.9675 1.0425 
*I *30:g B *C 3.9625 1.0425 
*N *75:2 *C 3.9900 0.6700 
*N *75:5 *C 3.0550 0.4750 

*CAP
0 *30:g 4.59362e-17
1 *26:d 7.29735e-17
2 *1:g 4.00557e-17
3 *79:s 1.79402e-16
4 *75:2 2.14136e-16

*RES
0 *1:g *75:2 21.193991  // $poly_conn
1 *75:2 *30:g 56.273628  // $poly_conn
2 *75:2 *75:5 46.207008  // $metal1_conn
3 *75:5 *26:d 62.385799  // $metal1_conn
4 *79:s *75:5 75  // $metal1_conn

*END

*D_NET *73 1.30916e-16

*CONN
*I *56:s B *C 4.3750 0.4875 
*I *82:d B *C 3.9600 0.4875 
*I *1:s B *C 3.9600 0.4875 

*CAP
0 *82:d 7.11234e-17
1 *56:s 5.97922e-17

*RES
0 *56:s *82:d 150.5186  // $metal1_conn

*END

*D_NET *71 5.2664e-16

*CONN
*I *40:g B *C 6.6425 0.5575 
*I *72:s B *C 5.2150 0.5275 
*I *74:d B *C 5.2150 0.5275 
*I *41:d B *C 5.1375 1.0375 
*I *44:d B *C 5.1375 1.0375 
*I *53:g B *C 6.6425 1.1200 
*N *71:2 *C 6.6425 0.8650 
*N *71:3 *C 6.5800 0.8650 
*N *71:5 *C 5.1850 0.9250 

*CAP
0 *53:g 4.70866e-17
1 *41:d 2.14428e-17
2 *72:s 5.9476e-17
3 *40:g 4.06919e-17
4 *71:5 1.50007e-16
5 *71:2 1.55438e-17
6 *71:3 1.92392e-16

*RES
0 *53:g *71:2 22.886339  // $poly_conn
1 *71:2 *71:3 46.294373  // $poly_conn
2 *71:2 *40:g 49.809418  // $poly_conn
3 *71:3 *71:5 1.12393  // $metal1_conn
4 *71:5 *41:d 62.054207  // $metal1_conn
5 *71:5 *72:s 75.293533  // $metal1_conn

*END

*D_NET *70 2.66171e-16

*CONN
*I *44:s B *C 5.3800 1.0375 
*I *49:d B *C 6.3850 1.0725 
*I *51:d B *C 6.3850 1.0725 

*CAP
0 *49:d 1.37154e-16
1 *44:s 1.29017e-16

*RES
0 *49:d *44:s 124.776535  // $metal1_conn

*END

*D_NET *69 1.89444e-16

*CONN
*I *74:s B *C 5.4100 0.5275 
*I *76:d B *C 6.1300 0.5275 
*I *77:d B *C 6.1300 0.5275 

*CAP
0 *76:d 1.08442e-16
1 *74:s 8.10022e-17

*RES
0 *74:s *76:d 150.723099  // $metal1_conn

*END

*D_NET *68 7.2884e-16

*CONN
*I *42:d B *C 7.0350 0.5425 
*I *56:g B *C 4.2825 0.4875 
*I *76:g B *C 6.0275 0.5275 
*I *47:g B *C 6.0525 1.0375 
*I *55:d B *C 7.0350 1.3025 
*I *31:g B *C 4.1625 1.0425 
*N *68:3 *C 6.0900 1.2450 
*N *68:7 *C 6.9300 1.3500 

*CAP
0 *31:g 1.1544e-16
1 *55:d 2.08788e-17
2 *47:g 4.10714e-17
3 *76:g 5.14643e-17
4 *56:g 4.60687e-17
5 *42:d 1.13505e-16
6 *68:7 1.309e-16
7 *68:3 2.09513e-16

*RES
0 *76:g *47:g 95.980515  // $poly_conn
1 *47:g *68:3 16.15522  // $poly_conn
2 *68:3 *31:g 665.93689  // $poly_conn
3 *31:g *56:g 115.095055  // $poly_conn
4 *42:d *68:7 75.60144  // $metal1_conn
5 *68:7 *68:3 45.715607  // $metal1_conn
6 *68:7 *55:d 62.049633  // $metal1_conn

*END

*D_NET *67 1.47586e-16

*CONN
*I *39:d B *C 6.3350 0.5275 
*I *76:s B *C 5.9350 0.5275 
*I *77:s B *C 6.3350 0.5275 

*CAP
0 *76:s 6.55664e-17
1 *39:d 8.20197e-17

*RES
0 *39:d *76:s 150.385117  // $metal1_conn

*END

*D_NET *66 1.09578e-15

*CONN
*I *40:d B *C 6.7350 0.5575 
*I *45:g B *C 7.3325 0.4850 
*I *48:g B *C 7.5675 0.4850 
*I *54:g B *C 8.2675 0.5425 
*I *77:g B *C 6.2325 0.5275 
*I *49:g B *C 6.2325 1.0375 
*I *53:d B *C 6.7375 1.1200 
*I *57:g B *C 7.3325 1.2150 
*I *58:g B *C 7.5675 1.2150 
*I *24:g B *C 8.3125 1.2325 
*N *66:2 *C 6.2700 0.7350 
*N *66:12 *C 8.2850 1.0150 
*N *66:17 *C 6.7450 0.5150 
*N *66:18 *C 6.7700 0.7050 
*N *66:20 *C 6.7500 1.0250 

*CAP
0 *24:g 3.08517e-17
1 *58:g 4.64167e-16
2 *53:d 6.19387e-17
3 *49:g 6.2947e-17
4 *77:g 3.38844e-17
5 *54:g 5.29177e-17
6 *40:d 6.33257e-17
7 *66:18 6.27314e-17
8 *66:2 1.13182e-16
9 *66:12 1.49838e-16

*RES
0 *24:g *66:12 17.398676  // $poly_conn
1 *49:g *66:2 40.514191  // $poly_conn
2 *66:12 *54:g 91.757652  // $poly_conn
3 *66:2 *77:g 25.129578  // $poly_conn
4 *66:12 *58:g 45.84428  // $metal1_conn
5 *66:18 *66:2 45.358112  // $metal1_conn
6 *40:d *66:17 75  // $metal1_conn
7 *53:d *66:20 62  // $metal1_conn
8 *58:g *66:17 0.508518  // $metal1_conn
9 *66:17 *66:18 0.161601  // $metal1_conn
10 *66:18 *66:20 0.232749  // $metal1_conn

*END

*D_NET *65 3.0337e-16

*CONN
*I *50:g B *C 7.8575 0.4850 
*I *52:g B *C 8.0625 0.4850 
*I *54:d B *C 8.3600 0.5425 
*I *22:g B *C 7.8575 1.0950 
*I *23:g B *C 8.0625 1.0950 
*I *24:d B *C 8.4200 1.2325 
*N *65:6 *C 8.1250 0.7450 
*N *65:9 *C 8.3700 0.7450 

*CAP
0 *24:d 3.88462e-17
1 *23:g 1.54967e-16
2 *54:d 2.10294e-17
3 *65:9 3.76131e-17
4 *65:6 5.09142e-17

*RES
0 *23:g *65:6 48.329189  // $poly_conn
1 *65:9 *65:6 0.180183  // $metal1_conn
2 *24:d *65:9 62.366158  // $metal1_conn
3 *65:9 *54:d 75.115433  // $metal1_conn

*END

