*SPEF "IEEE 1481-1999"
*DESIGN  "SDFFRXL"
*DATE "Mon Sep 27 11:04:02 2010"
*VENDOR "Cadence Design Systems"
*PROGRAM "Assura RCX"
*VERSION "3.2 Red Hat Linux release 7.2 (Enigma) - (09/09/2009-10:39)"
*DESIGN_FLOW "Physical Verification"
*DIVIDER /
*DELIMITER :
*BUS_DELIMITER []
*T_UNIT 1 PS
*C_UNIT 1e15 FF
*R_UNIT 1 OHM
*L_UNIT 1 MH
// DeviceFingerDelim "@"
// MATCHED
// caps2d version: 10

*NAME_MAP
*1 mp10
*2 mp57
*3 mp56
*4 CK
*5 mp55
*6 mp20
*7 mp46
*8 mp45
*9 mp50
*10 mp51
*11 mp40
*12 mp30
*13 VDD
*14 mn35
*15 mn36
*16 mn37
*17 mn25
*18 QN
*19 mn21
*20 mn11
*21 mn12
*22 mp35
*23 mn14
*24 mp36
*25 mn13
*26 mp37
*27 mp25
*28 mp21
*29 mp11
*30 mp12
*31 mp14
*32 mp13
*33 RN
*34 SEb
*35 Db
*36 n6
*37 mout
*38 n20
*39 SE
*40 Ckbb
*41 n30
*42 D
*43 qbint
*44 CKb
*45 SI
*46 qint
*47 n8
*48 n2
*49 n4
*50 Q
*51 n9
*52 mn10
*53 n11
*54 mn30
*55 n7
*56 mn57
*57 n5
*58 mn56
*59 n1
*60 mn55
*61 n3
*62 mn20
*63 VSS
*64 mn46
*65 mn45
*66 mn50
*67 mn51
*68 mn40

*GROUND_NETS VSS

*PORTS
*13 I
*63 I
*4 I
*42 I
*33 I
*39 I
*45 I
*50 O
*18 O

*D_NET *13 7.53359e-16

*CONN
*P *13 I *C 0.1000 1.7100 
*I *22:s B *C 3.0950 1.0575 
*I *24:s B *C 3.4450 1.2900 
*I *28:s B *C 4.5500 1.5700 
*I *29:s B *C 4.5500 1.5700 
*I *32:s B *C 5.4450 1.1725 
*I *1:s B *C 5.4450 1.1725 
*I *2:s B *C 0.4900 1.0075 
*I *3:s B *C 0.4900 1.0075 
*I *5:s B *C 1.1150 1.3725 
*I *6:s B *C 1.1150 1.3725 
*I *7:s B *C 1.6650 1.0575 
*I *8:s B *C 2.0750 1.5700 
*I *9:s B *C 2.0750 1.5700 
*I *12:s B *C 3.0950 1.0575 
*N *13:2 *C 5.0000 1.7100 
*N *13:3 *C 5.0000 1.7100 
*N *13:4 *C 4.5250 1.7100 
*N *13:5 *C 3.4100 1.7100 
*N *13:6 *C 3.0000 1.7100 
*N *13:7 *C 2.0500 1.7100 
*N *13:8 *C 1.5800 1.7100 
*N *13:9 *C 1.1150 1.7100 
*N *13:10 *C 1.0000 1.7100 
*N *13:11 *C 0.4900 1.7100 

*CAP
0 *8:s 1.85921e-17
1 *7:s 3.07535e-17
2 *5:s 2.68487e-17
3 *2:s 3.69294e-17
4 *32:s 3.20868e-17
5 *28:s 1.03746e-17
6 *24:s 8.99926e-18
7 *22:s 1.85354e-17
8 *13:11 1.22439e-17
9 *13:9 8.62443e-18
10 *13:8 1.40724e-17
11 *13:7 3.26806e-17
12 *13:5 3.58129e-17
13 *13:4 4.27148e-17
14 *13:2 4.18359e-16
15 *13 5.73152e-18

*RES
0 *32:s *13:3 62.529575  // $metal1_conn
1 *13:3 *13:4 0.238048  // $metal1_conn
2 *13:4 *13:5 0.558855  // $metal1_conn
3 *13:5 *13:6 0.206163  // $metal1_conn
4 *13:6 *13:7 0.475854  // $metal1_conn
5 *13:7 *13:8 0.234394  // $metal1_conn
6 *13:8 *13:9 0.232836  // $metal1_conn
7 *13:9 *13:10 0.057484  // $metal1_conn
8 *13:10 *13:11 0.255603  // $metal1_conn
9 *13:11 *13 0.195164  // $metal1_conn
10 *13:4 *28:s 62.07473  // $metal1_conn
11 *13:5 *24:s 62.07473  // $metal1_conn
12 *13:6 *22:s 62.071472  // $metal1_conn
13 *13:7 *8:s 62.045826  // $metal1_conn
14 *13:8 *7:s 62.181652  // $metal1_conn
15 *13:9 *5:s 62.174969  // $metal1_conn
16 *13:11 *2:s 62.418884  // $metal1_conn
17 *13:2 *13:3 7.5  // $metal1_conn
18 *13:2 *13:6 7.5  // $metal1_conn
19 *13:2 *13:10 7.5  // $metal1_conn

*END

*D_NET *63 0

*CONN
*P *63 I *C 0.1000 0.0000 
*I *14:s B *C 3.1950 0.5075 
*I *19:s B *C 4.4850 0.3475 
*I *20:s B *C 4.4850 0.3475 
*I *25:s B *C 5.4450 0.3475 
*I *52:s B *C 5.4450 0.3475 
*I *54:s B *C 3.1950 0.5075 
*I *56:s B *C 0.5225 0.5875 
*I *58:s B *C 0.5225 0.5875 
*I *60:s B *C 1.1550 0.5175 
*I *62:s B *C 1.1550 0.5175 
*I *65:s B *C 2.0500 0.5075 
*I *66:s B *C 2.0500 0.5075 
*N *63:2 *C 4.4850 0.0000 
*N *63:3 *C 3.1100 0.0000 
*N *63:4 *C 3.0000 0.0000 
*N *63:5 *C 3.0000 0.0000 
*N *63:6 *C 1.9350 0.0000 
*N *63:7 *C 1.0000 0.0000 
*N *63:8 *C 0.4900 0.0000 
*N *63:9 *C 5.0000 0.0000 


*RES
0 *19:s *63:2 75.210121  // $metal1_conn
1 *63:2 *63:3 0.687901  // $metal1_conn
2 *63:3 *63:5 0.054017  // $metal1_conn
3 *63:5 *63:6 0.533972  // $metal1_conn
4 *63:6 *63:7 0.469281  // $metal1_conn
5 *63:7 *63:8 0.255705  // $metal1_conn
6 *63:8 *63 0.195164  // $metal1_conn
7 *63:2 *63:9 0.257699  // $metal1_conn
8 *63:9 *25:s 75.407661  // $metal1_conn
9 *63:3 *14:s 75.045822  // $metal1_conn
10 *63:6 *65:s 75.233658  // $metal1_conn
11 *63:7 *60:s 75.088326  // $metal1_conn
12 *63:8 *56:s 75.07473  // $metal1_conn
13 *63:4 *63:5 6.2  // $metal1_conn
14 *63:4 *63:7 6.2  // $metal1_conn
15 *63:4 *63:9 6.2  // $metal1_conn

*END

*D_NET *4 2.50687e-16

*CONN
*P *4 I *C 1.1000 1.0450 
*I *62:g B *C 1.2175 0.5175 
*I *6:g B *C 1.2175 1.3725 
*N *4:2 *C 1.1800 0.8900 

*CAP
0 *6:g 3.78635e-17
1 *62:g 4.44263e-17
2 *4:2 8.34196e-17
3 *4 8.49773e-17

*RES
0 *6:g *4:2 86.668037  // $poly_conn
1 *4:2 *62:g 67.437271  // $poly_conn
2 *4:2 *4 45.109619  // $metal1_conn

*END

*D_NET *42 2.72976e-16

*CONN
*P *42 I *C 4.5000 0.8550 
*I *20:g B *C 4.5875 0.3475 
*I *29:g B *C 4.5875 1.1725 
*N *42:2 *C 4.5875 0.5550 
*N *42:3 *C 4.5150 0.5550 

*CAP
0 *29:g 6.7317e-17
1 *20:g 2.76486e-17
2 *42:2 3.60597e-17
3 *42:3 7.56857e-17
4 *42 6.62647e-17

*RES
0 *29:g *42:2 127.458191  // $poly_conn
1 *42:2 *42:3 47.037205  // $poly_conn
2 *42:2 *20:g 31.304344  // $poly_conn
3 *42 *42:3 0.178566  // $metal1_conn

*END

*D_NET *33 7.92565e-16

*CONN
*P *33 I *C 1.7000 0.8550 
*I *14:g B *C 3.2425 0.5075 
*I *65:g B *C 1.8325 0.5075 
*I *22:g B *C 3.1425 1.0575 
*I *8:g B *C 1.9175 1.0575 
*N *33:1 *C 1.8900 1.3800 
*N *33:3 *C 1.8700 0.8500 
*N *33:7 *C 3.1700 1.3800 

*CAP
0 *8:g 3.7428e-17
1 *22:g 7.65082e-17
2 *65:g 6.78172e-17
3 *14:g 8.47493e-17
4 *33:3 1.2899e-16
5 *33:1 1.68337e-16
6 *33:7 1.68695e-16
7 *33 6.00396e-17

*RES
0 *33:1 *8:g 89.321754  // $poly_conn
1 *8:g *33:3 17.453766  // $poly_conn
2 *33:3 *65:g 58.524471  // $poly_conn
3 *14:g *22:g 108.684784  // $poly_conn
4 *22:g *33:7 91.615028  // $poly_conn
5 *33:3 *33 45.097931  // $metal1_conn
6 *33:7 *33:1 0.972685  // $metal1_conn

*END

*D_NET *39 5.56592e-16

*CONN
*P *39 I *C 5.7000 0.6650 
*I *23:g B *C 5.1275 0.3475 
*I *52:g B *C 5.6375 0.3475 
*I *30:g B *C 4.8025 1.1725 
*I *1:g B *C 5.6375 1.1725 
*N *39:2 *C 4.8350 0.8500 
*N *39:4 *C 5.1000 0.6650 
*N *39:6 *C 5.6650 0.5300 
*N *39:8 *C 5.6650 0.5300 
*N *39:9 *C 5.1000 0.4950 

*CAP
0 *1:g 3.83499e-17
1 *30:g 3.97892e-17
2 *52:g 1.91045e-17
3 *23:g 5.98294e-17
4 *39:9 1.07041e-16
5 *39:2 9.8724e-17
6 *39:4 7.67822e-17
7 *39:6 7.79318e-17
8 *39 3.90395e-17

*RES
0 *30:g *39:2 89.321754  // $poly_conn
1 *23:g *39:4 99.307335  // $poly_conn
2 *1:g *39:6 128.666306  // $poly_conn
3 *39:6 *52:g 19.691952  // $poly_conn
4 *39 *39:8 0.099091  // $metal1_conn
5 *39:8 *39:9 0.407928  // $metal1_conn
6 *39:9 *39:2 0.461722  // $metal1_conn
7 *39:9 *39:4 0.09594  // $metal1_conn
8 *39:6 *39:8 45  // $metal1_conn

*END

*D_NET *45 2.51299e-16

*CONN
*P *45 I *C 5.3000 0.6650 
*I *25:g B *C 5.2525 0.3475 
*I *32:g B *C 5.2525 1.1725 
*N *45:2 *C 5.2900 0.6550 
*N *45:4 *C 5.2900 0.6550 

*CAP
0 *32:g 4.71122e-17
1 *25:g 4.63043e-17
2 *45:2 5.28891e-17
3 *45 1.04993e-16

*RES
0 *32:g *45:2 95.642395  // $poly_conn
1 *45:2 *25:g 50.770603  // $poly_conn
2 *45:4 *45 0.004563  // $metal1_conn
3 *45:2 *45:4 45  // $metal1_conn

*END

*D_NET *50 1.82526e-16

*CONN
*P *50 O *C 0.9000 1.0450 
*I *60:d B *C 0.9000 0.5175 
*I *5:d B *C 0.9200 1.3725 

*CAP
0 *5:d 4.41672e-17
1 *60:d 6.0767e-17
2 *50 7.75917e-17

*RES
0 *50 *60:d 75.377068  // $metal1_conn
1 *50 *5:d 62.168133  // $metal1_conn

*END

*D_NET *18 6.60238e-17

*CONN
*P *18 O *C 0.1000 0.6650 
*I *56:d B *C 0.2650 0.5875 
*I *2:d B *C 0.2650 1.0075 
*N *18:3 *C 0.2550 0.6000 

*CAP
0 *2:d 1.99099e-17
1 *56:d 2.49395e-17
2 *18 2.11743e-17

*RES
0 *2:d *18:3 62.224846  // $metal1_conn
1 *18:3 *18 0.07344  // $metal1_conn
2 *56:d *18:3 75  // $metal1_conn

*END

*D_NET *61 0

*CONN
*I *23:s B *C 5.1900 0.3475 
*I *25:d B *C 5.1900 0.3475 


*RES
0 *25:d *23:s 0.001  // $mwires

*END

*D_NET *59 8.12775e-18

*CONN
*I *20:d B *C 4.7550 0.3475 
*I *21:s B *C 4.7550 0.3475 

*CAP
0 *20:d 8.12775e-18

*RES
0 *21:s *20:d 0.001  // $mwires

*END

*D_NET *57 0

*CONN
*I *15:d B *C 3.4375 0.5075 
*I *16:s B *C 3.4375 0.5075 


*RES
0 *16:s *15:d 0.001  // $mwires

*END

*D_NET *55 1.5963e-19

*CONN
*I *14:d B *C 3.2950 0.5075 
*I *15:s B *C 3.2950 0.5075 

*CAP
0 *14:d 1.5963e-19

*RES
0 *15:s *14:d 0.001  // $mwires

*END

*D_NET *53 2.18491e-18

*CONN
*I *66:d B *C 2.1500 0.5075 
*I *67:s B *C 2.1500 0.5075 

*CAP
0 *66:d 2.18491e-18

*RES
0 *67:s *66:d 0.001  // $mwires

*END

*D_NET *51 1.2869e-18

*CONN
*I *64:s B *C 1.7800 0.5075 
*I *65:d B *C 1.7800 0.5075 

*CAP
0 *64:s 1.2869e-18

*RES
0 *65:d *64:s 0.001  // $mwires

*END

*D_NET *49 0

*CONN
*I *31:s B *C 5.1300 1.1725 
*I *32:d B *C 5.1300 1.1725 


*RES
0 *32:d *31:s 0.001  // $mwires

*END

*D_NET *48 4.48585e-18

*CONN
*I *29:d B *C 4.6950 1.1725 
*I *30:s B *C 4.6950 1.1725 

*CAP
0 *29:d 4.48585e-18

*RES
0 *30:s *29:d 0.001  // $mwires

*END

*D_NET *47 2.31739e-18

*CONN
*I *9:d B *C 2.2200 1.0575 
*I *10:s B *C 2.2200 1.0575 

*CAP
0 *9:d 2.31739e-18

*RES
0 *10:s *9:d 0.001  // $mwires

*END

*D_NET *46 2.07953e-16

*CONN
*I *56:g B *C 0.3575 0.5875 
*I *58:d B *C 0.6800 0.5875 
*I *2:g B *C 0.3575 1.0075 
*I *3:d B *C 0.7150 1.0075 
*N *46:1 *C 0.4450 0.7600 
*N *46:2 *C 0.3575 0.7600 
*N *46:5 *C 0.7075 0.7500 

*CAP
0 *3:d 3.74026e-17
1 *2:g 2.39764e-17
2 *58:d 2.53601e-17
3 *56:g 2.88141e-17
4 *46:5 3.79573e-17
5 *46:2 6.79648e-18
6 *46:1 4.76462e-17

*RES
0 *46:1 *46:2 48.890118  // $poly_conn
1 *46:2 *56:g 20.563484  // $poly_conn
2 *46:2 *2:g 30.819893  // $poly_conn
3 *46:1 *46:5 0.13679  // $metal1_conn
4 *46:5 *58:d 75.090225  // $metal1_conn
5 *46:5 *3:d 62.127922  // $metal1_conn

*END

*D_NET *44 1.31033e-15

*CONN
*I *17:g B *C 3.7325 0.5075 
*I *19:g B *C 4.3825 0.3475 
*I *62:d B *C 1.3200 0.5175 
*I *67:g B *C 2.2025 0.5075 
*I *26:g B *C 3.7175 1.0075 
*I *28:g B *C 4.3925 1.1725 
*I *6:d B *C 1.3200 1.3725 
*I *11:g B *C 2.6275 1.0575 
*N *44:2 *C 2.2400 0.7200 
*N *44:4 *C 2.5900 0.8500 
*N *44:7 *C 3.7450 1.2250 
*N *44:10 *C 4.3350 1.4450 
*N *44:11 *C 2.6200 1.2075 
*N *44:12 *C 2.2400 1.2075 
*N *44:13 *C 1.3400 1.2075 

*CAP
0 *11:g 3.55118e-17
1 *6:d 2.30935e-17
2 *28:g 5.71637e-17
3 *26:g 4.03875e-17
4 *67:g 6.33978e-17
5 *62:d 1.02063e-16
6 *19:g 6.93231e-17
7 *17:g 4.633e-17
8 *44:13 1.26415e-16
9 *44:12 1.33775e-16
10 *44:11 1.33506e-16
11 *44:2 1.10724e-16
12 *44:4 8.16671e-17
13 *44:7 1.86453e-16
14 *44:10 1.00517e-16

*RES
0 *67:g *44:2 71.411629  // $poly_conn
1 *11:g *44:4 61.15522  // $poly_conn
2 *17:g *26:g 80.028595  // $poly_conn
3 *26:g *44:7 62.398674  // $poly_conn
4 *19:g *28:g 163.757996  // $poly_conn
5 *28:g *44:10 79.78154  // $poly_conn
6 *44:10 *44:7 0.594611  // $metal1_conn
7 *44:7 *44:11 0.939018  // $metal1_conn
8 *44:11 *44:12 0.31045  // $metal1_conn
9 *44:12 *44:13 0.675369  // $metal1_conn
10 *44:13 *62:d 75.515717  // $metal1_conn
11 *44:11 *44:4 0.247049  // $metal1_conn
12 *44:12 *44:2 0.351341  // $metal1_conn
13 *44:13 *6:d 62.101807  // $metal1_conn

*END

*D_NET *43 8.14663e-16

*CONN
*I *58:g B *C 0.5875 0.5875 
*I *60:g B *C 0.9925 0.5175 
*I *64:d B *C 1.5925 0.5075 
*I *66:g B *C 2.0975 0.5075 
*I *3:g B *C 0.6225 1.0075 
*I *5:g B *C 1.0125 1.3725 
*I *7:d B *C 1.8150 1.0575 
*I *8:d B *C 1.8150 1.0575 
*I *9:g B *C 2.1125 1.0575 
*N *43:2 *C 1.0025 0.7000 
*N *43:3 *C 0.6275 0.7575 
*N *43:6 *C 1.0800 0.7000 
*N *43:9 *C 2.0500 0.6900 
*N *43:12 *C 1.5225 0.6850 
*N *43:14 *C 1.5405 0.5200 

*CAP
0 *9:g 5.82976e-17
1 *7:d 9.76722e-17
2 *5:g 4.6328e-17
3 *3:g 1.96432e-17
4 *66:g 5.00463e-17
5 *64:d 8.61508e-17
6 *60:g 2.21261e-17
7 *58:g 2.39268e-17
8 *43:12 1.06462e-16
9 *43:3 3.06539e-17
10 *43:2 3.59066e-17
11 *43:6 1.02152e-16
12 *43:9 1.35297e-16

*RES
0 *5:g *43:2 136.905853  // $poly_conn
1 *43:2 *43:3 98.000587  // $poly_conn
2 *43:3 *58:g 32.03199  // $poly_conn
3 *43:2 *60:g 21.623661  // $poly_conn
4 *43:2 *43:6 49.843201  // $poly_conn
5 *43:3 *3:g 33.013973  // $poly_conn
6 *9:g *43:9 53.837521  // $poly_conn
7 *43:9 *66:g 17.398676  // $poly_conn
8 *7:d *43:12 62.53521  // $metal1_conn
9 *43:12 *43:14 0.095949  // $metal1_conn
10 *43:12 *43:9 45.386448  // $metal1_conn
11 *43:14 *43:6 0.662167  // $metal1_conn
12 *64:d *43:14 75  // $metal1_conn

*END

*D_NET *41 4.06752e-16

*CONN
*I *64:g B *C 1.7275 0.5075 
*I *67:d B *C 2.3525 0.5075 
*I *68:s B *C 2.3525 0.5075 
*I *7:g B *C 1.7125 1.0575 
*I *10:d B *C 2.4775 1.0575 
*I *11:d B *C 2.4775 1.0575 
*N *41:3 *C 1.6900 0.3300 
*N *41:5 *C 2.4000 0.4950 

*CAP
0 *10:d 7.93122e-17
1 *7:g 5.28525e-17
2 *67:d 8.82804e-17
3 *64:g 5.23971e-17
4 *41:3 1.3391e-16

*RES
0 *7:g *64:g 93.073845  // $poly_conn
1 *64:g *41:3 62.437271  // $poly_conn
2 *41:5 *41:3 0.62729  // $metal1_conn
3 *41:5 *10:d 62.389103  // $metal1_conn
4 *67:d *41:5 75  // $metal1_conn

*END

*D_NET *40 7.79351e-16

*CONN
*I *16:g B *C 3.5275 0.5075 
*I *19:d B *C 4.2800 0.3475 
*I *68:g B *C 2.5025 0.5075 
*I *27:g B *C 3.9225 1.0075 
*I *28:d B *C 4.3000 1.1725 
*I *10:g B *C 2.3275 1.0575 
*N *40:2 *C 2.5025 0.6825 
*N *40:4 *C 2.7800 0.7100 
*N *40:6 *C 3.5000 0.3050 
*N *40:7 *C 4.1000 0.6250 
*N *40:10 *C 4.2600 0.3600 
*N *40:11 *C 4.1000 0.3900 

*CAP
0 *10:g 4.61345e-17
1 *28:d 7.98714e-17
2 *27:g 5.0686e-17
3 *68:g 1.88914e-17
4 *19:d 4.94633e-17
5 *16:g 6.75566e-17
6 *40:11 1.03572e-17
7 *40:2 4.68856e-17
8 *40:4 1.34383e-16
9 *40:6 2.14286e-16
10 *40:7 6.08356e-17

*RES
0 *68:g *40:2 21.773924  // $poly_conn
1 *40:2 *10:g 94.184715  // $poly_conn
2 *40:2 *40:4 106.105888  // $poly_conn
3 *16:g *40:6 68.847527  // $poly_conn
4 *40:7 *27:g 139.54718  // $poly_conn
5 *40:10 *40:11 0.084703  // $metal1_conn
6 *40:11 *40:6 0.479465  // $metal1_conn
7 *40:10 *28:d 62.568577  // $metal1_conn
8 *40:11 *40:7 0.180511  // $metal1_conn
9 *40:6 *40:4 0.945268  // $metal1_conn
10 *19:d *40:10 75  // $metal1_conn

*END

*D_NET *38 3.87256e-16

*CONN
*I *16:d B *C 3.6300 0.5075 
*I *17:s B *C 3.6300 0.5075 
*I *54:g B *C 2.9775 0.5075 
*I *26:d B *C 3.8200 1.0075 
*I *27:d B *C 3.8200 1.0075 
*I *12:g B *C 2.9475 1.0575 
*N *38:1 *C 3.1000 0.7200 
*N *38:2 *C 2.9775 0.7200 
*N *38:6 *C 3.6300 0.8400 
*N *38:8 *C 3.8205 1.0050 

*CAP
0 *12:g 4.93453e-17
1 *26:d 4.39842e-17
2 *54:g 2.99578e-17
3 *16:d 3.92448e-17
4 *38:6 8.66675e-17
5 *38:2 3.34535e-17
6 *38:1 1.04603e-16

*RES
0 *38:1 *38:2 52.613522  // $poly_conn
1 *38:2 *12:g 55.740673  // $poly_conn
2 *38:2 *54:g 30.819893  // $poly_conn
3 *16:d *38:6 75.205605  // $metal1_conn
4 *38:6 *38:8 0.210105  // $metal1_conn
5 *38:6 *38:1 0.497681  // $metal1_conn
6 *26:d *38:8 62  // $metal1_conn

*END

*D_NET *37 3.99933e-16

*CONN
*I *15:g B *C 3.3475 0.5075 
*I *54:d B *C 2.7400 0.5075 
*I *68:d B *C 2.7400 0.5075 
*I *24:g B *C 3.3475 1.0575 
*I *11:s B *C 2.7875 1.0575 
*I *12:d B *C 2.7875 1.0575 
*N *37:2 *C 3.3850 0.6800 
*N *37:4 *C 2.9400 0.5200 

*CAP
0 *11:s 5.47726e-17
1 *24:g 5.14753e-17
2 *54:d 2.61454e-17
3 *15:g 5.06339e-17
4 *37:4 8.37983e-17
5 *37:2 1.33107e-16

*RES
0 *24:g *37:2 59.744961  // $poly_conn
1 *37:2 *15:g 16.15522  // $poly_conn
2 *37:2 *37:4 45.441513  // $metal1_conn
3 *37:4 *11:s 62.405571  // $metal1_conn
4 *37:4 *54:d 75.056839  // $metal1_conn

*END

*D_NET *36 1.29449e-16

*CONN
*I *22:d B *C 3.2450 1.0575 
*I *24:d B *C 3.2450 1.0575 
*I *26:s B *C 3.6225 1.0075 

*CAP
0 *26:s 6.44781e-17
1 *22:d 6.49705e-17

*RES
0 *26:s *22:d 124.213661  // $metal1_conn

*END

*D_NET *35 5.31642e-16

*CONN
*I *17:d B *C 3.8725 0.5075 
*I *21:d B *C 5.0250 0.3475 
*I *23:d B *C 5.0250 0.3475 
*I *27:s B *C 4.0150 1.0075 
*I *30:d B *C 4.9050 1.1725 
*I *31:d B *C 4.9050 1.1725 
*N *35:2 *C 4.6750 1.1250 
*N *35:4 *C 4.0250 0.9600 

*CAP
0 *30:d 2.09805e-17
1 *27:s 1.36204e-16
2 *21:d 1.27061e-16
3 *17:d 5.72557e-17
4 *35:2 1.9014e-16

*RES
0 *21:d *35:2 75.819237  // $metal1_conn
1 *35:2 *35:4 0.80773  // $metal1_conn
2 *35:4 *17:d 75.368729  // $metal1_conn
3 *35:2 *30:d 62.140545  // $metal1_conn
4 *27:s *35:4 62  // $metal1_conn

*END

*D_NET *34 4.15519e-16

*CONN
*I *21:g B *C 4.9225 0.3475 
*I *52:d B *C 5.7300 0.3475 
*I *31:g B *C 5.0075 1.1725 
*I *1:d B *C 5.7300 1.1725 
*N *34:2 *C 5.0450 0.9650 
*N *34:5 *C 5.7400 1.0300 

*CAP
0 *1:d 7.98478e-18
1 *31:g 3.25577e-17
2 *52:d 7.5215e-17
3 *21:g 5.34785e-17
4 *34:5 8.68064e-17
5 *34:2 1.59477e-16

*RES
0 *31:g *34:2 16.282631  // $poly_conn
1 *34:2 *21:g 130.433334  // $poly_conn
2 *1:d *34:5 62.050789  // $metal1_conn
3 *34:5 *34:2 45.50214  // $metal1_conn
4 *34:5 *52:d 75.688316  // $metal1_conn

*END

