*SPEF "IEEE 1481-1999"
*DESIGN  "SDFFHQX8"
*DATE "Mon Sep 27 10:57:56 2010"
*VENDOR "Cadence Design Systems"
*PROGRAM "Assura RCX"
*VERSION "3.2 Red Hat Linux release 7.2 (Enigma) - (09/09/2009-10:39)"
*DESIGN_FLOW "Physical Verification"
*DIVIDER /
*DELIMITER :
*BUS_DELIMITER []
*T_UNIT 1 PS
*C_UNIT 1e15 FF
*R_UNIT 1 OHM
*L_UNIT 1 MH
// DeviceFingerDelim "@"
// MATCHED
// caps2d version: 10

*NAME_MAP
*1 mn55\@2
*2 net391
*3 net378
*4 net399
*5 net411
*6 mn55\@3
*7 mn55\@4
*8 mn55\@5
*9 mn55\@6
*10 mn45\@2
*11 mp35
*12 mp36
*13 mp25
*14 mp55
*15 mp55\@1
*16 mp55\@2
*17 mp55\@3
*18 mp55\@4
*19 mp55\@5
*20 mp55\@6
*21 mp45
*22 mp45\@1
*23 VDD
*24 mp45\@2
*25 mp20
*26 mp50
*27 mout
*28 n20
*29 mn40
*30 mn30
*31 mp21
*32 mn35
*33 mp11
*34 mn36
*35 VSS
*36 mp12
*37 mn25
*38 mp14
*39 mn21
*40 mp13
*41 mn11
*42 mp10
*43 mn12
*44 mp51
*45 mn14
*46 mp40
*47 mp30
*48 D
*49 CK
*50 Q
*51 SE
*52 SI
*53 SEb
*54 Db
*55 n30
*56 qbint
*57 CKbb
*58 CKb
*59 net334
*60 net319
*61 mn13
*62 net342
*63 mn10
*64 net350
*65 mn45
*66 mn45\@1
*67 mn20
*68 mn50
*69 mn51
*70 mn55
*71 mn55\@1

*GROUND_NETS VSS

*PORTS
*23 I
*35 I
*49 I
*48 I
*51 I
*52 I
*50 O

*D_NET *23 1.00491e-15

*CONN
*P *23 I *C 0.1000 1.7100 
*I *31:s B *C 5.2950 1.2100 
*I *33:s B *C 5.2950 1.2100 
*I *40:s B *C 6.1700 1.1225 
*I *42:s B *C 6.1700 1.1225 
*I *47:s B *C 4.2000 1.0900 
*I *11:s B *C 4.2000 1.0900 
*I *14:s B *C 0.3050 1.1225 
*I *15:s B *C 0.3050 1.1225 
*I *16:s B *C 0.7150 1.1225 
*I *17:s B *C 0.7150 1.1225 
*I *18:s B *C 1.1250 1.1225 
*I *19:s B *C 1.1250 1.1225 
*I *20:s B *C 1.6200 1.1500 
*I *21:s B *C 1.6200 1.1500 
*I *22:s B *C 1.9750 1.1500 
*I *24:s B *C 1.9750 1.1500 
*I *25:s B *C 3.0450 1.0900 
*I *26:s B *C 3.0450 1.0900 
*N *23:2 *C 5.5000 1.7100 
*N *23:3 *C 5.5000 1.7100 
*N *23:4 *C 5.2650 1.7100 
*N *23:5 *C 4.0850 1.7100 
*N *23:6 *C 3.3000 1.7100 
*N *23:7 *C 2.9600 1.7100 

*CAP
0 *25:s 6.46611e-18
1 *22:s 4.67676e-16
2 *47:s 3.36211e-17
3 *40:s 4.79427e-17
4 *31:s 3.96026e-17
5 *23:7 1.90561e-17
6 *23:5 3.03594e-17
7 *23:4 3.22389e-17
8 *23:2 3.20323e-16
9 *23 7.62236e-18

*RES
0 *22:s *23 0.102391  // $metal1_conn
1 *23:2 *23:3 6.818182  // $metal1_conn
2 *23:2 *23:6 6.818182  // $metal1_conn
3 *23:2 *22:s 6.818182  // $metal1_conn
4 *40:s *23:3 62.563301  // $metal1_conn
5 *23:4 *31:s 62.227638  // $metal1_conn
6 *23:5 *47:s 62.221722  // $metal1_conn
7 *23:7 *25:s 62.074837  // $metal1_conn
8 *23:3 *23:4 0.117692  // $metal1_conn
9 *23:4 *23:5 0.591555  // $metal1_conn
10 *23:5 *23:6 0.3936  // $metal1_conn
11 *23:6 *23:7 0.170365  // $metal1_conn
12 *23:7 *22:s 0.493733  // $metal1_conn

*END

*D_NET *35 0

*CONN
*P *35 I *C 0.1000 0.0000 
*I *30:s B *C 4.2000 0.4425 
*I *32:s B *C 4.2000 0.4425 
*I *39:s B *C 5.3450 0.4450 
*I *41:s B *C 5.3450 0.4450 
*I *61:s B *C 6.1500 0.4775 
*I *63:s B *C 6.1500 0.4775 
*I *65:s B *C 1.9600 0.4950 
*I *66:s B *C 1.9600 0.4950 
*I *67:s B *C 2.9400 0.4425 
*I *68:s B *C 2.9400 0.4425 
*I *70:s B *C 0.3050 0.5125 
*I *71:s B *C 0.3050 0.5125 
*I *1:s B *C 0.7150 0.5125 
*I *6:s B *C 0.7150 0.5125 
*I *7:s B *C 1.1250 0.5125 
*I *8:s B *C 1.1250 0.5125 
*I *9:s B *C 1.5850 0.4950 
*I *10:s B *C 1.5850 0.4950 
*N *35:2 *C 5.5000 0.0000 
*N *35:3 *C 5.5000 0.0000 
*N *35:4 *C 5.3350 0.0000 
*N *35:5 *C 4.1150 0.0000 
*N *35:6 *C 3.3000 0.0000 
*N *35:7 *C 2.8550 0.0000 


*RES
0 *65:s *35 0.102391  // $metal1_conn
1 *35:2 *35:3 5.636364  // $metal1_conn
2 *35:2 *35:6 5.636364  // $metal1_conn
3 *35:2 *65:s 5.636364  // $metal1_conn
4 *61:s *35:3 75.632561  // $metal1_conn
5 *35:4 *39:s 75.235214  // $metal1_conn
6 *35:5 *30:s 75.04583  // $metal1_conn
7 *35:7 *67:s 75.04583  // $metal1_conn
8 *35:3 *35:4 0.082576  // $metal1_conn
9 *35:4 *35:5 0.610671  // $metal1_conn
10 *35:5 *35:6 0.407699  // $metal1_conn
11 *35:6 *35:7 0.222088  // $metal1_conn
12 *35:7 *65:s 0.45516  // $metal1_conn

*END

*D_NET *49 2.05065e-16

*CONN
*P *49 I *C 2.7000 0.8550 
*I *67:g B *C 2.7225 0.4725 
*I *25:g B *C 2.7775 1.0425 
*N *49:2 *C 2.7500 0.6550 

*CAP
0 *25:g 3.18018e-17
1 *67:g 3.65771e-17
2 *49:2 6.18582e-17
3 *49 7.48277e-17

*RES
0 *25:g *49:2 63.281693  // $poly_conn
1 *49:2 *67:g 19.691952  // $poly_conn
2 *49:2 *49 45.131603  // $metal1_conn

*END

*D_NET *48 3.13486e-16

*CONN
*P *48 I *C 5.1000 0.8550 
*I *41:g B *C 5.4375 0.4450 
*I *33:g B *C 5.3675 1.2100 
*N *48:2 *C 5.3675 0.8500 
*N *48:3 *C 5.2450 0.8500 

*CAP
0 *33:g 9.14613e-17
1 *41:g 4.62477e-17
2 *48:2 4.31134e-17
3 *48:3 7.11479e-17
4 *48 6.15159e-17

*RES
0 *41:g *48:2 73.322472  // $poly_conn
1 *48:2 *48:3 51.370537  // $poly_conn
2 *48:2 *33:g 38.996655  // $poly_conn
3 *48:3 *48 0.05375  // $metal1_conn

*END

*D_NET *51 5.65431e-16

*CONN
*P *51 I *C 6.3000 0.6650 
*I *45:g B *C 5.8775 0.4450 
*I *63:g B *C 6.2175 0.4775 
*I *36:g B *C 5.4725 1.2100 
*I *42:g B *C 6.2175 1.1225 
*N *51:1 *C 5.5650 0.9050 
*N *51:4 *C 5.8400 0.6750 
*N *51:5 *C 6.3700 0.6850 
*N *51:6 *C 6.2175 0.6850 

*CAP
0 *42:g 4.68706e-17
1 *36:g 7.23779e-17
2 *63:g 2.99727e-17
3 *45:g 6.952e-17
4 *51:6 2.63241e-17
5 *51:1 1.11799e-16
6 *51:4 1.22888e-16
7 *51:5 4.23438e-17
8 *51 4.33355e-17

*RES
0 *51:1 *36:g 69.283562  // $poly_conn
1 *45:g *51:4 61.15522  // $poly_conn
2 *51:5 *51:6 54.002117  // $poly_conn
3 *51:6 *63:g 27.944992  // $poly_conn
4 *51:6 *42:g 77.944992  // $poly_conn
5 *51:1 *51:4 0.371348  // $metal1_conn
6 *51:4 *51 0.345593  // $metal1_conn
7 *51 *51:5 0.039873  // $metal1_conn

*END

*D_NET *52 3.0113e-16

*CONN
*P *52 I *C 6.1000 0.8550 
*I *61:g B *C 5.9825 0.4450 
*I *40:g B *C 5.9825 1.2100 
*N *52:2 *C 6.0200 0.8350 

*CAP
0 *40:g 4.94574e-17
1 *61:g 7.97158e-17
2 *52:2 1.21515e-16
3 *52 5.04419e-17

*RES
0 *40:g *52:2 36.668037  // $poly_conn
1 *52:2 *61:g 57.180859  // $poly_conn
2 *52:2 *52 45.024853  // $metal1_conn

*END

*D_NET *50 4.77589e-16

*CONN
*P *50 O *C 0.1000 0.6650 
*I *70:d B *C 0.1100 0.5125 
*I *71:d B *C 0.5100 0.5125 
*I *1:d B *C 0.5100 0.5125 
*I *6:d B *C 0.9200 0.5125 
*I *7:d B *C 0.9200 0.5125 
*I *8:d B *C 1.3300 0.5125 
*I *9:d B *C 1.3300 0.5125 
*I *14:d B *C 0.1100 1.1225 
*I *15:d B *C 0.5100 1.1225 
*I *16:d B *C 0.5100 1.1225 
*I *17:d B *C 0.9200 1.1225 
*I *18:d B *C 0.9200 1.1225 
*I *19:d B *C 1.3300 1.1225 
*I *20:d B *C 1.3300 1.1225 

*CAP
0 *50 4.77589e-16


*END

*D_NET *5 0

*CONN
*I *45:s B *C 5.9300 0.4450 
*I *61:d B *C 5.9300 0.4450 


*RES
0 *61:d *45:s 0.001  // $mwires

*END

*D_NET *4 5.76848e-18

*CONN
*I *41:d B *C 5.5550 0.4450 
*I *43:s B *C 5.5550 0.4450 

*CAP
0 *41:d 5.76848e-18

*RES
0 *43:s *41:d 0.001  // $mwires

*END

*D_NET *3 5.23238e-19

*CONN
*I *32:d B *C 4.3000 0.4425 
*I *34:s B *C 4.3000 0.4425 

*CAP
0 *32:d 5.23238e-19

*RES
0 *34:s *32:d 0.001  // $mwires

*END

*D_NET *2 2.90933e-18

*CONN
*I *68:d B *C 3.0675 0.4425 
*I *69:s B *C 3.0675 0.4425 

*CAP
0 *68:d 2.90933e-18

*RES
0 *69:s *68:d 0.001  // $mwires

*END

*D_NET *64 7.07606e-18

*CONN
*I *38:s B *C 5.8400 1.2100 
*I *40:d B *C 5.8400 1.2100 

*CAP
0 *38:s 7.07606e-18

*RES
0 *40:d *38:s 0.001  // $mwires

*END

*D_NET *62 1.73603e-18

*CONN
*I *33:d B *C 5.4200 1.2100 
*I *36:s B *C 5.4200 1.2100 

*CAP
0 *33:d 1.73603e-18

*RES
0 *36:s *33:d 0.001  // $mwires

*END

*D_NET *60 3.22986e-18

*CONN
*I *11:d B *C 4.3475 1.0900 
*I *12:s B *C 4.3475 1.0900 

*CAP
0 *11:d 3.22986e-18

*RES
0 *12:s *11:d 0.001  // $mwires

*END

*D_NET *59 3.46161e-18

*CONN
*I *44:s B *C 3.1650 1.0900 
*I *26:d B *C 3.1650 1.0900 

*CAP
0 *44:s 3.46161e-18

*RES
0 *26:d *44:s 0.001  // $mwires

*END

*D_NET *58 1.12739e-15

*CONN
*I *37:g B *C 4.6225 0.4425 
*I *39:g B *C 5.2025 0.5025 
*I *67:d B *C 2.5575 0.4725 
*I *69:g B *C 3.1475 0.4425 
*I *31:g B *C 5.1625 1.2975 
*I *46:g B *C 3.5075 1.0900 
*I *12:g B *C 4.4475 1.0900 
*I *25:d B *C 2.6850 1.0425 
*N *58:2 *C 3.1200 0.6650 
*N *58:4 *C 3.4700 0.8050 
*N *58:6 *C 5.1125 0.6725 
*N *58:7 *C 4.6225 0.6725 
*N *58:9 *C 4.4100 1.3450 
*N *58:12 *C 3.5000 1.1850 
*N *58:14 *C 2.4750 0.4600 

*CAP
0 *25:d 1.07155e-16
1 *12:g 3.99052e-17
2 *46:g 2.35573e-17
3 *31:g 5.82038e-17
4 *69:g 4.36388e-17
5 *67:d 1.55089e-16
6 *39:g 2.46846e-17
7 *37:g 2.58595e-17
8 *58:12 1.28626e-16
9 *58:7 6.15947e-17
10 *58:6 6.20308e-17
11 *58:2 1.87612e-16
12 *58:4 8.55396e-17
13 *58:9 1.23891e-16

*RES
0 *69:g *58:2 67.256058  // $poly_conn
1 *46:g *58:4 68.847527  // $poly_conn
2 *39:g *58:6 41.010902  // $poly_conn
3 *58:6 *58:7 123.337013  // $poly_conn
4 *58:7 *12:g 93.285439  // $poly_conn
5 *12:g *58:9 61.15522  // $poly_conn
6 *58:6 *31:g 128.985275  // $poly_conn
7 *58:7 *37:g 27.992792  // $poly_conn
8 *58:4 *58:12 0.254259  // $metal1_conn
9 *58:12 *58:2 0.682424  // $metal1_conn
10 *58:2 *58:14 0.635033  // $metal1_conn
11 *58:12 *58:9 0.711174  // $metal1_conn
12 *58:14 *25:d 62.564781  // $metal1_conn
13 *67:d *58:14 75  // $metal1_conn

*END

*D_NET *57 9.58695e-16

*CONN
*I *29:g B *C 3.3825 0.4425 
*I *34:g B *C 4.3525 0.4425 
*I *39:d B *C 5.1100 0.5025 
*I *31:d B *C 5.0900 1.2975 
*I *44:g B *C 3.2375 1.0900 
*I *13:g B *C 4.6725 1.0900 
*N *57:2 *C 3.3825 0.6475 
*N *57:4 *C 3.6600 0.6750 
*N *57:6 *C 4.3800 0.6750 
*N *57:8 *C 4.7100 0.8200 
*N *57:10 *C 4.7100 0.3250 
*N *57:11 *C 4.3300 0.3250 

*CAP
0 *13:g 3.76258e-17
1 *44:g 6.27514e-17
2 *31:d 7.68236e-17
3 *39:d 5.76953e-17
4 *34:g 5.87097e-17
5 *29:g 2.39041e-17
6 *57:11 1.09185e-16
7 *57:10 8.8512e-17
8 *57:2 4.4846e-17
9 *57:4 1.31291e-16
10 *57:6 1.00639e-16
11 *57:8 1.66712e-16

*RES
0 *29:g *57:2 21.773924  // $poly_conn
1 *57:2 *44:g 91.620613  // $poly_conn
2 *57:2 *57:4 106.105888  // $poly_conn
3 *34:g *57:6 69.82016  // $poly_conn
4 *13:g *57:8 65.001373  // $poly_conn
5 *39:d *57:10 75.394112  // $metal1_conn
6 *57:10 *57:11 0.284868  // $metal1_conn
7 *57:11 *57:4 0.844444  // $metal1_conn
8 *57:10 *57:8 0.344407  // $metal1_conn
9 *57:8 *31:d 62.636707  // $metal1_conn
10 *57:11 *57:6 0.241762  // $metal1_conn

*END

*D_NET *56 9.92348e-16

*CONN
*I *65:d B *C 1.7400 0.4950 
*I *66:d B *C 2.2125 0.4950 
*I *68:g B *C 2.9875 0.4425 
*I *70:g B *C 0.2025 0.5125 
*I *71:g B *C 0.4075 0.5125 
*I *1:g B *C 0.6125 0.5125 
*I *6:g B *C 0.8175 0.5125 
*I *7:g B *C 1.0225 0.5125 
*I *8:g B *C 1.2275 0.5125 
*I *9:g B *C 1.4325 0.5125 
*I *10:d B *C 1.7400 0.4950 
*I *14:g B *C 0.2025 1.1225 
*I *15:g B *C 0.4075 1.1225 
*I *16:g B *C 0.6125 1.1225 
*I *17:g B *C 0.8175 1.1225 
*I *18:g B *C 1.0225 1.1225 
*I *19:g B *C 1.2275 1.1225 
*I *20:g B *C 1.4325 1.1225 
*I *21:d B *C 1.7700 1.1500 
*I *22:d B *C 1.7700 1.1500 
*I *24:d B *C 2.1700 1.1500 
*I *26:g B *C 3.0925 1.0900 
*N *56:23 *C 2.9600 0.8000 

*CAP
0 *26:g 4.85915e-17
1 *24:d 3.66254e-16
2 *20:g 3.62544e-16
3 *68:g 5.80164e-17
4 *56:23 1.56943e-16

*RES
0 *26:g *56:23 43.574535  // $poly_conn
1 *56:23 *68:g 53.709526  // $poly_conn
2 *56:23 *24:d 45.87748  // $metal1_conn
3 *24:d *20:g 45.167809  // $metal1_conn

*END

*D_NET *55 6.43688e-16

*CONN
*I *29:s B *C 3.2650 0.4425 
*I *65:g B *C 1.8425 0.4950 
*I *66:g B *C 2.0775 0.4950 
*I *69:d B *C 3.2650 0.4425 
*I *10:g B *C 1.6375 0.4950 
*I *44:d B *C 3.3725 1.0900 
*I *46:d B *C 3.3725 1.0900 
*I *21:g B *C 1.6675 1.1500 
*I *22:g B *C 1.8725 1.1500 
*I *24:g B *C 2.0775 1.1500 
*N *55:12 *C 3.2800 0.4000 

*CAP
0 *24:g 3.37227e-16
1 *44:d 1.03589e-16
2 *29:s 2.02873e-16

*RES
0 *24:g *55:12 46.237083  // $metal1_conn
1 *29:s *55:12 75  // $metal1_conn
2 *55:12 *44:d 62.46423  // $metal1_conn

*END

*D_NET *54 4.35632e-16

*CONN
*I *37:s B *C 4.8025 0.4425 
*I *43:d B *C 5.7750 0.4450 
*I *45:d B *C 5.7750 0.4450 
*I *36:d B *C 5.5850 1.2100 
*I *38:d B *C 5.5850 1.2100 
*I *13:d B *C 4.8775 1.0025 
*N *54:2 *C 5.4050 1.1450 
*N *54:4 *C 4.9000 1.0100 

*CAP
0 *13:d 1.0826e-16
1 *36:d 4.76247e-17
2 *43:d 9.19293e-17
3 *37:s 7.43261e-17
4 *54:2 1.13492e-16

*RES
0 *43:d *54:2 75.652489  // $metal1_conn
1 *54:2 *54:4 0.42839  // $metal1_conn
2 *54:4 *37:s 75.406555  // $metal1_conn
3 *54:2 *36:d 31.196968  // $metal1_conn
4 *13:d *54:4 62  // $metal1_conn

*END

*D_NET *53 4.31019e-16

*CONN
*I *43:g B *C 5.6725 0.4450 
*I *63:d B *C 6.3100 0.4775 
*I *38:g B *C 5.6975 1.2100 
*I *42:d B *C 6.3100 1.1225 
*N *53:2 *C 5.7350 0.9150 
*N *53:6 *C 6.3200 1.1700 

*CAP
0 *42:d 1.09098e-16
1 *38:g 3.48939e-17
2 *63:d 8.63046e-17
3 *43:g 6.93815e-17
4 *53:2 1.31341e-16

*RES
0 *38:g *53:2 16.15522  // $poly_conn
1 *53:2 *43:g 81.295235  // $poly_conn
2 *63:d *53:6 75.712448  // $metal1_conn
3 *53:6 *53:2 45.570557  // $metal1_conn
4 *42:d *53:6 62  // $metal1_conn

*END

*D_NET *28 3.83087e-16

*CONN
*I *30:g B *C 3.9825 0.4425 
*I *34:d B *C 4.4875 0.4425 
*I *37:d B *C 4.4875 0.4425 
*I *47:g B *C 3.9825 1.0900 
*I *12:d B *C 4.5600 1.0900 
*I *13:s B *C 4.5600 1.0900 
*N *28:2 *C 4.0100 0.8250 
*N *28:5 *C 4.5500 0.8750 

*CAP
0 *12:d 5.85047e-17
1 *47:g 3.79129e-17
2 *34:d 6.66918e-17
3 *30:g 4.7352e-17
4 *28:5 6.77425e-17
5 *28:2 1.04883e-16

*RES
0 *47:g *28:2 19.691952  // $poly_conn
1 *28:2 *30:g 63.281693  // $poly_conn
2 *12:d *28:5 31.146427  // $metal1_conn
3 *28:5 *28:2 45.398979  // $metal1_conn
4 *28:5 *34:d 75.314812  // $metal1_conn

*END

*D_NET *27 3.92419e-16

*CONN
*I *29:d B *C 3.6825 0.4425 
*I *30:d B *C 3.6825 0.4425 
*I *32:g B *C 4.2475 0.4425 
*I *46:s B *C 3.7450 1.0900 
*I *47:d B *C 3.7450 1.0900 
*I *11:g B *C 4.2475 1.0900 
*N *27:2 *C 4.2475 0.6550 
*N *27:3 *C 4.1700 0.6550 
*N *27:5 *C 3.8200 0.6650 

*CAP
0 *11:g 6.78894e-17
1 *46:s 5.43958e-17
2 *32:g 5.8625e-17
3 *29:d 5.019e-17
4 *27:5 5.3002e-17
5 *27:2 3.94604e-17
6 *27:3 6.88568e-17

*RES
0 *11:g *27:2 68.483833  // $poly_conn
1 *27:2 *27:3 47.445099  // $poly_conn
2 *27:2 *32:g 24.894089  // $poly_conn
3 *27:3 *27:5 0.231952  // $metal1_conn
4 *27:5 *29:d 75.189903  // $metal1_conn
5 *27:5 *46:s 62.23951  // $metal1_conn

*END

