*SPEF "IEEE 1481-1999"
*DESIGN  "SDFFX2"
*DATE "Mon Sep 27 11:12:27 2010"
*VENDOR "Cadence Design Systems"
*PROGRAM "Assura RCX"
*VERSION "3.2 Red Hat Linux release 7.2 (Enigma) - (09/09/2009-10:39)"
*DESIGN_FLOW "Physical Verification"
*DIVIDER /
*DELIMITER :
*BUS_DELIMITER []
*T_UNIT 1 PS
*C_UNIT 1e15 FF
*R_UNIT 1 OHM
*L_UNIT 1 MH
// DeviceFingerDelim "@"
// MATCHED
// caps2d version: 10

*NAME_MAP
*1 mp56
*2 mp10
*3 mp11
*4 CK
*5 mp12
*6 mp14
*7 mp13
*8 mp21
*9 mp25
*10 mp36
*11 mp35
*12 mp30
*13 VDD
*14 mn51
*15 mn50
*16 mn45
*17 mn20
*18 QN
*19 mn55
*20 mn55\@1
*21 mn57
*22 mp40
*23 mn57\@1
*24 mp51
*25 mn56
*26 mp50
*27 mp45
*28 mp20
*29 mp55
*30 mp55\@1
*31 mp57
*32 mp57\@1
*33 n30
*34 n20
*35 mout
*36 SEb
*37 Db
*38 SE
*39 CKbb
*40 CKb
*41 D
*42 qbint
*43 net384
*44 SI
*45 net392
*46 net356
*47 net376
*48 net449
*49 Q
*50 net461
*51 mn10
*52 net429
*53 mn11
*54 net436
*55 mn12
*56 mn14
*57 mn13
*58 mn21
*59 VSS
*60 mn25
*61 mn36
*62 mn35
*63 mn30
*64 net367
*65 mn40

*GROUND_NETS VSS

*PORTS
*13 I
*59 I
*4 I
*41 I
*38 I
*44 I
*49 O
*18 O

*D_NET *13 8.1197e-16

*CONN
*P *13 I *C 0.1000 1.7100 
*I *26:s B *C 3.4700 1.1950 
*I *27:s B *C 3.4700 1.1950 
*I *28:s B *C 4.2950 1.1600 
*I *29:s B *C 4.2950 1.1600 
*I *30:s B *C 4.7250 1.1600 
*I *31:s B *C 4.7250 1.1600 
*I *32:s B *C 5.1975 1.0725 
*I *1:s B *C 5.1975 1.0725 
*I *2:s B *C 0.4350 1.2325 
*I *3:s B *C 0.4350 1.2325 
*I *7:s B *C 1.4625 1.2325 
*I *8:s B *C 1.4625 1.2325 
*I *11:s B *C 2.5150 1.1475 
*I *12:s B *C 2.5150 1.1475 
*N *13:2 *C 4.7000 1.7100 
*N *13:5 *C 3.3550 1.7100 
*N *13:6 *C 2.9000 1.7100 
*N *13:7 *C 2.4300 1.7100 
*N *13:8 *C 1.2750 1.7100 
*N *13:9 *C 1.0000 1.7100 
*N *13:10 *C 0.4350 1.7100 

*CAP
0 *11:s 1.50219e-17
1 *7:s 2.78325e-17
2 *2:s 3.33321e-17
3 *32:s 2.1158e-16
4 *26:s 2.2276e-17
5 *13:10 1.10696e-17
6 *13:8 2.67062e-17
7 *13:7 3.41187e-17
8 *13:5 2.74788e-17
9 *13:2 3.93604e-16
10 *13 8.94984e-18

*RES
0 *13:10 *13 0.16755  // $metal1_conn
1 *13:2 *32:s 8.333333  // $metal1_conn
2 *13:2 *13:6 8.333333  // $metal1_conn
3 *13:2 *13:9 7.5  // $metal1_conn
4 *13:5 *26:s 62.097305  // $metal1_conn
5 *13:7 *11:s 62.045818  // $metal1_conn
6 *13:8 *7:s 62.097305  // $metal1_conn
7 *13:10 *2:s 62.268143  // $metal1_conn
8 *32:s *13:5 0.465987  // $metal1_conn
9 *13:5 *13:6 0.227979  // $metal1_conn
10 *13:6 *13:7 0.234551  // $metal1_conn
11 *13:7 *13:8 0.577871  // $metal1_conn
12 *13:8 *13:9 0.137712  // $metal1_conn
13 *13:9 *13:10 0.283142  // $metal1_conn

*END

*D_NET *59 0

*CONN
*P *59 I *C 0.1000 0.0000 
*I *15:s B *C 3.3850 0.5325 
*I *16:s B *C 3.3850 0.5325 
*I *17:s B *C 4.3100 0.5300 
*I *19:s B *C 4.3100 0.5300 
*I *20:s B *C 4.7800 0.5300 
*I *21:s B *C 4.7800 0.5300 
*I *23:s B *C 5.1975 0.5875 
*I *25:s B *C 5.1975 0.5875 
*I *51:s B *C 0.4350 0.5375 
*I *53:s B *C 0.4350 0.5375 
*I *57:s B *C 1.2875 0.5375 
*I *58:s B *C 1.2875 0.5375 
*I *62:s B *C 2.5100 0.5625 
*I *63:s B *C 2.5100 0.5625 
*N *59:2 *C 4.7000 0.0000 
*N *59:5 *C 3.3250 0.0000 
*N *59:6 *C 2.9000 0.0000 
*N *59:7 *C 2.4250 0.0000 
*N *59:8 *C 1.2750 0.0000 
*N *59:9 *C 1.0000 0.0000 
*N *59:10 *C 0.4050 0.0000 


*RES
0 *59:10 *59 0.152505  // $metal1_conn
1 *59:2 *23:s 6.888889  // $metal1_conn
2 *59:2 *59:6 6.888889  // $metal1_conn
3 *59:2 *59:9 6.2  // $metal1_conn
4 *59:5 *15:s 75.353088  // $metal1_conn
5 *59:7 *62:s 75.045815  // $metal1_conn
6 *59:8 *57:s 75.344353  // $metal1_conn
7 *59:10 *51:s 75.380409  // $metal1_conn
8 *23:s *59:5 0.449993  // $metal1_conn
9 *59:5 *59:6 0.212934  // $metal1_conn
10 *59:6 *59:7 0.237059  // $metal1_conn
11 *59:7 *59:8 0.575364  // $metal1_conn
12 *59:8 *59:9 0.137712  // $metal1_conn
13 *59:9 *59:10 0.298186  // $metal1_conn

*END

*D_NET *4 1.99251e-16

*CONN
*P *4 I *C 4.1000 0.6650 
*I *17:g B *C 4.0825 0.5875 
*I *28:g B *C 4.1375 1.0725 
*N *4:2 *C 4.1100 0.7950 

*CAP
0 *28:g 2.94842e-17
1 *17:g 2.56875e-17
2 *4:2 8.26788e-17
3 *4 6.14003e-17

*RES
0 *28:g *4:2 35.076569  // $poly_conn
1 *4:2 *17:g 26.102209  // $poly_conn
2 *4 *4:2 45.080894  // $metal1_conn

*END

*D_NET *41 2.79467e-16

*CONN
*P *41 I *C 0.7000 1.2350 
*I *53:g B *C 0.5375 0.5375 
*I *3:g B *C 0.5375 1.2325 
*N *41:2 *C 0.5000 1.0250 

*CAP
0 *3:g 3.42967e-17
1 *53:g 7.42278e-17
2 *41:2 1.25888e-16
3 *41 4.50544e-17

*RES
0 *3:g *41:2 16.15522  // $poly_conn
1 *41:2 *53:g 96.924454  // $poly_conn
2 *41 *41:2 45.225559  // $metal1_conn

*END

*D_NET *38 3.7714e-16

*CONN
*P *38 I *C 0.3000 0.8550 
*I *51:g B *C 0.3325 0.5375 
*I *56:g B *C 0.9175 0.5375 
*I *2:g B *C 0.3325 1.2325 
*I *5:g B *C 0.7175 1.2325 
*N *38:2 *C 0.3050 0.8750 
*N *38:5 *C 0.6800 0.8650 
*N *38:7 *C 0.3050 0.8750 

*CAP
0 *5:g 4.22251e-17
1 *2:g 3.63426e-17
2 *56:g 4.52324e-17
3 *51:g 3.24539e-17
4 *38:2 3.53166e-17
5 *38:5 1.20346e-16
6 *38 6.52236e-17

*RES
0 *2:g *38:2 55.589386  // $poly_conn
1 *38:2 *51:g 59.435539  // $poly_conn
2 *56:g *38:5 102.266846  // $poly_conn
3 *38:5 *5:g 57.180859  // $poly_conn
4 *38:5 *38:7 45.227028  // $metal1_conn
5 *38:7 *38 0.002204  // $metal1_conn
6 *38:2 *38:7 45  // $metal1_conn

*END

*D_NET *44 2.42261e-16

*CONN
*P *44 I *C 1.3000 0.8550 
*I *57:g B *C 1.1725 0.5375 
*I *7:g B *C 1.1725 1.2325 
*N *44:2 *C 1.2100 0.9000 

*CAP
0 *7:g 6.61052e-17
1 *57:g 3.42509e-17
2 *44:2 1.05218e-16
3 *44 3.66873e-17

*RES
0 *7:g *44:2 48.206497  // $poly_conn
1 *44:2 *57:g 64.873169  // $poly_conn
2 *44 *44:2 45.036484  // $metal1_conn

*END

*D_NET *49 1.51127e-16

*CONN
*P *49 O *C 4.5000 0.6650 
*I *19:d B *C 4.4600 0.5300 
*I *20:d B *C 4.4600 0.5300 
*I *29:d B *C 4.5050 1.1600 
*I *30:d B *C 4.5050 1.1600 
*N *49:3 *C 4.4600 0.6000 

*CAP
0 *29:d 7.53608e-17
1 *19:d 2.81059e-17
2 *49 4.76605e-17

*RES
0 *29:d *49 21.017405  // $metal1_conn
1 *49 *49:3 0.025574  // $metal1_conn
2 *19:d *49:3 75  // $metal1_conn

*END

*D_NET *18 1.32911e-16

*CONN
*P *18 O *C 4.9000 0.6650 
*I *21:d B *C 4.9300 0.5300 
*I *23:d B *C 4.9300 0.5300 
*I *31:d B *C 4.9300 1.1600 
*I *32:d B *C 4.9300 1.1600 

*CAP
0 *31:d 9.08106e-17
1 *21:d 2.18663e-17
2 *18 2.02346e-17

*RES
0 *18 *21:d 75.036949  // $metal1_conn
1 *31:d *18 21.031908  // $metal1_conn

*END

*D_NET *54 1.34497e-18

*CONN
*I *14:s B *C 3.1975 0.5625 
*I *15:d B *C 3.1975 0.5625 

*CAP
0 *14:s 1.34497e-18

*RES
0 *15:d *14:s 0.001  // $mwires

*END

*D_NET *52 0

*CONN
*I *61:s B *C 2.2400 0.5625 
*I *62:d B *C 2.2400 0.5625 


*RES
0 *62:d *61:s 0.001  // $mwires

*END

*D_NET *50 1.83689e-18

*CONN
*I *56:s B *C 1.0450 0.5375 
*I *57:d B *C 1.0450 0.5375 

*CAP
0 *56:s 1.83689e-18

*RES
0 *57:d *56:s 0.001  // $mwires

*END

*D_NET *48 8.64555e-20

*CONN
*I *53:d B *C 0.5900 0.5375 
*I *55:s B *C 0.5900 0.5375 

*CAP
0 *53:d 8.64555e-20

*RES
0 *55:s *53:d 0.001  // $mwires

*END

*D_NET *47 1.94922e-18

*CONN
*I *24:s B *C 3.1675 1.1475 
*I *26:d B *C 3.1675 1.1475 

*CAP
0 *24:s 1.94922e-18

*RES
0 *26:d *24:s 0.001  // $mwires

*END

*D_NET *46 0

*CONN
*I *10:s B *C 2.2450 1.1475 
*I *11:d B *C 2.2450 1.1475 


*RES
0 *11:d *10:s 0.001  // $mwires

*END

*D_NET *45 2.36682e-18

*CONN
*I *6:s B *C 1.1200 1.2325 
*I *7:d B *C 1.1200 1.2325 

*CAP
0 *6:s 2.36682e-18

*RES
0 *7:d *6:s 0.001  // $mwires

*END

*D_NET *43 1.63206e-18

*CONN
*I *3:d B *C 0.6275 1.2325 
*I *5:s B *C 0.6275 1.2325 

*CAP
0 *3:d 1.63206e-18

*RES
0 *5:s *3:d 0.001  // $mwires

*END

*D_NET *42 9.84168e-16

*CONN
*I *15:g B *C 3.2525 0.5625 
*I *16:d B *C 3.5500 0.5325 
*I *19:g B *C 4.3575 0.5300 
*I *20:g B *C 4.5625 0.5300 
*I *25:g B *C 5.2625 0.5875 
*I *26:g B *C 3.2525 1.1475 
*I *27:d B *C 3.6100 1.1950 
*I *29:g B *C 4.3875 1.1600 
*I *30:g B *C 4.6225 1.1600 
*I *1:g B *C 5.2625 1.0725 
*N *42:1 *C 3.3750 0.9250 
*N *42:2 *C 3.2525 0.9250 
*N *42:12 *C 5.3550 0.3300 
*N *42:18 *C 3.5600 0.4900 
*N *42:19 *C 3.5900 0.8950 

*CAP
0 *1:g 5.57725e-17
1 *30:g 4.30961e-16
2 *27:d 3.42202e-17
3 *26:g 4.89466e-17
4 *25:g 3.08918e-17
5 *16:d 8.43898e-17
6 *15:g 7.12626e-17
7 *42:19 3.50518e-17
8 *42:2 3.23593e-17
9 *42:1 7.21738e-17
10 *42:12 8.81388e-17

*RES
0 *25:g *1:g 78.205124  // $poly_conn
1 *42:2 *26:g 24.409637  // $poly_conn
2 *42:12 *25:g 91.138641  // $poly_conn
3 *42:2 *15:g 69.281433  // $poly_conn
4 *42:1 *42:2 52.613522  // $poly_conn
5 *42:12 *30:g 0.476424  // $metal1_conn
6 *42:19 *42:1 0.129919  // $metal1_conn
7 *16:d *42:18 75  // $metal1_conn
8 *42:19 *27:d 62.143913  // $metal1_conn
9 *30:g *42:18 0.602311  // $metal1_conn
10 *42:18 *42:19 0.304396  // $metal1_conn

*END

*D_NET *40 8.68227e-16

*CONN
*I *14:g B *C 3.1425 0.5625 
*I *17:d B *C 3.9500 0.5875 
*I *58:g B *C 1.4025 0.5375 
*I *60:g B *C 1.9825 0.5625 
*I *22:g B *C 2.8775 1.1475 
*I *28:d B *C 4.0450 1.0725 
*I *8:g B *C 1.5825 1.2325 
*I *10:g B *C 2.1925 1.1475 
*N *40:1 *C 2.1550 1.3550 
*N *40:3 *C 1.9825 0.7325 
*N *40:4 *C 1.5825 0.7325 
*N *40:10 *C 2.9150 1.3550 
*N *40:13 *C 4.0350 1.1200 

*CAP
0 *10:g 6.0904e-17
1 *8:g 4.3391e-17
2 *28:d 1.22426e-16
3 *22:g 6.52166e-17
4 *60:g 3.34749e-17
5 *58:g 2.92226e-17
6 *17:d 6.5826e-17
7 *14:g 7.60441e-17
8 *40:4 3.2001e-17
9 *40:3 7.9168e-17
10 *40:1 9.31164e-17
11 *40:10 1.67437e-16

*RES
0 *40:1 *10:g 61.15522  // $poly_conn
1 *10:g *40:3 113.798248  // $poly_conn
2 *40:3 *40:4 100.260094  // $poly_conn
3 *40:4 *58:g 70.498085  // $poly_conn
4 *40:3 *60:g 20.300484  // $poly_conn
5 *40:4 *8:g 95.941513  // $poly_conn
6 *14:g *22:g 148.138824  // $poly_conn
7 *22:g *40:10 61.15522  // $poly_conn
8 *17:d *40:13 75.415085  // $metal1_conn
9 *40:13 *40:10 0.91821  // $metal1_conn
10 *40:10 *40:1 0.51977  // $metal1_conn
11 *28:d *40:13 62  // $metal1_conn

*END

*D_NET *39 9.41023e-16

*CONN
*I *58:d B *C 1.4950 0.5375 
*I *61:g B *C 2.1875 0.5625 
*I *65:g B *C 2.7625 0.5625 
*I *24:g B *C 3.0825 1.1475 
*I *8:d B *C 1.6750 1.2325 
*I *9:g B *C 1.9875 1.1475 
*N *39:2 *C 1.9000 0.8650 
*N *39:4 *C 2.1500 0.2100 
*N *39:6 *C 2.7900 0.7500 
*N *39:8 *C 3.0550 0.9250 
*N *39:9 *C 2.8500 0.7500 
*N *39:10 *C 2.1500 0.4000 
*N *39:11 *C 1.8950 0.4000 
*N *39:13 *C 1.5050 0.5250 

*CAP
0 *9:g 3.66419e-17
1 *8:d 9.48789e-17
2 *24:g 5.95796e-17
3 *65:g 3.23216e-17
4 *61:g 6.84601e-17
5 *58:d 9.96494e-17
6 *39:11 6.55927e-17
7 *39:10 8.15667e-17
8 *39:2 1.19849e-16
9 *39:4 4.61241e-17
10 *39:6 1.50975e-16
11 *39:8 8.53838e-17

*RES
0 *9:g *39:2 81.378471  // $poly_conn
1 *61:g *39:4 107.309067  // $poly_conn
2 *65:g *39:6 65.973999  // $poly_conn
3 *24:g *39:8 65.973999  // $poly_conn
4 *39:6 *39:9 0.015071  // $metal1_conn
5 *39:9 *39:10 0.752768  // $metal1_conn
6 *39:10 *39:11 0.206253  // $metal1_conn
7 *39:11 *39:13 0.360598  // $metal1_conn
8 *39:9 *39:8 0.24704  // $metal1_conn
9 *39:10 *39:4 0.080237  // $metal1_conn
10 *39:11 *39:2 0.340721  // $metal1_conn
11 *39:13 *8:d 62.607182  // $metal1_conn
12 *58:d *39:13 75  // $metal1_conn

*END

*D_NET *37 4.93413e-16

*CONN
*I *55:d B *C 0.7800 0.5375 
*I *56:d B *C 0.7800 0.5375 
*I *60:s B *C 1.8025 0.5625 
*I *5:d B *C 0.8925 1.2325 
*I *6:d B *C 0.8925 1.2325 
*I *9:s B *C 1.8950 1.1475 
*N *37:3 *C 1.8850 1.1000 
*N *37:5 *C 0.8700 1.1850 

*CAP
0 *9:s 1.60626e-16
1 *5:d 1.65631e-16
2 *60:s 8.42164e-17
3 *55:d 8.29397e-17

*RES
0 *60:s *37:3 75.518539  // $metal1_conn
1 *37:3 *37:5 0.986184  // $metal1_conn
2 *37:5 *55:d 75.450478  // $metal1_conn
3 *9:s *37:3 62  // $metal1_conn
4 *5:d *37:5 62  // $metal1_conn

*END

*D_NET *36 6.14531e-16

*CONN
*I *51:d B *C 0.2400 0.5375 
*I *55:g B *C 0.6425 0.5375 
*I *2:d B *C 0.2400 1.2325 
*I *6:g B *C 1.0675 1.2325 
*N *36:2 *C 0.6800 0.2100 
*N *36:4 *C 1.0300 0.9700 
*N *36:5 *C 0.2300 0.6850 

*CAP
0 *6:g 5.87544e-17
1 *2:d 4.84634e-17
2 *55:g 6.498e-17
3 *51:d 1.57059e-17
4 *36:5 1.16754e-16
5 *36:2 1.58107e-16
6 *36:4 1.51767e-16

*RES
0 *55:g *36:2 100.898804  // $poly_conn
1 *6:g *36:4 75.257782  // $poly_conn
2 *36:4 *36:2 0.812005  // $metal1_conn
3 *36:2 *36:5 0.645807  // $metal1_conn
4 *36:5 *51:d 75.07058  // $metal1_conn
5 *36:5 *2:d 62.511906  // $metal1_conn

*END

*D_NET *35 3.61438e-16

*CONN
*I *62:g B *C 2.2925 0.5625 
*I *63:d B *C 2.6600 0.5625 
*I *65:s B *C 2.6600 0.5625 
*I *22:s B *C 2.7200 1.1475 
*I *11:g B *C 2.2975 1.1475 
*I *12:d B *C 2.7200 1.1475 
*N *35:2 *C 2.3350 0.9400 
*N *35:4 *C 2.6175 0.9400 

*CAP
0 *11:g 6.19755e-17
1 *22:s 2.14605e-17
2 *63:d 6.09248e-17
3 *62:g 8.08903e-17
4 *35:4 4.74916e-17
5 *35:2 8.86957e-17

*RES
0 *11:g *35:2 16.15522  // $poly_conn
1 *35:2 *62:g 67.684303  // $poly_conn
2 *35:2 *35:4 45.207409  // $metal1_conn
3 *35:4 *63:d 75.277397  // $metal1_conn
4 *35:4 *22:s 62.142372  // $metal1_conn

*END

*D_NET *34 3.07257e-16

*CONN
*I *60:d B *C 2.0850 0.5625 
*I *61:d B *C 2.0850 0.5625 
*I *63:g B *C 2.5575 0.5625 
*I *9:d B *C 2.0900 1.1475 
*I *10:d B *C 2.0900 1.1475 
*I *12:g B *C 2.5625 1.1475 
*N *34:2 *C 2.5600 0.7350 
*N *34:3 *C 2.4400 0.7350 
*N *34:5 *C 2.1025 0.7350 

*CAP
0 *12:g 5.01578e-17
1 *9:d 3.86119e-17
2 *63:g 3.64388e-17
3 *60:d 3.58162e-17
4 *34:5 4.70455e-17
5 *34:2 2.59628e-17
6 *34:3 7.32236e-17

*RES
0 *12:g *34:2 75.499809  // $poly_conn
1 *34:2 *34:3 54.81979  // $poly_conn
2 *34:2 *63:g 22.935705  // $poly_conn
3 *34:3 *34:5 0.221289  // $metal1_conn
4 *34:5 *60:d 75.09597  // $metal1_conn
5 *34:5 *9:d 62.262024  // $metal1_conn

*END

*D_NET *33 3.37079e-16

*CONN
*I *14:d B *C 2.9525 0.5625 
*I *16:g B *C 3.4575 0.5325 
*I *65:d B *C 2.9525 0.5625 
*I *22:d B *C 2.9800 1.1475 
*I *24:d B *C 2.9800 1.1475 
*I *27:g B *C 3.5175 1.1950 
*N *33:2 *C 3.4575 0.7350 
*N *33:3 *C 3.4000 0.7350 
*N *33:5 *C 3.2200 0.7350 

*CAP
0 *27:g 5.59508e-17
1 *22:d 6.37353e-17
2 *16:g 2.99536e-17
3 *14:d 4.28981e-17
4 *33:5 6.279e-17
5 *33:2 2.42448e-17
6 *33:3 5.75068e-17

*RES
0 *27:g *33:2 75.66185  // $poly_conn
1 *33:2 *33:3 47.934158  // $poly_conn
2 *33:2 *16:g 16.468296  // $poly_conn
3 *33:3 *33:5 0.142163  // $metal1_conn
4 *33:5 *22:d 62.442368  // $metal1_conn
5 *33:5 *14:d 75.230537  // $metal1_conn

*END

*D_NET *64 2.61395e-16

*CONN
*I *21:g B *C 4.8275 0.5300 
*I *23:g B *C 5.0325 0.5300 
*I *25:d B *C 5.3550 0.5875 
*I *31:g B *C 4.8275 1.1600 
*I *32:g B *C 5.0325 1.1600 
*I *1:d B *C 5.3550 1.0725 
*N *64:6 *C 5.1200 0.8650 
*N *64:9 *C 5.3500 0.8750 

*CAP
0 *1:d 1.05261e-17
1 *32:g 1.6111e-16
2 *25:d 2.40863e-17
3 *64:9 1.93075e-17
4 *64:6 4.63645e-17

*RES
0 *32:g *64:6 51.352463  // $poly_conn
1 *64:9 *64:6 0.118063  // $metal1_conn
2 *1:d *64:9 62.092594  // $metal1_conn
3 *64:9 *25:d 75.155708  // $metal1_conn

*END

