*SPEF "IEEE 1481-1999"
*DESIGN  "SDFFQX1"
*DATE "Mon Sep 27 10:59:51 2010"
*VENDOR "Cadence Design Systems"
*PROGRAM "Assura RCX"
*VERSION "3.2 Red Hat Linux release 7.2 (Enigma) - (09/09/2009-10:39)"
*DESIGN_FLOW "Physical Verification"
*DIVIDER /
*DELIMITER :
*BUS_DELIMITER []
*T_UNIT 1 PS
*C_UNIT 1e15 FF
*R_UNIT 1 OHM
*L_UNIT 1 MH
// DeviceFingerDelim "@"
// MATCHED
// caps2d version: 10

*NAME_MAP
*1 n1
*2 n3
*3 Q
*4 VDD
*5 mp35
*6 mp36
*7 mout
*8 mp25
*9 n20
*10 mp21
*11 mp11
*12 mp12
*13 mp14
*14 mp13
*15 mp55
*16 mp10
*17 mp20
*18 mp45
*19 mp50
*20 mp51
*21 mp40
*22 CK
*23 mp30
*24 mn55
*25 mn20
*26 mn45
*27 mn50
*28 mn51
*29 mn40
*30 mn30
*31 VSS
*32 SE
*33 n30
*34 SEb
*35 qbint
*36 SI
*37 mn36
*38 Db
*39 mn35
*40 CKbb
*41 mn25
*42 CKb
*43 mn21
*44 n8
*45 mn11
*46 n6
*47 mn12
*48 n2
*49 D
*50 mn14
*51 n4
*52 mn13
*53 mn10
*54 n7
*55 n5

*GROUND_NETS VSS

*PORTS
*4 I
*31 I
*22 I
*49 I
*32 I
*36 I
*3 O

*D_NET *4 5.96386e-16

*CONN
*P *4 I *C 0.1000 1.7100 
*I *5:s B *C 2.2150 1.1475 
*I *10:s B *C 3.2250 1.2825 
*I *11:s B *C 3.2250 1.2825 
*I *14:s B *C 3.9700 1.2825 
*I *16:s B *C 3.9700 1.2825 
*I *15:s B *C 0.4175 1.0575 
*I *17:s B *C 0.4175 1.0575 
*I *18:s B *C 1.2300 1.1475 
*I *19:s B *C 1.2300 1.1475 
*I *23:s B *C 2.2150 1.1475 
*N *4:2 *C 3.3000 1.7100 
*N *4:3 *C 3.3000 1.7100 
*N *4:4 *C 3.2250 1.7100 
*N *4:5 *C 2.1300 1.7100 
*N *4:6 *C 1.1000 1.7100 
*N *4:7 *C 0.3150 1.7100 

*CAP
0 *18:s 1.33006e-17
1 *15:s 4.21589e-17
2 *14:s 5.23796e-17
3 *10:s 3.57588e-17
4 *5:s 1.27395e-17
5 *4:7 1.09005e-17
6 *4:5 5.15348e-17
7 *4:4 4.76741e-17
8 *4:2 3.23053e-16
9 *4 6.88552e-18

*RES
0 *14:s *4:3 62.611454  // $metal1_conn
1 *4:3 *4:4 0.037478  // $metal1_conn
2 *4:4 *4:5 0.54864  // $metal1_conn
3 *4:5 *4:6 0.516706  // $metal1_conn
4 *4:6 *4:7 0.393556  // $metal1_conn
5 *4:7 *4 0.107532  // $metal1_conn
6 *4:4 *10:s 62.234444  // $metal1_conn
7 *4:5 *5:s 62.074516  // $metal1_conn
8 *4:6 *18:s 62.111088  // $metal1_conn
9 *4:7 *15:s 62.272205  // $metal1_conn
10 *4:2 *4:3 6.818182  // $metal1_conn
11 *4:2 *4:6 6.818182  // $metal1_conn

*END

*D_NET *31 0

*CONN
*P *31 I *C 0.1000 0.0000 
*I *37:s B *C 2.2050 0.5875 
*I *43:s B *C 3.2250 0.4375 
*I *45:s B *C 3.2250 0.4375 
*I *52:s B *C 3.9700 0.4375 
*I *53:s B *C 3.9700 0.4375 
*I *24:s B *C 0.4175 0.5875 
*I *25:s B *C 0.4175 0.5875 
*I *26:s B *C 1.1600 0.5875 
*I *27:s B *C 1.1600 0.5875 
*I *30:s B *C 2.2050 0.5875 
*N *31:2 *C 3.3000 0.0000 
*N *31:3 *C 3.3000 0.0000 
*N *31:4 *C 3.2250 0.0000 
*N *31:5 *C 2.1100 0.0000 
*N *31:6 *C 1.1000 0.0000 
*N *31:7 *C 0.3150 0.0000 


*RES
0 *52:s *31:3 75.645882  // $metal1_conn
1 *31:3 *31:4 0.037478  // $metal1_conn
2 *31:4 *31:5 0.557719  // $metal1_conn
3 *31:5 *31:6 0.506342  // $metal1_conn
4 *31:6 *31:7 0.393556  // $metal1_conn
5 *31:7 *31 0.107532  // $metal1_conn
6 *31:4 *43:s 75.268875  // $metal1_conn
7 *31:5 *37:s 75.045807  // $metal1_conn
8 *31:6 *26:s 75.061852  // $metal1_conn
9 *31:7 *24:s 75.293678  // $metal1_conn
10 *31:2 *31:3 5.636364  // $metal1_conn
11 *31:2 *31:6 5.636364  // $metal1_conn

*END

*D_NET *22 1.97412e-16

*CONN
*P *22 I *C 0.3000 1.0450 
*I *25:g B *C 0.4825 0.5875 
*I *17:g B *C 0.4825 1.0575 
*N *22:2 *C 0.4550 0.8400 

*CAP
0 *17:g 2.93358e-17
1 *25:g 3.80606e-17
2 *22:2 7.69212e-17
3 *22 5.30942e-17

*RES
0 *17:g *22:2 19.691952  // $poly_conn
1 *22:2 *25:g 37.640671  // $poly_conn
2 *22:2 *22 45.192955  // $metal1_conn

*END

*D_NET *49 2.76476e-16

*CONN
*P *49 I *C 3.1000 0.6650 
*I *45:g B *C 3.3275 0.4375 
*I *11:g B *C 3.3275 1.2825 
*N *49:2 *C 3.2000 0.7500 

*CAP
0 *11:g 6.44768e-17
1 *45:g 3.97055e-17
2 *49:2 1.31626e-16
3 *49 4.06674e-17

*RES
0 *11:g *49:2 114.27417  // $poly_conn
1 *49:2 *45:g 66.83828  // $poly_conn
2 *49:2 *49 45.090221  // $metal1_conn

*END

*D_NET *32 5.14496e-16

*CONN
*P *32 I *C 4.1000 0.6650 
*I *50:g B *C 3.7625 0.4375 
*I *53:g B *C 4.0725 0.4375 
*I *12:g B *C 3.5575 1.2825 
*I *16:g B *C 4.0725 1.2825 
*N *32:2 *C 3.5200 0.9450 
*N *32:4 *C 3.7150 0.6450 
*N *32:6 *C 4.0450 0.6550 
*N *32:8 *C 4.0450 0.6550 

*CAP
0 *16:g 4.8855e-17
1 *12:g 3.89439e-17
2 *53:g 2.6682e-17
3 *50:g 6.3514e-17
4 *32:2 9.83961e-17
5 *32:4 1.24358e-16
6 *32:6 8.53753e-17
7 *32 2.83717e-17

*RES
0 *12:g *32:2 94.488556  // $poly_conn
1 *50:g *32:4 70.129578  // $poly_conn
2 *16:g *32:6 124.820152  // $poly_conn
3 *32:6 *53:g 28.666309  // $poly_conn
4 *32 *32:8 0.033284  // $metal1_conn
5 *32:8 *32:4 0.194601  // $metal1_conn
6 *32:4 *32:2 0.328484  // $metal1_conn
7 *32:6 *32:8 45  // $metal1_conn

*END

*D_NET *36 3.5593e-16

*CONN
*P *36 I *C 3.9000 0.8550 
*I *52:g B *C 3.8675 0.4375 
*I *14:g B *C 3.8675 1.2825 
*N *36:2 *C 3.9050 0.8350 

*CAP
0 *14:g 7.48836e-17
1 *52:g 7.27907e-17
2 *36:2 8.176e-17
3 *36 1.26496e-16

*RES
0 *14:g *36:2 77.69368  // $poly_conn
1 *36:2 *52:g 73.847527  // $poly_conn
2 *36:2 *36 45.001385  // $metal1_conn

*END

*D_NET *3 9.41562e-17

*CONN
*P *3 O *C 0.1000 0.6650 
*I *24:d B *C 0.1200 0.5300 
*I *15:d B *C 0.1200 1.1450 

*CAP
0 *15:d 5.1818e-17
1 *24:d 4.23381e-17

*RES
0 *15:d *3 21.026184  // $metal1_conn
1 *3 *24:d 75.059494  // $metal1_conn

*END

*D_NET *2 0

*CONN
*I *50:s B *C 3.8150 0.4375 
*I *52:d B *C 3.8150 0.4375 


*RES
0 *52:d *50:s 0.001  // $mwires

*END

*D_NET *1 5.36743e-18

*CONN
*I *45:d B *C 3.4425 0.4375 
*I *47:s B *C 3.4425 0.4375 

*CAP
0 *45:d 5.36743e-18

*RES
0 *47:s *45:d 0.001  // $mwires

*END

*D_NET *55 0

*CONN
*I *37:d B *C 2.3150 0.5875 
*I *39:s B *C 2.3150 0.5875 


*RES
0 *39:s *37:d 0.001  // $mwires

*END

*D_NET *54 0

*CONN
*I *27:d B *C 1.3100 0.5875 
*I *28:s B *C 1.3100 0.5875 


*RES
0 *28:s *27:d 0.001  // $mwires

*END

*D_NET *51 0

*CONN
*I *13:s B *C 3.8150 1.2825 
*I *14:d B *C 3.8150 1.2825 


*RES
0 *14:d *13:s 0.001  // $mwires

*END

*D_NET *48 6.02065e-18

*CONN
*I *11:d B *C 3.4425 1.2825 
*I *12:s B *C 3.4425 1.2825 

*CAP
0 *11:d 6.02065e-18

*RES
0 *12:s *11:d 0.001  // $mwires

*END

*D_NET *46 1.0224e-19

*CONN
*I *5:d B *C 2.3150 1.1475 
*I *6:s B *C 2.3150 1.1475 

*CAP
0 *5:d 1.0224e-19

*RES
0 *6:s *5:d 0.001  // $mwires

*END

*D_NET *44 5.88798e-18

*CONN
*I *19:d B *C 1.4275 1.1475 
*I *20:s B *C 1.4275 1.1475 

*CAP
0 *19:d 5.88798e-18

*RES
0 *20:s *19:d 0.001  // $mwires

*END

*D_NET *42 9.42425e-16

*CONN
*I *41:g B *C 2.5725 0.5875 
*I *43:g B *C 3.1225 0.4375 
*I *25:d B *C 0.6000 0.5875 
*I *28:g B *C 1.4125 0.5875 
*I *6:g B *C 2.3675 1.1475 
*I *10:g B *C 3.1225 1.2825 
*I *17:d B *C 0.6000 1.0575 
*I *21:g B *C 1.7825 1.1475 
*N *42:2 *C 1.3750 0.8100 
*N *42:4 *C 1.7450 1.4150 
*N *42:6 *C 3.0675 0.7575 
*N *42:7 *C 2.5725 0.7575 
*N *42:11 *C 2.4050 1.3550 
*N *42:12 *C 1.7450 1.3550 
*N *42:13 *C 1.3450 1.2600 
*N *42:15 *C 0.6350 1.0100 

*CAP
0 *21:g 5.80752e-17
1 *17:d 9.50835e-17
2 *10:g 5.29546e-17
3 *6:g 7.07961e-17
4 *28:g 4.18395e-17
5 *25:d 6.30526e-17
6 *43:g 4.10582e-17
7 *41:g 2.61813e-17
8 *42:13 9.83706e-17
9 *42:12 7.90672e-17
10 *42:7 5.97203e-17
11 *42:6 6.55851e-17
12 *42:2 7.94648e-17
13 *42:4 2.51013e-17
14 *42:11 8.60744e-17

*RES
0 *28:g *42:2 73.975731  // $poly_conn
1 *21:g *42:4 76.539833  // $poly_conn
2 *10:g *42:6 108.173813  // $poly_conn
3 *42:6 *42:7 121.071556  // $poly_conn
4 *42:7 *6:g 106.105949  // $poly_conn
5 *42:6 *43:g 64.584068  // $poly_conn
6 *42:7 *41:g 20.300484  // $poly_conn
7 *6:g *42:11 61.15522  // $poly_conn
8 *42:11 *42:12 0.468403  // $metal1_conn
9 *42:12 *42:13 0.36049  // $metal1_conn
10 *42:13 *42:15 0.633538  // $metal1_conn
11 *42:15 *25:d 75.278786  // $metal1_conn
12 *42:12 *42:4 0.01507  // $metal1_conn
13 *42:13 *42:2 0.326217  // $metal1_conn
14 *17:d *42:15 62  // $metal1_conn

*END

*D_NET *40 8.21537e-16

*CONN
*I *39:g B *C 2.3675 0.5875 
*I *43:d B *C 3.0300 0.4375 
*I *29:g B *C 1.6875 0.5875 
*I *8:g B *C 2.5925 1.1475 
*I *10:d B *C 3.0300 1.2825 
*I *20:g B *C 1.5775 1.1475 
*N *40:2 *C 1.7250 0.7600 
*N *40:5 *C 2.3950 0.3050 
*N *40:7 *C 2.6300 0.8900 
*N *40:9 *C 2.6450 0.3950 
*N *40:10 *C 2.3950 0.3950 

*CAP
0 *20:g 4.76142e-17
1 *8:g 4.34879e-17
2 *29:g 1.88882e-17
3 *43:d 4.21809e-17
4 *39:g 8.48582e-17
5 *40:10 8.89922e-17
6 *40:9 4.81571e-17
7 *40:2 1.55736e-16
8 *40:5 4.08748e-17
9 *40:7 2.50747e-16

*RES
0 *29:g *40:2 16.648035  // $poly_conn
1 *40:2 *20:g 76.254059  // $poly_conn
2 *39:g *40:5 90.332977  // $poly_conn
3 *8:g *40:7 73.975731  // $poly_conn
4 *10:d *40:7 62.609463  // $metal1_conn
5 *40:7 *40:9 0.379372  // $metal1_conn
6 *40:9 *40:10 0.210813  // $metal1_conn
7 *40:10 *40:2 45.758652  // $metal1_conn
8 *40:9 *43:d 75.273872  // $metal1_conn
9 *40:10 *40:5 0.030078  // $metal1_conn

*END

*D_NET *38 4.40926e-16

*CONN
*I *41:d B *C 2.7375 0.5875 
*I *47:d B *C 3.6600 0.4375 
*I *50:d B *C 3.6600 0.4375 
*I *8:s B *C 2.7475 1.1475 
*I *12:d B *C 3.6600 1.2825 
*I *13:d B *C 3.6600 1.2825 
*N *38:2 *C 3.3850 1.1350 
*N *38:4 *C 2.8200 1.1350 

*CAP
0 *12:d 4.39822e-17
1 *8:s 9.56815e-17
2 *47:d 8.35182e-17
3 *41:d 7.12043e-17
4 *38:2 1.4654e-16

*RES
0 *47:d *38:2 75.723541  // $metal1_conn
1 *38:2 *38:4 0.403993  // $metal1_conn
2 *38:4 *41:d 75.395241  // $metal1_conn
3 *38:2 *12:d 62.294056  // $metal1_conn
4 *8:s *38:4 62  // $metal1_conn

*END

*D_NET *35 5.44061e-16

*CONN
*I *24:g B *C 0.2125 0.5300 
*I *26:d B *C 0.9050 0.5875 
*I *27:g B *C 1.2075 0.5875 
*I *15:g B *C 0.2125 1.1450 
*I *18:d B *C 0.9200 1.1475 
*I *19:g B *C 1.2775 1.1475 
*N *35:1 *C 0.2700 0.7600 
*N *35:2 *C 0.2125 0.7600 
*N *35:6 *C 1.2075 0.7600 
*N *35:7 *C 1.1550 0.7600 
*N *35:9 *C 0.8800 0.7600 
*N *35:11 *C 0.8800 0.5950 

*CAP
0 *19:g 4.79403e-17
1 *18:d 4.43464e-17
2 *15:g 4.42578e-17
3 *27:g 3.93895e-17
4 *26:d 7.92765e-17
5 *24:g 2.73821e-17
6 *35:9 3.396e-17
7 *35:2 3.17416e-17
8 *35:1 1.21785e-16
9 *35:7 7.3982e-17

*RES
0 *35:1 *35:2 45.794373  // $poly_conn
1 *35:2 *24:g 20.563484  // $poly_conn
2 *35:2 *15:g 43.640408  // $poly_conn
3 *19:g *35:6 75.160873  // $poly_conn
4 *35:6 *35:7 45.294373  // $poly_conn
5 *35:6 *27:g 22.886339  // $poly_conn
6 *35:7 *35:9 0.170591  // $metal1_conn
7 *35:9 *35:11 0.112259  // $metal1_conn
8 *35:11 *35:1 0.756264  // $metal1_conn
9 *35:9 *18:d 62.234924  // $metal1_conn
10 *26:d *35:11 75  // $metal1_conn

*END

*D_NET *34 4.87625e-16

*CONN
*I *47:g B *C 3.5575 0.4375 
*I *53:d B *C 4.1650 0.4375 
*I *13:g B *C 3.7625 1.2825 
*I *16:d B *C 4.1650 1.2825 
*N *34:2 *C 3.7050 0.8650 
*N *34:5 *C 4.1750 1.1400 

*CAP
0 *16:d 1.2245e-17
1 *13:g 6.97404e-17
2 *53:d 7.67578e-17
3 *47:g 5.47944e-17
4 *34:5 9.80776e-17
5 *34:2 1.7601e-16

*RES
0 *13:g *34:2 71.599022  // $poly_conn
1 *34:2 *47:g 102.636948  // $poly_conn
2 *16:d *34:5 62.050648  // $metal1_conn
3 *34:5 *34:2 45.52718  // $metal1_conn
4 *34:5 *53:d 75.658928  // $metal1_conn

*END

*D_NET *33 3.58506e-16

*CONN
*I *26:g B *C 1.0125 0.5875 
*I *28:d B *C 1.5500 0.5875 
*I *29:s B *C 1.5500 0.5875 
*I *18:g B *C 1.0125 1.1475 
*I *20:d B *C 1.6800 1.1475 
*I *21:d B *C 1.6800 1.1475 
*N *33:3 *C 0.9850 0.4050 
*N *33:6 *C 1.5650 0.5750 

*CAP
0 *20:d 7.13337e-17
1 *18:g 5.20333e-17
2 *28:d 1.02498e-16
3 *26:g 4.52696e-17
4 *33:3 8.7372e-17

*RES
0 *18:g *26:g 97.435898  // $poly_conn
1 *26:g *33:3 64.691956  // $poly_conn
2 *20:d *33:6 62.434486  // $metal1_conn
3 *33:6 *33:3 0.51499  // $metal1_conn
4 *28:d *33:6 75  // $metal1_conn

*END

*D_NET *9 3.06528e-16

*CONN
*I *39:d B *C 2.4700 0.5875 
*I *41:s B *C 2.4700 0.5875 
*I *30:g B *C 2.0475 0.5875 
*I *6:d B *C 2.4800 1.1475 
*I *8:d B *C 2.4800 1.1475 
*I *23:g B *C 1.9975 1.1475 
*N *9:2 *C 2.0750 0.9300 
*N *9:5 *C 2.4700 0.9300 

*CAP
0 *23:g 4.21055e-17
1 *6:d 3.34308e-17
2 *30:g 4.37049e-17
3 *39:d 4.17804e-17
4 *9:5 5.19274e-17
5 *9:2 9.35794e-17

*RES
0 *30:g *9:2 57.555679  // $poly_conn
1 *9:2 *23:g 22.360411  // $poly_conn
2 *6:d *9:5 62.125969  // $metal1_conn
3 *9:5 *9:2 45.265568  // $metal1_conn
4 *9:5 *39:d 75.25222  // $metal1_conn

*END

*D_NET *7 3.53084e-16

*CONN
*I *37:g B *C 2.2625 0.5875 
*I *29:d B *C 1.8675 0.5875 
*I *30:d B *C 1.8675 0.5875 
*I *5:g B *C 2.2625 1.1475 
*I *21:s B *C 1.8900 1.1475 
*I *23:d B *C 1.8900 1.1475 
*N *7:2 *C 2.2350 0.7700 
*N *7:4 *C 1.8850 0.7700 

*CAP
0 *21:s 3.89316e-17
1 *5:g 8.0204e-17
2 *29:d 3.24193e-17
3 *37:g 5.44787e-17
4 *7:4 4.44509e-17
5 *7:2 1.026e-16

*RES
0 *5:g *7:2 60.71759  // $poly_conn
1 *7:2 *37:g 19.691952  // $poly_conn
2 *7:2 *7:4 45.241299  // $metal1_conn
3 *7:4 *21:s 62.234047  // $metal1_conn
4 *7:4 *29:d 75.118057  // $metal1_conn

*END

