*SPEF "IEEE 1481-1999"
*DESIGN  "SDFFRHQX8"
*DATE "Mon Sep 27 11:02:31 2010"
*VENDOR "Cadence Design Systems"
*PROGRAM "Assura RCX"
*VERSION "3.2 Red Hat Linux release 7.2 (Enigma) - (09/09/2009-10:39)"
*DESIGN_FLOW "Physical Verification"
*DIVIDER /
*DELIMITER :
*BUS_DELIMITER []
*T_UNIT 1 PS
*C_UNIT 1e15 FF
*R_UNIT 1 OHM
*L_UNIT 1 MH
// DeviceFingerDelim "@"
// MATCHED
// caps2d version: 10

*NAME_MAP
*1 mn21
*2 mn35
*3 mn11
*4 mn36
*5 mn12
*6 mn37
*7 mn14
*8 mn25
*9 mn13
*10 mn46
*11 mn10
*12 mn45
*13 mn51
*14 mn45\@1
*15 mn40
*16 mn46\@1
*17 mn30
*18 mn20
*19 mn50
*20 net349
*21 mn55
*22 mn55\@1
*23 mn55\@2
*24 mn55\@3
*25 mn55\@4
*26 mp30
*27 mn55\@5
*28 mp35
*29 mn55\@6
*30 mp36
*31 mn45\@2
*32 mp37
*33 mn46\@2
*34 mp46
*35 mp45
*36 mp45\@1
*37 mp46\@1
*38 mp20
*39 VSS
*40 mp50
*41 VDD
*42 mp55
*43 mp55\@1
*44 mp55\@2
*45 mp55\@3
*46 mp55\@4
*47 mp55\@5
*48 mp55\@6
*49 mp45\@2
*50 mp46\@2
*51 D
*52 Q
*53 SEb
*54 mout
*55 n20
*56 Db
*57 n30
*58 CKbb
*59 RN
*60 qbint
*61 CKb
*62 net326
*63 net381
*64 SE
*65 mp25
*66 mp21
*67 mp11
*68 mp12
*69 net373
*70 SI
*71 mp14
*72 net337\@2
*73 mp13
*74 net337
*75 mp10
*76 net337\@1
*77 mp51
*78 net405
*79 CK
*80 mp40
*81 net426
*82 net422
*83 net450
*84 net442

*GROUND_NETS VSS

*PORTS
*41 I
*39 I
*79 I
*51 I
*59 I
*64 I
*70 I
*52 O

*D_NET *41 1.18126e-15

*CONN
*P *41 I *C 0.1000 1.7100 
*I *66:s B *C 6.5450 1.1600 
*I *67:s B *C 6.5450 1.1600 
*I *73:s B *C 7.3300 1.0725 
*I *75:s B *C 7.3300 1.0725 
*I *26:s B *C 4.7450 1.1000 
*I *28:s B *C 4.7450 1.1000 
*I *30:s B *C 5.3000 1.2875 
*I *34:s B *C 2.1150 1.1000 
*I *35:d B *C 2.5650 1.1000 
*I *36:d B *C 2.5650 1.1000 
*I *37:s B *C 3.0200 1.2675 
*I *38:s B *C 3.7575 1.1000 
*I *40:s B *C 3.7575 1.1000 
*I *42:s B *C 0.4300 1.1275 
*I *43:s B *C 0.4300 1.1275 
*I *44:s B *C 0.8400 1.1275 
*I *45:s B *C 0.8400 1.1275 
*I *46:s B *C 1.2500 1.1275 
*I *47:s B *C 1.2500 1.1275 
*I *48:s B *C 1.7400 1.1000 
*I *49:d B *C 1.7400 1.1000 
*I *50:s B *C 2.1150 1.1000 
*N *41:2 *C 6.8000 1.7100 
*N *41:3 *C 6.8000 1.7100 
*N *41:4 *C 6.4600 1.7100 
*N *41:5 *C 5.3000 1.7100 
*N *41:6 *C 4.9000 1.7100 
*N *41:7 *C 4.7450 1.7100 
*N *41:8 *C 3.5950 1.7100 

*CAP
0 *38:s 2.2129e-17
1 *37:s 4.73342e-16
2 *30:s 1.62896e-17
3 *26:s 5.88454e-17
4 *73:s 4.47091e-17
5 *66:s 1.15257e-17
6 *41:8 4.49117e-17
7 *41:7 3.4214e-17
8 *41:5 3.11946e-17
9 *41:4 2.94544e-17
10 *41:2 4.08598e-16
11 *41 6.04973e-18

*RES
0 *37:s *41 0.165125  // $metal1_conn
1 *41:2 *41:3 7.5  // $metal1_conn
2 *41:2 *41:6 8.333333  // $metal1_conn
3 *41:2 *37:s 7.5  // $metal1_conn
4 *41:2 *37:s 7.5  // $metal1_conn
5 *73:s *41:3 62.524658  // $metal1_conn
6 *41:4 *66:s 62.045841  // $metal1_conn
7 *41:5 *30:s 62.045841  // $metal1_conn
8 *41:7 *26:s 62.347664  // $metal1_conn
9 *41:8 *38:s 62.045841  // $metal1_conn
10 *41:3 *41:4 0.169443  // $metal1_conn
11 *41:4 *41:5 0.579719  // $metal1_conn
12 *41:5 *41:6 0.199547  // $metal1_conn
13 *41:6 *41:7 0.077573  // $metal1_conn
14 *41:7 *41:8 0.575652  // $metal1_conn
15 *41:8 *37:s 0.298205  // $metal1_conn

*END

*D_NET *39 0

*CONN
*P *39 I *C 0.1000 0.0000 
*I *1:s B *C 6.5000 0.4450 
*I *3:s B *C 6.5000 0.4450 
*I *9:s B *C 7.3800 0.4775 
*I *11:s B *C 7.3800 0.4775 
*I *17:s B *C 4.9200 0.4425 
*I *2:s B *C 4.9200 0.4425 
*I *12:s B *C 2.5650 0.4950 
*I *14:s B *C 2.5650 0.4950 
*I *18:s B *C 3.7650 0.4425 
*I *19:s B *C 3.7650 0.4425 
*I *21:s B *C 0.5150 0.5125 
*I *22:s B *C 0.5150 0.5125 
*I *23:s B *C 0.9250 0.5125 
*I *24:s B *C 0.9250 0.5125 
*I *25:s B *C 1.3350 0.5125 
*I *27:s B *C 1.3350 0.5125 
*I *29:s B *C 1.7950 0.4950 
*I *31:s B *C 1.7950 0.4950 
*N *39:2 *C 6.8000 0.0000 
*N *39:3 *C 6.8000 0.0000 
*N *39:4 *C 6.4900 0.0000 
*N *39:5 *C 4.9000 0.0000 
*N *39:6 *C 3.6800 0.0000 
*N *39:7 *C 3.0000 0.0000 
*N *39:8 *C 2.5800 0.0000 


*RES
0 *29:s *39 0.207773  // $metal1_conn
1 *39:2 *39:3 6.2  // $metal1_conn
2 *39:2 *39:5 6.888889  // $metal1_conn
3 *39:2 *39:7 6.2  // $metal1_conn
4 *39:2 *29:s 6.2  // $metal1_conn
5 *9:s *39:3 75.599159  // $metal1_conn
6 *39:4 *1:s 75.23243  // $metal1_conn
7 *39:5 *17:s 75.192413  // $metal1_conn
8 *39:6 *18:s 75.045837  // $metal1_conn
9 *39:8 *12:s 75.284927  // $metal1_conn
10 *39:3 *39:4 0.155341  // $metal1_conn
11 *39:4 *39:5 0.797561  // $metal1_conn
12 *39:5 *39:6 0.61097  // $metal1_conn
13 *39:6 *39:7 0.340033  // $metal1_conn
14 *39:7 *39:8 0.210532  // $metal1_conn
15 *39:8 *29:s 0.418556  // $metal1_conn

*END

*D_NET *79 2.18797e-16

*CONN
*P *79 I *C 3.5000 0.8550 
*I *18:g B *C 3.5475 0.4725 
*I *38:g B *C 3.6025 1.0525 
*N *79:2 *C 3.5750 0.6800 

*CAP
0 *38:g 4.22615e-17
1 *18:g 3.64739e-17
2 *79:2 6.92073e-17
3 *79 7.08544e-17

*RES
0 *38:g *79:2 59.435539  // $poly_conn
1 *79:2 *18:g 26.102209  // $poly_conn
2 *79:2 *79 45.129791  // $metal1_conn

*END

*D_NET *51 2.60445e-16

*CONN
*P *51 I *C 6.3000 0.6650 
*I *3:g B *C 6.5925 0.4450 
*I *67:g B *C 6.5925 1.1600 
*N *51:2 *C 6.5925 0.6850 
*N *51:3 *C 6.4900 0.6850 

*CAP
0 *67:g 7.68958e-17
1 *3:g 3.28215e-17
2 *51:2 2.019e-17
3 *51:3 8.50997e-17
4 *51 4.54379e-17

*RES
0 *67:g *51:2 68.483833  // $poly_conn
1 *51:2 *51:3 49.61615  // $poly_conn
2 *51:2 *3:g 24.894089  // $poly_conn
3 *51:3 *51 0.102938  // $metal1_conn

*END

*D_NET *59 1.02572e-15

*CONN
*P *59 I *C 1.9000 0.6650 
*I *2:g B *C 4.9675 0.4425 
*I *12:g B *C 2.4475 0.4950 
*I *14:g B *C 2.6825 0.4950 
*I *31:g B *C 1.8475 0.4950 
*I *28:g B *C 4.8475 1.1000 
*I *35:g B *C 2.4475 1.1000 
*I *36:g B *C 2.6825 1.1000 
*I *49:g B *C 1.7925 1.1000 
*N *59:9 *C 2.7200 1.3950 
*N *59:13 *C 4.5000 1.4300 

*CAP
0 *28:g 7.03188e-17
1 *31:g 4.84441e-17
2 *14:g 3.45739e-17
3 *12:g 1.85996e-17
4 *2:g 6.51916e-17
5 *59:9 1.77993e-16
6 *59:13 1.87716e-16
7 *59 4.22881e-16

*RES
0 *2:g *28:g 121.505295  // $poly_conn
1 *28:g *59:13 171.59845  // $poly_conn
2 *59 *59:9 61.15522  // $poly_conn
3 *14:g *59 18.71979  // $poly_conn
4 *59 *12:g 16.15522  // $poly_conn
5 *31:g *59 16.354378  // $poly_conn
6 *59:13 *59:9 1.328321  // $metal1_conn

*END

*D_NET *64 5.2586e-16

*CONN
*P *64 I *C 7.5000 0.6650 
*I *7:g B *C 7.1225 0.4450 
*I *11:g B *C 7.4325 0.4775 
*I *68:g B *C 6.7375 1.1600 
*I *75:g B *C 7.3775 1.0725 
*N *64:1 *C 6.8100 0.8550 
*N *64:4 *C 7.0850 0.6750 
*N *64:6 *C 7.4050 0.6850 
*N *64:8 *C 7.4050 0.6850 

*CAP
0 *75:g 4.56663e-17
1 *68:g 5.43062e-17
2 *11:g 3.2261e-17
3 *7:g 6.90557e-17
4 *64:1 1.09116e-16
5 *64:4 1.01557e-16
6 *64:6 8.34203e-17
7 *64 3.04782e-17

*RES
0 *64:1 *68:g 67.58181  // $poly_conn
1 *7:g *64:4 61.15522  // $poly_conn
2 *11:g *64:6 26.102209  // $poly_conn
3 *64:6 *75:g 63.281693  // $poly_conn
4 *64:1 *64:4 0.339205  // $metal1_conn
5 *64:4 *64:8 0.234728  // $metal1_conn
6 *64:8 *64 0.058183  // $metal1_conn
7 *64:6 *64:8 45  // $metal1_conn

*END

*D_NET *70 3.36618e-16

*CONN
*P *70 I *C 7.3000 0.8550 
*I *9:g B *C 7.2275 0.4450 
*I *73:g B *C 7.1425 1.1600 
*N *70:2 *C 7.1900 0.8550 

*CAP
0 *73:g 6.03066e-17
1 *9:g 8.6147e-17
2 *70:2 9.66916e-17
3 *70 9.3473e-17

*RES
0 *9:g *70:2 61.088573  // $poly_conn
1 *70:2 *73:g 20.017868  // $poly_conn
2 *70:2 *70 45.06068  // $metal1_conn

*END

*D_NET *52 4.66821e-16

*CONN
*P *52 O *C 0.3000 0.6650 
*I *21:d B *C 0.3200 0.5125 
*I *22:d B *C 0.7200 0.5125 
*I *23:d B *C 0.7200 0.5125 
*I *24:d B *C 1.1300 0.5125 
*I *25:d B *C 1.1300 0.5125 
*I *27:d B *C 1.5400 0.5125 
*I *29:d B *C 1.5400 0.5125 
*I *42:d B *C 0.2350 1.1275 
*I *43:d B *C 0.6350 1.1275 
*I *44:d B *C 0.6350 1.1275 
*I *45:d B *C 1.0450 1.1275 
*I *46:d B *C 1.0450 1.1275 
*I *47:d B *C 1.4700 1.1275 
*I *48:d B *C 1.4700 1.1275 

*CAP
0 *52 4.66821e-16


*END

*D_NET *84 0

*CONN
*I *7:s B *C 7.1750 0.4450 
*I *9:d B *C 7.1750 0.4450 


*RES
0 *9:d *7:s 0.001  // $mwires

*END

*D_NET *83 8.02939e-18

*CONN
*I *3:d B *C 6.7550 0.4450 
*I *5:s B *C 6.7550 0.4450 

*CAP
0 *3:d 8.02939e-18

*RES
0 *5:s *3:d 0.001  // $mwires

*END

*D_NET *82 3.41279e-18

*CONN
*I *4:d B *C 5.2475 0.4425 
*I *6:s B *C 5.2475 0.4425 

*CAP
0 *4:d 3.41279e-18

*RES
0 *6:s *4:d 0.001  // $mwires

*END

*D_NET *81 4.39517e-18

*CONN
*I *2:d B *C 5.0675 0.4425 
*I *4:s B *C 5.0675 0.4425 

*CAP
0 *2:d 4.39517e-18

*RES
0 *4:s *2:d 0.001  // $mwires

*END

*D_NET *78 2.24031e-18

*CONN
*I *13:s B *C 3.8925 0.4425 
*I *19:d B *C 3.8925 0.4425 

*CAP
0 *13:s 2.24031e-18

*RES
0 *19:d *13:s 0.001  // $mwires

*END

*D_NET *76 2.71233e-18

*CONN
*I *14:d B *C 2.7475 0.4950 
*I *16:s B *C 2.7475 0.4950 

*CAP
0 *14:d 2.71233e-18

*RES
0 *16:s *14:d 0.001  // $mwires

*END

*D_NET *74 2.09614e-18

*CONN
*I *10:s B *C 2.3400 0.4950 
*I *12:d B *C 2.3400 0.4950 

*CAP
0 *10:s 2.09614e-18

*RES
0 *12:d *10:s 0.001  // $mwires

*END

*D_NET *72 2.31745e-18

*CONN
*I *31:d B *C 1.9225 0.4950 
*I *33:s B *C 1.9225 0.4950 

*CAP
0 *31:d 2.31745e-18

*RES
0 *33:s *31:d 0.001  // $mwires

*END

*D_NET *69 4.14316e-18

*CONN
*I *71:s B *C 7.0525 1.1600 
*I *73:d B *C 7.0525 1.1600 

*CAP
0 *71:s 4.14316e-18

*RES
0 *73:d *71:s 0.001  // $mwires

*END

*D_NET *63 3.34445e-18

*CONN
*I *67:d B *C 6.6650 1.1600 
*I *68:s B *C 6.6650 1.1600 

*CAP
0 *67:d 3.34445e-18

*RES
0 *68:s *67:d 0.001  // $mwires

*END

*D_NET *62 2.96408e-18

*CONN
*I *77:s B *C 3.9075 1.1000 
*I *40:d B *C 3.9075 1.1000 

*CAP
0 *77:s 2.96408e-18

*RES
0 *40:d *77:s 0.001  // $mwires

*END

*D_NET *61 1.31183e-15

*CONN
*I *1:g B *C 6.3275 0.5025 
*I *13:g B *C 3.9725 0.4425 
*I *8:g B *C 5.6625 0.4425 
*I *18:d B *C 3.3825 0.4725 
*I *66:g B *C 6.3275 1.0725 
*I *80:g B *C 4.2925 1.1000 
*I *32:g B *C 5.6625 1.0700 
*I *38:d B *C 3.5100 1.0525 
*N *61:2 *C 3.9450 0.6650 
*N *61:4 *C 4.2650 0.8350 
*N *61:6 *C 5.6350 1.3550 
*N *61:9 *C 6.3000 1.3550 
*N *61:11 *C 4.2650 1.1950 
*N *61:13 *C 3.3000 0.4600 

*CAP
0 *38:d 9.70788e-17
1 *32:g 4.22121e-17
2 *80:g 3.26928e-17
3 *66:g 3.57918e-17
4 *18:d 1.3153e-16
5 *8:g 4.10393e-17
6 *13:g 4.30636e-17
7 *1:g 4.61083e-17
8 *61:11 2.21718e-16
9 *61:2 1.95278e-16
10 *61:4 1.01067e-16
11 *61:6 2.2667e-16
12 *61:9 9.75779e-17

*RES
0 *13:g *61:2 67.256058  // $poly_conn
1 *80:g *61:4 64.691956  // $poly_conn
2 *32:g *61:6 69.82016  // $poly_conn
3 *32:g *8:g 94.871796  // $poly_conn
4 *66:g *61:9 81.35862  // $poly_conn
5 *66:g *1:g 100  // $poly_conn
6 *61:9 *61:6 0.476935  // $metal1_conn
7 *61:6 *61:11 1.404429  // $metal1_conn
8 *61:11 *61:2 0.659441  // $metal1_conn
9 *61:2 *61:13 0.63594  // $metal1_conn
10 *61:11 *61:4 0.265782  // $metal1_conn
11 *61:13 *38:d 62.575066  // $metal1_conn
12 *18:d *61:13 75  // $metal1_conn

*END

*D_NET *60 1.17774e-15

*CONN
*I *10:d B *C 2.1150 0.4950 
*I *16:d B *C 2.9125 0.4950 
*I *19:g B *C 3.8125 0.4425 
*I *21:g B *C 0.4125 0.5125 
*I *22:g B *C 0.6175 0.5125 
*I *23:g B *C 0.8225 0.5125 
*I *24:g B *C 1.0275 0.5125 
*I *25:g B *C 1.2325 0.5125 
*I *27:g B *C 1.4375 0.5125 
*I *29:g B *C 1.6425 0.5125 
*I *33:d B *C 2.1150 0.4950 
*I *34:d B *C 2.3400 1.1000 
*I *35:s B *C 2.3400 1.1000 
*I *36:s B *C 2.7850 1.1000 
*I *37:d B *C 2.7850 1.1000 
*I *40:g B *C 3.8125 1.1000 
*I *42:g B *C 0.3275 1.1275 
*I *43:g B *C 0.5325 1.1275 
*I *44:g B *C 0.7375 1.1275 
*I *45:g B *C 0.9425 1.1275 
*I *46:g B *C 1.1475 1.1275 
*I *47:g B *C 1.3525 1.1275 
*I *48:g B *C 1.5875 1.1275 
*I *49:s B *C 1.8950 1.1000 
*I *50:d B *C 1.8950 1.1000 
*N *60:29 *C 3.7850 0.8100 
*N *60:31 *C 3.0400 1.0450 

*CAP
0 *48:g 3.89391e-16
1 *40:g 5.07927e-17
2 *36:s 2.31804e-16
3 *19:g 6.06801e-17
4 *16:d 6.63867e-17
5 *10:d 6.717e-17
6 *60:31 1.38787e-16
7 *60:29 1.7273e-16

*RES
0 *40:g *60:29 26.102209  // $poly_conn
1 *60:29 *19:g 59.435539  // $poly_conn
2 *36:s *48:g 45.349316  // $metal1_conn
3 *60:29 *60:31 45.994267  // $metal1_conn
4 *60:31 *16:d 75.429863  // $metal1_conn
5 *36:s *10:d 75.344902  // $metal1_conn
6 *60:31 *36:s 0.153187  // $metal1_conn

*END

*D_NET *58 8.93617e-16

*CONN
*I *1:d B *C 6.1875 0.5025 
*I *15:g B *C 4.2575 0.4425 
*I *6:g B *C 5.3275 0.4425 
*I *65:g B *C 5.8675 1.0700 
*I *66:d B *C 6.2350 1.0725 
*I *77:g B *C 4.0025 1.1000 
*N *58:2 *C 4.2950 0.6450 
*N *58:5 *C 5.3650 0.6550 
*N *58:6 *C 5.9250 0.6550 
*N *58:9 *C 6.1300 0.6550 
*N *58:10 *C 5.3550 0.4650 

*CAP
0 *77:g 6.16883e-17
1 *66:d 6.66491e-17
2 *65:g 5.03738e-17
3 *6:g 4.07151e-17
4 *15:g 2.15074e-17
5 *1:d 1.00426e-17
6 *58:10 2.11487e-16
7 *58:9 4.59208e-17
8 *58:2 1.95421e-16
9 *58:5 7.57075e-17
10 *58:6 1.14105e-16

*RES
0 *15:g *58:2 16.15522  // $poly_conn
1 *58:2 *77:g 116.079842  // $poly_conn
2 *6:g *58:5 63.719322  // $poly_conn
3 *58:6 *65:g 104.784576  // $poly_conn
4 *66:d *58:9 62.347622  // $metal1_conn
5 *58:9 *58:6 0.132429  // $metal1_conn
6 *58:6 *58:10 0.792193  // $metal1_conn
7 *58:10 *58:2 46.108067  // $metal1_conn
8 *58:9 *1:d 75.103333  // $metal1_conn
9 *58:10 *58:5 0.155668  // $metal1_conn

*END

*D_NET *57 8.86581e-16

*CONN
*I *13:d B *C 4.1150 0.4425 
*I *15:d B *C 4.1150 0.4425 
*I *10:g B *C 2.2325 0.4950 
*I *16:g B *C 2.8125 0.4950 
*I *33:g B *C 1.9975 0.4950 
*I *77:d B *C 4.1475 1.1000 
*I *80:d B *C 4.1475 1.1000 
*I *34:g B *C 2.2325 1.1000 
*I *37:g B *C 2.8875 1.1000 
*I *50:g B *C 1.9975 1.1000 
*N *57:13 *C 4.1050 0.4000 

*CAP
0 *37:g 4.56807e-16
1 *77:d 1.00007e-16
2 *33:g 3.20251e-17
3 *16:g 3.93118e-17
4 *10:g 2.20045e-17
5 *13:d 2.36425e-16

*RES
0 *37:g *16:g 18.425531  // $poly_conn
1 *37:g *10:g 18.71979  // $poly_conn
2 *37:g *33:g 18.337015  // $poly_conn
3 *77:d *57:13 62.494713  // $metal1_conn
4 *13:d *57:13 75  // $metal1_conn
5 *57:13 *37:g 1.3475  // $metal1_conn

*END

*D_NET *56 5.25461e-16

*CONN
*I *5:d B *C 7.0200 0.4450 
*I *7:d B *C 7.0200 0.4450 
*I *8:s B *C 5.7550 0.4425 
*I *65:s B *C 5.9600 1.0700 
*I *68:d B *C 6.8500 1.1600 
*I *71:d B *C 6.8500 1.1600 
*N *56:2 *C 6.6500 1.0450 
*N *56:4 *C 5.9700 1.0650 
*N *56:7 *C 6.8400 1.0750 

*CAP
0 *68:d 5.12644e-17
1 *65:s 1.56777e-16
2 *8:s 9.45447e-17
3 *5:d 8.62716e-17
4 *56:2 1.36603e-16

*RES
0 *5:d *56:2 75.619705  // $metal1_conn
1 *56:2 *56:4 0.58923  // $metal1_conn
2 *56:4 *8:s 75.580711  // $metal1_conn
3 *56:2 *56:7 0.137838  // $metal1_conn
4 *56:7 *68:d 62.147438  // $metal1_conn
5 *65:s *56:4 31  // $metal1_conn
6 *68:d *56:7 62  // $metal1_conn

*END

*D_NET *55 4.72194e-16

*CONN
*I *17:g B *C 4.6475 0.4425 
*I *6:d B *C 5.4950 0.4425 
*I *8:d B *C 5.4950 0.4425 
*I *65:d B *C 5.7650 1.0700 
*I *26:g B *C 4.6425 1.1000 
*I *32:d B *C 5.7650 1.0700 
*N *55:2 *C 4.6750 0.8100 
*N *55:5 *C 5.5750 0.8575 

*CAP
0 *26:g 4.56585e-17
1 *65:d 6.61738e-17
2 *6:d 6.91032e-17
3 *17:g 3.97284e-17
4 *55:5 1.04096e-16
5 *55:2 1.47434e-16

*RES
0 *17:g *55:2 56.273628  // $poly_conn
1 *55:2 *26:g 23.804329  // $poly_conn
2 *65:d *55:5 31.289143  // $metal1_conn
3 *55:5 *55:2 45.76199  // $metal1_conn
4 *55:5 *6:d 75.31752  // $metal1_conn

*END

*D_NET *54 4.33515e-16

*CONN
*I *15:s B *C 4.4525 0.4425 
*I *17:d B *C 4.4525 0.4425 
*I *4:g B *C 5.1675 0.4425 
*I *80:s B *C 4.4675 1.1000 
*I *26:d B *C 4.4675 1.1000 
*I *30:g B *C 5.1675 1.1000 
*N *54:2 *C 5.1950 0.6550 
*N *54:5 *C 4.4850 0.6250 

*CAP
0 *30:g 4.60085e-17
1 *80:s 5.88683e-17
2 *4:g 4.14842e-17
3 *15:s 4.05561e-17
4 *54:5 1.06863e-16
5 *54:2 1.39734e-16

*RES
0 *30:g *54:2 65.845795  // $poly_conn
1 *54:2 *4:g 19.691952  // $poly_conn
2 *15:s *54:5 75.095932  // $metal1_conn
3 *54:5 *80:s 62.317585  // $metal1_conn
4 *54:5 *54:2 45.550259  // $metal1_conn

*END

*D_NET *53 3.90715e-16

*CONN
*I *5:g B *C 6.9175 0.4450 
*I *11:d B *C 7.5800 0.4775 
*I *71:g B *C 6.9625 1.1600 
*I *75:d B *C 7.4700 1.0725 
*N *53:2 *C 6.9425 0.8650 
*N *53:4 *C 7.0000 0.8650 
*N *53:7 *C 7.4800 1.0750 

*CAP
0 *75:d 9.85642e-17
1 *71:g 4.62905e-17
2 *11:d 5.98475e-17
3 *5:g 6.00092e-17
4 *53:2 5.52253e-17
5 *53:4 7.07781e-17

*RES
0 *71:g *53:2 44.983788  // $poly_conn
1 *53:2 *5:g 92.032555  // $poly_conn
2 *53:2 *53:4 45.794373  // $poly_conn
3 *11:d *53:7 75.613686  // $metal1_conn
4 *53:7 *53:4 0.468987  // $metal1_conn
5 *75:d *53:7 62  // $metal1_conn

*END

*D_NET *20 1.48544e-16

*CONN
*I *28:d B *C 5.0075 1.1000 
*I *30:d B *C 5.0075 1.1000 
*I *32:s B *C 5.5700 1.0700 

*CAP
0 *32:s 7.4661e-17
1 *28:d 7.38829e-17

*RES
0 *32:s *28:d 124.286575  // $metal1_conn

*END

