*SPEF "IEEE 1481-1999"
*DESIGN  "SDFFQX4"
*DATE "Mon Sep 27 11:00:38 2010"
*VENDOR "Cadence Design Systems"
*PROGRAM "Assura RCX"
*VERSION "3.2 Red Hat Linux release 7.2 (Enigma) - (09/09/2009-10:39)"
*DESIGN_FLOW "Physical Verification"
*DIVIDER /
*DELIMITER :
*BUS_DELIMITER []
*T_UNIT 1 PS
*C_UNIT 1e15 FF
*R_UNIT 1 OHM
*L_UNIT 1 MH
// DeviceFingerDelim "@"
// MATCHED
// caps2d version: 10

*NAME_MAP
*1 mn55\@2
*2 mn55\@3
*3 mn45
*4 mn45\@1
*5 mn50
*6 mn51
*7 mn40
*8 mp20
*9 mp55
*10 SE
*11 mp55\@1
*12 mp55\@2
*13 mp55\@3
*14 mp45
*15 SI
*16 mp45\@1
*17 mp50
*18 mp51
*19 mp40
*20 n30
*21 mp35
*22 qbint
*23 mp36
*24 SEb
*25 mp25
*26 Db
*27 mp21
*28 CKbb
*29 mp11
*30 CKb
*31 mp12
*32 n8
*33 mp14
*34 n6
*35 mp30
*36 mp13
*37 n2
*38 mp10
*39 n4
*40 n7
*41 CK
*42 n5
*43 n1
*44 n3
*45 VSS
*46 D
*47 mn36
*48 mn35
*49 mn25
*50 mn21
*51 Q
*52 mn11
*53 VDD
*54 mn12
*55 mn14
*56 mn13
*57 mn10
*58 mout
*59 n20
*60 mn30
*61 mn20
*62 mn55
*63 mn55\@1

*GROUND_NETS VSS

*PORTS
*53 I
*45 I
*41 I
*46 I
*10 I
*15 I
*51 O

*D_NET *53 7.69871e-16

*CONN
*P *53 I *C 0.1000 1.7100 
*I *21:s B *C 2.7700 1.1675 
*I *27:s B *C 4.1950 1.2575 
*I *29:s B *C 4.1950 1.2575 
*I *36:s B *C 4.9700 1.2575 
*I *38:s B *C 4.9700 1.2575 
*I *8:s B *C 0.3450 1.0950 
*I *9:s B *C 0.3450 1.0950 
*I *11:s B *C 0.7450 1.0950 
*I *12:s B *C 0.7450 1.0950 
*I *13:s B *C 1.2400 1.1350 
*I *14:s B *C 1.2400 1.1350 
*I *16:s B *C 1.6800 1.1675 
*I *17:s B *C 1.6800 1.1675 
*I *35:s B *C 2.7700 1.1675 
*N *53:2 *C 4.1950 1.7100 
*N *53:3 *C 2.7000 1.7100 
*N *53:4 *C 2.7000 1.7100 
*N *53:10 *C 4.5000 1.7100 

*CAP
0 *16:s 2.6909e-16
1 *36:s 4.75817e-17
2 *27:s 3.97937e-17
3 *21:s 1.26825e-17
4 *53:2 3.55725e-17
5 *53:3 3.60269e-16
6 *53 4.88296e-18

*RES
0 *16:s *53 0.117402  // $metal1_conn
1 *53:3 *53:4 8.333333  // $metal1_conn
2 *53:3 *16:s 8.333333  // $metal1_conn
3 *53:3 *53:10 8.333333  // $metal1_conn
4 *53:10 *36:s 62.504276  // $metal1_conn
5 *27:s *53:2 62.253902  // $metal1_conn
6 *53:4 *21:s 62.071461  // $metal1_conn
7 *53:2 *53:4 0.749519  // $metal1_conn
8 *53:2 *53:10 0.152345  // $metal1_conn
9 *53:4 *16:s 0.554761  // $metal1_conn

*END

*D_NET *45 0

*CONN
*P *45 I *C 0.1000 0.0000 
*I *47:s B *C 2.7900 0.5875 
*I *50:s B *C 4.1950 0.4775 
*I *52:s B *C 4.1950 0.4775 
*I *56:s B *C 5.0200 0.4775 
*I *57:s B *C 5.0200 0.4775 
*I *60:s B *C 2.7900 0.5875 
*I *61:s B *C 0.3900 0.5300 
*I *62:s B *C 0.3900 0.5300 
*I *63:s B *C 0.8600 0.5300 
*I *1:s B *C 0.8600 0.5300 
*I *2:s B *C 1.3300 0.5575 
*I *3:s B *C 1.3300 0.5575 
*I *4:s B *C 1.7350 0.5875 
*I *5:s B *C 1.7350 0.5875 
*N *45:2 *C 4.5000 0.0000 
*N *45:3 *C 4.5000 0.0000 
*N *45:4 *C 4.2250 0.0000 
*N *45:5 *C 2.7950 0.0000 
*N *45:6 *C 2.7000 0.0000 


*RES
0 *4:s *45 0.102357  // $metal1_conn
1 *45:2 *45:3 6.888889  // $metal1_conn
2 *45:2 *45:6 6.888889  // $metal1_conn
3 *45:2 *4:s 6.888889  // $metal1_conn
4 *56:s *45:3 75.588043  // $metal1_conn
5 *45:4 *50:s 75.287819  // $metal1_conn
6 *45:5 *47:s 75.074623  // $metal1_conn
7 *45:3 *45:4 0.137712  // $metal1_conn
8 *45:4 *45:5 0.716728  // $metal1_conn
9 *45:5 *45:6 0.047445  // $metal1_conn
10 *45:6 *4:s 0.491257  // $metal1_conn

*END

*D_NET *41 1.86371e-16

*CONN
*P *41 I *C 0.3000 0.6650 
*I *61:g B *C 0.2025 0.5875 
*I *8:g B *C 0.2025 1.0075 
*N *41:1 *C 0.2600 0.7850 
*N *41:2 *C 0.2025 0.7850 

*CAP
0 *8:g 3.03724e-17
1 *61:g 2.74644e-17
2 *41:2 2.40705e-17
3 *41:1 5.65715e-17
4 *41 4.78919e-17

*RES
0 *41:1 *41:2 45.794373  // $poly_conn
1 *41:2 *61:g 26.97374  // $poly_conn
2 *41:2 *8:g 24.409637  // $poly_conn
3 *41 *41:1 0.068834  // $metal1_conn

*END

*D_NET *46 2.59721e-16

*CONN
*P *46 I *C 4.1000 0.8550 
*I *52:g B *C 4.2975 0.4775 
*I *29:g B *C 4.2975 1.2575 
*N *46:2 *C 4.2700 0.8150 

*CAP
0 *29:g 5.95008e-17
1 *52:g 3.55028e-17
2 *46:2 9.60943e-17
3 *46 6.86233e-17

*RES
0 *29:g *46:2 77.384254  // $poly_conn
1 *46:2 *52:g 59.435539  // $poly_conn
2 *46:2 *46 45.082386  // $metal1_conn

*END

*D_NET *10 5.11605e-16

*CONN
*P *10 I *C 5.1000 0.6650 
*I *55:g B *C 4.8075 0.4775 
*I *57:g B *C 5.1275 0.4775 
*I *31:g B *C 4.4425 1.2575 
*I *38:g B *C 5.0725 1.2575 
*N *10:1 *C 4.5150 0.9550 
*N *10:4 *C 4.7800 0.6750 
*N *10:6 *C 5.1000 0.6750 

*CAP
0 *38:g 4.73675e-17
1 *31:g 4.82907e-17
2 *57:g 2.64605e-17
3 *55:g 6.56544e-17
4 *10:1 9.37531e-17
5 *10:4 1.1876e-16
6 *10:6 4.9448e-17
7 *10 6.18708e-17

*RES
0 *10:1 *31:g 89.376678  // $poly_conn
1 *55:g *10:4 68.538101  // $poly_conn
2 *57:g *10:6 23.538105  // $poly_conn
3 *10:6 *38:g 113.281693  // $poly_conn
4 *10:1 *10:4 0.349095  // $metal1_conn
5 *10:4 *10 0.237322  // $metal1_conn
6 *10:6 *10 45  // $metal1_conn

*END

*D_NET *15 3.1356e-16

*CONN
*P *15 I *C 4.9000 0.8550 
*I *56:g B *C 4.9125 0.4775 
*I *36:g B *C 4.8675 1.2575 
*N *15:2 *C 4.9400 0.8350 

*CAP
0 *36:g 5.47105e-17
1 *56:g 6.59824e-17
2 *15:2 1.5532e-16
3 *15 3.75476e-17

*RES
0 *56:g *15:2 61.401833  // $poly_conn
1 *15:2 *36:g 74.343773  // $poly_conn
2 *15 *15:2 45.011898  // $metal1_conn

*END

*D_NET *51 2.71597e-16

*CONN
*P *51 O *C 0.5000 0.6650 
*I *62:d B *C 0.5400 0.5300 
*I *63:d B *C 0.5400 0.5300 
*I *1:d B *C 1.0100 0.5300 
*I *2:d B *C 1.0100 0.5300 
*I *9:d B *C 0.5400 1.0950 
*I *11:d B *C 0.5400 1.0950 
*I *12:d B *C 0.9500 1.0950 
*I *13:d B *C 0.9500 1.0950 

*CAP
0 *51 2.71597e-16


*END

*D_NET *44 0

*CONN
*I *55:s B *C 4.8600 0.4775 
*I *56:d B *C 4.8600 0.4775 


*RES
0 *56:d *55:s 0.001  // $mwires

*END

*D_NET *43 5.98251e-18

*CONN
*I *52:d B *C 4.4500 0.4775 
*I *54:s B *C 4.4500 0.4775 

*CAP
0 *52:d 5.98251e-18

*RES
0 *54:s *52:d 0.001  // $mwires

*END

*D_NET *42 1.62938e-18

*CONN
*I *47:d B *C 2.9250 0.5875 
*I *48:s B *C 2.9250 0.5875 

*CAP
0 *47:d 1.62938e-18

*RES
0 *48:s *47:d 0.001  // $mwires

*END

*D_NET *40 6.57007e-19

*CONN
*I *5:d B *C 1.9600 0.5875 
*I *6:s B *C 1.9600 0.5875 

*CAP
0 *5:d 6.57007e-19

*RES
0 *6:s *5:d 0.001  // $mwires

*END

*D_NET *39 3.42778e-18

*CONN
*I *33:s B *C 4.7675 1.2575 
*I *36:d B *C 4.7675 1.2575 

*CAP
0 *33:s 3.42778e-18

*RES
0 *36:d *33:s 0.001  // $mwires

*END

*D_NET *37 2.59461e-19

*CONN
*I *29:d B *C 4.3700 1.2575 
*I *31:s B *C 4.3700 1.2575 

*CAP
0 *29:d 2.59461e-19

*RES
0 *31:s *29:d 0.001  // $mwires

*END

*D_NET *34 2.93348e-18

*CONN
*I *21:d B *C 2.9025 1.1675 
*I *23:s B *C 2.9025 1.1675 

*CAP
0 *21:d 2.93348e-18

*RES
0 *23:s *21:d 0.001  // $mwires

*END

*D_NET *32 2.04398e-18

*CONN
*I *17:d B *C 1.8525 1.1675 
*I *18:s B *C 1.8525 1.1675 

*CAP
0 *17:d 2.04398e-18

*RES
0 *18:s *17:d 0.001  // $mwires

*END

*D_NET *30 1.12421e-15

*CONN
*I *49:g B *C 3.3625 0.5875 
*I *50:g B *C 4.0925 0.4775 
*I *61:d B *C 0.1100 0.5875 
*I *6:g B *C 2.1375 0.5875 
*I *23:g B *C 2.9825 1.1675 
*I *27:g B *C 4.0925 1.2575 
*I *8:d B *C 0.1100 1.0075 
*I *19:g B *C 2.1825 1.1675 
*N *30:3 *C 2.1000 0.4100 
*N *30:5 *C 2.9550 0.9000 
*N *30:7 *C 4.0925 0.7375 
*N *30:8 *C 3.4000 0.7650 
*N *30:11 *C 2.9550 0.4100 
*N *30:13 *C 0.1000 0.5750 

*CAP
0 *19:g 5.61364e-17
1 *8:d 3.66242e-17
2 *27:g 4.90692e-17
3 *23:g 5.21255e-17
4 *6:g 5.05372e-17
5 *61:d 1.73939e-16
6 *50:g 2.91727e-17
7 *49:g 1.13605e-17
8 *30:11 1.23745e-16
9 *30:7 5.38988e-17
10 *30:3 2.47714e-16
11 *30:5 1.14076e-16
12 *30:8 1.25813e-16

*RES
0 *19:g *6:g 102.274536  // $poly_conn
1 *6:g *30:3 62.437271  // $poly_conn
2 *23:g *30:5 77.512466  // $poly_conn
3 *27:g *30:7 104.617226  // $poly_conn
4 *30:7 *30:8 161.189499  // $poly_conn
5 *30:8 *49:g 17.437269  // $poly_conn
6 *30:7 *50:g 46.924919  // $poly_conn
7 *30:8 *30:11 45.578518  // $metal1_conn
8 *30:11 *30:3 0.602069  // $metal1_conn
9 *30:3 *30:13 1.631331  // $metal1_conn
10 *30:11 *30:5 0.350841  // $metal1_conn
11 *30:13 *8:d 62.285458  // $metal1_conn
12 *61:d *30:13 75  // $metal1_conn

*END

*D_NET *28 8.71416e-16

*CONN
*I *48:g B *C 3.0125 0.5875 
*I *50:d B *C 3.8475 0.4775 
*I *7:g B *C 2.3425 0.5875 
*I *25:g B *C 3.1875 1.1675 
*I *27:d B *C 4.0000 1.2575 
*I *18:g B *C 1.9375 1.1675 
*N *28:1 *C 2.0500 0.9250 
*N *28:4 *C 2.3150 0.8650 
*N *28:5 *C 3.3050 0.9250 
*N *28:6 *C 3.1975 0.9525 
*N *28:10 *C 3.2750 1.2775 
*N *28:11 *C 2.2550 0.8950 

*CAP
0 *18:g 3.9953e-17
1 *27:d 6.86339e-17
2 *25:g 2.54458e-17
3 *7:g 4.38018e-17
4 *50:d 8.50687e-17
5 *48:g 4.47862e-17
6 *28:11 1.20868e-16
7 *28:10 1.79029e-16
8 *28:6 3.07421e-17
9 *28:1 8.38099e-17
10 *28:4 3.49194e-17
11 *28:5 1.14359e-16

*RES
0 *28:1 *18:g 83.446335  // $poly_conn
1 *7:g *28:4 89.050919  // $poly_conn
2 *28:5 *28:6 63.467651  // $poly_conn
3 *28:6 *48:g 104.110573  // $poly_conn
4 *28:6 *25:g 26.497639  // $poly_conn
5 *27:d *28:10 62.62397  // $metal1_conn
6 *28:10 *28:11 0.963763  // $metal1_conn
7 *28:11 *28:1 0.146242  // $metal1_conn
8 *28:10 *28:5 0.269767  // $metal1_conn
9 *28:5 *50:d 75.581909  // $metal1_conn
10 *28:11 *28:4 0.041932  // $metal1_conn

*END

*D_NET *26 5.88092e-16

*CONN
*I *49:d B *C 3.4550 0.5875 
*I *54:d B *C 4.7050 0.4775 
*I *55:d B *C 4.7050 0.4775 
*I *25:s B *C 3.3525 1.1675 
*I *31:d B *C 4.5550 1.2575 
*I *33:d B *C 4.5550 1.2575 
*N *26:2 *C 3.8750 0.6250 
*N *26:3 *C 3.8750 1.1150 

*CAP
0 *31:d 6.66926e-17
1 *25:s 7.12426e-17
2 *54:d 9.56061e-17
3 *49:d 9.67338e-17
4 *26:3 1.09047e-16
5 *26:2 1.4877e-16

*RES
0 *54:d *26:2 75.654343  // $metal1_conn
1 *26:2 *26:3 0.360287  // $metal1_conn
2 *26:3 *25:s 62.346741  // $metal1_conn
3 *26:2 *49:d 75.640038  // $metal1_conn
4 *26:3 *31:d 62.543777  // $metal1_conn

*END

*D_NET *24 3.94129e-16

*CONN
*I *54:g B *C 4.6025 0.4775 
*I *57:d B *C 5.2200 0.4775 
*I *33:g B *C 4.6675 1.2575 
*I *38:d B *C 5.1650 1.2575 
*N *24:2 *C 4.6575 1.0500 
*N *24:4 *C 4.7050 1.0500 
*N *24:6 *C 5.1750 1.1450 

*CAP
0 *38:d 8.14463e-18
1 *33:g 3.46325e-17
2 *57:d 6.9169e-17
3 *54:g 6.84348e-17
4 *24:6 8.15049e-17
5 *24:2 6.94057e-17
6 *24:4 6.28371e-17

*RES
0 *33:g *24:2 26.735422  // $poly_conn
1 *24:2 *54:g 136.773529  // $poly_conn
2 *24:2 *24:4 47.215244  // $poly_conn
3 *57:d *24:6 75.624794  // $metal1_conn
4 *24:6 *24:4 0.404529  // $metal1_conn
5 *24:6 *38:d 62.029423  // $metal1_conn

*END

*D_NET *22 6.04e-16

*CONN
*I *62:g B *C 0.4375 0.5300 
*I *63:g B *C 0.6425 0.5300 
*I *1:g B *C 0.9075 0.5300 
*I *2:g B *C 1.1125 0.5300 
*I *3:d B *C 1.4825 0.5575 
*I *4:d B *C 1.4825 0.5575 
*I *5:g B *C 1.7825 0.5875 
*I *9:g B *C 0.4375 1.0950 
*I *11:g B *C 0.6425 1.0950 
*I *12:g B *C 0.8475 1.0950 
*I *13:g B *C 1.0525 1.0950 
*I *14:d B *C 1.3900 1.1350 
*I *16:d B *C 1.3900 1.1350 
*I *17:g B *C 1.7675 1.1675 
*N *22:15 *C 1.7750 0.7850 
*N *22:16 *C 1.7300 0.7850 
*N *22:18 *C 1.3900 0.6900 
*N *22:19 *C 1.3900 0.7600 

*CAP
0 *17:g 5.11501e-17
1 *14:d 6.33751e-17
2 *13:g 2.84275e-16
3 *5:g 3.46554e-17
4 *3:d 3.46266e-17
5 *22:19 2.42153e-17
6 *22:18 1.97971e-17
7 *22:16 9.19057e-17

*RES
0 *22:15 *17:g 69.856438  // $poly_conn
1 *5:g *22:15 31.394903  // $poly_conn
2 *22:15 *22:16 46.980618  // $poly_conn
3 *22:19 *13:g 45.187351  // $metal1_conn
4 *22:16 *22:18 0.293385  // $metal1_conn
5 *22:18 *3:d 75.18232  // $metal1_conn
6 *22:19 *14:d 31.284864  // $metal1_conn
7 *22:18 *22:19 0.065741  // $metal1_conn

*END

*D_NET *20 4.13923e-16

*CONN
*I *3:g B *C 1.3775 0.5575 
*I *4:g B *C 1.5875 0.5575 
*I *6:d B *C 2.2400 0.5875 
*I *7:s B *C 2.2400 0.5875 
*I *14:g B *C 1.2875 1.1350 
*I *16:g B *C 1.4925 1.1350 
*I *18:d B *C 2.0600 1.1675 
*I *19:d B *C 2.0600 1.1675 
*N *20:9 *C 1.8900 0.9750 

*CAP
0 *18:d 2.50969e-17
1 *16:g 2.38423e-16
2 *6:d 7.47371e-17
3 *20:9 7.5666e-17

*RES
0 *20:9 *16:g 45.286175  // $metal1_conn
1 *20:9 *18:d 62.206375  // $metal1_conn
2 *6:d *20:9 75.510056  // $metal1_conn

*END

*D_NET *59 3.6524e-16

*CONN
*I *48:d B *C 3.1875 0.5875 
*I *49:s B *C 3.1875 0.5875 
*I *60:g B *C 2.6425 0.5875 
*I *23:d B *C 3.0850 1.1675 
*I *25:d B *C 3.0850 1.1675 
*I *35:g B *C 2.5475 1.1675 
*N *59:2 *C 2.6800 0.9500 
*N *59:6 *C 3.0850 1.1200 

*CAP
0 *35:g 3.11778e-17
1 *23:d 8.95887e-17
2 *60:g 5.42709e-17
3 *48:d 8.45635e-17
4 *59:2 1.05639e-16

*RES
0 *60:g *59:2 62.901474  // $poly_conn
1 *59:2 *35:g 42.541164  // $poly_conn
2 *48:d *59:6 75.405609  // $metal1_conn
3 *59:6 *59:2 45.384495  // $metal1_conn
4 *23:d *59:6 62  // $metal1_conn

*END

*D_NET *58 3.32695e-16

*CONN
*I *47:g B *C 2.8375 0.5875 
*I *60:d B *C 2.4925 0.5875 
*I *7:d B *C 2.4925 0.5875 
*I *21:g B *C 2.8225 1.1675 
*I *19:s B *C 2.3650 1.1675 
*I *35:d B *C 2.3650 1.1675 
*N *58:2 *C 2.8300 0.7600 
*N *58:3 *C 2.7850 0.7600 
*N *58:6 *C 2.4750 0.7300 

*CAP
0 *19:s 6.06366e-17
1 *21:g 7.07956e-17
2 *60:d 2.75477e-17
3 *47:g 3.76518e-17
4 *58:6 3.9558e-17
5 *58:3 9.6505e-17

*RES
0 *47:g *58:2 24.984648  // $poly_conn
1 *58:2 *58:3 46.830765  // $poly_conn
2 *58:2 *21:g 76.266701  // $poly_conn
3 *60:d *58:6 75.092369  // $metal1_conn
4 *58:6 *19:s 62.271812  // $metal1_conn
5 *58:6 *58:3 0.199245  // $metal1_conn

*END

