*SPEF "IEEE 1481-1999"
*DESIGN  "SDFFRX4"
*DATE "Mon Sep 27 11:03:40 2010"
*VENDOR "Cadence Design Systems"
*PROGRAM "Assura RCX"
*VERSION "3.2 Red Hat Linux release 7.2 (Enigma) - (09/09/2009-10:39)"
*DESIGN_FLOW "Physical Verification"
*DIVIDER /
*DELIMITER :
*BUS_DELIMITER []
*T_UNIT 1 PS
*C_UNIT 1e15 FF
*R_UNIT 1 OHM
*L_UNIT 1 MH
// DeviceFingerDelim "@"
// MATCHED
// caps2d version: 10

*NAME_MAP
*1 n11
*2 n9
*3 n9\@1
*4 mp51
*5 mp50
*6 mp45
*7 mn51
*8 mp46
*9 mn50
*10 mp46\@1
*11 mn45
*12 mp45\@1
*13 mn46
*14 mp25
*15 mn46\@1
*16 mp37
*17 mn45\@1
*18 mp36
*19 mn55\@3
*20 mp35
*21 mn21
*22 mn25
*23 mn37
*24 mp30
*25 mp40
*26 mp10
*27 mn36
*28 mp13
*29 mn35
*30 mp14
*31 mn30
*32 mp12
*33 mn10
*34 mp11
*35 mn13
*36 mp20
*37 mn14
*38 mp21
*39 mn12
*40 mn11
*41 mn20
*42 QN
*43 D
*44 VSS
*45 Q
*46 RN
*47 mp55
*48 VDD
*49 mp55\@1
*50 mp55\@2
*51 mp57
*52 mp57\@1
*53 mp57\@2
*54 SE
*55 mp57\@3
*56 mp56
*57 mp55\@3
*58 SI
*59 CK
*60 qint
*61 qbint
*62 n30
*63 n6
*64 mout
*65 n20
*66 Ckbb
*67 CKb
*68 Db
*69 SEb
*70 mn55
*71 mn55\@1
*72 mn55\@2
*73 mn57
*74 mn57\@1
*75 mn57\@2
*76 mn57\@3
*77 n4
*78 mn56
*79 n2
*80 mn40
*81 n8
*82 n3
*83 n1
*84 n5
*85 n7

*GROUND_NETS VSS

*PORTS
*48 I
*44 I
*59 I
*43 I
*46 I
*54 I
*58 I
*45 O
*42 O

*D_NET *48 1.30084e-15

*CONN
*P *48 I *C 0.1000 1.7100 
*I *47:s B *C 6.1150 1.1450 
*I *49:s B *C 6.1150 1.1450 
*I *50:s B *C 6.5250 1.1450 
*I *51:s B *C 6.5250 1.1450 
*I *52:s B *C 6.9350 1.1450 
*I *53:s B *C 6.9350 1.1450 
*I *55:s B *C 7.3800 1.1450 
*I *56:s B *C 7.3800 1.1450 
*I *57:s B *C 5.7150 1.1450 
*I *5:s B *C 4.5900 1.1850 
*I *6:s B *C 4.5900 1.1850 
*I *8:s B *C 5.0375 1.1850 
*I *10:s B *C 5.0375 1.1850 
*I *12:s B *C 5.7150 1.1450 
*I *18:s B *C 3.0450 1.1375 
*I *20:s B *C 3.6550 1.1375 
*I *24:s B *C 3.6550 1.1375 
*I *26:s B *C 0.5050 1.3725 
*I *28:s B *C 0.5050 1.3725 
*I *34:s B *C 1.3650 1.3725 
*I *36:s B *C 1.3650 1.3725 
*I *38:s B *C 2.0075 1.3450 
*N *48:3 *C 6.8000 1.7100 
*N *48:11 *C 3.6000 1.7100 
*N *48:12 *C 3.0000 1.7100 
*N *48:13 *C 2.8500 1.7100 
*N *48:14 *C 2.0050 1.7100 
*N *48:15 *C 1.3650 1.7100 
*N *48:16 *C 1.0000 1.7100 
*N *48:17 *C 0.5050 1.7100 

*CAP
0 *38:s 4.57302e-17
1 *34:s 3.97731e-17
2 *26:s 2.6777e-17
3 *20:s 1.92345e-17
4 *18:s 1.47735e-17
5 *8:s 3.03381e-17
6 *55:s 4.85381e-16
7 *48:17 1.85475e-17
8 *48:15 3.19269e-17
9 *48:14 4.13923e-17
10 *48:13 1.69718e-17
11 *48:11 2.94592e-17
12 *48:3 4.89712e-16
13 *48 1.08227e-17

*RES
0 *48:17 *48 0.202755  // $metal1_conn
1 *48:3 *55:s 7.5  // $metal1_conn
2 *48:3 *55:s 8.333333  // $metal1_conn
3 *48:3 *48:12 7.5  // $metal1_conn
4 *48:3 *48:16 7.5  // $metal1_conn
5 *55:s *8:s 62.273758  // $metal1_conn
6 *48:11 *20:s 62.09745  // $metal1_conn
7 *48:13 *18:s 62.045841  // $metal1_conn
8 *48:14 *38:s 62.240623  // $metal1_conn
9 *48:15 *34:s 62.184776  // $metal1_conn
10 *48:17 *26:s 62.175468  // $metal1_conn
11 *55:s *48:11 0.421064  // $metal1_conn
12 *48:11 *48:12 0.300844  // $metal1_conn
13 *48:12 *48:13 0.074114  // $metal1_conn
14 *48:13 *48:14 0.422623  // $metal1_conn
15 *48:14 *48:15 0.320718  // $metal1_conn
16 *48:15 *48:16 0.182937  // $metal1_conn
17 *48:16 *48:17 0.248162  // $metal1_conn

*END

*D_NET *44 0

*CONN
*P *44 I *C 0.1000 0.0000 
*I *70:s B *C 6.0400 0.4450 
*I *71:s B *C 6.0400 0.4450 
*I *72:s B *C 6.5100 0.4450 
*I *73:s B *C 6.5100 0.4450 
*I *74:s B *C 6.9800 0.4450 
*I *75:s B *C 6.9800 0.4450 
*I *76:s B *C 7.4500 0.4450 
*I *78:s B *C 7.4500 0.4450 
*I *9:s B *C 4.7150 0.4725 
*I *11:s B *C 4.7150 0.4725 
*I *17:s B *C 5.5700 0.4450 
*I *19:s B *C 5.5700 0.4450 
*I *21:s B *C 1.8975 0.5875 
*I *29:s B *C 3.4725 0.5025 
*I *31:s B *C 3.4725 0.5025 
*I *33:s B *C 0.4175 0.4325 
*I *35:s B *C 0.4175 0.4325 
*I *40:s B *C 1.3475 0.4325 
*I *41:s B *C 1.3475 0.4325 
*N *44:3 *C 6.8000 0.0000 
*N *44:8 *C 4.9000 0.0000 
*N *44:9 *C 4.6000 0.0000 
*N *44:10 *C 3.5750 0.0000 
*N *44:11 *C 3.0000 0.0000 
*N *44:12 *C 1.8550 0.0000 
*N *44:13 *C 1.3300 0.0000 
*N *44:14 *C 1.0000 0.0000 
*N *44:15 *C 0.3850 0.0000 


*RES
0 *44:15 *44 0.142547  // $metal1_conn
1 *44:3 *76:s 6.2  // $metal1_conn
2 *44:3 *44:8 6.888889  // $metal1_conn
3 *44:3 *44:11 6.2  // $metal1_conn
4 *44:3 *44:14 6.2  // $metal1_conn
5 *44:9 *9:s 75.09745  // $metal1_conn
6 *44:10 *29:s 75.328896  // $metal1_conn
7 *44:12 *21:s 75.376671  // $metal1_conn
8 *44:13 *40:s 75.276085  // $metal1_conn
9 *44:15 *33:s 75.276573  // $metal1_conn
10 *76:s *44:8 0.292368  // $metal1_conn
11 *44:8 *44:9 0.150324  // $metal1_conn
12 *44:9 *44:10 0.513885  // $metal1_conn
13 *44:10 *44:11 0.288301  // $metal1_conn
14 *44:11 *44:12 0.57429  // $metal1_conn
15 *44:12 *44:13 0.263018  // $metal1_conn
16 *44:13 *44:14 0.165376  // $metal1_conn
17 *44:14 *44:15 0.30837  // $metal1_conn

*END

*D_NET *59 2.40752e-16

*CONN
*P *59 I *C 1.5000 0.8550 
*I *41:g B *C 1.4675 0.4325 
*I *36:g B *C 1.4675 1.3725 
*N *59:2 *C 1.4950 0.6600 

*CAP
0 *36:g 5.21947e-17
1 *41:g 2.34564e-17
2 *59:2 9.11556e-17
3 *59 7.39457e-17

*RES
0 *36:g *59:2 146.615021  // $poly_conn
1 *59:2 *41:g 31.230413  // $poly_conn
2 *59 *59:2 45.117245  // $metal1_conn

*END

*D_NET *43 3.01532e-16

*CONN
*P *43 I *C 1.3000 0.6650 
*I *40:g B *C 1.2275 0.4325 
*I *34:g B *C 1.2625 1.3725 
*N *43:2 *C 1.2900 0.7650 
*N *43:5 *C 1.2900 0.7650 

*CAP
0 *34:g 8.91303e-17
1 *40:g 3.61003e-17
2 *43:5 8.56926e-17
3 *43:2 5.53096e-17
4 *43 3.52991e-17

*RES
0 *34:g *43:2 119.691948  // $poly_conn
1 *43:2 *40:g 58.852047  // $poly_conn
2 *43 *43:5 0.062342  // $metal1_conn
3 *43:2 *43:5 45  // $metal1_conn

*END

*D_NET *46 9.79953e-16

*CONN
*P *46 I *C 3.7000 0.6650 
*I *11:g B *C 4.7625 0.4725 
*I *17:g B *C 5.3525 0.4725 
*I *29:g B *C 3.2425 0.5025 
*I *6:g B *C 4.6625 1.1850 
*I *12:g B *C 5.4125 1.1850 
*I *20:g B *C 3.3225 1.1375 
*N *46:2 *C 3.2850 0.8350 
*N *46:11 *C 3.7350 0.6650 

*CAP
0 *20:g 4.70646e-17
1 *12:g 4.41159e-16
2 *29:g 5.36779e-17
3 *17:g 4.83066e-17
4 *11:g 4.88342e-17
5 *46:11 1.94115e-16
6 *46:2 1.37404e-16
7 *46 9.39256e-18

*RES
0 *20:g *46:2 42.784115  // $poly_conn
1 *12:g *17:g 20.376194  // $poly_conn
2 *11:g *12:g 18.425531  // $poly_conn
3 *46:2 *29:g 59.450783  // $poly_conn
4 *46:11 *46 0.002713  // $metal1_conn
5 *46:11 *46:2 45.495308  // $metal1_conn
6 *12:g *46:11 1.206458  // $metal1_conn

*END

*D_NET *54 7.2463e-16

*CONN
*P *54 I *C 0.3000 0.6650 
*I *33:g B *C 0.2825 0.4325 
*I *37:g B *C 0.6575 0.4325 
*I *26:g B *C 0.4025 1.3725 
*I *32:g B *C 1.1575 1.3725 
*N *54:2 *C 0.3100 0.6400 
*N *54:5 *C 0.6950 0.6550 
*N *54:7 *C 1.1300 1.0400 
*N *54:8 *C 0.5700 0.6100 
*N *54:9 *C 0.3100 0.6400 

*CAP
0 *32:g 5.87543e-17
1 *26:g 5.36891e-17
2 *37:g 6.19389e-17
3 *33:g 2.13825e-17
4 *54:8 1.33611e-16
5 *54:2 9.91803e-17
6 *54:5 7.5173e-17
7 *54:7 2.20901e-16

*RES
0 *26:g *54:2 156.581863  // $poly_conn
1 *54:2 *33:g 26.102209  // $poly_conn
2 *37:g *54:5 73.975731  // $poly_conn
3 *32:g *54:7 94.179131  // $poly_conn
4 *54:7 *54:8 1.222011  // $metal1_conn
5 *54:8 *54:5 0.093875  // $metal1_conn
6 *54:8 *54:9 0.198464  // $metal1_conn
7 *54:9 *54 0.003689  // $metal1_conn
8 *54:2 *54:9 45  // $metal1_conn

*END

*D_NET *58 2.886e-16

*CONN
*P *58 I *C 0.5000 0.8550 
*I *35:g B *C 0.5525 0.4325 
*I *28:g B *C 0.6075 1.3725 
*N *58:2 *C 0.5800 0.8500 

*CAP
0 *28:g 5.60424e-17
1 *35:g 6.49468e-17
2 *58:2 1.18698e-16
3 *58 4.89127e-17

*RES
0 *28:g *58:2 97.897079  // $poly_conn
1 *58:2 *35:g 79.948364  // $poly_conn
2 *58:2 *58 45.015594  // $metal1_conn

*END

*D_NET *45 3.08407e-16

*CONN
*P *45 O *C 5.9000 0.8550 
*I *70:d B *C 5.7200 0.4450 
*I *71:d B *C 6.1900 0.4450 
*I *72:d B *C 6.1900 0.4450 
*I *19:d B *C 5.7200 0.4450 
*I *47:d B *C 5.9100 1.1450 
*I *49:d B *C 6.3200 1.1450 
*I *50:d B *C 6.3200 1.1450 
*I *57:d B *C 5.9100 1.1450 

*CAP
0 *49:d 1.65485e-16
1 *70:d 1.21016e-16
2 *45 2.19057e-17

*RES
0 *49:d *45 0.079731  // $metal1_conn
1 *45 *70:d 0.196897  // $metal1_conn

*END

*D_NET *42 2.88255e-16

*CONN
*P *42 O *C 6.7000 0.8550 
*I *73:d B *C 6.6600 0.4450 
*I *74:d B *C 6.6600 0.4450 
*I *75:d B *C 7.1300 0.4450 
*I *76:d B *C 7.1300 0.4450 
*I *51:d B *C 6.7300 1.1450 
*I *52:d B *C 6.7300 1.1450 
*I *53:d B *C 7.1550 1.1450 
*I *55:d B *C 7.1550 1.1450 

*CAP
0 *53:d 1.61731e-16
1 *73:d 1.07846e-16
2 *42 1.86776e-17

*RES
0 *42 *73:d 0.205311  // $metal1_conn
1 *53:d *42 0.077166  // $metal1_conn

*END

*D_NET *3 1.18163e-18

*CONN
*I *15:s B *C 5.2800 0.4725 
*I *17:d B *C 5.2800 0.4725 

*CAP
0 *15:s 1.18163e-18

*RES
0 *17:d *15:s 0.001  // $mwires

*END

*D_NET *2 0

*CONN
*I *11:d B *C 4.8150 0.4725 
*I *13:s B *C 4.8150 0.4725 


*RES
0 *13:s *11:d 0.001  // $mwires

*END

*D_NET *1 9.10397e-19

*CONN
*I *7:s B *C 4.3475 0.5025 
*I *9:d B *C 4.3475 0.5025 

*CAP
0 *7:s 9.10397e-19

*RES
0 *9:d *7:s 0.001  // $mwires

*END

*D_NET *85 0

*CONN
*I *27:s B *C 3.1875 0.5025 
*I *29:d B *C 3.1875 0.5025 


*RES
0 *29:d *27:s 0.001  // $mwires

*END

*D_NET *84 0

*CONN
*I *23:s B *C 3.0800 0.5025 
*I *27:d B *C 3.0800 0.5025 


*RES
0 *27:d *23:s 0.001  // $mwires

*END

*D_NET *83 5.38995e-18

*CONN
*I *39:s B *C 1.0450 0.4325 
*I *40:d B *C 1.0450 0.4325 

*CAP
0 *39:s 5.38995e-18

*RES
0 *40:d *39:s 0.001  // $mwires

*END

*D_NET *82 8.64555e-20

*CONN
*I *35:d B *C 0.6050 0.4325 
*I *37:s B *C 0.6050 0.4325 

*CAP
0 *35:d 8.64555e-20

*RES
0 *37:s *35:d 0.001  // $mwires

*END

*D_NET *81 2.28839e-18

*CONN
*I *4:s B *C 4.2325 1.1375 
*I *5:d B *C 4.2325 1.1375 

*CAP
0 *4:s 2.28839e-18

*RES
0 *5:d *4:s 0.001  // $mwires

*END

*D_NET *79 0

*CONN
*I *32:s B *C 1.2100 1.3725 
*I *34:d B *C 1.2100 1.3725 


*RES
0 *34:d *32:s 0.001  // $mwires

*END

*D_NET *77 0

*CONN
*I *28:d B *C 0.7275 1.3725 
*I *30:s B *C 0.7275 1.3725 


*RES
0 *30:s *28:d 0.001  // $mwires

*END

*D_NET *69 3.71553e-16

*CONN
*I *33:d B *C 0.1750 0.4325 
*I *39:g B *C 0.8625 0.4325 
*I *26:d B *C 0.3100 1.3725 
*I *30:g B *C 0.8475 1.3725 
*N *69:2 *C 0.8550 1.1650 
*N *69:3 *C 0.8100 1.1650 
*N *69:5 *C 0.3000 1.2300 

*CAP
0 *30:g 2.76402e-17
1 *26:d 1.4537e-17
2 *39:g 6.29433e-17
3 *33:d 6.72648e-17
4 *69:5 8.28183e-17
5 *69:3 1.16349e-16

*RES
0 *39:g *69:2 165.923004  // $poly_conn
1 *69:2 *69:3 45.294373  // $poly_conn
2 *69:2 *30:g 24.355949  // $poly_conn
3 *69:3 *69:5 0.41799  // $metal1_conn
4 *69:5 *33:d 75.670441  // $metal1_conn
5 *69:5 *26:d 62.049652  // $metal1_conn

*END

*D_NET *68 7.14056e-16

*CONN
*I *22:d B *C 2.6250 0.5025 
*I *37:d B *C 0.7600 0.4325 
*I *39:d B *C 0.7600 0.4325 
*I *14:s B *C 2.4200 1.0075 
*I *30:d B *C 1.0025 1.3725 
*I *32:d B *C 1.0025 1.3725 
*N *68:3 *C 2.4100 0.9600 
*N *68:4 *C 0.9700 1.2300 

*CAP
0 *30:d 1.62926e-17
1 *14:s 2.55654e-16
2 *37:d 1.14642e-16
3 *22:d 6.81709e-17
4 *68:4 2.59296e-16

*RES
0 *22:d *68:3 75.433853  // $metal1_conn
1 *68:3 *68:4 1.637686  // $metal1_conn
2 *68:4 *37:d 75.739708  // $metal1_conn
3 *68:4 *30:d 62.071938  // $metal1_conn
4 *14:s *68:3 62  // $metal1_conn

*END

*D_NET *67 1.0845e-15

*CONN
*I *7:g B *C 4.2825 0.5025 
*I *21:g B *C 2.0225 0.5875 
*I *22:g B *C 2.7175 0.5025 
*I *41:d B *C 1.5600 0.4325 
*I *16:g B *C 2.7175 1.0075 
*I *25:g B *C 3.9075 1.1375 
*I *36:d B *C 1.6175 1.3725 
*I *38:g B *C 2.0225 1.0075 
*N *67:2 *C 2.0225 0.7650 
*N *67:3 *C 1.9650 0.7650 
*N *67:5 *C 2.1950 1.2800 
*N *67:7 *C 2.6900 1.2250 
*N *67:10 *C 3.9450 1.3450 
*N *67:12 *C 4.2450 0.7400 
*N *67:13 *C 1.6850 0.7650 

*CAP
0 *38:g 2.25812e-17
1 *36:d 8.75882e-17
2 *25:g 5.1247e-17
3 *16:g 3.67943e-17
4 *41:d 5.46322e-17
5 *22:g 3.46585e-17
6 *21:g 1.44397e-17
7 *7:g 5.78093e-17
8 *67:13 7.75155e-17
9 *67:2 8.79592e-18
10 *67:3 3.89151e-17
11 *67:5 8.45888e-17
12 *67:7 1.80867e-16
13 *67:10 1.81118e-16
14 *67:12 1.52951e-16

*RES
0 *21:g *67:2 24.16839  // $poly_conn
1 *67:2 *67:3 45.794373  // $poly_conn
2 *67:2 *38:g 31.860699  // $poly_conn
3 *38:g *67:5 101.62394  // $poly_conn
4 *16:g *67:7 64.691956  // $poly_conn
5 *16:g *22:g 83.333328  // $poly_conn
6 *25:g *67:10 61.15522  // $poly_conn
7 *7:g *67:12 77.821884  // $poly_conn
8 *67:3 *67:13 0.179384  // $metal1_conn
9 *67:13 *41:d 75.29734  // $metal1_conn
10 *67:13 *36:d 62.423962  // $metal1_conn
11 *67:7 *67:5 0.345144  // $metal1_conn
12 *67:7 *67:10 1.023922  // $metal1_conn
13 *67:10 *67:12 0.646954  // $metal1_conn

*END

*D_NET *66 6.52028e-16

*CONN
*I *80:g B *C 3.9975 0.5025 
*I *21:d B *C 2.1150 0.5875 
*I *23:g B *C 3.0275 0.5025 
*I *4:g B *C 4.1275 1.1375 
*I *14:g B *C 2.5125 1.0075 
*I *38:d B *C 2.1150 1.0075 
*N *66:2 *C 2.3450 0.6550 
*N *66:4 *C 2.9900 0.2550 
*N *66:7 *C 3.3850 0.2550 
*N *66:9 *C 2.1250 0.6000 

*CAP
0 *38:d 4.67857e-17
1 *14:g 4.98824e-17
2 *4:g 7.55887e-17
3 *23:g 6.64787e-17
4 *21:d 2.73085e-17
5 *80:g 7.46676e-17
6 *66:2 1.08913e-16
7 *66:4 1.17232e-16
8 *66:7 8.51719e-17

*RES
0 *14:g *66:2 125.754028  // $poly_conn
1 *23:g *66:4 80.385986  // $poly_conn
2 *4:g *80:g 134.107498  // $poly_conn
3 *80:g *66:7 239.547165  // $poly_conn
4 *66:7 *66:4 0.289307  // $metal1_conn
5 *66:4 *66:2 0.755398  // $metal1_conn
6 *66:2 *66:9 0.154861  // $metal1_conn
7 *66:9 *38:d 62.242779  // $metal1_conn
8 *21:d *66:9 75  // $metal1_conn

*END

*D_NET *65 3.86456e-16

*CONN
*I *22:s B *C 2.8725 0.5025 
*I *23:d B *C 2.8725 0.5025 
*I *31:g B *C 3.7025 0.5025 
*I *14:d B *C 2.6150 1.0075 
*I *16:d B *C 2.6150 1.0075 
*I *24:g B *C 3.7025 1.1375 
*N *65:2 *C 3.7025 0.6525 
*N *65:3 *C 3.4750 0.6750 
*N *65:5 *C 2.8200 0.6750 

*CAP
0 *24:g 5.81949e-17
1 *14:d 7.04248e-17
2 *31:g 3.49529e-17
3 *22:s 2.55131e-17
4 *65:5 6.63507e-17
5 *65:2 2.88614e-17
6 *65:3 1.02158e-16

*RES
0 *24:g *65:2 95.642868  // $poly_conn
1 *65:2 *65:3 87.827362  // $poly_conn
2 *65:2 *31:g 18.71979  // $poly_conn
3 *65:3 *65:5 0.44858  // $metal1_conn
4 *65:5 *14:d 62.335087  // $metal1_conn
5 *65:5 *22:s 75.116447  // $metal1_conn

*END

*D_NET *64 4.95426e-16

*CONN
*I *80:d B *C 3.8500 0.5025 
*I *27:g B *C 3.1325 0.5025 
*I *31:d B *C 3.8500 0.5025 
*I *18:g B *C 3.1175 1.1375 
*I *24:d B *C 3.8050 1.1375 
*I *25:s B *C 3.8050 1.1375 
*N *64:2 *C 3.0950 0.9300 
*N *64:5 *C 3.8050 0.9950 

*CAP
0 *24:d 2.13614e-17
1 *18:g 3.71472e-17
2 *27:g 9.18093e-17
3 *80:d 8.08187e-17
4 *64:5 1.13445e-16
5 *64:2 1.50844e-16

*RES
0 *27:g *64:2 81.539833  // $poly_conn
1 *64:2 *18:g 16.15522  // $poly_conn
2 *80:d *64:5 75.465881  // $metal1_conn
3 *64:5 *64:2 45.585674  // $metal1_conn
4 *64:5 *24:d 62.032612  // $metal1_conn

*END

*D_NET *63 1.35315e-16

*CONN
*I *16:s B *C 2.8275 1.0075 
*I *18:d B *C 3.2200 1.1375 
*I *20:d B *C 3.2200 1.1375 

*CAP
0 *18:d 7.05288e-17
1 *16:s 6.47864e-17

*RES
0 *16:s *18:d 124.259552  // $metal1_conn

*END

*D_NET *62 6.08151e-16

*CONN
*I *80:s B *C 4.1400 0.5025 
*I *7:d B *C 4.1400 0.5025 
*I *13:g B *C 4.8675 0.4725 
*I *15:g B *C 5.2075 0.4725 
*I *4:d B *C 4.0175 1.1375 
*I *8:g B *C 4.8675 1.1850 
*I *10:g B *C 5.2075 1.1850 
*I *25:d B *C 4.0175 1.1375 
*N *62:3 *C 5.2075 0.6775 
*N *62:4 *C 4.8950 0.6775 
*N *62:7 *C 4.8950 0.8350 
*N *62:11 *C 4.1000 0.5800 

*CAP
0 *10:g 8.84522e-17
1 *4:d 8.79645e-17
2 *15:g 3.21998e-17
3 *13:g 4.18571e-17
4 *80:s 2.66477e-17
5 *62:11 1.39747e-16
6 *62:4 2.84236e-17
7 *62:3 2.71159e-17
8 *62:7 1.35743e-16

*RES
0 *62:3 *15:g 25.130047  // $poly_conn
1 *62:4 *13:g 23.033945  // $poly_conn
2 *62:4 *62:7 13.858049  // $poly_conn
3 *62:7 *10:g 7.560308  // $poly_conn
4 *10:g *62:3 63.080605  // $poly_conn
5 *62:3 *62:4 65.657059  // $poly_conn
6 *62:7 *62:11 45.778046  // $metal1_conn
7 *62:11 *80:s 75.032158  // $metal1_conn
8 *62:11 *4:d 62.502945  // $metal1_conn

*END

*D_NET *61 1.27865e-15

*CONN
*I *70:g B *C 5.8225 0.4450 
*I *71:g B *C 6.0875 0.4450 
*I *72:g B *C 6.2925 0.4450 
*I *78:g B *C 7.4975 0.4450 
*I *9:g B *C 4.4125 0.5025 
*I *13:d B *C 5.0375 0.4725 
*I *15:d B *C 5.0375 0.4725 
*I *19:g B *C 5.6175 0.4450 
*I *47:g B *C 6.0125 1.1450 
*I *49:g B *C 6.2175 1.1450 
*I *50:g B *C 6.4225 1.1450 
*I *56:g B *C 7.4875 1.1450 
*I *57:g B *C 5.8075 1.1450 
*I *5:g B *C 4.3375 1.1375 
*I *6:d B *C 4.7650 1.1850 
*I *8:d B *C 4.7650 1.1850 
*I *10:d B *C 5.3100 1.1850 
*I *12:d B *C 5.3100 1.1850 
*N *61:2 *C 4.3750 0.9300 
*N *61:13 *C 5.5450 0.8400 
*N *61:22 *C 7.4600 0.7000 
*N *61:28 *C 6.3800 0.3550 
*N *61:29 *C 6.3600 0.6750 

*CAP
0 *10:d 1.74109e-16
1 *5:g 3.11783e-17
2 *56:g 4.79018e-17
3 *50:g 2.85597e-16
4 *13:d 1.04088e-16
5 *9:g 6.07495e-17
6 *78:g 3.00102e-17
7 *61:28 2.23623e-16
8 *61:2 1.04846e-16
9 *61:13 6.73784e-17
10 *61:22 1.49167e-16

*RES
0 *61:22 *56:g 52.427479  // $poly_conn
1 *61:2 *5:g 18.425531  // $poly_conn
2 *78:g *61:22 21.786829  // $poly_conn
3 *9:g *61:2 83.81015  // $poly_conn
4 *50:g *61:13 49.939747  // $poly_conn
5 *61:22 *61:28 46.050926  // $metal1_conn
6 *50:g *61:29 45  // $metal1_conn
7 *61:13 *10:d 0.270554  // $metal1_conn
8 *10:d *61:2 45.337196  // $metal1_conn
9 *61:28 *13:d 75.976837  // $metal1_conn
10 *61:28 *61:29 0.194168  // $metal1_conn

*END

*D_NET *60 4.15991e-16

*CONN
*I *73:g B *C 6.5575 0.4450 
*I *74:g B *C 6.7625 0.4450 
*I *75:g B *C 7.0275 0.4450 
*I *76:g B *C 7.2325 0.4450 
*I *78:d B *C 7.6000 0.4450 
*I *51:g B *C 6.6275 1.1450 
*I *52:g B *C 6.8325 1.1450 
*I *53:g B *C 7.0375 1.1450 
*I *55:g B *C 7.2725 1.1450 
*I *56:d B *C 7.5800 1.1450 
*N *60:16 *C 7.6050 0.8900 

*CAP
0 *56:d 3.45705e-17
1 *55:g 3.05916e-16
2 *78:d 4.18038e-17
3 *60:16 3.37003e-17

*RES
0 *60:16 *55:g 45.189667  // $metal1_conn
1 *60:16 *56:d 20.815557  // $metal1_conn
2 *78:d *60:16 75.272903  // $metal1_conn

*END

