*SPEF "IEEE 1481-1999"
*DESIGN  "SDFFSXL"
*DATE "Mon Sep 27 11:10:11 2010"
*VENDOR "Cadence Design Systems"
*PROGRAM "Assura RCX"
*VERSION "3.2 Red Hat Linux release 7.2 (Enigma) - (09/09/2009-10:39)"
*DESIGN_FLOW "Physical Verification"
*DIVIDER /
*DELIMITER :
*BUS_DELIMITER []
*T_UNIT 1 PS
*C_UNIT 1e15 FF
*R_UNIT 1 OHM
*L_UNIT 1 MH
// DeviceFingerDelim "@"
// MATCHED
// caps2d version: 10

*NAME_MAP
*1 mp13
*2 mp10
*3 mp57
*4 CK
*5 mp56
*6 mp55
*7 mp45
*8 mp50
*9 mp51
*10 mp52
*11 mp40
*12 mp21
*13 VDD
*14 mn31
*15 mn35
*16 mn36
*17 mn25
*18 QN
*19 mn20
*20 mn11
*21 mn12
*22 mp30
*23 mn14
*24 mp31
*25 mn13
*26 mp35
*27 mp36
*28 mp25
*29 mp20
*30 mp11
*31 mp12
*32 mp14
*33 net492
*34 n20
*35 net405
*36 SEb
*37 n35
*38 SE
*39 Db
*40 qbint
*41 D
*42 mout
*43 CKbb
*44 SI
*45 CKb
*46 SN
*47 net417
*48 net433
*49 net441
*50 Q
*51 net521
*52 mn10
*53 net518
*54 mn30
*55 net442
*56 mn57
*57 net478
*58 mn56
*59 net494
*60 mn55
*61 net506
*62 mn45
*63 VSS
*64 mn50
*65 mn51
*66 mn52
*67 mn40
*68 mn21

*GROUND_NETS VSS

*PORTS
*13 I
*63 I
*4 I
*41 I
*38 I
*44 I
*46 I
*50 O
*18 O

*D_NET *13 7.85437e-16

*CONN
*P *13 I *C 0.1000 1.7100 
*I *22:s B *C 3.2700 1.0675 
*I *24:s B *C 3.8275 1.0675 
*I *26:s B *C 3.8275 1.0675 
*I *29:s B *C 5.0600 1.2975 
*I *30:s B *C 5.0600 1.2975 
*I *1:s B *C 5.8600 1.2975 
*I *2:s B *C 5.8600 1.2975 
*I *3:s B *C 0.1725 1.1125 
*I *5:s B *C 0.8800 1.0075 
*I *6:s B *C 0.8800 1.0075 
*I *7:s B *C 1.5700 1.3175 
*I *8:s B *C 1.5700 1.3175 
*I *9:s B *C 2.0000 1.3175 
*I *12:s B *C 3.2700 1.0675 
*N *13:2 *C 5.2000 1.7100 
*N *13:3 *C 5.2000 1.7100 
*N *13:4 *C 5.0600 1.7100 
*N *13:5 *C 3.7250 1.7100 
*N *13:6 *C 3.2000 1.7100 
*N *13:7 *C 1.9800 1.7100 
*N *13:8 *C 1.5850 1.7100 
*N *13:9 *C 1.1000 1.7100 
*N *13:10 *C 0.8800 1.7100 
*N *13:11 *C 0.1350 1.7100 

*CAP
0 *9:s 3.30494e-17
1 *7:s 1.36985e-17
2 *5:s 4.52377e-17
3 *3:s 1.54096e-17
4 *1:s 4.61185e-17
5 *29:s 3.61446e-17
6 *24:s 1.00649e-17
7 *22:s 1.60779e-17
8 *13:11 6.34591e-18
9 *13:10 8.17752e-18
10 *13:8 1.25023e-17
11 *13:7 2.60078e-17
12 *13:5 4.02554e-17
13 *13:4 2.92972e-17
14 *13:2 4.47049e-16

*RES
0 *1:s *13:3 62.589767  // $metal1_conn
1 *13:3 *13:4 0.069988  // $metal1_conn
2 *13:4 *13:5 0.668864  // $metal1_conn
3 *13:5 *13:6 0.263455  // $metal1_conn
4 *13:6 *13:7 0.612176  // $metal1_conn
5 *13:7 *13:8 0.197628  // $metal1_conn
6 *13:8 *13:9 0.242942  // $metal1_conn
7 *13:9 *13:10 0.110518  // $metal1_conn
8 *13:10 *13:11 0.373088  // $metal1_conn
9 *13:11 *13 0.017096  // $metal1_conn
10 *13:4 *29:s 62.224129  // $metal1_conn
11 *13:5 *24:s 62.074413  // $metal1_conn
12 *13:6 *22:s 62.071438  // $metal1_conn
13 *13:7 *9:s 62.207157  // $metal1_conn
14 *13:8 *7:s 62.210823  // $metal1_conn
15 *13:10 *5:s 62.421165  // $metal1_conn
16 *13:11 *3:s 62.347233  // $metal1_conn
17 *13:2 *13:3 7.5  // $metal1_conn
18 *13:2 *13:6 7.5  // $metal1_conn
19 *13:2 *13:9 6.818182  // $metal1_conn

*END

*D_NET *63 0

*CONN
*P *63 I *C 0.1000 0.0000 
*I *15:s B *C 3.8450 0.4875 
*I *19:s B *C 5.0050 0.4375 
*I *20:s B *C 5.0050 0.4375 
*I *25:s B *C 5.8800 0.4375 
*I *52:s B *C 5.8800 0.4375 
*I *54:s B *C 3.0725 0.5875 
*I *56:s B *C 0.1725 0.5875 
*I *58:s B *C 0.9350 0.5875 
*I *60:s B *C 0.9350 0.5875 
*I *62:s B *C 1.6650 0.4975 
*I *64:s B *C 1.6650 0.4975 
*I *68:s B *C 3.0725 0.5875 
*N *63:2 *C 5.2000 0.0000 
*N *63:3 *C 5.2000 0.0000 
*N *63:4 *C 4.9500 0.0000 
*N *63:5 *C 3.7600 0.0000 
*N *63:6 *C 3.2000 0.0000 
*N *63:7 *C 2.9300 0.0000 
*N *63:8 *C 1.6600 0.0000 
*N *63:9 *C 1.1000 0.0000 
*N *63:10 *C 0.8500 0.0000 


*RES
0 *25:s *63:3 75.643478  // $metal1_conn
1 *63:3 *63:4 0.125133  // $metal1_conn
2 *63:4 *63:5 0.596173  // $metal1_conn
3 *63:5 *63:6 0.280541  // $metal1_conn
4 *63:6 *63:7 0.13421  // $metal1_conn
5 *63:7 *63:8 0.635329  // $metal1_conn
6 *63:8 *63:9 0.280541  // $metal1_conn
7 *63:9 *63:10 0.125133  // $metal1_conn
8 *63:10 *63 0.376046  // $metal1_conn
9 *63 *56:s 75.386314  // $metal1_conn
10 *63:4 *19:s 75.272926  // $metal1_conn
11 *63:5 *15:s 75.214149  // $metal1_conn
12 *63:7 *54:s 75.045799  // $metal1_conn
13 *63:8 *62:s 75.306885  // $metal1_conn
14 *63:10 *58:s 75.074409  // $metal1_conn
15 *63:2 *63:3 6.2  // $metal1_conn
16 *63:2 *63:6 6.2  // $metal1_conn
17 *63:2 *63:9 5.636364  // $metal1_conn

*END

*D_NET *4 2.12017e-16

*CONN
*P *4 I *C 4.7000 0.6650 
*I *19:g B *C 4.8475 0.4375 
*I *29:g B *C 4.9575 1.2975 
*N *4:2 *C 4.8200 0.9100 

*CAP
0 *29:g 4.16101e-17
1 *19:g 3.50208e-17
2 *4:2 8.5135e-17
3 *4 5.02507e-17

*RES
0 *29:g *4:2 82.036072  // $poly_conn
1 *4:2 *19:g 90.889008  // $poly_conn
2 *4:2 *4 45.189774  // $metal1_conn

*END

*D_NET *41 2.27923e-16

*CONN
*P *41 I *C 5.1000 0.6650 
*I *20:g B *C 5.1625 0.4375 
*I *30:g B *C 5.1625 1.2975 
*N *41:2 *C 5.1350 0.6450 

*CAP
0 *30:g 7.40182e-17
1 *20:g 2.19004e-17
2 *41:2 6.05298e-17
3 *41 7.14746e-17

*RES
0 *30:g *41:2 131.230423  // $poly_conn
1 *41:2 *20:g 26.102209  // $poly_conn
2 *41:2 *41 45.017296  // $metal1_conn

*END

*D_NET *38 5.14967e-16

*CONN
*P *38 I *C 5.9000 0.6650 
*I *23:g B *C 5.6725 0.4375 
*I *52:g B *C 5.9825 0.4375 
*I *31:g B *C 5.3275 1.2975 
*I *2:g B *C 5.9625 1.2975 
*N *38:2 *C 5.3800 0.9950 
*N *38:4 *C 5.6450 0.6450 
*N *38:6 *C 5.9725 0.6750 
*N *38:7 *C 5.9100 0.6750 

*CAP
0 *2:g 5.17712e-17
1 *31:g 4.87542e-17
2 *52:g 2.73166e-17
3 *23:g 6.19448e-17
4 *38:2 1.07101e-16
5 *38:4 1.18736e-16
6 *38:7 5.903e-17
7 *38 4.03137e-17

*RES
0 *31:g *38:2 94.612106  // $poly_conn
1 *23:g *38:4 71.102211  // $poly_conn
2 *52:g *38:6 43.208748  // $poly_conn
3 *38:6 *38:7 48.345665  // $poly_conn
4 *38:6 *2:g 132.952332  // $poly_conn
5 *38:4 *38:2 0.413102  // $metal1_conn
6 *38:4 *38 0.182484  // $metal1_conn
7 *38 *38:7 0.006321  // $metal1_conn

*END

*D_NET *44 3.20932e-16

*CONN
*P *44 I *C 5.7000 0.8550 
*I *25:g B *C 5.7775 0.4375 
*I *1:g B *C 5.7575 1.2975 
*N *44:2 *C 5.7850 0.8750 

*CAP
0 *1:g 5.63547e-17
1 *25:g 7.76023e-17
2 *44:2 1.44039e-16
3 *44 4.29363e-17

*RES
0 *25:g *44:2 82.783287  // $poly_conn
1 *44:2 *1:g 69.962776  // $poly_conn
2 *44 *44:2 45.062901  // $metal1_conn

*END

*D_NET *46 6.90479e-16

*CONN
*P *46 I *C 1.9000 0.8550 
*I *54:g B *C 3.1575 0.5875 
*I *64:g B *C 1.8025 0.4975 
*I *22:g B *C 3.3175 1.0675 
*I *8:g B *C 1.6875 1.3175 
*N *46:2 *C 1.7750 0.8450 
*N *46:6 *C 3.1200 0.4100 

*CAP
0 *8:g 4.70373e-17
1 *22:g 6.1728e-17
2 *64:g 5.51516e-17
3 *54:g 4.92687e-17
4 *46:2 1.16746e-16
5 *46:6 1.8162e-16
6 *46 1.78928e-16

*RES
0 *64:g *46:2 61.999645  // $poly_conn
1 *46:2 *8:g 74.610474  // $poly_conn
2 *22:g *54:g 106.120689  // $poly_conn
3 *54:g *46:6 62.437271  // $poly_conn
4 *46:6 *46 1.311649  // $metal1_conn
5 *46 *46:2 45.097797  // $metal1_conn

*END

*D_NET *50 1.18556e-16

*CONN
*P *50 O *C 1.1000 1.0450 
*I *60:d B *C 1.1025 0.5875 
*I *6:d B *C 1.1275 0.9675 
*N *50:3 *C 1.0900 0.9750 

*CAP
0 *6:d 3.7726e-17
1 *60:d 5.71893e-17
2 *50 2.36405e-17

*RES
0 *60:d *50:3 75.216881  // $metal1_conn
1 *50:3 *50 0.041953  // $metal1_conn
2 *6:d *50:3 62  // $metal1_conn

*END

*D_NET *18 1.2717e-16

*CONN
*P *18 O *C 0.5000 0.6650 
*I *56:d B *C 0.4450 0.5875 
*I *3:d B *C 0.5125 1.1600 

*CAP
0 *3:d 4.38551e-17
1 *56:d 3.50701e-17
2 *18 4.8245e-17

*RES
0 *3:d *18 62.363445  // $metal1_conn
1 *18 *56:d 75.035652  // $metal1_conn

*END

*D_NET *61 0

*CONN
*I *23:s B *C 5.7250 0.4375 
*I *25:d B *C 5.7250 0.4375 


*RES
0 *25:d *23:s 0.001  // $mwires

*END

*D_NET *59 5.07533e-18

*CONN
*I *20:d B *C 5.3150 0.4375 
*I *21:s B *C 5.3150 0.4375 

*CAP
0 *20:d 5.07533e-18

*RES
0 *21:s *20:d 0.001  // $mwires

*END

*D_NET *57 1.42439e-18

*CONN
*I *15:d B *C 3.9450 0.4875 
*I *16:s B *C 3.9450 0.4875 

*CAP
0 *15:d 1.42439e-18

*RES
0 *16:s *15:d 0.001  // $mwires

*END

*D_NET *55 2.27245e-18

*CONN
*I *14:s B *C 3.2475 0.5875 
*I *54:d B *C 3.2475 0.5875 

*CAP
0 *14:s 2.27245e-18

*RES
0 *54:d *14:s 0.001  // $mwires

*END

*D_NET *53 1.84077e-18

*CONN
*I *65:d B *C 2.0500 0.4975 
*I *66:s B *C 2.0500 0.4975 

*CAP
0 *65:d 1.84077e-18

*RES
0 *66:s *65:d 0.001  // $mwires

*END

*D_NET *51 0

*CONN
*I *64:d B *C 1.8550 0.4975 
*I *65:s B *C 1.8550 0.4975 


*RES
0 *65:s *64:d 0.001  // $mwires

*END

*D_NET *49 0

*CONN
*I *32:s B *C 5.6450 1.2975 
*I *1:d B *C 5.6450 1.2975 


*RES
0 *1:d *32:s 0.001  // $mwires

*END

*D_NET *48 0

*CONN
*I *30:d B *C 5.2450 1.2975 
*I *31:s B *C 5.2450 1.2975 


*RES
0 *31:s *30:d 0.001  // $mwires

*END

*D_NET *47 0

*CONN
*I *26:d B *C 3.9450 1.0675 
*I *27:s B *C 3.9450 1.0675 


*RES
0 *27:s *26:d 0.001  // $mwires

*END

*D_NET *45 1.04278e-15

*CONN
*I *17:g B *C 4.3175 0.4875 
*I *19:d B *C 4.7550 0.4375 
*I *66:g B *C 2.1925 0.4975 
*I *68:g B *C 2.8875 0.5875 
*I *27:g B *C 3.9975 1.0675 
*I *29:d B *C 4.8650 1.2975 
*I *11:g B *C 2.6325 1.1375 
*I *12:g B *C 3.0525 1.0675 
*N *45:1 *C 3.0250 1.3400 
*N *45:3 *C 2.8875 0.8625 
*N *45:8 *C 4.0250 1.3450 
*N *45:10 *C 4.3450 0.6850 
*N *45:12 *C 4.3450 1.3150 

*CAP
0 *12:g 3.97229e-17
1 *11:g 9.72373e-17
2 *29:d 6.97566e-17
3 *27:g 7.77756e-17
4 *68:g 4.25756e-17
5 *66:g 1.07141e-16
6 *19:d 7.58469e-17
7 *17:g 3.65104e-17
8 *45:12 8.55155e-17
9 *45:3 2.13557e-17
10 *45:1 1.22292e-16
11 *45:8 1.03675e-16
12 *45:10 1.63378e-16

*RES
0 *45:1 *12:g 78.79451  // $poly_conn
1 *12:g *45:3 60.241673  // $poly_conn
2 *45:3 *11:g 101.267311  // $poly_conn
3 *11:g *66:g 377.915588  // $poly_conn
4 *45:3 *68:g 47.22356  // $poly_conn
5 *27:g *45:8 80.076569  // $poly_conn
6 *17:g *45:10 68.538101  // $poly_conn
7 *29:d *45:12 62.378216  // $metal1_conn
8 *45:12 *45:8 0.220027  // $metal1_conn
9 *45:8 *45:1 0.705505  // $metal1_conn
10 *45:12 *45:10 0.442265  // $metal1_conn
11 *45:10 *19:d 75.583031  // $metal1_conn

*END

*D_NET *43 6.85658e-16

*CONN
*I *16:g B *C 3.9975 0.4875 
*I *67:g B *C 2.4275 0.4975 
*I *68:d B *C 2.7950 0.5875 
*I *28:g B *C 4.2875 1.0675 
*I *10:g B *C 2.4275 1.1375 
*I *12:d B *C 2.9600 1.0675 
*N *43:1 *C 2.6150 0.6750 
*N *43:2 *C 2.4275 0.6750 
*N *43:6 *C 4.0250 0.6700 
*N *43:8 *C 2.9800 0.6450 
*N *43:10 *C 2.7850 0.6000 

*CAP
0 *12:d 4.96034e-17
1 *10:g 6.72297e-17
2 *28:g 4.38422e-17
3 *68:d 3.50842e-17
4 *67:g 2.81748e-17
5 *16:g 4.15123e-17
6 *43:8 1.11967e-16
7 *43:2 2.71536e-17
8 *43:1 6.61719e-17
9 *43:6 2.14918e-16

*RES
0 *43:1 *43:2 59.528416  // $poly_conn
1 *43:2 *67:g 21.845535  // $poly_conn
2 *43:2 *10:g 85.948097  // $poly_conn
3 *28:g *43:6 104.823433  // $poly_conn
4 *43:6 *16:g 16.530039  // $poly_conn
5 *43:6 *43:8 46.076851  // $metal1_conn
6 *43:8 *43:10 0.135136  // $metal1_conn
7 *43:10 *43:1 0.101596  // $metal1_conn
8 *43:8 *12:d 62.234055  // $metal1_conn
9 *68:d *43:10 75  // $metal1_conn

*END

*D_NET *42 6.37463e-16

*CONN
*I *14:d B *C 3.4300 0.5875 
*I *15:g B *C 3.8925 0.4875 
*I *67:s B *C 2.5200 0.4975 
*I *22:d B *C 3.4550 1.0675 
*I *24:d B *C 3.4550 1.0675 
*I *26:g B *C 3.8925 1.0675 
*I *11:s B *C 2.7250 1.1375 
*N *42:2 *C 3.8925 0.7000 
*N *42:3 *C 3.8350 0.7000 
*N *42:5 *C 3.4400 0.7000 
*N *42:7 *C 3.4400 1.0200 
*N *42:10 *C 2.7350 1.0900 

*CAP
0 *11:s 1.3655e-16
1 *26:g 7.71479e-17
2 *22:d 8.20401e-17
3 *67:s 1.11323e-16
4 *15:g 4.14899e-17
5 *14:d 2.73587e-17
6 *42:5 3.81486e-17
7 *42:2 4.46102e-17
8 *42:3 7.87947e-17

*RES
0 *26:g *42:2 63.355629  // $poly_conn
1 *42:2 *42:3 45.778431  // $poly_conn
2 *42:2 *15:g 32.586399  // $poly_conn
3 *42:3 *42:5 0.294282  // $metal1_conn
4 *42:5 *42:7 0.234573  // $metal1_conn
5 *42:5 *14:d 75.079933  // $metal1_conn
6 *42:7 *42:10 0.648106  // $metal1_conn
7 *42:10 *67:s 75.688782  // $metal1_conn
8 *22:d *42:7 62  // $metal1_conn
9 *11:s *42:10 62  // $metal1_conn

*END

*D_NET *40 5.69222e-16

*CONN
*I *58:g B *C 0.7875 0.5875 
*I *60:g B *C 0.9825 0.5875 
*I *62:d B *C 1.4350 0.4975 
*I *65:g B *C 1.9075 0.4975 
*I *5:g B *C 0.7775 1.0075 
*I *6:g B *C 0.9825 1.0075 
*I *7:d B *C 1.3600 1.3175 
*I *9:g B *C 1.9075 1.3175 
*N *40:2 *C 0.9825 0.7850 
*N *40:3 *C 0.9200 0.7850 
*N *40:4 *C 0.7825 0.7575 
*N *40:9 *C 1.9450 0.6750 
*N *40:11 *C 1.4250 0.6750 
*N *40:13 *C 1.4250 0.4850 

*CAP
0 *9:g 6.74793e-17
1 *7:d 5.62803e-17
2 *6:g 1.28665e-17
3 *5:g 1.74754e-17
4 *65:g 3.902e-17
5 *62:d 5.91326e-17
6 *60:g 1.20468e-17
7 *58:g 1.08072e-17
8 *40:11 8.26117e-17
9 *40:4 5.56155e-18
10 *40:2 6.7764e-18
11 *40:3 7.22775e-17
12 *40:9 1.26886e-16

*RES
0 *6:g *40:2 26.732492  // $poly_conn
1 *40:2 *40:3 1.294373  // $poly_conn
2 *40:3 *40:4 23.276678  // $poly_conn
3 *40:4 *5:g 35.296425  // $poly_conn
4 *40:2 *60:g 29.296595  // $poly_conn
5 *40:4 *58:g 24.436651  // $poly_conn
6 *9:g *40:9 127.693687  // $poly_conn
7 *40:9 *65:g 17.437269  // $poly_conn
8 *40:9 *40:11 45.359253  // $metal1_conn
9 *40:11 *40:13 0.136967  // $metal1_conn
10 *40:13 *40:3 45.559799  // $metal1_conn
11 *40:11 *7:d 62.46978  // $metal1_conn
12 *62:d *40:13 75  // $metal1_conn

*END

*D_NET *39 4.85994e-16

*CONN
*I *17:d B *C 4.4675 0.4875 
*I *21:d B *C 5.5700 0.4375 
*I *23:d B *C 5.5700 0.4375 
*I *28:s B *C 4.4375 1.0675 
*I *31:d B *C 5.4300 1.2975 
*I *32:d B *C 5.4300 1.2975 
*N *39:2 *C 5.1900 1.1550 
*N *39:4 *C 4.5050 1.0200 

*CAP
0 *31:d 4.66398e-17
1 *28:s 1.28166e-16
2 *21:d 8.3551e-17
3 *17:d 7.7544e-17
4 *39:2 1.50093e-16

*RES
0 *21:d *39:2 75.727654  // $metal1_conn
1 *39:2 *39:4 0.612908  // $metal1_conn
2 *39:2 *31:d 62.234295  // $metal1_conn
3 *39:4 *17:d 75.413231  // $metal1_conn
4 *28:s *39:4 62  // $metal1_conn

*END

*D_NET *37 4.96064e-16

*CONN
*I *62:g B *C 1.5275 0.4975 
*I *66:d B *C 2.3100 0.4975 
*I *67:d B *C 2.3100 0.4975 
*I *7:g B *C 1.4525 1.3175 
*I *10:d B *C 2.5300 1.1375 
*I *11:d B *C 2.5300 1.1375 
*N *37:2 *C 1.5200 0.8275 
*N *37:4 *C 1.5850 0.8650 
*N *37:6 *C 2.2950 1.0250 

*CAP
0 *10:d 4.12962e-17
1 *7:g 4.6722e-17
2 *66:d 8.34886e-17
3 *62:g 3.19888e-17
4 *37:6 1.35659e-16
5 *37:2 5.32098e-17
6 *37:4 1.037e-16

*RES
0 *62:g *37:2 62.987125  // $poly_conn
1 *37:2 *7:g 109.858902  // $poly_conn
2 *37:2 *37:4 55.949432  // $poly_conn
3 *10:d *37:6 62.220207  // $metal1_conn
4 *37:6 *37:4 0.677715  // $metal1_conn
5 *37:6 *66:d 75.390976  // $metal1_conn

*END

*D_NET *36 3.68019e-16

*CONN
*I *21:g B *C 5.4675 0.4375 
*I *52:d B *C 6.0825 0.4375 
*I *32:g B *C 5.5325 1.2975 
*I *2:d B *C 6.0550 1.2975 
*N *36:1 *C 5.6150 1.0900 
*N *36:2 *C 5.5125 1.0900 
*N *36:6 *C 6.0650 1.1550 

*CAP
0 *2:d 1.34112e-17
1 *32:g 3.39884e-17
2 *52:d 4.31171e-17
3 *21:g 7.00297e-17
4 *36:6 7.12771e-17
5 *36:2 8.07929e-17
6 *36:1 5.5403e-17

*RES
0 *36:1 *36:2 50.485863  // $poly_conn
1 *36:2 *21:g 152.013428  // $poly_conn
2 *36:2 *32:g 25.248095  // $poly_conn
3 *52:d *36:6 75.553284  // $metal1_conn
4 *36:6 *36:1 0.370296  // $metal1_conn
5 *36:6 *2:d 62.049301  // $metal1_conn

*END

*D_NET *35 1.62251e-16

*CONN
*I *8:d B *C 1.7975 1.3175 
*I *9:d B *C 1.7975 1.3175 
*I *10:s B *C 2.3350 1.1375 

*CAP
0 *10:s 7.2502e-17
1 *8:d 8.97485e-17

*RES
0 *10:s *8:d 124.351242  // $metal1_conn

*END

*D_NET *34 3.4081e-16

*CONN
*I *14:g B *C 3.3375 0.5875 
*I *16:d B *C 4.1575 0.4875 
*I *17:s B *C 4.1575 0.4875 
*I *24:g B *C 3.5925 1.0675 
*I *27:d B *C 4.1425 1.0675 
*I *28:d B *C 4.1425 1.0675 
*N *34:2 *C 3.6300 0.8600 
*N *34:5 *C 4.1850 0.8600 

*CAP
0 *27:d 2.64707e-17
1 *24:g 3.35883e-17
2 *16:d 6.18575e-17
3 *14:g 5.04089e-17
4 *34:5 6.82361e-17
5 *34:2 1.00249e-16

*RES
0 *24:g *34:2 16.15522  // $poly_conn
1 *34:2 *14:g 95.352837  // $poly_conn
2 *27:d *34:5 62.118538  // $metal1_conn
3 *34:5 *34:2 45.379421  // $metal1_conn
4 *34:5 *16:d 75.295044  // $metal1_conn

*END

*D_NET *33 2.69103e-16

*CONN
*I *56:g B *C 0.3275 0.5875 
*I *58:d B *C 0.6950 0.5875 
*I *3:g B *C 0.3275 1.1125 
*I *5:d B *C 0.7050 1.0075 
*N *33:2 *C 0.2900 0.7600 
*N *33:5 *C 0.6850 0.5750 

*CAP
0 *5:d 5.28891e-17
1 *3:g 2.45444e-17
2 *58:d 8.63299e-17
3 *56:g 1.56258e-17
4 *33:2 8.97139e-17

*RES
0 *3:g *33:2 53.334705  // $poly_conn
1 *33:2 *56:g 16.15522  // $poly_conn
2 *33:2 *33:5 45.588943  // $metal1_conn
3 *33:5 *5:d 62.29073  // $metal1_conn
4 *58:d *33:5 75  // $metal1_conn

*END

