*SPEF "IEEE 1481-1999"
*DESIGN  "SDFFSHQX4"
*DATE "Mon Sep 27 11:05:12 2010"
*VENDOR "Cadence Design Systems"
*PROGRAM "Assura RCX"
*VERSION "3.2 Red Hat Linux release 7.2 (Enigma) - (09/09/2009-10:39)"
*DESIGN_FLOW "Physical Verification"
*DIVIDER /
*DELIMITER :
*BUS_DELIMITER []
*T_UNIT 1 PS
*C_UNIT 1e15 FF
*R_UNIT 1 OHM
*L_UNIT 1 MH
// DeviceFingerDelim "@"
// MATCHED
// caps2d version: 10

*NAME_MAP
*1 mn35
*2 mn36
*3 mn25
*4 mn21
*5 mp35
*6 mn20
*7 mp36
*8 mn11
*9 mp25
*10 mn12
*11 mp21
*12 mn14
*13 mp20
*14 mn13
*15 SE
*16 mp11
*17 mp12
*18 mp14
*19 mp13
*20 SI
*21 VSS
*22 SN
*23 mp10
*24 mp51
*25 mp52
*26 mp40
*27 mp30
*28 mp31
*29 mp55
*30 mp55\@1
*31 mp55\@2
*32 mp55\@3
*33 CKb
*34 mp45
*35 n20
*36 mp45\@1
*37 qbint
*38 mp50
*39 SEb
*40 mout
*41 n30
*42 D
*43 Db
*44 CKbb
*45 net378
*46 net390
*47 net398
*48 net459
*49 Q
*50 net355
*51 net467
*52 net435
*53 net427
*54 CK
*55 net443
*56 net455
*57 VDD
*58 mn10
*59 mn51
*60 mn52
*61 mn40
*62 mn30
*63 mn31
*64 mn55
*65 mn55\@1
*66 mn55\@2
*67 mn55\@3
*68 mn45
*69 mn45\@1
*70 mn50

*GROUND_NETS VSS

*PORTS
*57 I
*21 I
*54 I
*42 I
*15 I
*20 I
*22 I
*49 O

*D_NET *57 9.37826e-16

*CONN
*P *57 I *C 0.1000 1.7100 
*I *5:s B *C 3.6050 1.3100 
*I *11:s B *C 4.7150 1.0075 
*I *13:s B *C 5.5850 1.1800 
*I *16:s B *C 5.5850 1.1800 
*I *19:s B *C 6.4600 1.3150 
*I *23:s B *C 6.9750 1.0075 
*I *24:s B *C 2.1550 1.4250 
*I *27:s B *C 3.1350 1.3100 
*I *28:s B *C 3.6050 1.3100 
*I *29:s B *C 0.2700 1.1600 
*I *30:s B *C 0.6700 1.1600 
*I *31:s B *C 0.6700 1.1600 
*I *32:s B *C 1.1400 1.5700 
*I *34:s B *C 1.1400 1.5700 
*I *36:s B *C 1.6250 1.5700 
*I *38:s B *C 1.6250 1.5700 
*N *57:2 *C 6.4200 1.7100 
*N *57:3 *C 6.0000 1.7100 
*N *57:4 *C 6.0000 1.7100 
*N *57:5 *C 5.5750 1.7100 
*N *57:6 *C 4.7250 1.7100 
*N *57:7 *C 3.6000 1.7100 
*N *57:8 *C 3.0500 1.7100 
*N *57:9 *C 2.1300 1.7100 

*CAP
0 *36:s 1.78396e-16
1 *27:s 2.1585e-17
2 *24:s 3.03357e-17
3 *23:s 2.67329e-17
4 *19:s 2.52748e-17
5 *13:s 4.8635e-17
6 *11:s 5.14473e-17
7 *5:s 2.70943e-17
8 *57:9 2.87659e-17
9 *57:8 3.16478e-17
10 *57:6 4.79544e-17
11 *57:5 1.61081e-17
12 *57:2 1.84902e-17
13 *57:3 3.85358e-16

*RES
0 *36:s *57 0.079804  // $metal1_conn
1 *57:3 *57:4 6.25  // $metal1_conn
2 *57:3 *57:7 6.25  // $metal1_conn
3 *57:3 *36:s 6.25  // $metal1_conn
4 *23:s *57:2 62.729954  // $metal1_conn
5 *57:2 *19:s 62.245136  // $metal1_conn
6 *57:5 *13:s 21.004988  // $metal1_conn
7 *57:6 *11:s 62.447098  // $metal1_conn
8 *57:7 *5:s 62.058933  // $metal1_conn
9 *57:8 *27:s 62.045826  // $metal1_conn
10 *57:9 *24:s 62.171627  // $metal1_conn
11 *57:2 *57:4 0.210462  // $metal1_conn
12 *57:4 *57:5 0.21297  // $metal1_conn
13 *57:5 *57:6 0.42594  // $metal1_conn
14 *57:6 *57:7 0.564066  // $metal1_conn
15 *57:7 *57:8 0.274716  // $metal1_conn
16 *57:8 *57:9 0.460099  // $metal1_conn
17 *57:9 *36:s 0.265438  // $metal1_conn

*END

*D_NET *21 0

*CONN
*P *21 I *C 0.1000 0.0000 
*I *1:s B *C 3.6700 0.5475 
*I *4:s B *C 4.8800 0.3700 
*I *6:s B *C 5.5550 0.4050 
*I *8:s B *C 5.5550 0.4050 
*I *14:s B *C 6.3200 0.4050 
*I *58:s B *C 6.9750 0.4525 
*I *62:s B *C 2.9900 0.5475 
*I *64:s B *C 0.2700 0.5300 
*I *65:s B *C 0.6700 0.5300 
*I *66:s B *C 0.6700 0.5300 
*I *67:s B *C 1.1525 0.5025 
*I *68:s B *C 1.1525 0.5025 
*I *69:s B *C 1.6850 0.5025 
*I *70:s B *C 1.6850 0.5025 
*N *21:2 *C 6.3300 0.0000 
*N *21:3 *C 6.0000 0.0000 
*N *21:4 *C 6.0000 0.0000 
*N *21:5 *C 5.5750 0.0000 
*N *21:6 *C 4.8800 0.0000 
*N *21:7 *C 3.6600 0.0000 
*N *21:8 *C 3.6000 0.0000 
*N *21:9 *C 2.9600 0.0000 


*RES
0 *69:s *21 0.079804  // $metal1_conn
1 *21:3 *21:4 5.166667  // $metal1_conn
2 *21:3 *21:8 5.166667  // $metal1_conn
3 *21:3 *69:s 5.166667  // $metal1_conn
4 *58:s *21:2 75.631317  // $metal1_conn
5 *21:2 *14:s 75.20504  // $metal1_conn
6 *21:5 *6:s 75.202843  // $metal1_conn
7 *21:6 *4:s 75.045822  // $metal1_conn
8 *21:7 *1:s 75.336189  // $metal1_conn
9 *21:9 *62:s 75.339523  // $metal1_conn
10 *21:2 *21:4 0.165321  // $metal1_conn
11 *21:4 *21:5 0.21297  // $metal1_conn
12 *21:5 *21:6 0.347247  // $metal1_conn
13 *21:6 *21:7 0.610569  // $metal1_conn
14 *21:7 *21:8 0.029893  // $metal1_conn
15 *21:8 *21:9 0.320807  // $metal1_conn
16 *21:9 *69:s 0.696786  // $metal1_conn

*END

*D_NET *54 2.42456e-16

*CONN
*P *54 I *C 5.1000 0.8550 
*I *6:g B *C 5.3725 0.4625 
*I *13:g B *C 5.3725 1.0925 
*N *54:2 *C 5.3725 0.6125 
*N *54:3 *C 5.0750 0.6500 

*CAP
0 *13:g 3.06273e-17
1 *6:g 3.31102e-17
2 *54:2 3.58017e-17
3 *54:3 6.82056e-17
4 *54 7.47112e-17

*RES
0 *13:g *54:2 94.360809  // $poly_conn
1 *54:2 *54:3 107.096725  // $poly_conn
2 *54:2 *6:g 18.71979  // $poly_conn
3 *54 *54:3 0.097686  // $metal1_conn

*END

*D_NET *42 2.57119e-16

*CONN
*P *42 I *C 5.3000 0.6650 
*I *8:g B *C 5.6475 0.4050 
*I *16:g B *C 5.6775 1.1800 
*N *42:2 *C 5.6475 0.6850 
*N *42:3 *C 5.5150 0.6850 

*CAP
0 *16:g 4.31433e-17
1 *8:g 4.87171e-17
2 *42:2 3.42613e-17
3 *42:3 8.90013e-17
4 *42 4.19959e-17

*RES
0 *16:g *42:2 75.348434  // $poly_conn
1 *42:2 *42:3 53.677353  // $poly_conn
2 *42:2 *8:g 35.706852  // $poly_conn
3 *42 *42:3 0.119636  // $metal1_conn

*END

*D_NET *15 4.49922e-16

*CONN
*P *15 I *C 6.9000 0.6650 
*I *12:g B *C 6.0325 0.4050 
*I *58:g B *C 6.8825 0.4525 
*I *17:g B *C 6.0075 1.1800 
*I *23:g B *C 6.8825 1.0075 
*N *15:1 *C 6.0850 0.6850 
*N *15:2 *C 6.0425 0.6850 
*N *15:6 *C 6.9200 0.6750 

*CAP
0 *23:g 2.89801e-17
1 *17:g 6.24635e-17
2 *58:g 1.69433e-17
3 *12:g 4.45494e-17
4 *15:2 6.30172e-17
5 *15:1 1.06309e-16
6 *15:6 2.04879e-17
7 *15 1.07172e-16

*RES
0 *15:1 *15:2 46.504688  // $poly_conn
1 *15:2 *17:g 80.012894  // $poly_conn
2 *15:2 *12:g 32.388908  // $poly_conn
3 *23:g *15:6 48.206497  // $poly_conn
4 *15:6 *58:g 28.975733  // $poly_conn
5 *15:1 *15 0.650086  // $metal1_conn
6 *15 *15:6 45.010025  // $metal1_conn

*END

*D_NET *20 2.99915e-16

*CONN
*P *20 I *C 6.5000 0.8550 
*I *14:g B *C 6.2275 0.4050 
*I *19:g B *C 6.3175 1.1800 
*N *20:2 *C 6.3450 0.8750 

*CAP
0 *19:g 7.05701e-17
1 *14:g 5.13235e-17
2 *20:2 9.38302e-17
3 *20 8.41912e-17

*RES
0 *19:g *20:2 19.691952  // $poly_conn
1 *20:2 *14:g 89.915207  // $poly_conn
2 *20 *20:2 45.091206  // $metal1_conn

*END

*D_NET *22 7.0043e-16

*CONN
*P *22 I *C 1.5000 1.2350 
*I *62:g B *C 3.1025 0.5475 
*I *70:g B *C 1.7325 0.5025 
*I *27:g B *C 3.1825 1.3100 
*I *38:g B *C 1.6625 1.1200 
*N *22:2 *C 1.6625 0.8650 
*N *22:3 *C 1.6100 0.8650 
*N *22:6 *C 3.0650 1.0300 

*CAP
0 *38:g 3.65296e-17
1 *27:g 3.73693e-17
2 *70:g 4.79474e-17
3 *62:g 6.84016e-17
4 *22:3 9.73932e-17
5 *22:6 2.31957e-16
6 *22 1.80832e-16

*RES
0 *70:g *22:2 72.00045  // $poly_conn
1 *22:2 *22:3 47.900734  // $poly_conn
2 *22:2 *38:g 15.826773  // $poly_conn
3 *27:g *22:6 38.16428  // $poly_conn
4 *22:6 *62:g 87.950089  // $poly_conn
5 *22:3 *22 0.320847  // $metal1_conn
6 *22 *22:6 46.387775  // $metal1_conn

*END

*D_NET *49 2.3543e-16

*CONN
*P *49 O *C 0.5000 0.6650 
*I *64:d B *C 0.4650 0.5300 
*I *65:d B *C 0.4650 0.5300 
*I *66:d B *C 0.8750 0.5300 
*I *67:d B *C 0.8750 0.5300 
*I *29:d B *C 0.4650 1.1600 
*I *30:d B *C 0.4650 1.1600 
*I *31:d B *C 0.8775 1.1600 
*I *32:d B *C 0.8775 1.1600 

*CAP
0 *49 2.3543e-16


*END

*D_NET *56 3.38622e-18

*CONN
*I *12:s B *C 6.1300 0.4050 
*I *14:d B *C 6.1300 0.4050 

*CAP
0 *12:s 3.38622e-18

*RES
0 *14:d *12:s 0.001  // $mwires

*END

*D_NET *55 4.06794e-18

*CONN
*I *8:d B *C 5.7375 0.4050 
*I *10:s B *C 5.7375 0.4050 

*CAP
0 *8:d 4.06794e-18

*RES
0 *10:s *8:d 0.001  // $mwires

*END

*D_NET *53 2.15595e-18

*CONN
*I *1:d B *C 3.8350 0.5475 
*I *2:s B *C 3.8350 0.5475 

*CAP
0 *1:d 2.15595e-18

*RES
0 *2:s *1:d 0.001  // $mwires

*END

*D_NET *52 4.92169e-19

*CONN
*I *62:d B *C 3.1550 0.5475 
*I *63:s B *C 3.1550 0.5475 

*CAP
0 *62:d 4.92169e-19

*RES
0 *63:s *62:d 0.001  // $mwires

*END

*D_NET *51 1.21214e-19

*CONN
*I *59:d B *C 2.0600 0.5025 
*I *60:s B *C 2.0600 0.5025 

*CAP
0 *59:d 1.21214e-19

*RES
0 *60:s *59:d 0.001  // $mwires

*END

*D_NET *48 6.39724e-18

*CONN
*I *59:s B *C 1.8650 0.5025 
*I *70:d B *C 1.8650 0.5025 

*CAP
0 *59:s 6.39724e-18

*RES
0 *70:d *59:s 0.001  // $mwires

*END

*D_NET *47 1.74825e-18

*CONN
*I *18:s B *C 6.2650 1.1800 
*I *19:d B *C 6.2650 1.1800 

*CAP
0 *18:s 1.74825e-18

*RES
0 *19:d *18:s 0.001  // $mwires

*END

*D_NET *46 1.34981e-17

*CONN
*I *16:d B *C 5.8425 1.1800 
*I *17:s B *C 5.8425 1.1800 

*CAP
0 *16:d 1.34981e-17

*RES
0 *17:s *16:d 0.001  // $mwires

*END

*D_NET *45 3.85185e-18

*CONN
*I *5:d B *C 3.7350 1.3100 
*I *7:s B *C 3.7350 1.3100 

*CAP
0 *5:d 3.85185e-18

*RES
0 *7:s *5:d 0.001  // $mwires

*END

*D_NET *44 8.53418e-16

*CONN
*I *2:g B *C 3.9075 0.5475 
*I *4:d B *C 4.6550 0.5875 
*I *61:g B *C 2.4125 0.5025 
*I *9:g B *C 4.1025 1.3100 
*I *11:d B *C 4.5300 1.0075 
*I *25:g B *C 2.4125 1.0550 
*N *44:3 *C 2.4400 1.3950 
*N *44:5 *C 4.1400 1.0550 
*N *44:9 *C 4.5200 1.0550 
*N *44:10 *C 4.1400 1.4050 

*CAP
0 *25:g 4.88565e-17
1 *11:d 1.11914e-16
2 *9:g 2.75353e-17
3 *61:g 3.95328e-17
4 *4:d 6.89255e-17
5 *2:g 5.95953e-17
6 *44:10 1.85063e-16
7 *44:3 2.07548e-16
8 *44:5 1.04447e-16

*RES
0 *25:g *61:g 75.641029  // $poly_conn
1 *25:g *44:3 83.922722  // $poly_conn
2 *9:g *44:5 16.15522  // $poly_conn
3 *44:5 *2:g 127.618301  // $poly_conn
4 *4:d *44:9 75.427528  // $metal1_conn
5 *44:9 *44:10 0.543397  // $metal1_conn
6 *44:10 *44:3 1.228893  // $metal1_conn
7 *44:10 *44:5 45.256672  // $metal1_conn
8 *11:d *44:9 62  // $metal1_conn

*END

*D_NET *43 7.45465e-16

*CONN
*I *3:s B *C 4.3025 0.5475 
*I *10:d B *C 5.9300 0.4050 
*I *12:d B *C 5.9300 0.4050 
*I *9:s B *C 4.2425 1.3100 
*I *17:d B *C 6.1100 1.1800 
*I *18:d B *C 6.1100 1.1800 
*N *43:2 *C 5.6750 0.4950 
*N *43:4 *C 4.3600 0.5050 

*CAP
0 *17:d 1.15407e-16
1 *9:s 1.06553e-16
2 *10:d 3.988e-17
3 *3:s 2.04022e-16
4 *43:2 2.79604e-16

*RES
0 *10:d *43:2 75.267395  // $metal1_conn
1 *43:2 *43:4 1.197321  // $metal1_conn
2 *43:4 *9:s 62.531506  // $metal1_conn
3 *43:2 *17:d 62.855148  // $metal1_conn
4 *3:s *43:4 75  // $metal1_conn

*END

*D_NET *41 5.57741e-16

*CONN
*I *60:d B *C 2.2675 0.5025 
*I *61:d B *C 2.2675 0.5025 
*I *68:g B *C 1.2275 0.5025 
*I *69:g B *C 1.4675 0.5025 
*I *25:d B *C 2.5150 1.0550 
*I *26:d B *C 2.5150 1.0550 
*I *34:g B *C 1.2275 1.1200 
*I *36:g B *C 1.4675 1.1200 
*N *41:8 *C 2.3400 0.8950 

*CAP
0 *36:g 3.18922e-16
1 *25:d 4.38013e-17
2 *60:d 6.27851e-17
3 *41:8 1.32232e-16

*RES
0 *41:8 *36:g 45.842697  // $metal1_conn
1 *41:8 *25:d 62.19656  // $metal1_conn
2 *60:d *41:8 75.230133  // $metal1_conn

*END

*D_NET *40 5.82556e-16

*CONN
*I *1:g B *C 3.7625 0.5475 
*I *61:s B *C 2.5125 0.5025 
*I *63:d B *C 3.3000 0.5475 
*I *5:g B *C 3.6525 1.3100 
*I *26:s B *C 2.7100 1.0550 
*I *27:d B *C 3.2850 1.3100 
*I *28:d B *C 3.2850 1.3100 
*N *40:2 *C 3.5700 0.8550 
*N *40:4 *C 3.3400 0.8550 
*N *40:5 *C 3.2550 0.8550 
*N *40:6 *C 2.7200 0.8550 

*CAP
0 *27:d 5.77986e-17
1 *26:s 2.18246e-17
2 *5:g 7.82599e-17
3 *63:d 4.97167e-17
4 *61:s 7.45363e-17
5 *1:g 5.31991e-17
6 *40:6 7.49134e-17
7 *40:5 6.86035e-17
8 *40:4 1.90164e-17
9 *40:2 8.46877e-17

*RES
0 *1:g *40:2 74.530586  // $poly_conn
1 *40:2 *5:g 70.684433  // $poly_conn
2 *40:2 *40:4 45.187523  // $metal1_conn
3 *40:4 *40:5 0.078416  // $metal1_conn
4 *40:5 *40:6 0.41997  // $metal1_conn
5 *40:6 *61:s 75.354271  // $metal1_conn
6 *40:4 *63:d 75.176971  // $metal1_conn
7 *40:5 *27:d 62.266724  // $metal1_conn
8 *40:6 *26:s 62.056194  // $metal1_conn

*END

*D_NET *39 6.44369e-16

*CONN
*I *10:g B *C 5.8275 0.4050 
*I *58:d B *C 6.7575 0.4525 
*I *18:g B *C 6.2125 1.1800 
*I *23:d B *C 6.7900 1.0075 
*N *39:2 *C 5.8650 0.6550 
*N *39:4 *C 6.1550 0.8850 
*N *39:5 *C 5.8950 0.8850 

*CAP
0 *23:d 1.0147e-16
1 *18:g 7.15565e-17
2 *58:d 1.07424e-16
3 *10:g 4.91916e-17
4 *39:5 9.7816e-17
5 *39:2 1.40602e-16
6 *39:4 7.63091e-17

*RES
0 *10:g *39:2 66.283424  // $poly_conn
1 *18:g *39:4 65.156593  // $poly_conn
2 *39:4 *39:5 0.190196  // $metal1_conn
3 *39:5 *39:2 0.170889  // $metal1_conn
4 *39:5 *23:d 62.843494  // $metal1_conn
5 *39:2 *58:d 75.704384  // $metal1_conn

*END

*D_NET *37 6.40839e-16

*CONN
*I *59:g B *C 1.9975 0.5025 
*I *64:g B *C 0.3625 0.5300 
*I *65:g B *C 0.5675 0.5300 
*I *66:g B *C 0.7725 0.5300 
*I *67:g B *C 0.9775 0.5300 
*I *68:d B *C 1.3475 0.5025 
*I *69:d B *C 1.3475 0.5025 
*I *24:g B *C 1.9975 1.1200 
*I *29:g B *C 0.3625 1.1600 
*I *30:g B *C 0.5675 1.1600 
*I *31:g B *C 0.7725 1.1600 
*I *32:g B *C 0.9825 1.1600 
*I *34:d B *C 1.3475 1.1200 
*I *36:d B *C 1.3475 1.1200 
*N *37:14 *C 1.9600 0.7050 
*N *37:17 *C 1.3300 0.5150 
*N *37:18 *C 1.2400 0.7850 

*CAP
0 *34:d 5.98878e-17
1 *32:g 2.42192e-16
2 *24:g 4.55389e-17
3 *68:d 9.52127e-17
4 *59:g 4.22065e-17
5 *37:18 3.37118e-17
6 *37:14 1.22089e-16

*RES
0 *24:g *37:14 57.180859  // $poly_conn
1 *37:14 *59:g 16.15522  // $poly_conn
2 *37:14 *37:17 45.579212  // $metal1_conn
3 *37:18 *32:g 45.133045  // $metal1_conn
4 *37:18 *34:d 31.296354  // $metal1_conn
5 *68:d *37:17 75  // $metal1_conn
6 *37:17 *37:18 0.229347  // $metal1_conn

*END

*D_NET *35 4.477e-16

*CONN
*I *2:d B *C 4.0350 0.5475 
*I *3:d B *C 4.0350 0.5475 
*I *63:g B *C 3.2075 0.5475 
*I *7:d B *C 3.9600 1.3100 
*I *9:d B *C 3.9600 1.3100 
*I *28:g B *C 3.3875 1.3100 
*N *35:2 *C 3.4150 1.0450 
*N *35:5 *C 3.9800 1.0750 

*CAP
0 *28:g 4.79084e-17
1 *7:d 3.69335e-17
2 *63:g 7.63128e-17
3 *2:d 7.52945e-17
4 *35:5 8.47589e-17
5 *35:2 1.26492e-16

*RES
0 *28:g *35:2 19.691952  // $poly_conn
1 *35:2 *63:g 127.094696  // $poly_conn
2 *7:d *35:5 62.101116  // $metal1_conn
3 *35:5 *35:2 45.382557  // $metal1_conn
4 *35:5 *2:d 75.376709  // $metal1_conn

*END

*D_NET *33 1.30893e-15

*CONN
*I *3:g B *C 4.1625 0.5475 
*I *4:g B *C 4.7475 0.5875 
*I *6:d B *C 5.2275 0.4625 
*I *60:g B *C 2.1225 0.5025 
*I *7:g B *C 3.8175 1.3100 
*I *11:g B *C 4.6225 1.0075 
*I *13:d B *C 5.2800 1.0925 
*I *26:g B *C 2.6175 1.0550 
*N *33:2 *C 2.1500 0.7150 
*N *33:3 *C 2.8000 0.6950 
*N *33:6 *C 3.7900 0.9150 
*N *33:8 *C 4.7100 0.7600 
*N *33:9 *C 4.6225 0.7600 
*N *33:10 *C 4.2000 0.7500 
*N *33:13 *C 3.8200 0.6950 
*N *33:15 *C 4.8850 0.7600 

*CAP
0 *26:g 5.20944e-17
1 *13:d 5.99481e-17
2 *11:g 1.76678e-17
3 *7:g 5.05916e-17
4 *60:g 5.34438e-17
5 *6:d 8.68525e-17
6 *4:g 1.34156e-17
7 *3:g 2.16598e-17
8 *33:15 7.75002e-17
9 *33:13 1.96502e-16
10 *33:9 1.49856e-17
11 *33:2 1.52459e-16
12 *33:3 2.61963e-16
13 *33:6 8.40941e-17
14 *33:10 1.35095e-16
15 *33:8 3.06549e-17

*RES
0 *60:g *33:2 64.691956  // $poly_conn
1 *33:3 *26:g 119.343773  // $poly_conn
2 *7:g *33:6 98.025284  // $poly_conn
3 *4:g *33:8 16.15522  // $poly_conn
4 *33:8 *33:9 6.496478  // $poly_conn
5 *33:9 *33:10 96.832947  // $poly_conn
6 *33:10 *3:g 16.15522  // $poly_conn
7 *33:9 *11:g 26.083183  // $poly_conn
8 *33:10 *33:13 45.713921  // $metal1_conn
9 *33:13 *33:3 1.094512  // $metal1_conn
10 *33:3 *33:2 0.910212  // $metal1_conn
11 *33:13 *33:6 0.17159  // $metal1_conn
12 *6:d *33:15 75.424599  // $metal1_conn
13 *33:15 *33:8 45.096447  // $metal1_conn
14 *33:15 *13:d 62.46175  // $metal1_conn

*END

*D_NET *50 1.64923e-16

*CONN
*I *24:d B *C 1.8300 1.1200 
*I *25:s B *C 2.3400 1.0550 
*I *38:d B *C 1.8300 1.1200 

*CAP
0 *25:s 8.4568e-17
1 *24:d 8.03548e-17

*RES
0 *25:s *24:d 124.276711  // $metal1_conn

*END

