*SPEF "IEEE 1481-1999"
*DESIGN  "SDFFRX1"
*DATE "Mon Sep 27 11:02:53 2010"
*VENDOR "Cadence Design Systems"
*PROGRAM "Assura RCX"
*VERSION "3.2 Red Hat Linux release 7.2 (Enigma) - (09/09/2009-10:39)"
*DESIGN_FLOW "Physical Verification"
*DIVIDER /
*DELIMITER :
*BUS_DELIMITER []
*T_UNIT 1 PS
*C_UNIT 1e15 FF
*R_UNIT 1 OHM
*L_UNIT 1 MH
// DeviceFingerDelim "@"
// MATCHED
// caps2d version: 10

*NAME_MAP
*1 mp10
*2 mp57
*3 mp56
*4 CK
*5 mp55
*6 mp20
*7 mp46
*8 mp45
*9 mp50
*10 mp51
*11 mp40
*12 mp30
*13 VDD
*14 mn35
*15 mn36
*16 mn37
*17 mn25
*18 QN
*19 mn21
*20 mn11
*21 mn12
*22 mp35
*23 mn14
*24 mp36
*25 mn13
*26 mp37
*27 mp25
*28 mp21
*29 mp11
*30 mp12
*31 mp14
*32 mp13
*33 RN
*34 SEb
*35 n6
*36 Db
*37 mout
*38 n20
*39 SE
*40 Ckbb
*41 n30
*42 D
*43 CKb
*44 qbint
*45 SI
*46 qint
*47 n8
*48 n2
*49 n4
*50 Q
*51 n9
*52 mn10
*53 n11
*54 mn57
*55 n7
*56 mn56
*57 n5
*58 mn55
*59 n1
*60 mn20
*61 n3
*62 mn46
*63 VSS
*64 mn45
*65 mn50
*66 mn51
*67 mn40
*68 mn30

*GROUND_NETS VSS

*PORTS
*13 I
*63 I
*4 I
*42 I
*33 I
*39 I
*45 I
*50 O
*18 O

*D_NET *13 7.52217e-16

*CONN
*P *13 I *C 0.1000 1.7100 
*I *22:s B *C 3.3450 1.0425 
*I *24:s B *C 3.7550 1.4100 
*I *28:s B *C 4.8500 1.5700 
*I *29:s B *C 4.8500 1.5700 
*I *32:s B *C 5.8150 1.0825 
*I *1:s B *C 5.8150 1.0825 
*I *2:s B *C 0.5200 1.3450 
*I *3:s B *C 0.5200 1.3450 
*I *5:s B *C 1.2100 1.0475 
*I *6:s B *C 1.2100 1.0475 
*I *7:s B *C 1.8050 1.5700 
*I *8:s B *C 2.2650 1.0425 
*I *9:s B *C 2.2650 1.0425 
*I *12:s B *C 3.3450 1.0425 
*N *13:2 *C 5.3000 1.7100 
*N *13:3 *C 5.3000 1.7100 
*N *13:4 *C 4.8250 1.7100 
*N *13:5 *C 3.7000 1.7100 
*N *13:6 *C 3.2000 1.7100 
*N *13:7 *C 2.1800 1.7100 
*N *13:8 *C 1.7800 1.7100 
*N *13:9 *C 1.1000 1.7100 
*N *13:10 *C 0.4950 1.7100 

*CAP
0 *8:s 2.2278e-17
1 *7:s 9.10048e-18
2 *5:s 3.93525e-17
3 *2:s 1.71637e-17
4 *32:s 3.23711e-17
5 *28:s 7.71159e-18
6 *24:s 3.90947e-17
7 *22:s 2.22621e-17
8 *13:10 8.41762e-18
9 *13:8 1.77087e-17
10 *13:7 3.47957e-17
11 *13:5 2.87769e-17
12 *13:4 3.29821e-17
13 *13:2 4.31917e-16
14 *13 8.28491e-18

*RES
0 *32:s *13:3 62.600697  // $metal1_conn
1 *13:3 *13:4 0.238008  // $metal1_conn
2 *13:4 *13:5 0.563776  // $metal1_conn
3 *13:5 *13:6 0.251774  // $metal1_conn
4 *13:6 *13:7 0.510367  // $metal1_conn
5 *13:7 *13:8 0.199251  // $metal1_conn
6 *13:8 *13:9 0.341273  // $metal1_conn
7 *13:9 *13:10 0.303355  // $metal1_conn
8 *13:10 *13 0.197639  // $metal1_conn
9 *13:4 *28:s 62.074623  // $metal1_conn
10 *13:5 *24:s 62.177715  // $metal1_conn
11 *13:6 *22:s 62.060673  // $metal1_conn
12 *13:7 *8:s 62.045818  // $metal1_conn
13 *13:8 *7:s 62.074623  // $metal1_conn
14 *13:9 *5:s 62.294094  // $metal1_conn
15 *13:10 *2:s 62.22477  // $metal1_conn
16 *13:2 *13:3 6.818182  // $metal1_conn
17 *13:2 *13:6 7.5  // $metal1_conn
18 *13:2 *13:9 6.818182  // $metal1_conn

*END

*D_NET *63 0

*CONN
*P *63 I *C 0.1000 0.0000 
*I *14:s B *C 3.4450 0.4275 
*I *19:s B *C 4.7550 0.3475 
*I *20:s B *C 4.7550 0.3475 
*I *25:s B *C 5.8150 0.3475 
*I *52:s B *C 5.8150 0.3475 
*I *54:s B *C 0.5275 0.5875 
*I *56:s B *C 0.5275 0.5875 
*I *58:s B *C 1.2025 0.5875 
*I *60:s B *C 1.2025 0.5875 
*I *64:s B *C 2.2650 0.4275 
*I *65:s B *C 2.2650 0.4275 
*I *68:s B *C 3.4450 0.4275 
*N *63:2 *C 4.7550 0.0000 
*N *63:3 *C 3.3900 0.0000 
*N *63:4 *C 3.2000 0.0000 
*N *63:5 *C 3.2000 0.0000 
*N *63:6 *C 2.1800 0.0000 
*N *63:7 *C 1.1000 0.0000 
*N *63:8 *C 0.4950 0.0000 
*N *63:9 *C 5.3000 0.0000 


*RES
0 *19:s *63:2 75.204971  // $metal1_conn
1 *63:2 *63:3 0.683721  // $metal1_conn
2 *63:3 *63:5 0.095086  // $metal1_conn
3 *63:5 *63:6 0.511317  // $metal1_conn
4 *63:6 *63:7 0.541405  // $metal1_conn
5 *63:7 *63:8 0.303201  // $metal1_conn
6 *63:8 *63 0.197639  // $metal1_conn
7 *63:2 *63:9 0.272701  // $metal1_conn
8 *63:9 *25:s 75.418785  // $metal1_conn
9 *63:3 *14:s 75.117203  // $metal1_conn
10 *63:6 *64:s 75.151367  // $metal1_conn
11 *63:7 *58:s 75.299637  // $metal1_conn
12 *63:8 *54:s 75.074623  // $metal1_conn
13 *63:4 *63:5 6.2  // $metal1_conn
14 *63:4 *63:7 5.636364  // $metal1_conn
15 *63:4 *63:9 5.636364  // $metal1_conn

*END

*D_NET *4 1.89075e-16

*CONN
*P *4 I *C 1.1000 1.0450 
*I *60:g B *C 1.2675 0.5875 
*I *6:g B *C 1.2675 1.0475 
*N *4:2 *C 1.2400 0.8100 

*CAP
0 *6:g 2.91742e-17
1 *60:g 3.30234e-17
2 *4:2 6.57118e-17
3 *4 6.11659e-17

*RES
0 *6:g *4:2 24.820158  // $poly_conn
1 *4:2 *60:g 29.94836  // $poly_conn
2 *4:2 *4 45.18401  // $metal1_conn

*END

*D_NET *42 2.24013e-16

*CONN
*P *42 I *C 4.7000 0.6650 
*I *20:g B *C 4.8575 0.3475 
*I *29:g B *C 4.8875 1.0825 
*N *42:2 *C 4.8200 0.5250 

*CAP
0 *29:g 5.8453e-17
1 *20:g 2.45072e-17
2 *42:2 8.77905e-17
3 *42 5.3262e-17

*RES
0 *29:g *42:2 113.058426  // $poly_conn
1 *42:2 *20:g 17.437269  // $poly_conn
2 *42:2 *42 45.135544  // $metal1_conn

*END

*D_NET *33 7.84654e-16

*CONN
*P *33 I *C 1.9000 0.8550 
*I *14:g B *C 3.4925 0.4275 
*I *64:g B *C 2.0475 0.4275 
*I *22:g B *C 3.3925 1.0425 
*I *8:g B *C 2.0475 1.0425 
*N *33:2 *C 2.0850 0.7650 
*N *33:4 *C 2.0200 1.4100 
*N *33:7 *C 3.4200 1.4100 

*CAP
0 *8:g 3.93088e-17
1 *22:g 6.76995e-17
2 *64:g 5.19581e-17
3 *14:g 8.65411e-17
4 *33:4 1.86446e-16
5 *33:2 7.8169e-17
6 *33:7 1.89087e-16
7 *33 8.54446e-17

*RES
0 *64:g *33:2 58.462914  // $poly_conn
1 *33:2 *8:g 34.103935  // $poly_conn
2 *8:g *33:4 103.153488  // $poly_conn
3 *14:g *22:g 125.351456  // $poly_conn
4 *22:g *33:7 103.153488  // $poly_conn
5 *33:2 *33 45.12434  // $metal1_conn
6 *33:7 *33:4 1.060276  // $metal1_conn

*END

*D_NET *39 5.3175e-16

*CONN
*P *39 I *C 6.1000 0.6650 
*I *23:g B *C 5.4625 0.3475 
*I *52:g B *C 6.0625 0.3475 
*I *30:g B *C 5.1975 1.0825 
*I *1:g B *C 6.0625 1.0825 
*N *39:2 *C 5.1700 0.7350 
*N *39:4 *C 5.4350 0.6650 
*N *39:6 *C 6.0900 0.5300 
*N *39:8 *C 6.0900 0.5300 

*CAP
0 *1:g 3.25143e-17
1 *30:g 3.82006e-17
2 *52:g 1.65848e-17
3 *23:g 6.71989e-17
4 *39:2 8.27509e-17
5 *39:4 1.55735e-16
6 *39:6 1.00132e-16
7 *39 3.86345e-17

*RES
0 *30:g *39:2 98.025284  // $poly_conn
1 *23:g *39:4 99.307335  // $poly_conn
2 *1:g *39:6 105.589386  // $poly_conn
3 *39:6 *52:g 19.691952  // $poly_conn
4 *39 *39:8 0.095277  // $metal1_conn
5 *39:8 *39:4 0.587506  // $metal1_conn
6 *39:4 *39:2 0.178115  // $metal1_conn
7 *39:6 *39:8 45  // $metal1_conn

*END

*D_NET *45 2.68348e-16

*CONN
*P *45 I *C 5.7000 0.6650 
*I *25:g B *C 5.5675 0.3475 
*I *32:g B *C 5.5675 1.0825 
*N *45:2 *C 5.5950 0.6850 

*CAP
0 *32:g 4.18142e-17
1 *25:g 5.54307e-17
2 *45:2 9.74689e-17
3 *45 7.36344e-17

*RES
0 *32:g *45:2 65.845795  // $poly_conn
1 *45:2 *25:g 59.435539  // $poly_conn
2 *45 *45:2 45.044502  // $metal1_conn

*END

*D_NET *50 1.37239e-16

*CONN
*P *50 O *C 0.9000 0.6650 
*I *58:d B *C 0.9050 0.5300 
*I *5:d B *C 0.9200 1.1350 

*CAP
0 *5:d 7.05682e-17
1 *58:d 6.66704e-17

*RES
0 *5:d *50 21.030722  // $metal1_conn
1 *50 *58:d 75.051033  // $metal1_conn

*END

*D_NET *18 8.0259e-17

*CONN
*P *18 O *C 0.1000 0.6650 
*I *54:d B *C 0.2700 0.5300 
*I *2:d B *C 0.2700 1.0950 
*N *18:3 *C 0.2600 0.6000 

*CAP
0 *2:d 3.30326e-17
1 *54:d 2.58245e-17
2 *18 2.14019e-17

*RES
0 *2:d *18:3 20.972382  // $metal1_conn
1 *18:3 *18 0.075859  // $metal1_conn
2 *54:d *18:3 75  // $metal1_conn

*END

*D_NET *61 0

*CONN
*I *23:s B *C 5.5150 0.3475 
*I *25:d B *C 5.5150 0.3475 


*RES
0 *25:d *23:s 0.001  // $mwires

*END

*D_NET *59 8.05836e-18

*CONN
*I *20:d B *C 5.0575 0.3475 
*I *21:s B *C 5.0575 0.3475 

*CAP
0 *20:d 8.05836e-18

*RES
0 *21:s *20:d 0.001  // $mwires

*END

*D_NET *57 0

*CONN
*I *15:d B *C 3.6875 0.4275 
*I *16:s B *C 3.6875 0.4275 


*RES
0 *16:s *15:d 0.001  // $mwires

*END

*D_NET *55 7.275e-19

*CONN
*I *14:d B *C 3.5450 0.4275 
*I *15:s B *C 3.5450 0.4275 

*CAP
0 *14:d 7.275e-19

*RES
0 *15:s *14:d 0.001  // $mwires

*END

*D_NET *53 4.3626e-18

*CONN
*I *65:d B *C 2.4025 0.4275 
*I *66:s B *C 2.4025 0.4275 

*CAP
0 *65:d 4.3626e-18

*RES
0 *66:s *65:d 0.001  // $mwires

*END

*D_NET *51 2.50111e-18

*CONN
*I *62:s B *C 1.9725 0.4275 
*I *64:d B *C 1.9725 0.4275 

*CAP
0 *62:s 2.50111e-18

*RES
0 *64:d *62:s 0.001  // $mwires

*END

*D_NET *49 0

*CONN
*I *31:s B *C 5.4850 1.0825 
*I *32:d B *C 5.4850 1.0825 


*RES
0 *32:d *31:s 0.001  // $mwires

*END

*D_NET *48 8.05205e-18

*CONN
*I *29:d B *C 5.0425 1.0825 
*I *30:s B *C 5.0425 1.0825 

*CAP
0 *29:d 8.05205e-18

*RES
0 *30:s *29:d 0.001  // $mwires

*END

*D_NET *47 2.80824e-18

*CONN
*I *9:d B *C 2.4275 1.0425 
*I *10:s B *C 2.4275 1.0425 

*CAP
0 *9:d 2.80824e-18

*RES
0 *10:s *9:d 0.001  // $mwires

*END

*D_NET *46 1.99775e-16

*CONN
*I *54:g B *C 0.3625 0.5300 
*I *56:d B *C 0.6850 0.5875 
*I *2:g B *C 0.3625 1.0950 
*I *3:d B *C 0.6850 1.0075 
*N *46:1 *C 0.4500 0.7600 
*N *46:2 *C 0.3625 0.7600 
*N *46:6 *C 0.6850 0.7700 

*CAP
0 *3:d 2.39722e-17
1 *2:g 4.23969e-17
2 *56:d 2.35418e-17
3 *54:g 3.52227e-17
4 *46:6 2.63114e-17
5 *46:2 6.56262e-18
6 *46:1 4.17671e-17

*RES
0 *46:1 *46:2 48.890118  // $poly_conn
1 *46:2 *54:g 20.563484  // $poly_conn
2 *46:2 *2:g 30.819893  // $poly_conn
3 *3:d *46:6 62.117722  // $metal1_conn
4 *46:6 *46:1 0.122474  // $metal1_conn
5 *46:6 *56:d 75.109665  // $metal1_conn

*END

*D_NET *44 7.90635e-16

*CONN
*I *56:g B *C 0.5925 0.5875 
*I *58:g B *C 0.9975 0.5300 
*I *62:d B *C 1.7475 0.4275 
*I *65:g B *C 2.3125 0.4275 
*I *3:g B *C 0.5925 1.0075 
*I *5:g B *C 1.0125 1.1350 
*I *7:d B *C 1.9450 1.0425 
*I *8:d B *C 1.9450 1.0425 
*I *9:g B *C 2.3125 1.0425 
*N *44:2 *C 1.0050 0.7600 
*N *44:3 *C 0.5925 0.7875 
*N *44:6 *C 1.0700 0.7600 
*N *44:9 *C 2.2850 0.6350 
*N *44:12 *C 1.6750 0.6050 
*N *44:14 *C 1.6800 0.4400 

*CAP
0 *9:g 5.1814e-17
1 *7:d 9.5421e-17
2 *5:g 3.74613e-17
3 *3:g 3.02067e-17
4 *65:g 3.83636e-17
5 *62:d 7.26702e-17
6 *58:g 2.82273e-17
7 *56:g 3.05431e-17
8 *44:12 1.11036e-16
9 *44:3 2.78204e-17
10 *44:2 3.4598e-17
11 *44:6 9.95242e-17
12 *44:9 1.32949e-16

*RES
0 *5:g *44:2 45.497467  // $poly_conn
1 *44:2 *44:3 97.082932  // $poly_conn
2 *44:3 *56:g 31.15753  // $poly_conn
3 *44:2 *58:g 24.984648  // $poly_conn
4 *44:2 *44:6 48.781528  // $poly_conn
5 *44:3 *3:g 27.311375  // $poly_conn
6 *9:g *44:9 68.409897  // $poly_conn
7 *44:9 *65:g 26.102209  // $poly_conn
8 *7:d *44:12 62.562119  // $metal1_conn
9 *44:12 *44:14 0.115156  // $metal1_conn
10 *44:14 *44:6 0.671852  // $metal1_conn
11 *44:12 *44:9 45.44949  // $metal1_conn
12 *62:d *44:14 75  // $metal1_conn

*END

*D_NET *43 1.23849e-15

*CONN
*I *17:g B *C 3.9825 0.4275 
*I *19:g B *C 4.6525 0.3475 
*I *60:d B *C 1.4150 0.5875 
*I *66:g B *C 2.4925 0.4275 
*I *26:g B *C 3.9625 1.0075 
*I *28:g B *C 4.6625 1.0825 
*I *6:d B *C 1.3800 1.0475 
*I *11:g B *C 2.8425 1.0425 
*N *43:2 *C 2.4550 0.7050 
*N *43:4 *C 2.8050 0.8350 
*N *43:7 *C 3.9500 1.2800 
*N *43:10 *C 4.6350 1.3550 
*N *43:11 *C 2.8350 1.2500 
*N *43:12 *C 2.4550 1.2500 
*N *43:14 *C 1.4100 1.0300 

*CAP
0 *11:g 3.38761e-17
1 *6:d 1.27231e-16
2 *28:g 5.55642e-17
3 *26:g 4.99319e-17
4 *66:g 4.32313e-17
5 *60:d 6.16878e-17
6 *19:g 5.51524e-17
7 *17:g 4.41171e-17
8 *43:12 1.58573e-16
9 *43:11 1.28545e-16
10 *43:2 1.14148e-16
11 *43:4 9.36942e-17
12 *43:7 1.74535e-16
13 *43:10 9.8199e-17

*RES
0 *66:g *43:2 88.078293  // $poly_conn
1 *11:g *43:4 61.15522  // $poly_conn
2 *17:g *26:g 100.245361  // $poly_conn
3 *26:g *43:7 76.501236  // $poly_conn
4 *19:g *28:g 140.681061  // $poly_conn
5 *28:g *43:10 76.501236  // $poly_conn
6 *43:10 *43:7 0.554311  // $metal1_conn
7 *43:7 *43:11 0.805659  // $metal1_conn
8 *43:11 *43:12 0.298887  // $metal1_conn
9 *43:12 *43:14 0.914555  // $metal1_conn
10 *43:11 *43:4 0.285995  // $metal1_conn
11 *43:12 *43:2 0.373456  // $metal1_conn
12 *43:14 *60:d 75.33667  // $metal1_conn
13 *6:d *43:14 62  // $metal1_conn

*END

*D_NET *41 4.06745e-16

*CONN
*I *62:g B *C 1.8975 0.4275 
*I *66:d B *C 2.6150 0.4275 
*I *67:s B *C 2.6150 0.4275 
*I *7:g B *C 1.8425 1.0425 
*I *10:d B *C 2.6925 1.0425 
*I *11:d B *C 2.6925 1.0425 
*N *41:1 *C 1.8600 0.2500 
*N *41:5 *C 2.6150 0.4150 

*CAP
0 *10:d 7.96918e-17
1 *7:g 4.87674e-17
2 *66:d 1.19074e-16
3 *62:g 4.44476e-17
4 *41:1 1.14765e-16

*RES
0 *41:1 *62:g 62.437271  // $poly_conn
1 *62:g *7:g 113.813004  // $poly_conn
2 *41:5 *41:1 0.649431  // $metal1_conn
3 *41:5 *10:d 62.453072  // $metal1_conn
4 *66:d *41:5 75  // $metal1_conn

*END

*D_NET *40 8.27731e-16

*CONN
*I *16:g B *C 3.7775 0.4275 
*I *19:d B *C 4.4700 0.3475 
*I *67:g B *C 2.7375 0.4275 
*I *27:g B *C 4.1675 1.0075 
*I *28:d B *C 4.5700 1.0825 
*I *10:g B *C 2.5425 1.0425 
*N *40:2 *C 2.7750 0.6000 
*N *40:5 *C 3.7400 0.2500 
*N *40:6 *C 4.3700 0.7100 
*N *40:9 *C 4.3700 0.3600 

*CAP
0 *10:g 6.18649e-17
1 *28:d 7.46511e-17
2 *27:g 4.51314e-17
3 *67:g 2.16557e-17
4 *19:d 1.0986e-16
5 *16:g 6.81817e-17
6 *40:2 1.73743e-16
7 *40:5 2.11337e-16
8 *40:6 6.13058e-17

*RES
0 *67:g *40:2 16.15522  // $poly_conn
1 *40:2 *10:g 109.669579  // $poly_conn
2 *16:g *40:5 62.437271  // $poly_conn
3 *40:6 *27:g 124.162552  // $poly_conn
4 *40:6 *40:9 0.263586  // $metal1_conn
5 *40:9 *40:5 0.558247  // $metal1_conn
6 *40:5 *40:2 46.122894  // $metal1_conn
7 *40:9 *28:d 62.541485  // $metal1_conn
8 *19:d *40:9 75  // $metal1_conn

*END

*D_NET *38 4.21055e-16

*CONN
*I *16:d B *C 3.8800 0.4275 
*I *17:s B *C 3.8800 0.4275 
*I *68:g B *C 3.1775 0.4275 
*I *26:d B *C 4.0650 1.0075 
*I *27:d B *C 4.0650 1.0075 
*I *12:g B *C 3.1275 1.0425 
*N *38:2 *C 3.2150 0.7900 
*N *38:5 *C 3.8800 0.8200 
*N *38:7 *C 4.0650 1.0550 

*CAP
0 *12:g 4.24893e-17
1 *26:d 4.85526e-17
2 *68:g 3.87581e-17
3 *16:d 4.93421e-17
4 *38:5 1.08636e-16
5 *38:2 1.33277e-16

*RES
0 *68:g *38:2 64.873169  // $poly_conn
1 *38:2 *12:g 35.600178  // $poly_conn
2 *16:d *38:5 75.249802  // $metal1_conn
3 *38:5 *38:7 0.296377  // $metal1_conn
4 *38:5 *38:2 45.518665  // $metal1_conn
5 *26:d *38:7 62  // $metal1_conn

*END

*D_NET *37 3.99852e-16

*CONN
*I *15:g B *C 3.5975 0.4275 
*I *67:d B *C 2.9575 0.4275 
*I *68:d B *C 2.9575 0.4275 
*I *24:g B *C 3.5975 1.0425 
*I *11:s B *C 2.9850 1.0425 
*I *12:d B *C 2.9850 1.0425 
*N *37:2 *C 3.6350 0.6000 
*N *37:4 *C 3.0325 0.6000 

*CAP
0 *11:s 6.01183e-17
1 *24:g 5.59981e-17
2 *67:d 2.95312e-17
3 *15:g 5.73202e-17
4 *37:4 7.63393e-17
5 *37:2 1.20545e-16

*RES
0 *24:g *37:2 76.411629  // $poly_conn
1 *37:2 *15:g 16.15522  // $poly_conn
2 *37:2 *37:4 45.455841  // $metal1_conn
3 *37:4 *67:d 75.104218  // $metal1_conn
4 *37:4 *11:s 62.2127  // $metal1_conn

*END

*D_NET *36 4.92274e-16

*CONN
*I *17:d B *C 4.0750 0.4275 
*I *21:d B *C 5.3600 0.3475 
*I *23:d B *C 5.3600 0.3475 
*I *27:s B *C 4.2600 1.0075 
*I *30:d B *C 5.3000 1.0825 
*I *31:d B *C 5.3000 1.0825 
*N *36:2 *C 5.0100 1.1000 
*N *36:4 *C 4.2700 0.9600 

*CAP
0 *30:d 2.87795e-17
1 *27:s 1.47619e-16
2 *21:d 9.4895e-17
3 *17:d 7.38754e-17
4 *36:2 1.47106e-16

*RES
0 *21:d *36:2 75.760979  // $metal1_conn
1 *36:2 *36:4 0.759711  // $metal1_conn
2 *36:4 *17:d 75.470749  // $metal1_conn
3 *36:2 *30:d 62.179565  // $metal1_conn
4 *27:s *36:4 62  // $metal1_conn

*END

*D_NET *35 1.26474e-16

*CONN
*I *22:d B *C 3.4950 1.0425 
*I *24:d B *C 3.4950 1.0425 
*I *26:s B *C 3.8700 1.0075 

*CAP
0 *26:s 6.00567e-17
1 *22:d 6.64173e-17

*RES
0 *26:s *22:d 124.219032  // $metal1_conn

*END

*D_NET *34 3.97268e-16

*CONN
*I *21:g B *C 5.2575 0.3475 
*I *52:d B *C 6.1975 0.3475 
*I *31:g B *C 5.4025 1.0825 
*I *1:d B *C 6.1550 1.0825 
*N *34:2 *C 5.3650 0.8750 
*N *34:5 *C 6.1650 0.9400 

*CAP
0 *1:d 5.65464e-18
1 *31:g 3.73394e-17
2 *52:d 5.6171e-17
3 *21:g 5.73708e-17
4 *34:5 7.94101e-17
5 *34:2 1.61322e-16

*RES
0 *31:g *34:2 16.15522  // $poly_conn
1 *34:2 *21:g 111.968147  // $poly_conn
2 *1:d *34:5 62.05072  // $metal1_conn
3 *34:5 *34:2 45.59322  // $metal1_conn
4 *34:5 *52:d 75.486122  // $metal1_conn

*END

