*SPEF "IEEE 1481-1999"
*DESIGN  "SDFFSRX4"
*DATE "Mon Sep 27 11:08:15 2010"
*VENDOR "Cadence Design Systems"
*PROGRAM "Assura RCX"
*VERSION "3.2 Red Hat Linux release 7.2 (Enigma) - (09/09/2009-10:39)"
*DESIGN_FLOW "Physical Verification"
*DIVIDER /
*DELIMITER :
*BUS_DELIMITER []
*T_UNIT 1 PS
*C_UNIT 1e15 FF
*R_UNIT 1 OHM
*L_UNIT 1 MH
// DeviceFingerDelim "@"
// MATCHED
// caps2d version: 10

*NAME_MAP
*1 VDD
*2 CK
*3 mn55
*4 mn55\@1
*5 mn55\@2
*6 mn57
*7 mn57\@1
*8 mn57\@2
*9 mn57\@3
*10 mn56
*11 mn55\@3
*12 mn40
*13 mn53
*14 mn51
*15 mn52
*16 mn50
*17 mn45
*18 mn45\@1
*19 mn36
*20 mn35
*21 mn21
*22 mp40
*23 mp53
*24 mn31
*25 mp51
*26 mp55
*27 mn32
*28 mp52
*29 mp55\@1
*30 mn30
*31 mp50
*32 mp55\@2
*33 mn22
*34 mp45
*35 mp55\@3
*36 mn10
*37 net573
*38 mp45\@1
*39 mp57
*40 mn13
*41 qbint
*42 mp36
*43 mp57\@1
*44 mn14
*45 n10
*46 mp35
*47 mp57\@2
*48 mn12
*49 n8
*50 D
*51 mp21
*52 mp57\@3
*53 mn11
*54 n11
*55 mp56
*56 mn20
*57 n35
*58 n4
*59 RNb
*60 n20
*61 mp31
*62 mp32
*63 mn25
*64 mp30
*65 mp22
*66 mp10
*67 mout
*68 Q
*69 mp13
*70 CKbb
*71 mp14
*72 CKb
*73 mp12
*74 Db
*75 mp11
*76 SEb
*77 mp20
*78 n3
*79 n1
*80 n7
*81 n5
*82 n9
*83 mp25
*84 n2
*85 n0
*86 n6
*87 QN
*88 VSS
*89 RN
*90 SE
*91 SI
*92 SN

*GROUND_NETS VSS

*PORTS
*1 I
*88 I
*2 I
*50 I
*89 I
*90 I
*91 I
*92 I
*68 O
*87 O

*D_NET *1 1.39336e-15

*CONN
*P *1 I *C 0.1000 1.7100 
*I *26:s B *C 7.2700 1.1100 
*I *29:s B *C 7.6500 1.1100 
*I *32:s B *C 7.6500 1.1100 
*I *35:s B *C 8.0800 1.1100 
*I *39:s B *C 8.0800 1.1100 
*I *43:s B *C 8.5100 1.1100 
*I *47:s B *C 8.5100 1.1100 
*I *52:s B *C 8.9200 1.1100 
*I *55:s B *C 8.9200 1.1100 
*I *25:s B *C 6.1850 1.1975 
*I *31:s B *C 6.7200 1.1500 
*I *34:s B *C 6.7200 1.1500 
*I *38:s B *C 7.2700 1.1100 
*I *46:s B *C 2.9900 1.0625 
*I *51:s B *C 2.9900 1.0625 
*I *61:s B *C 3.6275 1.0725 
*I *64:s B *C 4.5700 1.0075 
*I *65:s B *C 4.5700 1.0075 
*I *66:s B *C 0.4600 1.2525 
*I *69:s B *C 0.4600 1.2525 
*I *75:s B *C 1.3550 1.2525 
*I *77:s B *C 1.3550 1.2525 
*N *1:4 *C 8.4000 1.7100 
*N *1:10 *C 6.1750 1.7100 
*N *1:11 *C 6.0000 1.7100 
*N *1:12 *C 4.4650 1.7100 
*N *1:13 *C 3.6000 1.7100 
*N *1:14 *C 3.3650 1.7100 
*N *1:15 *C 2.8800 1.7100 
*N *1:16 *C 1.3250 1.7100 
*N *1:17 *C 1.2000 1.7100 
*N *1:18 *C 0.4600 1.7100 

*CAP
0 *75:s 4.44108e-17
1 *66:s 3.0249e-17
2 *64:s 4.74817e-17
3 *61:s 2.11862e-17
4 *46:s 1.65649e-17
5 *25:s 2.73592e-17
6 *52:s 4.26352e-16
7 *1:18 1.53851e-17
8 *1:16 3.36602e-17
9 *1:15 4.02077e-17
10 *1:14 9.29656e-18
11 *1:12 5.87727e-17
12 *1:10 7.728e-18
13 *1:4 6.04391e-16
14 *1 1.03135e-17

*RES
0 *1:18 *1 0.180147  // $metal1_conn
1 *1:4 *52:s 6.25  // $metal1_conn
2 *1:4 *1:11 6.25  // $metal1_conn
3 *1:4 *1:13 6.25  // $metal1_conn
4 *1:4 *1:17 6.25  // $metal1_conn
5 *1:10 *25:s 62.292332  // $metal1_conn
6 *1:12 *64:s 62.226925  // $metal1_conn
7 *1:14 *61:s 62.045834  // $metal1_conn
8 *1:15 *46:s 62.045834  // $metal1_conn
9 *1:16 *75:s 62.256668  // $metal1_conn
10 *1:18 *66:s 62.255524  // $metal1_conn
11 *52:s *1:10 0.257958  // $metal1_conn
12 *1:10 *1:11 0.087593  // $metal1_conn
13 *1:11 *1:12 0.769837  // $metal1_conn
14 *1:12 *1:13 0.433732  // $metal1_conn
15 *1:13 *1:14 0.116742  // $metal1_conn
16 *1:14 *1:15 0.241008  // $metal1_conn
17 *1:15 *1:16 0.778724  // $metal1_conn
18 *1:16 *1:17 0.06251  // $metal1_conn
19 *1:17 *1:18 0.371025  // $metal1_conn

*END

*D_NET *88 0

*CONN
*P *88 I *C 0.1000 0.0000 
*I *3:s B *C 7.7050 0.4100 
*I *4:s B *C 7.7050 0.4100 
*I *5:s B *C 8.1750 0.4100 
*I *6:s B *C 8.1750 0.4100 
*I *7:s B *C 8.6450 0.4100 
*I *8:s B *C 8.6450 0.4100 
*I *9:s B *C 9.0875 0.4100 
*I *10:s B *C 9.0875 0.4100 
*I *11:s B *C 7.2100 0.4100 
*I *16:s B *C 6.6250 0.4375 
*I *17:s B *C 6.6250 0.4375 
*I *18:s B *C 7.2100 0.4100 
*I *20:s B *C 3.0150 0.5875 
*I *21:s B *C 3.0150 0.5875 
*I *30:s B *C 4.5950 0.4075 
*I *33:s B *C 4.5950 0.4075 
*I *36:s B *C 0.4600 0.4375 
*I *40:s B *C 0.4600 0.4375 
*I *53:s B *C 1.3175 0.4375 
*I *56:s B *C 1.3175 0.4375 
*N *88:3 *C 8.4000 0.0000 
*N *88:9 *C 6.0000 0.0000 
*N *88:10 *C 4.4800 0.0000 
*N *88:11 *C 3.6000 0.0000 
*N *88:12 *C 2.9300 0.0000 
*N *88:13 *C 1.2800 0.0000 
*N *88:14 *C 1.2000 0.0000 
*N *88:15 *C 0.4600 0.0000 


*RES
0 *88:15 *88 0.180147  // $metal1_conn
1 *88:3 *9:s 5.166667  // $metal1_conn
2 *88:3 *88:9 5.166667  // $metal1_conn
3 *88:3 *88:11 5.166667  // $metal1_conn
4 *88:3 *88:14 5.166667  // $metal1_conn
5 *88:10 *30:s 75.157402  // $metal1_conn
6 *88:12 *20:s 75.04583  // $metal1_conn
7 *88:13 *53:s 75.275818  // $metal1_conn
8 *88:15 *36:s 75.283409  // $metal1_conn
9 *9:s *88:9 0.298286  // $metal1_conn
10 *88:9 *88:10 0.762313  // $metal1_conn
11 *88:10 *88:11 0.441256  // $metal1_conn
12 *88:11 *88:12 0.33496  // $metal1_conn
13 *88:12 *88:13 0.826381  // $metal1_conn
14 *88:13 *88:14 0.03993  // $metal1_conn
15 *88:14 *88:15 0.371025  // $metal1_conn

*END

*D_NET *2 2.24141e-16

*CONN
*P *2 I *C 1.7000 0.6650 
*I *56:g B *C 1.4575 0.4375 
*I *77:g B *C 1.4575 1.2525 
*N *2:2 *C 1.4850 0.6850 

*CAP
0 *77:g 4.7708e-17
1 *56:g 2.50036e-17
2 *2:2 1.05127e-16
3 *2 4.63022e-17

*RES
0 *77:g *2:2 109.435547  // $poly_conn
1 *2:2 *56:g 36.35862  // $poly_conn
2 *2 *2:2 45.120312  // $metal1_conn

*END

*D_NET *50 2.68892e-16

*CONN
*P *50 I *C 1.3000 0.8550 
*I *53:g B *C 1.1775 0.4375 
*I *75:g B *C 1.2525 1.2525 
*N *50:2 *C 1.2150 0.6450 

*CAP
0 *75:g 7.50159e-17
1 *53:g 2.5796e-17
2 *50:2 1.04843e-16
3 *50 6.3237e-17

*RES
0 *75:g *50:2 120.989639  // $poly_conn
1 *50:2 *53:g 27.399891  // $poly_conn
2 *50 *50:2 45.120693  // $metal1_conn

*END

*D_NET *89 2.18405e-16

*CONN
*P *89 I *C 4.7000 0.8550 
*I *33:g B *C 4.6425 0.4075 
*I *65:g B *C 4.6425 1.0075 
*N *89:2 *C 4.6050 0.6150 

*CAP
0 *65:g 4.60415e-17
1 *33:g 3.45499e-17
2 *89:2 5.7732e-17
3 *89 8.00819e-17

*RES
0 *65:g *89:2 63.591114  // $poly_conn
1 *89:2 *33:g 25.129578  // $poly_conn
2 *89 *89:2 45.181084  // $metal1_conn

*END

*D_NET *90 6.23034e-16

*CONN
*P *90 I *C 0.7000 0.6650 
*I *36:g B *C 0.3575 0.4375 
*I *44:g B *C 0.6675 0.4375 
*I *66:g B *C 0.3575 1.2525 
*I *73:g B *C 1.1225 1.2525 
*N *90:2 *C 0.3300 0.6450 
*N *90:5 *C 0.7050 0.6550 
*N *90:7 *C 1.0850 0.9350 

*CAP
0 *73:g 4.75036e-17
1 *66:g 4.91822e-17
2 *44:g 5.78504e-17
3 *36:g 2.64588e-17
4 *90:2 8.11044e-17
5 *90:5 1.64041e-16
6 *90:7 1.96894e-16

*RES
0 *66:g *90:2 119.691948  // $poly_conn
1 *90:2 *36:g 26.102209  // $poly_conn
2 *44:g *90:5 72.69368  // $poly_conn
3 *73:g *90:7 89.360352  // $poly_conn
4 *90:7 *90:5 1.032642  // $metal1_conn
5 *90 *90:5 0.004362  // $metal1_conn
6 *90:5 *90:2 45.258099  // $metal1_conn

*END

*D_NET *91 3.00096e-16

*CONN
*P *91 I *C 0.3000 0.8550 
*I *40:g B *C 0.5625 0.4375 
*I *69:g B *C 0.5625 1.2525 
*N *91:2 *C 0.5350 0.9300 

*CAP
0 *69:g 4.32348e-17
1 *40:g 7.71836e-17
2 *91:2 1.03487e-16
3 *91 7.61911e-17

*RES
0 *69:g *91:2 46.615028  // $poly_conn
1 *91:2 *40:g 99.179131  // $poly_conn
2 *91:2 *91 45.1562  // $metal1_conn

*END

*D_NET *92 5.63916e-16

*CONN
*P *92 I *C 4.3000 0.8550 
*I *16:g B *C 6.4925 0.4075 
*I *30:g B *C 4.3025 0.4075 
*I *31:g B *C 6.5875 1.1975 
*I *64:g B *C 4.3025 1.0725 
*N *92:4 *C 4.3400 0.6150 

*CAP
0 *64:g 4.74596e-17
1 *31:g 8.79487e-17
2 *30:g 1.06981e-16
3 *16:g 1.77238e-16
4 *92:4 7.01941e-17
5 *92 7.4094e-17

*RES
0 *31:g *16:g 168.941208  // $poly_conn
1 *16:g *30:g 653.55658  // $poly_conn
2 *30:g *92:4 25.129578  // $poly_conn
3 *92:4 *64:g 80.257782  // $poly_conn
4 *92:4 *92 45.164997  // $metal1_conn

*END

*D_NET *68 2.73484e-16

*CONN
*P *68 O *C 7.5000 0.8550 
*I *3:d B *C 7.3850 0.4100 
*I *4:d B *C 7.8550 0.4100 
*I *5:d B *C 7.8550 0.4100 
*I *11:d B *C 7.3850 0.4100 
*I *26:d B *C 7.4450 1.1100 
*I *29:d B *C 7.4450 1.1100 
*I *32:d B *C 7.8550 1.1100 
*I *35:d B *C 7.8550 1.1100 

*CAP
0 *32:d 1.32506e-16
1 *3:d 1.17285e-16
2 *68 2.36927e-17

*RES
0 *32:d *68 0.036052  // $metal1_conn
1 *68 *3:d 0.243938  // $metal1_conn

*END

*D_NET *87 3.05745e-16

*CONN
*P *87 O *C 8.5000 0.8550 
*I *6:d B *C 8.3250 0.4100 
*I *7:d B *C 8.3250 0.4100 
*I *8:d B *C 8.7950 0.4100 
*I *9:d B *C 8.7950 0.4100 
*I *39:d B *C 8.3050 1.1100 
*I *43:d B *C 8.3050 1.1100 
*I *47:d B *C 8.7150 1.1100 
*I *52:d B *C 8.7150 1.1100 

*CAP
0 *47:d 1.63778e-16
1 *6:d 1.19691e-16
2 *87 2.22766e-17

*RES
0 *6:d *87 0.230897  // $metal1_conn
1 *87 *47:d 0.001441  // $metal1_conn

*END

*D_NET *86 1.94555e-18

*CONN
*I *19:s B *C 2.6575 0.5875 
*I *20:d B *C 2.6575 0.5875 

*CAP
0 *19:s 1.94555e-18

*RES
0 *20:d *19:s 0.001  // $mwires

*END

*D_NET *85 1.74379e-18

*CONN
*I *48:s B *C 1.0600 0.4375 
*I *53:d B *C 1.0600 0.4375 

*CAP
0 *48:s 1.74379e-18

*RES
0 *53:d *48:s 0.001  // $mwires

*END

*D_NET *84 8.82755e-20

*CONN
*I *40:d B *C 0.6150 0.4375 
*I *44:s B *C 0.6150 0.4375 

*CAP
0 *40:d 8.82755e-20

*RES
0 *44:s *40:d 0.001  // $mwires

*END

*D_NET *82 0

*CONN
*I *25:d B *C 6.3300 1.1975 
*I *28:s B *C 6.3300 1.1975 


*RES
0 *28:s *25:d 0.001  // $mwires

*END

*D_NET *81 4.727e-19

*CONN
*I *61:d B *C 3.9125 1.0725 
*I *62:s B *C 3.9125 1.0725 

*CAP
0 *61:d 4.727e-19

*RES
0 *62:s *61:d 0.001  // $mwires

*END

*D_NET *80 0

*CONN
*I *42:s B *C 2.6950 1.1675 
*I *46:d B *C 2.6950 1.1675 


*RES
0 *46:d *42:s 0.001  // $mwires

*END

*D_NET *79 1.86763e-18

*CONN
*I *73:s B *C 1.1875 1.2525 
*I *75:d B *C 1.1875 1.2525 

*CAP
0 *73:s 1.86763e-18

*RES
0 *75:d *73:s 0.001  // $mwires

*END

*D_NET *78 0

*CONN
*I *69:d B *C 0.6675 1.2525 
*I *71:s B *C 0.6675 1.2525 


*RES
0 *71:s *69:d 0.001  // $mwires

*END

*D_NET *76 4.09595e-16

*CONN
*I *36:d B *C 0.2650 0.4375 
*I *48:g B *C 0.9425 0.4375 
*I *66:d B *C 0.2650 1.2525 
*I *71:g B *C 0.7725 1.2525 
*N *76:2 *C 0.7350 1.0450 
*N *76:4 *C 0.2550 1.1100 

*CAP
0 *71:g 2.83858e-17
1 *66:d 1.28071e-17
2 *48:g 5.99429e-17
3 *36:d 6.82578e-17
4 *76:4 1.08485e-16
5 *76:2 1.31716e-16

*RES
0 *48:g *76:2 166.369415  // $poly_conn
1 *76:2 *71:g 16.15522  // $poly_conn
2 *76:2 *76:4 45.404755  // $metal1_conn
3 *76:4 *36:d 75.702423  // $metal1_conn
4 *76:4 *66:d 62.049583  // $metal1_conn

*END

*D_NET *74 5.34894e-16

*CONN
*I *44:d B *C 0.8050 0.4375 
*I *48:d B *C 0.8050 0.4375 
*I *63:d B *C 2.1000 0.5875 
*I *71:d B *C 0.9475 1.2525 
*I *73:d B *C 0.9475 1.2525 
*I *83:s B *C 2.2450 1.1675 
*N *74:3 *C 2.1350 1.1200 
*N *74:4 *C 0.8950 1.1400 

*CAP
0 *83:s 1.78623e-16
1 *71:d 1.09579e-17
2 *63:d 6.96012e-17
3 *44:d 9.65384e-17
4 *74:4 1.79174e-16

*RES
0 *63:d *74:3 75.393799  // $metal1_conn
1 *74:3 *74:4 1.189242  // $metal1_conn
2 *74:4 *44:d 75.510216  // $metal1_conn
3 *74:4 *71:d 62.051762  // $metal1_conn
4 *83:s *74:3 62  // $metal1_conn

*END

*D_NET *72 1.2669e-15

*CONN
*I *13:g B *C 5.5275 0.5575 
*I *21:g B *C 3.0625 0.5875 
*I *56:d B *C 1.5500 0.4375 
*I *63:g B *C 2.1925 0.5875 
*I *22:g B *C 5.3225 1.1175 
*I *42:g B *C 2.6425 1.1675 
*I *51:g B *C 3.0625 1.0625 
*I *77:d B *C 1.6375 1.2525 
*N *72:2 *C 2.2200 0.3350 
*N *72:4 *C 2.6050 0.9600 
*N *72:6 *C 3.0350 0.8450 
*N *72:10 *C 4.2150 1.4500 
*N *72:11 *C 2.9750 0.9600 
*N *72:13 *C 1.5600 0.4250 

*CAP
0 *77:d 1.11904e-16
1 *51:g 2.55301e-17
2 *42:g 6.61974e-17
3 *22:g 1.13414e-16
4 *63:g 2.40095e-17
5 *56:d 1.17093e-16
6 *21:g 3.2635e-17
7 *13:g 6.44177e-17
8 *72:11 1.76477e-16
9 *72:2 1.05487e-16
10 *72:4 1.66208e-16
11 *72:6 5.56765e-17
12 *72:10 2.07853e-16

*RES
0 *63:g *72:2 82.640671  // $poly_conn
1 *42:g *72:4 61.15522  // $poly_conn
2 *51:g *72:6 19.691952  // $poly_conn
3 *72:6 *21:g 38.922718  // $poly_conn
4 *13:g *22:g 126.343933  // $poly_conn
5 *22:g *72:10 367.462708  // $poly_conn
6 *72:10 *72:11 1.285867  // $metal1_conn
7 *72:11 *72:4 0.236589  // $metal1_conn
8 *72:4 *72:2 0.744754  // $metal1_conn
9 *72:2 *72:13 0.524055  // $metal1_conn
10 *72:11 *72:6 45.108616  // $metal1_conn
11 *72:13 *77:d 62.915504  // $metal1_conn
12 *56:d *72:13 75  // $metal1_conn

*END

*D_NET *70 1.05935e-15

*CONN
*I *12:g B *C 5.2925 0.5575 
*I *19:g B *C 2.5675 0.5875 
*I *21:d B *C 3.1550 0.5875 
*I *23:g B *C 5.5275 1.1025 
*I *51:d B *C 3.1550 1.0625 
*I *83:g B *C 2.4375 1.1675 
*N *70:2 *C 2.6150 0.7700 
*N *70:5 *C 5.2650 0.7700 
*N *70:7 *C 5.4900 1.3550 
*N *70:8 *C 5.2650 1.3550 
*N *70:10 *C 3.1650 1.0350 
*N *70:12 *C 3.1650 0.6000 

*CAP
0 *83:g 4.41426e-17
1 *51:d 2.61533e-16
2 *23:g 5.7623e-17
3 *21:d 9.29127e-17
4 *19:g 3.12374e-17
5 *12:g 4.76019e-17
6 *70:8 2.2801e-16
7 *70:2 1.2705e-16
8 *70:5 1.25969e-16
9 *70:7 4.32738e-17

*RES
0 *19:g *70:2 17.398676  // $poly_conn
1 *70:2 *83:g 91.805176  // $poly_conn
2 *12:g *70:5 72.384262  // $poly_conn
3 *23:g *70:7 72.69368  // $poly_conn
4 *70:7 *70:8 0.161395  // $metal1_conn
5 *70:8 *70:10 1.808608  // $metal1_conn
6 *70:10 *70:12 0.311987  // $metal1_conn
7 *70:12 *70:2 45.462978  // $metal1_conn
8 *70:8 *70:5 0.444788  // $metal1_conn
9 *51:d *70:10 62  // $metal1_conn
10 *21:d *70:12 75  // $metal1_conn

*END

*D_NET *67 1.01978e-15

*CONN
*I *12:s B *C 5.2000 0.5575 
*I *20:g B *C 2.7475 0.5875 
*I *24:d B *C 3.9550 0.4075 
*I *27:d B *C 3.9550 0.4075 
*I *22:s B *C 5.2500 1.1175 
*I *46:g B *C 2.7475 1.1675 
*I *62:d B *C 4.1375 1.0725 
*I *64:d B *C 4.1375 1.0725 
*N *67:3 *C 2.7100 0.4150 
*N *67:6 *C 5.1050 1.1650 
*N *67:8 *C 4.0750 1.0250 
*N *67:9 *C 3.4050 0.4150 

*CAP
0 *62:d 2.2826e-16
1 *46:g 8.50763e-17
2 *22:s 1.74455e-16
3 *24:d 1.07315e-16
4 *20:g 5.17288e-17
5 *12:s 9.52846e-17
6 *67:9 1.88269e-16
7 *67:3 8.9396e-17

*RES
0 *46:g *20:g 102.564102  // $poly_conn
1 *20:g *67:3 61.15522  // $poly_conn
2 *12:s *67:6 75.508659  // $metal1_conn
3 *67:6 *67:8 0.883386  // $metal1_conn
4 *67:8 *67:9 0.898582  // $metal1_conn
5 *67:9 *67:3 0.469619  // $metal1_conn
6 *67:9 *24:d 75.656136  // $metal1_conn
7 *22:s *67:6 62  // $metal1_conn
8 *62:d *67:8 62  // $metal1_conn

*END

*D_NET *60 5.94976e-16

*CONN
*I *19:d B *C 2.3800 0.5875 
*I *27:g B *C 4.0575 0.4075 
*I *63:s B *C 2.3800 0.5875 
*I *42:d B *C 2.5400 1.1675 
*I *62:g B *C 3.9725 1.0725 
*I *83:d B *C 2.5400 1.1675 
*N *60:3 *C 3.5350 1.3550 
*N *60:5 *C 2.5400 1.1500 

*CAP
0 *62:g 9.33864e-17
1 *42:d 1.5114e-16
2 *27:g 8.91778e-17
3 *19:d 1.046e-16
4 *60:3 1.56672e-16

*RES
0 *27:g *62:g 134.325806  // $poly_conn
1 *62:g *60:3 194.675369  // $poly_conn
2 *60:3 *60:5 0.864237  // $metal1_conn
3 *60:5 *19:d 75.588188  // $metal1_conn
4 *42:d *60:5 62  // $metal1_conn

*END

*D_NET *59 9.57857e-16

*CONN
*I *14:g B *C 6.0625 0.4075 
*I *24:g B *C 3.8525 0.4075 
*I *33:d B *C 4.7350 0.4075 
*I *25:g B *C 6.2775 1.1975 
*I *61:g B *C 3.8525 1.0725 
*I *65:d B *C 4.8850 0.9600 
*N *59:3 *C 3.9150 0.2300 
*N *59:5 *C 6.0350 0.7350 
*N *59:8 *C 4.7450 0.3950 

*CAP
0 *65:d 9.29233e-17
1 *61:g 8.04353e-17
2 *25:g 8.36708e-17
3 *33:d 2.14443e-16
4 *24:g 4.6026e-17
5 *14:g 3.92397e-17
6 *59:3 1.37947e-16
7 *59:5 2.63171e-16

*RES
0 *61:g *24:g 124.358978  // $poly_conn
1 *24:g *59:3 72.259247  // $poly_conn
2 *25:g *59:5 128.189926  // $poly_conn
3 *59:5 *14:g 53.709526  // $poly_conn
4 *59:5 *59:8 46.40107  // $metal1_conn
5 *59:8 *59:3 0.74923  // $metal1_conn
6 *59:8 *65:d 62.536434  // $metal1_conn
7 *33:d *59:8 75  // $metal1_conn

*END

*D_NET *58 1.89433e-16

*CONN
*I *24:s B *C 3.6675 0.4075 
*I *27:s B *C 4.1800 0.4075 
*I *30:d B *C 4.1800 0.4075 

*CAP
0 *27:s 9.01652e-17
1 *24:s 9.92681e-17

*RES
0 *27:s *24:s 150.608475  // $metal1_conn

*END

*D_NET *57 5.91004e-16

*CONN
*I *12:d B *C 5.4100 0.5575 
*I *13:d B *C 5.4100 0.5575 
*I *17:g B *C 6.6975 0.4375 
*I *18:g B *C 6.9025 0.4375 
*I *22:d B *C 5.4750 1.1025 
*I *23:d B *C 5.4750 1.1025 
*I *34:g B *C 6.7925 1.1500 
*I *38:g B *C 6.9975 1.1500 
*N *57:8 *C 5.4250 0.8950 

*CAP
0 *38:g 3.33437e-16
1 *22:d 3.56465e-17
2 *12:d 5.47746e-17
3 *57:8 1.67147e-16

*RES
0 *57:8 *12:d 75.2528  // $metal1_conn
1 *57:8 *22:d 62.140339  // $metal1_conn
2 *38:g *57:8 45.978214  // $metal1_conn

*END

*D_NET *54 1.97392e-16

*CONN
*I *23:s B *C 5.6200 1.1025 
*I *28:d B *C 6.4850 1.1975 
*I *31:d B *C 6.4850 1.1975 

*CAP
0 *28:d 1.06949e-16
1 *23:s 9.0443e-17

*RES
0 *23:s *28:d 124.673546  // $metal1_conn

*END

*D_NET *49 1.52696e-16

*CONN
*I *14:s B *C 5.9675 0.4075 
*I *15:s B *C 6.3900 0.4075 
*I *16:d B *C 6.3900 0.4075 

*CAP
0 *15:s 6.9029e-17
1 *14:s 8.36665e-17

*RES
0 *15:s *14:s 150.52887  // $metal1_conn

*END

*D_NET *45 1.52613e-16

*CONN
*I *13:s B *C 5.6775 0.5575 
*I *14:d B *C 6.1750 0.4075 
*I *15:d B *C 6.1750 0.4075 

*CAP
0 *14:d 7.45064e-17
1 *13:s 7.81071e-17

*RES
0 *14:d *13:s 150.313461  // $metal1_conn

*END

*D_NET *41 1.19866e-15

*CONN
*I *3:g B *C 7.4875 0.4100 
*I *4:g B *C 7.7525 0.4100 
*I *5:g B *C 7.9575 0.4100 
*I *10:g B *C 9.2775 0.4100 
*I *11:g B *C 7.2825 0.4100 
*I *15:g B *C 6.2875 0.4075 
*I *17:d B *C 6.8000 0.4375 
*I *18:d B *C 6.8000 0.4375 
*I *26:g B *C 7.3425 1.1100 
*I *29:g B *C 7.5475 1.1100 
*I *32:g B *C 7.7525 1.1100 
*I *35:g B *C 7.9575 1.1100 
*I *55:g B *C 9.0225 1.1100 
*I *28:g B *C 6.3825 1.1975 
*I *34:d B *C 6.8950 1.1500 
*I *38:d B *C 6.8950 1.1500 
*N *41:2 *C 6.3550 0.6150 
*N *41:20 *C 9.0600 0.6400 
*N *41:22 *C 6.8950 0.7850 
*N *41:23 *C 6.8950 0.6150 
*N *41:24 *C 6.8000 0.6150 

*CAP
0 *34:d 6.08591e-17
1 *28:g 8.69858e-17
2 *55:g 4.87116e-17
3 *35:g 2.51255e-16
4 *17:d 1.92016e-17
5 *15:g 3.83637e-17
6 *10:g 2.76544e-17
7 *41:24 2.62186e-17
8 *41:23 1.97978e-16
9 *41:22 3.09702e-17
10 *41:2 1.2105e-16
11 *41:20 2.89408e-16

*RES
0 *41:20 *55:g 61.027016  // $poly_conn
1 *28:g *41:2 110.119789  // $poly_conn
2 *10:g *41:20 63.004463  // $poly_conn
3 *41:2 *15:g 28.485651  // $poly_conn
4 *41:23 *41:20 46.990002  // $metal1_conn
5 *41:24 *41:2 45.322006  // $metal1_conn
6 *41:24 *17:d 75.070351  // $metal1_conn
7 *41:22 *34:d 31.272228  // $metal1_conn
8 *35:g *41:22 45.245625  // $metal1_conn
9 *41:22 *41:23 0.102106  // $metal1_conn
10 *41:23 *41:24 0.082659  // $metal1_conn

*END

*D_NET *37 4.10485e-16

*CONN
*I *6:g B *C 8.2225 0.4100 
*I *7:g B *C 8.4275 0.4100 
*I *8:g B *C 8.6925 0.4100 
*I *9:g B *C 8.8975 0.4100 
*I *10:d B *C 9.3700 0.4100 
*I *39:g B *C 8.2025 1.1100 
*I *43:g B *C 8.4075 1.1100 
*I *47:g B *C 8.6125 1.1100 
*I *52:g B *C 8.8175 1.1100 
*I *55:d B *C 9.1150 1.1100 
*N *37:15 *C 9.1250 0.8300 

*CAP
0 *55:d 3.89499e-17
1 *52:g 2.96652e-16
2 *10:d 2.96896e-17
3 *37:15 4.5193e-17

*RES
0 *37:15 *52:g 45.206844  // $metal1_conn
1 *37:15 *55:d 20.83511  // $metal1_conn
2 *10:d *37:15 75.412933  // $metal1_conn

*END

