*SPEF "IEEE 1481-1999"
*DESIGN  "SDFFTRX4"
*DATE "Mon Sep 27 11:11:19 2010"
*VENDOR "Cadence Design Systems"
*PROGRAM "Assura RCX"
*VERSION "3.2 Red Hat Linux release 7.2 (Enigma) - (09/09/2009-10:39)"
*DESIGN_FLOW "Physical Verification"
*DIVIDER /
*DELIMITER :
*BUS_DELIMITER []
*T_UNIT 1 PS
*C_UNIT 1e15 FF
*R_UNIT 1 OHM
*L_UNIT 1 MH
// DeviceFingerDelim "@"
// MATCHED
// caps2d version: 10

*NAME_MAP
*1 mn11
*2 net411
*3 net375
*4 net395
*5 net476
*6 net484
*7 net452
*8 net460
*9 mn13
*10 mn12
*11 mn20
*12 mn21
*13 mn25
*14 mn36
*15 mn35
*16 mp40
*17 mp51
*18 mp50
*19 mp45
*20 mp45\@1
*21 mp55\@3
*22 mp1
*23 mp0
*24 mp10
*25 mp11
*26 mp13
*27 mp12
*28 VDD
*29 mp20
*30 mp21
*31 mp25
*32 mp36
*33 mp35
*34 mn55
*35 mn55\@1
*36 mp55
*37 mn57
*38 QN
*39 mp55\@1
*40 mn57\@1
*41 VSS
*42 mp55\@2
*43 mn57\@2
*44 mp57
*45 mn57\@3
*46 mp57\@1
*47 mn56
*48 mp57\@2
*49 mn40
*50 mp57\@3
*51 mn51
*52 mp56
*53 mp30
*54 D
*55 CK
*56 RN
*57 Q
*58 SE
*59 SI
*60 n20
*61 mout
*62 n30
*63 net436
*64 SEb
*65 CKb
*66 Db
*67 Dbp
*68 mn50
*69 CKbb
*70 mn45
*71 qbint
*72 mn45\@1
*73 mn55\@2
*74 mn55\@3
*75 mn30
*76 mn1
*77 mn0
*78 mn10

*GROUND_NETS VSS

*PORTS
*28 I
*41 I
*55 I
*54 I
*56 I
*58 I
*59 I
*57 O
*38 O

*D_NET *28 1.0459e-15

*CONN
*P *28 I *C 0.1000 1.7100 
*I *36:s B *C 5.6950 1.0950 
*I *39:s B *C 5.6950 1.0950 
*I *42:s B *C 6.1050 1.0950 
*I *44:s B *C 6.1050 1.0950 
*I *46:s B *C 6.5150 1.0950 
*I *48:s B *C 6.5150 1.0950 
*I *50:s B *C 6.9500 1.0950 
*I *52:s B *C 6.9500 1.0950 
*I *53:s B *C 3.7900 1.0875 
*I *18:s B *C 4.8550 1.1350 
*I *19:s B *C 4.8550 1.1350 
*I *20:s B *C 5.2950 1.0950 
*I *21:s B *C 5.2950 1.0950 
*I *22:s B *C 0.3550 1.0325 
*I *23:s B *C 0.9000 1.0325 
*I *24:s B *C 0.9000 1.0325 
*I *27:s B *C 2.1150 1.2775 
*I *29:s B *C 2.1150 1.2775 
*I *30:s B *C 2.8000 1.3450 
*I *33:s B *C 3.7900 1.0875 
*N *28:2 *C 6.6000 1.7100 
*N *28:9 *C 4.7000 1.7100 
*N *28:10 *C 3.7750 1.7100 
*N *28:11 *C 2.9000 1.7100 
*N *28:12 *C 2.7900 1.7100 
*N *28:13 *C 2.0900 1.7100 
*N *28:14 *C 1.0000 1.7100 
*N *28:15 *C 0.8150 1.7100 
*N *28:16 *C 0.3450 1.7100 

*CAP
0 *30:s 3.04703e-17
1 *27:s 3.93297e-17
2 *23:s 2.26969e-17
3 *22:s 3.52325e-17
4 *53:s 3.80295e-17
5 *50:s 4.36694e-16
6 *28:16 6.74878e-18
7 *28:15 7.28346e-18
8 *28:13 3.6496e-17
9 *28:12 1.39871e-17
10 *28:10 2.07361e-17
11 *28:2 3.53691e-16
12 *28 4.50673e-18

*RES
0 *28:16 *28 0.122396  // $metal1_conn
1 *28:2 *50:s 7.5  // $metal1_conn
2 *28:2 *28:9 8.333333  // $metal1_conn
3 *28:2 *28:11 8.333333  // $metal1_conn
4 *28:2 *28:14 7.5  // $metal1_conn
5 *28:10 *53:s 62.364384  // $metal1_conn
6 *28:12 *30:s 62.230003  // $metal1_conn
7 *28:13 *27:s 62.244808  // $metal1_conn
8 *28:15 *23:s 62.194462  // $metal1_conn
9 *28:16 *22:s 62.41214  // $metal1_conn
10 *50:s *28:9 0.072507  // $metal1_conn
11 *28:9 *28:10 0.463598  // $metal1_conn
12 *28:10 *28:11 0.438528  // $metal1_conn
13 *28:11 *28:12 0.054958  // $metal1_conn
14 *28:12 *28:13 0.350587  // $metal1_conn
15 *28:13 *28:14 0.546329  // $metal1_conn
16 *28:14 *28:15 0.092563  // $metal1_conn
17 *28:15 *28:16 0.235266  // $metal1_conn

*END

*D_NET *41 0

*CONN
*P *41 I *C 0.1000 0.0000 
*I *34:s B *C 5.7100 0.4450 
*I *35:s B *C 6.1800 0.4450 
*I *37:s B *C 6.1800 0.4450 
*I *40:s B *C 6.6500 0.4450 
*I *43:s B *C 6.6500 0.4450 
*I *45:s B *C 7.1000 0.4450 
*I *47:s B *C 7.1000 0.4450 
*I *68:s B *C 4.7450 0.4725 
*I *70:s B *C 4.7450 0.4725 
*I *72:s B *C 5.2400 0.4450 
*I *73:s B *C 5.2400 0.4450 
*I *74:s B *C 5.7100 0.4450 
*I *75:s B *C 3.8525 0.5025 
*I *77:s B *C 0.8150 0.4775 
*I *78:s B *C 0.8150 0.4775 
*I *10:s B *C 2.1150 0.3775 
*I *11:s B *C 2.1150 0.3775 
*I *12:s B *C 2.6550 0.5875 
*I *15:s B *C 3.8525 0.5025 
*N *41:2 *C 6.6000 0.0000 
*N *41:8 *C 3.7600 0.0000 
*N *41:9 *C 2.9000 0.0000 
*N *41:10 *C 2.6450 0.0000 
*N *41:11 *C 2.0900 0.0000 
*N *41:12 *C 1.0000 0.0000 
*N *41:13 *C 0.7850 0.0000 


*RES
0 *41:13 *41 0.343012  // $metal1_conn
1 *41:2 *45:s 6.2  // $metal1_conn
2 *41:2 *45:s 6.888889  // $metal1_conn
3 *41:2 *41:9 6.888889  // $metal1_conn
4 *41:2 *41:12 6.2  // $metal1_conn
5 *41:8 *75:s 75.045807  // $metal1_conn
6 *41:10 *12:s 75.379929  // $metal1_conn
7 *41:11 *10:s 75.236832  // $metal1_conn
8 *41:13 *77:s 75.291084  // $metal1_conn
9 *45:s *41:8 0.470323  // $metal1_conn
10 *41:8 *41:9 0.430058  // $metal1_conn
11 *41:9 *41:10 0.127661  // $metal1_conn
12 *41:10 *41:11 0.277884  // $metal1_conn
13 *41:11 *41:12 0.546329  // $metal1_conn
14 *41:12 *41:13 0.107803  // $metal1_conn

*END

*D_NET *55 2.29334e-16

*CONN
*P *55 I *C 2.3000 0.8550 
*I *11:g B *C 2.2425 0.3775 
*I *29:g B *C 2.2425 1.2775 
*N *55:2 *C 2.2700 0.5850 

*CAP
0 *29:g 5.65664e-17
1 *11:g 2.13652e-17
2 *55:2 8.40699e-17
3 *55 6.73325e-17

*RES
0 *29:g *55:2 141.486816  // $poly_conn
1 *55:2 *11:g 26.102209  // $poly_conn
2 *55 *55:2 45.159706  // $metal1_conn

*END

*D_NET *54 1.89862e-16

*CONN
*P *54 I *C 0.1000 0.8550 
*I *76:g B *C 0.5775 0.4775 
*I *22:g B *C 0.4475 1.0325 
*N *54:2 *C 0.4475 0.7150 
*N *54:3 *C 0.3450 0.7150 

*CAP
0 *22:g 2.58506e-17
1 *76:g 4.97373e-17
2 *54:2 2.62989e-17
3 *54:3 6.0953e-17
4 *54 2.70221e-17

*RES
0 *76:g *54:2 63.026093  // $poly_conn
1 *54:2 *54:3 53.092224  // $poly_conn
2 *54:2 *22:g 44.031902  // $poly_conn
3 *54:3 *54 0.189664  // $metal1_conn

*END

*D_NET *56 2.37814e-16

*CONN
*P *56 I *C 0.7000 0.6650 
*I *77:g B *C 0.6825 0.4775 
*I *23:g B *C 0.6825 1.0325 
*N *56:2 *C 0.7200 0.6850 

*CAP
0 *23:g 3.98871e-17
1 *77:g 4.39303e-17
2 *56:2 1.53997e-16

*RES
0 *23:g *56:2 52.052654  // $poly_conn
1 *56:2 *77:g 25.129578  // $poly_conn
2 *56:2 *56 45.010017  // $metal1_conn

*END

*D_NET *58 3.74254e-16

*CONN
*P *58 I *C 1.1000 0.8550 
*I *78:g B *C 0.9475 0.4775 
*I *9:g B *C 1.7775 0.3775 
*I *24:g B *C 0.9475 1.0325 
*I *25:g B *C 1.5725 1.2775 
*N *58:2 *C 1.5725 0.8325 
*N *58:3 *C 0.9750 0.7950 

*CAP
0 *25:g 3.16753e-17
1 *24:g 2.54135e-17
2 *9:g 6.29975e-17
3 *78:g 2.35706e-17
4 *58:2 7.06876e-17
5 *58:3 9.82281e-17
6 *58 6.16812e-17

*RES
0 *9:g *58:2 143.574997  // $poly_conn
1 *58:2 *58:3 142.567322  // $poly_conn
2 *58:3 *78:g 51.145424  // $poly_conn
3 *58:2 *25:g 81.838951  // $poly_conn
4 *58:3 *24:g 22.283424  // $poly_conn
5 *58:3 *58 45.028057  // $metal1_conn

*END

*D_NET *59 2.66612e-16

*CONN
*P *59 I *C 2.1000 0.8550 
*I *10:g B *C 1.9875 0.3775 
*I *27:g B *C 1.9875 1.2775 
*N *59:2 *C 2.0250 0.5850 

*CAP
0 *27:g 8.43557e-17
1 *10:g 2.79232e-17
2 *59:2 9.5223e-17
3 *59 5.91103e-17

*RES
0 *27:g *59:2 140.514191  // $poly_conn
1 *59:2 *10:g 25.129578  // $poly_conn
2 *59 *59:2 45.170792  // $metal1_conn

*END

*D_NET *57 2.79709e-16

*CONN
*P *57 O *C 5.5000 0.8550 
*I *34:d B *C 5.8600 0.4450 
*I *35:d B *C 5.8600 0.4450 
*I *73:d B *C 5.3900 0.4450 
*I *74:d B *C 5.3900 0.4450 
*I *36:d B *C 5.4900 1.0950 
*I *39:d B *C 5.9000 1.0950 
*I *42:d B *C 5.9000 1.0950 
*I *21:d B *C 5.4900 1.0950 

*CAP
0 *39:d 1.43763e-16
1 *34:d 1.17651e-16
2 *57 1.82946e-17

*RES
0 *39:d *57 0.048494  // $metal1_conn
1 *57 *34:d 0.22044  // $metal1_conn

*END

*D_NET *38 2.88453e-16

*CONN
*P *38 O *C 6.3000 0.8550 
*I *37:d B *C 6.3300 0.4450 
*I *40:d B *C 6.3300 0.4450 
*I *43:d B *C 6.8225 0.4450 
*I *45:d B *C 6.8225 0.4450 
*I *44:d B *C 6.3100 1.0950 
*I *46:d B *C 6.3100 1.0950 
*I *48:d B *C 6.7325 1.0950 
*I *50:d B *C 6.7325 1.0950 

*CAP
0 *48:d 1.54911e-16
1 *37:d 1.16024e-16
2 *38 1.7518e-17

*RES
0 *37:d *38 0.217349  // $metal1_conn
1 *38 *48:d 0.047976  // $metal1_conn

*END

*D_NET *8 0

*CONN
*I *51:s B *C 4.5525 0.5025 
*I *68:d B *C 4.5525 0.5025 


*RES
0 *68:d *51:s 0.001  // $mwires

*END

*D_NET *7 0

*CONN
*I *14:s B *C 3.6200 0.5025 
*I *15:d B *C 3.6200 0.5025 


*RES
0 *15:d *14:s 0.001  // $mwires

*END

*D_NET *6 1.45995e-18

*CONN
*I *9:s B *C 1.8825 0.3775 
*I *10:d B *C 1.8825 0.3775 

*CAP
0 *9:s 1.45995e-18

*RES
0 *10:d *9:s 0.001  // $mwires

*END

*D_NET *5 0

*CONN
*I *76:s B *C 0.6300 0.4775 
*I *77:d B *C 0.6300 0.4775 


*RES
0 *77:d *76:s 0.001  // $mwires

*END

*D_NET *4 5.26647e-18

*CONN
*I *17:s B *C 4.6175 1.0875 
*I *18:d B *C 4.6175 1.0875 

*CAP
0 *17:s 5.26647e-18

*RES
0 *18:d *17:s 0.001  // $mwires

*END

*D_NET *3 0

*CONN
*I *32:s B *C 3.6200 1.0875 
*I *33:d B *C 3.6200 1.0875 


*RES
0 *33:d *32:s 0.001  // $mwires

*END

*D_NET *2 0

*CONN
*I *26:s B *C 1.9250 1.2775 
*I *27:d B *C 1.9250 1.2775 


*RES
0 *27:d *26:s 0.001  // $mwires

*END

*D_NET *71 1.14545e-15

*CONN
*I *34:g B *C 5.7575 0.4450 
*I *35:g B *C 5.9625 0.4450 
*I *47:g B *C 7.2525 0.4450 
*I *68:g B *C 4.6125 0.5025 
*I *70:d B *C 4.9200 0.4725 
*I *72:d B *C 4.9200 0.4725 
*I *73:g B *C 5.2875 0.4450 
*I *74:g B *C 5.4925 0.4450 
*I *36:g B *C 5.5925 1.0950 
*I *39:g B *C 5.7975 1.0950 
*I *42:g B *C 6.0025 1.0950 
*I *52:g B *C 7.0525 1.0950 
*I *18:g B *C 4.7125 1.0875 
*I *19:d B *C 5.0500 1.1350 
*I *20:d B *C 5.0500 1.1350 
*I *21:g B *C 5.3875 1.0950 
*N *71:1 *C 4.8150 0.8700 
*N *71:2 *C 4.7125 0.8700 
*N *71:21 *C 7.1000 0.7000 
*N *71:24 *C 4.9200 0.4300 
*N *71:25 *C 5.1750 0.8150 
*N *71:26 *C 5.0500 0.8400 

*CAP
0 *19:d 5.60345e-17
1 *18:g 3.87407e-17
2 *52:g 4.71219e-17
3 *42:g 2.72322e-16
4 *70:d 2.09398e-16
5 *68:g 6.14539e-17
6 *47:g 3.03068e-17
7 *71:26 2.19234e-17
8 *71:25 3.05405e-17
9 *71:2 3.42218e-17
10 *71:1 7.08752e-17
11 *71:21 2.72512e-16

*RES
0 *71:21 *52:g 41.796242  // $poly_conn
1 *71:2 *18:g 21.534737  // $poly_conn
2 *47:g *71:21 46.513458  // $poly_conn
3 *71:2 *68:g 82.78363  // $poly_conn
4 *71:1 *71:2 49.61615  // $poly_conn
5 *71:21 *71:24 46.879051  // $metal1_conn
6 *71:26 *71:1 0.179433  // $metal1_conn
7 *70:d *71:24 75  // $metal1_conn
8 *71:26 *19:d 31.20013  // $metal1_conn
9 *71:25 *42:g 45.067547  // $metal1_conn
10 *71:24 *71:25 0.427783  // $metal1_conn
11 *71:25 *71:26 0.104182  // $metal1_conn

*END

*D_NET *69 9.16327e-16

*CONN
*I *49:g B *C 4.2025 0.5025 
*I *12:d B *C 2.8725 0.5875 
*I *14:g B *C 3.5675 0.5025 
*I *17:g B *C 4.5225 1.0875 
*I *30:d B *C 2.9150 1.0075 
*I *31:g B *C 3.3125 1.0875 
*N *69:2 *C 3.2750 0.8700 
*N *69:4 *C 3.5400 0.2450 
*N *69:6 *C 4.2300 0.6850 
*N *69:8 *C 4.4950 0.8700 
*N *69:9 *C 3.5400 0.3250 
*N *69:10 *C 3.2750 0.3250 
*N *69:12 *C 2.9150 0.5750 

*CAP
0 *31:g 3.38311e-17
1 *30:d 5.38545e-17
2 *17:g 5.17375e-17
3 *14:g 8.08528e-17
4 *12:d 8.55348e-17
5 *49:g 3.18426e-17
6 *69:10 7.765e-17
7 *69:2 1.15741e-16
8 *69:4 1.33302e-16
9 *69:6 1.55414e-16
10 *69:8 9.65673e-17

*RES
0 *31:g *69:2 63.719322  // $poly_conn
1 *14:g *69:4 83.922722  // $poly_conn
2 *49:g *69:6 64.691956  // $poly_conn
3 *17:g *69:8 64.691956  // $poly_conn
4 *69:4 *69:9 0.025116  // $metal1_conn
5 *69:9 *69:10 0.200953  // $metal1_conn
6 *69:10 *69:12 0.400078  // $metal1_conn
7 *69:9 *69:6 0.756608  // $metal1_conn
8 *69:6 *69:8 0.302509  // $metal1_conn
9 *69:10 *69:2 0.406595  // $metal1_conn
10 *69:12 *30:d 62.295544  // $metal1_conn
11 *12:d *69:12 75  // $metal1_conn

*END

*D_NET *67 6.1887e-16

*CONN
*I *1:s B *C 1.6750 0.3775 
*I *9:d B *C 1.6750 0.3775 
*I *13:d B *C 3.1975 0.5025 
*I *25:d B *C 1.7175 1.2775 
*I *26:d B *C 1.7175 1.2775 
*I *31:s B *C 3.2200 1.0875 
*N *67:2 *C 3.0700 1.1200 
*N *67:3 *C 1.6750 1.1350 

*CAP
0 *31:s 1.90454e-17
1 *25:d 1.8689e-17
2 *13:d 1.09607e-16
3 *1:s 8.86183e-17
4 *67:3 2.04816e-16
5 *67:2 1.78094e-16

*RES
0 *31:s *67:2 62.072041  // $metal1_conn
1 *67:2 *67:3 1.345074  // $metal1_conn
2 *67:3 *1:s 75.667931  // $metal1_conn
3 *67:2 *13:d 75.494019  // $metal1_conn
4 *67:3 *25:d 62.054184  // $metal1_conn

*END

*D_NET *66 4.53707e-16

*CONN
*I *76:d B *C 0.4850 0.4775 
*I *1:d B *C 1.4800 0.3775 
*I *22:d B *C 0.5650 1.0325 
*I *23:d B *C 0.5650 1.0325 
*I *25:s B *C 1.4800 1.2775 
*N *66:3 *C 1.4700 1.2300 
*N *66:5 *C 0.5500 0.9850 

*CAP
0 *25:s 1.61806e-16
1 *22:d 1.39922e-16
2 *1:d 1.02935e-16
3 *76:d 4.90449e-17

*RES
0 *1:d *66:3 75.673485  // $metal1_conn
1 *66:3 *66:5 0.803389  // $metal1_conn
2 *66:5 *76:d 75.370941  // $metal1_conn
3 *25:s *66:3 62  // $metal1_conn
4 *22:d *66:5 62  // $metal1_conn

*END

*D_NET *65 6.7808e-16

*CONN
*I *51:g B *C 4.4925 0.5025 
*I *11:d B *C 2.3350 0.3775 
*I *12:g B *C 2.7475 0.5875 
*I *13:g B *C 3.3625 0.5025 
*I *16:g B *C 4.3175 1.0875 
*I *29:d B *C 2.3825 1.2775 
*I *30:g B *C 2.8225 1.0075 
*I *32:g B *C 3.5675 1.0875 
*N *65:4 *C 3.3625 0.7375 
*N *65:5 *C 2.8225 0.7650 
*N *65:6 *C 2.7350 0.7650 
*N *65:10 *C 2.4700 0.7650 

*CAP
0 *32:g 1.13883e-16
1 *30:g 2.26679e-17
2 *29:d 6.82035e-17
3 *16:g 9.90468e-17
4 *13:g 3.1132e-17
5 *12:g 1.20887e-17
6 *11:d 6.08831e-17
7 *51:g 7.55076e-17
8 *65:10 7.60504e-17
9 *65:5 1.52515e-17
10 *65:4 6.58624e-17
11 *65:6 3.75031e-17

*RES
0 *51:g *16:g 125.061882  // $poly_conn
1 *16:g *32:g 272.497803  // $poly_conn
2 *32:g *65:4 95.849548  // $poly_conn
3 *65:4 *65:5 137.659897  // $poly_conn
4 *65:5 *65:6 6.592223  // $poly_conn
5 *65:4 *13:g 36.967152  // $poly_conn
6 *65:5 *30:g 24.801132  // $poly_conn
7 *65:6 *12:g 17.437269  // $poly_conn
8 *65:6 *65:10 45.168369  // $metal1_conn
9 *65:10 *11:d 75.364784  // $metal1_conn
10 *65:10 *29:d 62.335884  // $metal1_conn

*END

*D_NET *64 6.88982e-16

*CONN
*I *78:d B *C 1.0400 0.4775 
*I *1:g B *C 1.5725 0.3775 
*I *24:d B *C 1.0400 1.0325 
*I *26:g B *C 1.8625 1.2775 
*N *64:2 *C 1.6000 0.1950 
*N *64:4 *C 1.8350 0.9750 
*N *64:6 *C 1.0500 0.4650 

*CAP
0 *26:g 5.65259e-17
1 *24:d 1.25858e-16
2 *1:g 4.41082e-17
3 *78:d 1.34479e-16
4 *64:2 1.71196e-16
5 *64:4 1.56814e-16

*RES
0 *1:g *64:2 64.691956  // $poly_conn
1 *26:g *64:4 86.486824  // $poly_conn
2 *64:4 *64:2 0.812839  // $metal1_conn
3 *64:2 *64:6 0.587718  // $metal1_conn
4 *64:6 *24:d 62.777504  // $metal1_conn
5 *78:d *64:6 75  // $metal1_conn

*END

*D_NET *63 4.10408e-16

*CONN
*I *37:g B *C 6.2275 0.4450 
*I *40:g B *C 6.4325 0.4450 
*I *43:g B *C 6.6975 0.4450 
*I *45:g B *C 6.9475 0.4450 
*I *47:d B *C 7.3450 0.4450 
*I *44:g B *C 6.2075 1.0950 
*I *46:g B *C 6.4125 1.0950 
*I *48:g B *C 6.6175 1.0950 
*I *50:g B *C 6.8475 1.0950 
*I *52:d B *C 7.1450 1.0950 
*N *63:16 *C 7.1550 0.8900 

*CAP
0 *52:d 3.3568e-17
1 *50:g 3.02406e-16
2 *47:d 4.13443e-17
3 *63:16 3.309e-17

*RES
0 *63:16 *50:g 45.201027  // $metal1_conn
1 *63:16 *52:d 20.794889  // $metal1_conn
2 *47:d *63:16 75.349106  // $metal1_conn

*END

*D_NET *62 4.47773e-16

*CONN
*I *49:d B *C 4.3475 0.5025 
*I *51:d B *C 4.3475 0.5025 
*I *70:g B *C 4.8175 0.4725 
*I *72:g B *C 5.0225 0.4725 
*I *16:d B *C 4.4200 1.0875 
*I *17:d B *C 4.4200 1.0875 
*I *19:g B *C 4.9475 1.1350 
*I *20:g B *C 5.1525 1.1350 
*N *62:6 *C 4.6550 0.6800 

*CAP
0 *20:g 2.54329e-16
1 *16:d 5.08298e-17
2 *49:d 6.34295e-17
3 *62:6 7.91847e-17

*RES
0 *20:g *62:6 45.258717  // $metal1_conn
1 *62:6 *49:d 75.312332  // $metal1_conn
2 *62:6 *16:d 62.420891  // $metal1_conn

*END

*D_NET *61 3.53715e-16

*CONN
*I *49:s B *C 4.0550 0.5025 
*I *75:d B *C 4.0550 0.5025 
*I *15:g B *C 3.6725 0.5025 
*I *53:d B *C 4.1125 1.0875 
*I *16:s B *C 4.1125 1.0875 
*I *33:g B *C 3.6725 1.0875 
*N *61:2 *C 3.7100 0.8450 
*N *61:5 *C 4.0700 0.8450 

*CAP
0 *33:g 6.27352e-17
1 *53:d 1.72787e-17
2 *15:g 7.05139e-17
3 *49:s 5.05921e-17
4 *61:5 5.22529e-17
5 *61:2 1.00342e-16

*RES
0 *33:g *61:2 25.129578  // $poly_conn
1 *61:2 *15:g 59.744961  // $poly_conn
2 *53:d *61:5 62.132893  // $metal1_conn
3 *61:5 *61:2 45.242985  // $metal1_conn
4 *61:5 *49:s 75.258438  // $metal1_conn

*END

*D_NET *60 2.95132e-16

*CONN
*I *75:g B *C 3.9075 0.5025 
*I *13:s B *C 3.4650 0.5025 
*I *14:d B *C 3.4650 0.5025 
*I *53:g B *C 3.9075 1.0875 
*I *31:d B *C 3.4400 1.0875 
*I *32:d B *C 3.4400 1.0875 
*N *60:2 *C 3.8800 0.6850 
*N *60:4 *C 3.4650 0.6850 

*CAP
0 *31:d 3.18208e-17
1 *53:g 5.26002e-17
2 *13:s 3.55422e-17
3 *75:g 3.36035e-17
4 *60:4 4.79452e-17
5 *60:2 9.36203e-17

*RES
0 *53:g *60:2 67.127846  // $poly_conn
1 *60:2 *75:g 19.691952  // $poly_conn
2 *60:2 *60:4 45.283131  // $metal1_conn
3 *60:4 *13:s 75.117752  // $metal1_conn
4 *60:4 *31:d 62.258942  // $metal1_conn

*END

