*SPEF "IEEE 1481-1999"
*DESIGN  "SDFFSHQX8"
*DATE "Mon Sep 27 11:05:36 2010"
*VENDOR "Cadence Design Systems"
*PROGRAM "Assura RCX"
*VERSION "3.2 Red Hat Linux release 7.2 (Enigma) - (09/09/2009-10:39)"
*DESIGN_FLOW "Physical Verification"
*DIVIDER /
*DELIMITER :
*BUS_DELIMITER []
*T_UNIT 1 PS
*C_UNIT 1e15 FF
*R_UNIT 1 OHM
*L_UNIT 1 MH
// DeviceFingerDelim "@"
// MATCHED
// caps2d version: 10

*NAME_MAP
*1 mn10
*2 mn45
*3 mn45\@1
*4 VDD
*5 mn50
*6 mn51
*7 mn52
*8 mn40
*9 mn30
*10 mn31
*11 mn55
*12 VSS
*13 mn55\@1
*14 mn55\@2
*15 mn55\@3
*16 mn55\@4
*17 mn55\@5
*18 mn55\@6
*19 mn45\@2
*20 CK
*21 SE
*22 net355
*23 SI
*24 SN
*25 mp36
*26 mp25
*27 mp21
*28 mp45
*29 mp45\@1
*30 mp50
*31 mp51
*32 mp52
*33 mp40
*34 mp45\@2
*35 D
*36 mp55
*37 mp55\@1
*38 mp55\@2
*39 mp55\@3
*40 mp55\@4
*41 mp55\@5
*42 mp55\@6
*43 Q
*44 n20
*45 CKb
*46 SEb
*47 mout
*48 n30
*49 mn35
*50 qbint
*51 mn36
*52 CKbb
*53 mn25
*54 Db
*55 mp20
*56 mn21
*57 net378
*58 mp11
*59 mn20
*60 net390
*61 mp12
*62 mn11
*63 mp14
*64 mn12
*65 mp13
*66 mn14
*67 mp10
*68 mn13
*69 mp30
*70 mp31
*71 mp35
*72 net398
*73 net459
*74 net467
*75 net435
*76 net427
*77 net443
*78 net455

*GROUND_NETS VSS

*PORTS
*4 I
*12 I
*20 I
*35 I
*21 I
*23 I
*24 I
*43 O

*D_NET *4 1.21267e-15

*CONN
*P *4 I *C 0.1000 1.7100 
*I *55:s B *C 6.5750 1.2800 
*I *58:s B *C 6.5750 1.2800 
*I *65:s B *C 7.4950 1.4150 
*I *67:s B *C 7.9250 1.4050 
*I *69:s B *C 3.9800 1.2350 
*I *70:s B *C 4.4500 1.2350 
*I *71:s B *C 4.4500 1.2350 
*I *27:s B *C 5.5150 1.0075 
*I *28:s B *C 1.9800 1.0950 
*I *29:s B *C 2.5150 1.2550 
*I *30:s B *C 2.5150 1.2550 
*I *31:s B *C 2.9850 1.4800 
*I *34:s B *C 1.9800 1.0950 
*I *36:s B *C 0.1100 1.1225 
*I *37:s B *C 0.5100 1.1225 
*I *38:s B *C 0.5100 1.1225 
*I *39:s B *C 0.9200 1.1225 
*I *40:s B *C 0.9200 1.1225 
*I *41:s B *C 1.3300 1.1225 
*I *42:s B *C 1.3300 1.1225 
*N *4:2 *C 7.4550 1.7100 
*N *4:3 *C 7.0000 1.7100 
*N *4:4 *C 7.0000 1.7100 
*N *4:5 *C 6.5650 1.7100 
*N *4:6 *C 5.5250 1.7100 
*N *4:7 *C 5.0000 1.7100 
*N *4:8 *C 4.3650 1.7100 
*N *4:9 *C 3.8950 1.7100 
*N *4:10 *C 3.0000 1.7100 
*N *4:11 *C 2.9300 1.7100 

*CAP
0 *31:s 3.09493e-17
1 *29:s 1.25675e-16
2 *27:s 5.83645e-17
3 *70:s 1.78277e-17
4 *69:s 2.20128e-17
5 *67:s 1.02252e-17
6 *65:s 2.73936e-17
7 *55:s 3.40281e-17
8 *4:11 3.81659e-17
9 *4:9 3.77774e-17
10 *4:8 1.95256e-17
11 *4:6 2.05548e-17
12 *4:5 2.09975e-17
13 *4:2 1.88597e-17
14 *4:3 4.17507e-16
15 *4 3.12807e-16

*RES
0 *4:3 *4:4 7.5  // $metal1_conn
1 *4:3 *4:7 7.5  // $metal1_conn
2 *4:3 *4:10 7.5  // $metal1_conn
3 *4:3 *4 7.5  // $metal1_conn
4 *67:s *4:2 62.424  // $metal1_conn
5 *4:2 *65:s 62.178818  // $metal1_conn
6 *4:5 *55:s 20.935959  // $metal1_conn
7 *4:6 *27:s 62.442791  // $metal1_conn
8 *4:8 *70:s 62.045841  // $metal1_conn
9 *4:9 *69:s 62.045841  // $metal1_conn
10 *4:11 *31:s 62.131565  // $metal1_conn
11 *4:2 *4:4 0.228093  // $metal1_conn
12 *4:4 *4:5 0.218058  // $metal1_conn
13 *4:5 *4:6 0.521411  // $metal1_conn
14 *4:6 *4:7 0.263214  // $metal1_conn
15 *4:7 *4:8 0.317455  // $metal1_conn
16 *4:8 *4:9 0.233523  // $metal1_conn
17 *4:9 *4:10 0.447906  // $metal1_conn
18 *4:10 *4:11 0.034978  // $metal1_conn
19 *4:11 *29:s 0.270544  // $metal1_conn
20 *29:s *4 0.325735  // $metal1_conn

*END

*D_NET *12 0

*CONN
*P *12 I *C 0.1000 0.0000 
*I *49:s B *C 4.4200 0.5025 
*I *56:s B *C 5.6900 0.3850 
*I *59:s B *C 6.5750 0.4800 
*I *62:s B *C 6.5750 0.4800 
*I *68:s B *C 7.3400 0.4800 
*I *1:s B *C 7.8650 0.3700 
*I *2:s B *C 2.0850 0.5300 
*I *3:s B *C 2.6000 0.5575 
*I *5:s B *C 2.6000 0.5575 
*I *9:s B *C 3.7350 0.4575 
*I *11:s B *C 0.1100 0.5125 
*I *13:s B *C 0.5100 0.5125 
*I *14:s B *C 0.5100 0.5125 
*I *15:s B *C 0.9200 0.5125 
*I *16:s B *C 0.9200 0.5125 
*I *17:s B *C 1.3450 0.5125 
*I *18:s B *C 1.3450 0.5125 
*I *19:s B *C 2.0850 0.5300 
*N *12:2 *C 7.3500 0.0000 
*N *12:3 *C 7.0000 0.0000 
*N *12:4 *C 7.0000 0.0000 
*N *12:5 *C 6.5950 0.0000 
*N *12:6 *C 5.7200 0.0000 
*N *12:7 *C 5.0000 0.0000 
*N *12:8 *C 4.4100 0.0000 
*N *12:9 *C 3.7100 0.0000 
*N *12:10 *C 3.0000 0.0000 


*RES
0 *12:3 *12:4 6.2  // $metal1_conn
1 *12:3 *12:7 6.2  // $metal1_conn
2 *12:3 *12:10 6.2  // $metal1_conn
3 *12:3 *12 6.2  // $metal1_conn
4 *1:s *12:2 75.335236  // $metal1_conn
5 *12:2 *68:s 75.25589  // $metal1_conn
6 *12:5 *59:s 75.253685  // $metal1_conn
7 *12:6 *56:s 75.181831  // $metal1_conn
8 *12:8 *49:s 75.315269  // $metal1_conn
9 *12:9 *9:s 75.273109  // $metal1_conn
10 *12:2 *12:4 0.175411  // $metal1_conn
11 *12:4 *12:5 0.203006  // $metal1_conn
12 *12:5 *12:6 0.438625  // $metal1_conn
13 *12:6 *12:7 0.361053  // $metal1_conn
14 *12:7 *12:8 0.295827  // $metal1_conn
15 *12:8 *12:9 0.350822  // $metal1_conn
16 *12:9 *12:10 0.356035  // $metal1_conn
17 *12:10 *3:s 0.258197  // $metal1_conn
18 *3:s *12 0.378417  // $metal1_conn

*END

*D_NET *20 1.79156e-16

*CONN
*P *20 I *C 6.1000 1.0450 
*I *59:g B *C 6.1725 0.5375 
*I *55:g B *C 6.1725 1.1975 
*N *20:2 *C 6.1725 0.7850 
*N *20:3 *C 6.0750 0.7850 

*CAP
0 *55:g 2.23169e-17
1 *59:g 2.11617e-17
2 *20:2 1.5771e-17
3 *20:3 6.67745e-17
4 *20 5.31321e-17

*RES
0 *55:g *20:2 75.450439  // $poly_conn
1 *20:2 *20:3 49.953949  // $poly_conn
2 *20:2 *59:g 42.117107  // $poly_conn
3 *20 *20:3 0.128745  // $metal1_conn

*END

*D_NET *35 1.99511e-16

*CONN
*P *35 I *C 6.3000 0.8550 
*I *62:g B *C 6.6675 0.4800 
*I *58:g B *C 6.6675 1.2800 
*N *35:2 *C 6.6675 0.8400 
*N *35:3 *C 6.5500 0.8400 

*CAP
0 *58:g 3.76767e-17
1 *62:g 3.51689e-17
2 *35:2 2.33897e-17
3 *35:3 4.24676e-17
4 *35 6.08085e-17

*RES
0 *58:g *35:2 60.065826  // $poly_conn
1 *35:2 *35:3 52.081608  // $poly_conn
2 *35:2 *62:g 56.219673  // $poly_conn
3 *35:3 *35 0.137506  // $metal1_conn

*END

*D_NET *21 4.61239e-16

*CONN
*P *21 I *C 7.9000 0.8550 
*I *66:g B *C 7.1425 0.4800 
*I *1:g B *C 7.7675 0.5875 
*I *61:g B *C 7.0425 1.2800 
*I *67:g B *C 7.7675 1.1675 
*N *21:2 *C 7.1050 0.7600 
*N *21:4 *C 7.8900 0.7900 
*N *21:5 *C 7.7675 0.7900 

*CAP
0 *67:g 3.47412e-17
1 *61:g 5.92742e-17
2 *1:g 2.18351e-17
3 *66:g 6.48258e-17
4 *21:5 1.57268e-17
5 *21:2 1.75147e-16
6 *21:4 8.96885e-17

*RES
0 *66:g *21:2 28.975733  // $poly_conn
1 *21:2 *61:g 86.963654  // $poly_conn
2 *21:4 *21:5 52.613522  // $poly_conn
3 *21:5 *1:g 28.255793  // $poly_conn
4 *21:5 *67:g 64.153229  // $poly_conn
5 *21:2 *21:4 45.624508  // $metal1_conn
6 *21:4 *21 0.003704  // $metal1_conn

*END

*D_NET *23 3.21597e-16

*CONN
*P *23 I *C 7.5000 1.0450 
*I *68:g B *C 7.2475 0.4800 
*I *65:g B *C 7.3525 1.2800 
*N *23:2 *C 7.3800 0.9750 
*N *23:4 *C 7.3800 0.9750 
*N *23:5 *C 7.3800 1.0100 
*N *23:6 *C 7.5005 1.0100 

*CAP
0 *65:g 7.35512e-17
1 *68:g 7.75695e-17
2 *23:5 3.69098e-17
3 *23:2 5.72328e-17
4 *23 7.63335e-17

*RES
0 *65:g *23:2 19.691952  // $poly_conn
1 *23:2 *68:g 100.171608  // $poly_conn
2 *23:4 *23:5 0.005139  // $metal1_conn
3 *23:6 *23 0.005139  // $metal1_conn
4 *23:5 *23:6 0.052054  // $metal1_conn
5 *23:2 *23:4 45  // $metal1_conn

*END

*D_NET *24 6.90714e-16

*CONN
*P *24 I *C 2.5000 1.0450 
*I *5:g B *C 2.6475 0.5575 
*I *9:g B *C 3.8425 0.4575 
*I *69:g B *C 4.0275 1.2350 
*I *30:g B *C 2.5725 1.2550 
*N *24:2 *C 2.5450 0.9900 
*N *24:5 *C 3.8800 0.9800 
*N *24:7 *C 2.5450 0.9900 

*CAP
0 *30:g 3.58796e-17
1 *69:g 4.93659e-17
2 *9:g 6.71901e-17
3 *5:g 5.84984e-17
4 *24:2 2.14562e-16
5 *24:5 2.47984e-16
6 *24 1.7233e-17

*RES
0 *5:g *24:2 85.882225  // $poly_conn
1 *24:2 *30:g 16.530039  // $poly_conn
2 *69:g *24:5 32.248425  // $poly_conn
3 *24:5 *9:g 98.206505  // $poly_conn
4 *24:5 *24:7 46.44453  // $metal1_conn
5 *24:7 *24 0.020665  // $metal1_conn
6 *24:2 *24:7 45  // $metal1_conn

*END

*D_NET *43 5.22048e-16

*CONN
*P *43 O *C 1.1000 0.6650 
*I *11:d B *C 0.3050 0.5125 
*I *13:d B *C 0.3050 0.5125 
*I *14:d B *C 0.7150 0.5125 
*I *15:d B *C 0.7150 0.5125 
*I *16:d B *C 1.1250 0.5125 
*I *17:d B *C 1.1250 0.5125 
*I *18:d B *C 1.5975 0.5125 
*I *36:d B *C 0.3050 1.1225 
*I *37:d B *C 0.3050 1.1225 
*I *38:d B *C 0.7150 1.1225 
*I *39:d B *C 0.7150 1.1225 
*I *40:d B *C 1.1250 1.1225 
*I *41:d B *C 1.1250 1.1225 
*I *42:d B *C 1.5750 0.9750 

*CAP
0 *43 5.22048e-16


*END

*D_NET *78 1.38234e-18

*CONN
*I *66:s B *C 7.1950 0.4800 
*I *68:d B *C 7.1950 0.4800 

*CAP
0 *66:s 1.38234e-18

*RES
0 *68:d *66:s 0.001  // $mwires

*END

*D_NET *77 7.84513e-18

*CONN
*I *62:d B *C 6.8025 0.4800 
*I *64:s B *C 6.8025 0.4800 

*CAP
0 *62:d 7.84513e-18

*RES
0 *64:s *62:d 0.001  // $mwires

*END

*D_NET *76 2.11114e-18

*CONN
*I *49:d B *C 4.5850 0.5025 
*I *51:s B *C 4.5850 0.5025 

*CAP
0 *49:d 2.11114e-18

*RES
0 *51:s *49:d 0.001  // $mwires

*END

*D_NET *75 5.63371e-19

*CONN
*I *9:d B *C 3.9000 0.4575 
*I *10:s B *C 3.9000 0.4575 

*CAP
0 *9:d 5.63371e-19

*RES
0 *10:s *9:d 0.001  // $mwires

*END

*D_NET *74 1.98903e-18

*CONN
*I *6:d B *C 2.9175 0.5575 
*I *7:s B *C 2.9175 0.5575 

*CAP
0 *6:d 1.98903e-18

*RES
0 *7:s *6:d 0.001  // $mwires

*END

*D_NET *73 3.46215e-18

*CONN
*I *5:d B *C 2.7375 0.5575 
*I *6:s B *C 2.7375 0.5575 

*CAP
0 *5:d 3.46215e-18

*RES
0 *6:s *5:d 0.001  // $mwires

*END

*D_NET *72 1.69039e-18

*CONN
*I *63:s B *C 7.3000 1.2800 
*I *65:d B *C 7.3000 1.2800 

*CAP
0 *63:s 1.69039e-18

*RES
0 *65:d *63:s 0.001  // $mwires

*END

*D_NET *60 9.83433e-18

*CONN
*I *58:d B *C 6.8550 1.2800 
*I *61:s B *C 6.8550 1.2800 

*CAP
0 *58:d 9.83433e-18

*RES
0 *61:s *58:d 0.001  // $mwires

*END

*D_NET *57 5.91966e-18

*CONN
*I *71:d B *C 4.5775 1.2350 
*I *25:s B *C 4.5775 1.2350 

*CAP
0 *71:d 5.91966e-18

*RES
0 *25:s *71:d 0.001  // $mwires

*END

*D_NET *54 7.91024e-16

*CONN
*I *53:s B *C 5.0525 0.5025 
*I *64:d B *C 7.0400 0.4800 
*I *66:d B *C 7.0400 0.4800 
*I *61:d B *C 7.1450 1.2800 
*I *63:d B *C 7.1450 1.2800 
*I *26:s B *C 5.0525 1.2350 
*N *54:2 *C 6.7550 0.5700 
*N *54:4 *C 5.1100 0.4600 

*CAP
0 *26:s 1.02711e-16
1 *61:d 1.11353e-16
2 *64:d 5.03026e-17
3 *53:s 2.82114e-16
4 *54:2 2.44543e-16

*RES
0 *64:d *54:2 75.300446  // $metal1_conn
1 *54:2 *54:4 1.531121  // $metal1_conn
2 *54:2 *61:d 62.865467  // $metal1_conn
3 *54:4 *26:s 62.534737  // $metal1_conn
4 *53:s *54:4 75  // $metal1_conn

*END

*D_NET *52 8.60951e-16

*CONN
*I *51:g B *C 4.6575 0.5025 
*I *56:d B *C 5.3250 0.4525 
*I *8:g B *C 3.2875 0.5575 
*I *26:g B *C 4.9125 1.2350 
*I *27:d B *C 5.3300 1.0075 
*I *32:g B *C 3.3375 1.0550 
*N *52:3 *C 3.3650 1.4800 
*N *52:5 *C 4.9500 0.9800 
*N *52:7 *C 4.9500 1.3300 
*N *52:9 *C 5.3200 0.9600 

*CAP
0 *32:g 4.73974e-17
1 *27:d 1.07248e-16
2 *26:g 3.03815e-17
3 *8:g 4.60915e-17
4 *56:d 7.35257e-17
5 *51:g 6.94448e-17
6 *52:7 1.50675e-16
7 *52:3 2.26714e-16
8 *52:5 1.09473e-16

*RES
0 *8:g *32:g 62.530941  // $poly_conn
1 *32:g *52:3 105.71759  // $poly_conn
2 *26:g *52:5 16.15522  // $poly_conn
3 *52:5 *51:g 135.310608  // $poly_conn
4 *52:5 *52:7 45.258686  // $metal1_conn
5 *52:7 *52:9 0.561136  // $metal1_conn
6 *52:7 *52:3 1.278  // $metal1_conn
7 *52:9 *56:d 75.375664  // $metal1_conn
8 *27:d *52:9 62  // $metal1_conn

*END

*D_NET *50 9.10906e-16

*CONN
*I *2:d B *C 2.3000 0.5300 
*I *3:d B *C 2.3000 0.5300 
*I *6:g B *C 2.8275 0.5575 
*I *11:g B *C 0.2025 0.5125 
*I *13:g B *C 0.4075 0.5125 
*I *14:g B *C 0.6125 0.5125 
*I *15:g B *C 0.8175 0.5125 
*I *16:g B *C 1.0225 0.5125 
*I *17:g B *C 1.2275 0.5125 
*I *18:g B *C 1.4625 0.5125 
*I *19:d B *C 1.8900 0.5300 
*I *28:d B *C 2.1850 1.0950 
*I *29:d B *C 2.1850 1.0950 
*I *31:g B *C 2.8275 1.2550 
*I *34:d B *C 1.8050 1.0950 
*I *36:g B *C 0.2025 1.1225 
*I *37:g B *C 0.4075 1.1225 
*I *38:g B *C 0.6125 1.1225 
*I *39:g B *C 0.8175 1.1225 
*I *40:g B *C 1.0225 1.1225 
*I *41:g B *C 1.2275 1.1225 
*I *42:g B *C 1.4325 1.1225 
*N *50:24 *C 2.8650 0.7600 

*CAP
0 *42:g 3.48797e-16
1 *31:g 5.33576e-17
2 *28:d 3.49528e-16
3 *6:g 3.80525e-17
4 *50:24 1.2117e-16

*RES
0 *31:g *50:24 77.69368  // $poly_conn
1 *50:24 *6:g 16.15522  // $poly_conn
2 *28:d *42:g 45.53318  // $metal1_conn
3 *50:24 *28:d 45.507133  // $metal1_conn

*END

*D_NET *48 5.33949e-16

*CONN
*I *2:g B *C 2.1875 0.5300 
*I *3:g B *C 2.4125 0.5300 
*I *7:d B *C 3.1475 0.5575 
*I *8:d B *C 3.1475 0.5575 
*I *19:g B *C 1.9825 0.5300 
*I *28:g B *C 2.0825 1.0950 
*I *29:g B *C 2.2875 1.0950 
*I *32:d B *C 3.4400 1.0550 
*I *33:d B *C 3.4400 1.0550 
*I *34:g B *C 1.8775 1.0950 
*N *48:11 *C 3.1900 0.9800 

*CAP
0 *32:d 4.00939e-17
1 *29:g 3.0277e-16
2 *7:d 7.04051e-17
3 *48:11 1.2068e-16

*RES
0 *29:g *48:11 45.754299  // $metal1_conn
1 *48:11 *32:d 62.18486  // $metal1_conn
2 *48:11 *7:d 75.314278  // $metal1_conn

*END

*D_NET *47 5.36466e-16

*CONN
*I *49:g B *C 4.5125 0.5025 
*I *8:s B *C 3.3800 0.5575 
*I *10:d B *C 4.0500 0.4575 
*I *69:d B *C 4.1300 1.2350 
*I *70:d B *C 4.1300 1.2350 
*I *71:g B *C 4.4975 1.2350 
*I *33:s B *C 3.6850 0.9600 
*N *47:2 *C 4.5050 0.8100 
*N *47:3 *C 4.4400 0.8100 
*N *47:5 *C 4.0500 0.8150 
*N *47:6 *C 3.6450 0.8200 

*CAP
0 *33:s 2.37222e-17
1 *71:g 6.9385e-17
2 *69:d 5.94625e-17
3 *10:d 5.10707e-17
4 *8:s 6.11878e-17
5 *49:g 3.67067e-17
6 *47:6 5.73451e-17
7 *47:5 6.94411e-17
8 *47:3 1.08145e-16

*RES
0 *49:g *47:2 51.583389  // $poly_conn
1 *47:2 *47:3 48.583992  // $poly_conn
2 *47:2 *71:g 68.250053  // $poly_conn
3 *47:3 *47:5 0.310256  // $metal1_conn
4 *47:5 *47:6 0.332543  // $metal1_conn
5 *47:6 *8:s 75.359726  // $metal1_conn
6 *47:5 *10:d 75.217491  // $metal1_conn
7 *47:5 *69:d 62.260864  // $metal1_conn
8 *47:6 *33:s 62.073105  // $metal1_conn

*END

*D_NET *46 6.22448e-16

*CONN
*I *64:g B *C 6.9375 0.4800 
*I *1:d B *C 7.6750 0.5875 
*I *63:g B *C 7.2475 1.2800 
*I *67:d B *C 7.6750 1.1675 
*N *46:2 *C 6.9000 0.8400 
*N *46:4 *C 7.1900 0.9850 

*CAP
0 *67:d 7.86399e-17
1 *63:g 7.07397e-17
2 *1:d 1.01607e-16
3 *64:g 4.07381e-17
4 *46:2 1.87268e-16
5 *46:4 1.43455e-16

*RES
0 *64:g *46:2 94.488556  // $poly_conn
1 *63:g *46:4 65.156593  // $poly_conn
2 *67:d *46:4 62.519127  // $metal1_conn
3 *46:4 *46:2 0.297414  // $metal1_conn
4 *46:2 *1:d 75.744926  // $metal1_conn

*END

*D_NET *45 1.32116e-15

*CONN
*I *53:g B *C 4.9125 0.5025 
*I *56:g B *C 5.4225 0.4525 
*I *59:d B *C 6.0800 0.5375 
*I *7:g B *C 3.0075 0.5575 
*I *55:d B *C 6.0800 1.1975 
*I *25:g B *C 4.6575 1.2350 
*I *27:g B *C 5.4225 1.0075 
*I *33:g B *C 3.5425 1.0550 
*N *45:2 *C 3.0350 0.7900 
*N *45:4 *C 3.5800 0.6600 
*N *45:6 *C 4.6300 0.9200 
*N *45:8 *C 5.4225 0.6875 
*N *45:9 *C 4.9500 0.7050 
*N *45:11 *C 5.4600 0.6250 
*N *45:13 *C 4.5700 0.6500 
*N *45:15 *C 5.8850 0.6250 

*CAP
0 *33:g 5.06063e-17
1 *27:g 1.98188e-17
2 *25:g 4.81246e-17
3 *55:d 6.70638e-17
4 *7:g 4.07039e-17
5 *59:d 4.80598e-17
6 *56:g 2.13655e-17
7 *53:g 2.10609e-17
8 *45:15 7.86887e-17
9 *45:13 2.14103e-16
10 *45:8 2.10377e-17
11 *45:2 1.57459e-16
12 *45:4 2.43806e-16
13 *45:6 9.16995e-17
14 *45:9 1.46376e-16
15 *45:11 5.11889e-17

*RES
0 *7:g *45:2 69.82016  // $poly_conn
1 *33:g *45:4 97.052658  // $poly_conn
2 *25:g *45:6 77.512466  // $poly_conn
3 *27:g *45:8 53.903908  // $poly_conn
4 *45:8 *45:9 108.412292  // $poly_conn
5 *45:9 *53:g 16.15522  // $poly_conn
6 *45:8 *45:11 9.358767  // $poly_conn
7 *45:11 *56:g 16.565342  // $poly_conn
8 *45:9 *45:13 45.784542  // $metal1_conn
9 *45:13 *45:4 1.124494  // $metal1_conn
10 *45:4 *45:2 0.847342  // $metal1_conn
11 *45:13 *45:6 0.250118  // $metal1_conn
12 *59:d *45:15 75.153786  // $metal1_conn
13 *45:15 *45:11 45.324326  // $metal1_conn
14 *45:15 *55:d 62.523853  // $metal1_conn

*END

*D_NET *44 4.85952e-16

*CONN
*I *51:d B *C 4.7850 0.5025 
*I *53:d B *C 4.7850 0.5025 
*I *10:g B *C 3.9575 0.4575 
*I *70:g B *C 4.2325 1.2350 
*I *25:d B *C 4.7850 1.2350 
*I *26:d B *C 4.7850 1.2350 
*N *44:2 *C 4.2600 0.9700 
*N *44:6 *C 4.7900 1.1400 

*CAP
0 *25:d 1.12669e-16
1 *70:g 4.7446e-17
2 *10:g 9.281e-17
3 *51:d 9.31596e-17
4 *44:2 1.39867e-16

*RES
0 *70:g *44:2 19.691952  // $poly_conn
1 *44:2 *10:g 155.299805  // $poly_conn
2 *51:d *44:6 75.502007  // $metal1_conn
3 *44:6 *44:2 45.478134  // $metal1_conn
4 *25:d *44:6 62  // $metal1_conn

*END

*D_NET *22 1.90292e-16

*CONN
*I *30:d B *C 2.7000 1.2550 
*I *31:d B *C 2.7000 1.2550 
*I *32:s B *C 3.2650 1.0550 

*CAP
0 *32:s 9.37888e-17
1 *30:d 9.65035e-17

*RES
0 *32:s *30:d 124.306641  // $metal1_conn

*END

