*SPEF "IEEE 1481-1999"
*DESIGN  "SDFFQX2"
*DATE "Mon Sep 27 11:00:14 2010"
*VENDOR "Cadence Design Systems"
*PROGRAM "Assura RCX"
*VERSION "3.2 Red Hat Linux release 7.2 (Enigma) - (09/09/2009-10:39)"
*DESIGN_FLOW "Physical Verification"
*DIVIDER /
*DELIMITER :
*BUS_DELIMITER []
*T_UNIT 1 PS
*C_UNIT 1e15 FF
*R_UNIT 1 OHM
*L_UNIT 1 MH
// DeviceFingerDelim "@"
// MATCHED
// caps2d version: 10

*NAME_MAP
*1 mp55
*2 mp55\@1
*3 mp20
*4 mp45
*5 mp50
*6 mp51
*7 mp40
*8 mp30
*9 VDD
*10 mn36
*11 mn35
*12 mn25
*13 mn21
*14 mn11
*15 VSS
*16 mn12
*17 mp35
*18 mn14
*19 mp36
*20 mn13
*21 mp25
*22 mn10
*23 mp21
*24 mp11
*25 mp12
*26 n30
*27 mp14
*28 SEb
*29 mp13
*30 qbint
*31 mp10
*32 Db
*33 CKbb
*34 CKb
*35 n8
*36 n6
*37 n2
*38 CK
*39 n4
*40 n7
*41 n5
*42 n1
*43 n3
*44 D
*45 SE
*46 mn55
*47 SI
*48 mn55\@1
*49 mn20
*50 mn45
*51 mn50
*52 mn51
*53 mn40
*54 mn30
*55 mout
*56 n20
*57 Q

*GROUND_NETS VSS

*PORTS
*9 I
*15 I
*38 I
*44 I
*45 I
*47 I
*57 O

*D_NET *9 6.45723e-16

*CONN
*P *9 I *C 0.1000 1.7100 
*I *17:s B *C 2.4750 1.1725 
*I *23:s B *C 3.4850 1.2475 
*I *24:s B *C 3.4850 1.2475 
*I *29:s B *C 4.2900 1.2475 
*I *31:s B *C 4.2900 1.2475 
*I *1:s B *C 0.1400 1.0950 
*I *2:s B *C 0.6275 1.1825 
*I *3:s B *C 0.6275 1.1825 
*I *4:s B *C 1.3800 1.1725 
*I *5:s B *C 1.3800 1.1725 
*I *8:s B *C 2.4750 1.1725 
*N *9:2 *C 3.6000 1.7100 
*N *9:3 *C 3.6000 1.7100 
*N *9:4 *C 3.4850 1.7100 
*N *9:5 *C 2.3900 1.7100 
*N *9:6 *C 1.2650 1.7100 
*N *9:7 *C 1.2000 1.7100 

*CAP
0 *4:s 3.23003e-17
1 *29:s 5.08526e-17
2 *23:s 3.98145e-17
3 *17:s 1.54151e-17
4 *9:6 2.3731e-17
5 *9:5 5.62518e-17
6 *9:4 2.13168e-17
7 *9:2 3.12654e-16
8 *9 9.33871e-17

*RES
0 *9:2 *9:3 6.25  // $metal1_conn
1 *9:2 *9:7 6.25  // $metal1_conn
2 *29:s *9:3 62.649925  // $metal1_conn
3 *9:4 *23:s 62.259247  // $metal1_conn
4 *9:5 *17:s 62.074516  // $metal1_conn
5 *9:6 *4:s 62.210781  // $metal1_conn
6 *9:3 *9:4 0.057465  // $metal1_conn
7 *9:4 *9:5 0.54864  // $metal1_conn
8 *9:5 *9:6 0.563682  // $metal1_conn
9 *9:6 *9:7 0.032389  // $metal1_conn
10 *9:7 *9 0.330727  // $metal1_conn

*END

*D_NET *15 0

*CONN
*P *15 I *C 0.1000 0.0000 
*I *10:s B *C 2.4750 0.5875 
*I *13:s B *C 3.4850 0.4775 
*I *14:s B *C 3.4850 0.4775 
*I *20:s B *C 4.3400 0.4775 
*I *22:s B *C 4.3400 0.4775 
*I *46:s B *C 0.1400 0.3600 
*I *48:s B *C 0.6250 0.4175 
*I *49:s B *C 0.6250 0.4175 
*I *50:s B *C 1.3650 0.5875 
*I *51:s B *C 1.3650 0.5875 
*I *54:s B *C 2.4750 0.5875 
*N *15:2 *C 3.6000 0.0000 
*N *15:3 *C 3.6000 0.0000 
*N *15:4 *C 3.4850 0.0000 
*N *15:5 *C 2.3900 0.0000 
*N *15:6 *C 1.2000 0.0000 


*RES
0 *48:s *15 0.015094  // $metal1_conn
1 *15:2 *15:3 5.166667  // $metal1_conn
2 *15:2 *15:6 5.166667  // $metal1_conn
3 *20:s *15:3 75.709198  // $metal1_conn
4 *15:4 *13:s 75.297379  // $metal1_conn
5 *15:5 *10:s 75.045807  // $metal1_conn
6 *15:6 *50:s 75.3508  // $metal1_conn
7 *15:3 *15:4 0.057465  // $metal1_conn
8 *15:4 *15:5 0.547691  // $metal1_conn
9 *15:5 *15:6 0.596133  // $metal1_conn
10 *15:6 *48:s 0.330727  // $metal1_conn

*END

*D_NET *38 2.21156e-16

*CONN
*P *38 I *C 0.7000 0.8550 
*I *49:g B *C 0.6725 0.4175 
*I *3:g B *C 0.7175 1.1825 
*N *38:2 *C 0.6900 0.6700 

*CAP
0 *3:g 4.08428e-17
1 *49:g 4.01252e-17
2 *38:2 8.36552e-17
3 *38 5.65329e-17

*RES
0 *3:g *38:2 93.039703  // $poly_conn
1 *38:2 *49:g 35.347393  // $poly_conn
2 *38 *38:2 45.110947  // $metal1_conn

*END

*D_NET *44 2.7479e-16

*CONN
*P *44 I *C 3.3000 0.8550 
*I *14:g B *C 3.5875 0.4775 
*I *24:g B *C 3.5875 1.2475 
*N *44:2 *C 3.4600 0.8500 

*CAP
0 *24:g 4.6084e-17
1 *14:g 3.56573e-17
2 *44:2 1.08598e-16
3 *44 8.4451e-17

*RES
0 *24:g *44:2 79.658791  // $poly_conn
1 *44:2 *14:g 82.222893  // $poly_conn
2 *44:2 *44 45.065166  // $metal1_conn

*END

*D_NET *45 4.92351e-16

*CONN
*P *45 I *C 4.1000 0.6650 
*I *18:g B *C 4.1275 0.4775 
*I *22:g B *C 4.4475 0.4775 
*I *25:g B *C 3.8075 1.2475 
*I *31:g B *C 4.3925 1.2475 
*N *45:2 *C 3.7800 0.9000 
*N *45:6 *C 4.4200 0.6750 

*CAP
0 *31:g 4.96332e-17
1 *25:g 4.08947e-17
2 *22:g 2.50967e-17
3 *18:g 6.51219e-17
4 *45:2 1.00487e-16
5 *45:6 9.37259e-17
6 *45 1.17392e-16

*RES
0 *25:g *45:2 98.025284  // $poly_conn
1 *18:g *45 68.538101  // $poly_conn
2 *22:g *45:6 23.538105  // $poly_conn
3 *45:6 *31:g 110.717598  // $poly_conn
4 *45:6 *45 45.239059  // $metal1_conn
5 *45 *45:2 0.385899  // $metal1_conn

*END

*D_NET *47 3.22871e-16

*CONN
*P *47 I *C 4.5000 0.8550 
*I *20:g B *C 4.2325 0.4775 
*I *29:g B *C 4.1875 1.2475 
*N *47:2 *C 4.2600 0.8350 

*CAP
0 *29:g 6.32454e-17
1 *20:g 6.7175e-17
2 *47:2 1.03784e-16
3 *47 8.86663e-17

*RES
0 *20:g *47:2 64.563744  // $poly_conn
1 *47:2 *29:g 69.402382  // $poly_conn
2 *47:2 *47 45.134464  // $metal1_conn

*END

*D_NET *57 1.36824e-16

*CONN
*P *57 O *C 0.3000 0.6650 
*I *46:d B *C 0.3350 0.3600 
*I *48:d B *C 0.3350 0.3600 
*I *1:d B *C 0.3350 1.0950 
*I *2:d B *C 0.3350 1.0950 
*N *57:2 *C 0.3350 0.6650 

*CAP
0 *1:d 7.41832e-17
1 *46:d 2.14808e-17
2 *57:2 3.20374e-17
3 *57 9.12214e-18

*RES
0 *57:2 *57 0.002177  // $metal1_conn
1 *57:2 *46:d 75.189796  // $metal1_conn
2 *1:d *57:2 20.989737  // $metal1_conn

*END

*D_NET *43 0

*CONN
*I *18:s B *C 4.1800 0.4775 
*I *20:d B *C 4.1800 0.4775 


*RES
0 *20:d *18:s 0.001  // $mwires

*END

*D_NET *42 8.20369e-18

*CONN
*I *14:d B *C 3.7550 0.4775 
*I *16:s B *C 3.7550 0.4775 

*CAP
0 *14:d 8.20369e-18

*RES
0 *16:s *14:d 0.001  // $mwires

*END

*D_NET *41 0

*CONN
*I *10:d B *C 2.5750 0.5875 
*I *11:s B *C 2.5750 0.5875 


*RES
0 *11:s *10:d 0.001  // $mwires

*END

*D_NET *40 4.3707e-18

*CONN
*I *51:d B *C 1.5275 0.5875 
*I *52:s B *C 1.5275 0.5875 

*CAP
0 *51:d 4.3707e-18

*RES
0 *52:s *51:d 0.001  // $mwires

*END

*D_NET *39 0

*CONN
*I *27:s B *C 4.1100 1.2475 
*I *29:d B *C 4.1100 1.2475 


*RES
0 *29:d *27:s 0.001  // $mwires

*END

*D_NET *37 0

*CONN
*I *24:d B *C 3.6975 1.2475 
*I *25:s B *C 3.6975 1.2475 


*RES
0 *25:s *24:d 0.001  // $mwires

*END

*D_NET *36 0

*CONN
*I *17:d B *C 2.5750 1.1725 
*I *19:s B *C 2.5750 1.1725 


*RES
0 *19:s *17:d 0.001  // $mwires

*END

*D_NET *35 8.26379e-18

*CONN
*I *5:d B *C 1.6175 1.1725 
*I *6:s B *C 1.6175 1.1725 

*CAP
0 *5:d 8.26379e-18

*RES
0 *6:s *5:d 0.001  // $mwires

*END

*D_NET *34 9.98735e-16

*CONN
*I *12:g B *C 2.8775 0.5875 
*I *13:g B *C 3.3825 0.4775 
*I *49:d B *C 0.8125 0.4175 
*I *52:g B *C 1.6425 0.5875 
*I *19:g B *C 2.6275 1.1725 
*I *23:g B *C 3.3825 1.2475 
*I *3:d B *C 0.8300 1.1825 
*I *7:g B *C 2.0125 1.1725 
*N *34:2 *C 1.6050 0.8350 
*N *34:4 *C 1.9750 1.4150 
*N *34:6 *C 3.3275 0.7575 
*N *34:7 *C 2.8775 0.7575 
*N *34:11 *C 2.6650 1.3800 
*N *34:12 *C 1.5750 1.2000 
*N *34:14 *C 0.8600 1.2300 

*CAP
0 *7:g 4.82972e-17
1 *3:d 1.09796e-16
2 *23:g 6.21249e-17
3 *19:g 7.06896e-17
4 *52:g 4.35117e-17
5 *49:d 1.06695e-16
6 *13:g 2.79607e-17
7 *12:g 3.81361e-17
8 *34:12 9.00938e-17
9 *34:7 5.66241e-17
10 *34:6 6.0032e-17
11 *34:2 8.57603e-17
12 *34:4 1.0996e-16
13 *34:11 8.90532e-17

*RES
0 *52:g *34:2 80.385986  // $poly_conn
1 *7:g *34:4 70.129578  // $poly_conn
2 *23:g *34:6 99.199448  // $poly_conn
3 *34:6 *34:7 109.533089  // $poly_conn
4 *34:7 *19:g 124.054665  // $poly_conn
5 *34:6 *13:g 54.327656  // $poly_conn
6 *34:7 *12:g 20.300484  // $poly_conn
7 *19:g *34:11 61.15522  // $poly_conn
8 *34:11 *34:4 0.466592  // $metal1_conn
9 *34:4 *34:12 0.395329  // $metal1_conn
10 *34:12 *34:14 0.472293  // $metal1_conn
11 *34:12 *34:2 0.269576  // $metal1_conn
12 *34:14 *49:d 75.645187  // $metal1_conn
13 *3:d *34:14 62  // $metal1_conn

*END

*D_NET *33 7.95127e-16

*CONN
*I *11:g B *C 2.6275 0.5875 
*I *13:d B *C 3.2900 0.4775 
*I *53:g B *C 1.9175 0.5875 
*I *21:g B *C 2.8825 1.1725 
*I *23:d B *C 3.2900 1.2475 
*I *6:g B *C 1.8075 1.1725 
*N *33:2 *C 1.9550 0.7600 
*N *33:4 *C 2.7350 0.4100 
*N *33:7 *C 2.9200 0.9200 
*N *33:9 *C 2.9200 0.4100 

*CAP
0 *6:g 5.11763e-17
1 *23:d 1.11482e-18
2 *21:g 4.02975e-17
3 *53:g 2.13137e-17
4 *13:d 5.27091e-17
5 *11:g 7.70197e-17
6 *33:9 6.35246e-17
7 *33:2 1.47631e-16
8 *33:4 1.15973e-16
9 *33:7 2.24368e-16

*RES
0 *53:g *33:2 16.15522  // $poly_conn
1 *33:2 *6:g 92.010429  // $poly_conn
2 *33:4 *11:g 72.237526  // $poly_conn
3 *21:g *33:7 72.69368  // $poly_conn
4 *23:d *33:7 62.578396  // $metal1_conn
5 *33:7 *33:9 0.375308  // $metal1_conn
6 *33:9 *33:4 0.135574  // $metal1_conn
7 *33:4 *33:2 45.778  // $metal1_conn
8 *33:9 *13:d 75.248161  // $metal1_conn

*END

*D_NET *32 4.40925e-16

*CONN
*I *12:d B *C 3.0200 0.5875 
*I *16:d B *C 4.0250 0.4775 
*I *18:d B *C 4.0250 0.4775 
*I *21:s B *C 3.0225 1.1725 
*I *25:d B *C 3.9200 1.2475 
*I *27:d B *C 3.9200 1.2475 
*N *32:2 *C 3.6325 1.1050 
*N *32:4 *C 3.0800 1.1250 

*CAP
0 *25:d 4.27237e-17
1 *21:s 1.04856e-16
2 *16:d 8.52925e-17
3 *12:d 8.28301e-17
4 *32:2 1.25222e-16

*RES
0 *16:d *32:2 75.695091  // $metal1_conn
1 *32:2 *32:4 0.434669  // $metal1_conn
2 *32:2 *25:d 62.266468  // $metal1_conn
3 *32:4 *12:d 75.421715  // $metal1_conn
4 *21:s *32:4 62  // $metal1_conn

*END

*D_NET *30 6.33923e-16

*CONN
*I *46:g B *C 0.2325 0.3600 
*I *48:g B *C 0.4375 0.3600 
*I *50:d B *C 1.0850 0.5575 
*I *51:g B *C 1.4125 0.5875 
*I *1:g B *C 0.2325 1.0950 
*I *2:g B *C 0.4375 1.0950 
*I *4:d B *C 1.0700 1.0550 
*I *5:g B *C 1.4275 1.1725 
*N *30:6 *C 0.4950 0.5900 
*N *30:9 *C 1.3850 0.9500 
*N *30:12 *C 1.0600 0.9600 
*N *30:14 *C 1.0750 0.5150 

*CAP
0 *5:g 3.08475e-17
1 *4:d 6.54046e-17
2 *2:g 1.42896e-16
3 *51:g 4.86432e-17
4 *50:d 1.22041e-16
5 *30:6 1.4147e-16
6 *30:9 8.2621e-17

*RES
0 *5:g *30:9 20.079733  // $poly_conn
1 *30:9 *51:g 62.683887  // $poly_conn
2 *2:g *30:6 48.256718  // $poly_conn
3 *30:9 *30:12 45.227097  // $metal1_conn
4 *30:14 *30:6 0.833899  // $metal1_conn
5 *50:d *30:14 75  // $metal1_conn
6 *4:d *30:12 62  // $metal1_conn
7 *30:12 *30:14 0.330576  // $metal1_conn

*END

*D_NET *28 4.01421e-16

*CONN
*I *16:g B *C 3.9225 0.4775 
*I *22:d B *C 4.5400 0.4775 
*I *27:g B *C 4.0325 1.2475 
*I *31:d B *C 4.4850 1.2475 
*N *28:2 *C 3.9950 0.9100 
*N *28:5 *C 4.4950 1.1050 

*CAP
0 *31:d 1.29976e-17
1 *27:g 4.61627e-17
2 *22:d 7.01296e-17
3 *16:g 5.77747e-17
4 *28:5 1.05721e-16
5 *28:2 1.08636e-16

*RES
0 *27:g *28:2 51.758862  // $poly_conn
1 *28:2 *16:g 85.790749  // $poly_conn
2 *22:d *28:5 75.703499  // $metal1_conn
3 *28:5 *28:2 45.48283  // $metal1_conn
4 *28:5 *31:d 62.04937  // $metal1_conn

*END

*D_NET *26 3.45221e-16

*CONN
*I *50:g B *C 1.1775 0.5575 
*I *52:d B *C 1.7800 0.5875 
*I *53:s B *C 1.7800 0.5875 
*I *4:g B *C 1.1625 1.0550 
*I *6:d B *C 1.9100 1.1725 
*I *7:d B *C 1.9100 1.1725 
*N *26:2 *C 1.1700 0.7600 
*N *26:4 *C 1.2350 0.7600 
*N *26:6 *C 1.7950 0.6750 

*CAP
0 *6:d 6.59458e-17
1 *4:g 5.30128e-17
2 *52:d 2.23153e-17
3 *50:g 2.9365e-17
4 *26:6 7.02564e-17
5 *26:2 2.99822e-17
6 *26:4 7.43439e-17

*RES
0 *50:g *26:2 24.984648  // $poly_conn
1 *26:2 *4:g 35.241058  // $poly_conn
2 *26:2 *26:4 49.105961  // $poly_conn
3 *52:d *26:6 75.064087  // $metal1_conn
4 *26:6 *26:4 0.431628  // $metal1_conn
5 *26:6 *6:d 62.387512  // $metal1_conn

*END

*D_NET *56 3.12498e-16

*CONN
*I *11:d B *C 2.7525 0.5875 
*I *12:s B *C 2.7525 0.5875 
*I *54:g B *C 2.2575 0.5875 
*I *19:d B *C 2.7550 1.1725 
*I *21:d B *C 2.7550 1.1725 
*I *8:g B *C 2.2575 1.1725 
*N *56:2 *C 2.3050 0.9450 
*N *56:5 *C 2.7150 0.9450 

*CAP
0 *8:g 4.05067e-17
1 *19:d 3.36803e-17
2 *54:g 4.29278e-17
3 *11:d 5.17714e-17
4 *56:5 5.67408e-17
5 *56:2 8.68714e-17

*RES
0 *8:g *56:2 21.283424  // $poly_conn
1 *56:2 *54:g 63.591114  // $poly_conn
2 *19:d *56:5 62.141804  // $metal1_conn
3 *56:5 *56:2 45.273453  // $metal1_conn
4 *56:5 *11:d 75.197189  // $metal1_conn

*END

*D_NET *55 3.5653e-16

*CONN
*I *10:g B *C 2.5225 0.5875 
*I *53:d B *C 2.0875 0.5875 
*I *54:d B *C 2.0875 0.5875 
*I *17:g B *C 2.5225 1.1725 
*I *7:s B *C 2.1350 1.1725 
*I *8:d B *C 2.1350 1.1725 
*N *55:2 *C 2.4850 0.7850 
*N *55:4 *C 2.1150 0.7850 

*CAP
0 *7:s 3.83923e-17
1 *17:g 8.04442e-17
2 *53:d 3.54883e-17
3 *10:g 5.47963e-17
4 *55:4 4.5641e-17
5 *55:2 1.01768e-16

*RES
0 *17:g *55:2 62.309063  // $poly_conn
1 *55:2 *10:g 22.565475  // $poly_conn
2 *55:2 *55:4 45.256107  // $metal1_conn
3 *55:4 *7:s 62.239601  // $metal1_conn
4 *55:4 *53:d 75.137085  // $metal1_conn

*END

