*SPEF "IEEE 1481-1999"
*DESIGN  "SDFFRHQX2"
*DATE "Mon Sep 27 11:01:45 2010"
*VENDOR "Cadence Design Systems"
*PROGRAM "Assura RCX"
*VERSION "3.2 Red Hat Linux release 7.2 (Enigma) - (09/09/2009-10:39)"
*DESIGN_FLOW "Physical Verification"
*DIVIDER /
*DELIMITER :
*BUS_DELIMITER []
*T_UNIT 1 PS
*C_UNIT 1e15 FF
*R_UNIT 1 OHM
*L_UNIT 1 MH
// DeviceFingerDelim "@"
// MATCHED
// caps2d version: 10

*NAME_MAP
*1 mn20
*2 mn46
*3 mn45
*4 mn50
*5 mn51
*6 mn40
*7 RN
*8 mp10
*9 mp55
*10 SE
*11 mp55\@1
*12 mp20
*13 mp46
*14 mp45
*15 SI
*16 mp50
*17 mp51
*18 mp40
*19 mp30
*20 mout
*21 mp35
*22 SEb
*23 mp36
*24 n20
*25 mp37
*26 n30
*27 mp25
*28 Db
*29 mp21
*30 qbint
*31 mp11
*32 CKbb
*33 mp12
*34 CKb
*35 mp14
*36 net326
*37 mp13
*38 net381
*39 net373
*40 CK
*41 net337
*42 net405
*43 net426
*44 net422
*45 net450
*46 net442
*47 VSS
*48 D
*49 mn35
*50 mn36
*51 mn37
*52 mn25
*53 Q
*54 mn21
*55 VDD
*56 mn11
*57 mn12
*58 mn14
*59 mn13
*60 net349
*61 mn10
*62 mn30
*63 mn55
*64 mn55\@1

*GROUND_NETS VSS

*PORTS
*55 I
*47 I
*40 I
*48 I
*7 I
*10 I
*15 I
*53 O

*D_NET *55 7.68767e-16

*CONN
*P *55 I *C 0.1000 1.7100 
*I *21:s B *C 2.9750 1.1350 
*I *23:s B *C 3.3850 1.5700 
*I *29:s B *C 4.5450 1.1600 
*I *31:s B *C 4.5450 1.1600 
*I *37:s B *C 5.3400 1.0725 
*I *8:s B *C 5.3400 1.0725 
*I *9:s B *C 0.1150 1.1200 
*I *11:s B *C 0.5650 1.2075 
*I *12:s B *C 0.5650 1.2075 
*I *13:s B *C 1.3800 1.1350 
*I *14:d B *C 1.8500 1.1350 
*I *16:s B *C 1.8500 1.1350 
*I *19:s B *C 2.9750 1.1350 
*N *55:2 *C 4.8000 1.7100 
*N *55:3 *C 4.8000 1.7100 
*N *55:4 *C 4.4600 1.7100 
*N *55:5 *C 3.3600 1.7100 
*N *55:6 *C 2.9000 1.7100 
*N *55:7 *C 1.7950 1.7100 
*N *55:8 *C 1.2950 1.7100 
*N *55:9 *C 1.0000 1.7100 

*CAP
0 *14:d 3.35253e-17
1 *13:s 2.41613e-17
2 *37:s 4.52678e-17
3 *29:s 1.07498e-17
4 *23:s 1.80635e-17
5 *21:s 2.89236e-17
6 *55:8 1.22186e-17
7 *55:7 3.66166e-17
8 *55:5 3.02167e-17
9 *55:4 2.68527e-17
10 *55:2 3.96069e-16
11 *55 1.06103e-16

*RES
0 *55:2 *55:3 7.5  // $metal1_conn
1 *55:2 *55:6 8.333333  // $metal1_conn
2 *55:2 *55:9 7.5  // $metal1_conn
3 *37:s *55:3 62.527996  // $metal1_conn
4 *55:4 *29:s 62.045826  // $metal1_conn
5 *55:5 *23:s 62.045826  // $metal1_conn
6 *55:6 *21:s 62.168175  // $metal1_conn
7 *55:7 *14:d 62.154579  // $metal1_conn
8 *55:8 *13:s 62.138214  // $metal1_conn
9 *55:3 *55:4 0.169387  // $metal1_conn
10 *55:4 *55:5 0.549432  // $metal1_conn
11 *55:5 *55:6 0.230087  // $metal1_conn
12 *55:6 *55:7 0.554138  // $metal1_conn
13 *55:7 *55:8 0.250391  // $metal1_conn
14 *55:8 *55:9 0.147766  // $metal1_conn
15 *55:9 *55 0.243064  // $metal1_conn

*END

*D_NET *47 0

*CONN
*P *47 I *C 0.1000 0.0000 
*I *49:s B *C 3.1200 0.4275 
*I *54:s B *C 4.5000 0.4450 
*I *56:s B *C 4.5000 0.4450 
*I *59:s B *C 5.3850 0.4975 
*I *61:s B *C 5.3850 0.4975 
*I *62:s B *C 3.1200 0.4275 
*I *63:s B *C 0.1100 0.4100 
*I *64:s B *C 0.5950 0.4675 
*I *1:s B *C 0.5950 0.4675 
*I *3:s B *C 1.7950 0.4275 
*I *4:s B *C 1.7950 0.4275 
*N *47:2 *C 4.8000 0.0000 
*N *47:3 *C 4.8000 0.0000 
*N *47:4 *C 4.4900 0.0000 
*N *47:5 *C 3.0350 0.0000 
*N *47:6 *C 2.9000 0.0000 
*N *47:7 *C 1.6800 0.0000 
*N *47:8 *C 1.0000 0.0000 


*RES
0 *47:2 *47:3 6.2  // $metal1_conn
1 *47:2 *47:6 6.888889  // $metal1_conn
2 *47:2 *47:8 6.2  // $metal1_conn
3 *59:s *47:3 75.615273  // $metal1_conn
4 *47:4 *54:s 75.231773  // $metal1_conn
5 *47:5 *49:s 75.045822  // $metal1_conn
6 *47:7 *3:s 75.164604  // $metal1_conn
7 *47:3 *47:4 0.15529  // $metal1_conn
8 *47:4 *47:5 0.728438  // $metal1_conn
9 *47:5 *47:6 0.066566  // $metal1_conn
10 *47:6 *47:7 0.611715  // $metal1_conn
11 *47:7 *47:8 0.340869  // $metal1_conn
12 *47:8 *47 0.245572  // $metal1_conn

*END

*D_NET *40 2.52872e-16

*CONN
*P *40 I *C 0.7000 0.8550 
*I *1:g B *C 0.6425 0.4675 
*I *12:g B *C 0.6175 1.2075 
*N *40:2 *C 0.6350 0.7200 

*CAP
0 *12:g 4.33489e-17
1 *1:g 3.87833e-17
2 *40:2 9.99851e-17
3 *40 7.07546e-17

*RES
0 *1:g *40:2 35.347393  // $poly_conn
1 *40:2 *12:g 86.629448  // $poly_conn
2 *40:2 *40 45.056911  // $metal1_conn

*END

*D_NET *48 2.59577e-16

*CONN
*P *48 I *C 4.3000 0.6650 
*I *56:g B *C 4.5925 0.4450 
*I *31:g B *C 4.5925 1.1600 
*N *48:2 *C 4.5925 0.6850 
*N *48:3 *C 4.4900 0.6850 

*CAP
0 *31:g 7.67392e-17
1 *56:g 3.76627e-17
2 *48:2 2.15587e-17
3 *48:3 8.39779e-17
4 *48 3.96383e-17

*RES
0 *31:g *48:2 68.483833  // $poly_conn
1 *48:2 *48:3 49.61615  // $poly_conn
2 *48:2 *56:g 24.894089  // $poly_conn
3 *48:3 *48 0.102835  // $metal1_conn

*END

*D_NET *7 5.64398e-16

*CONN
*P *7 I *C 1.7000 0.8550 
*I *49:g B *C 3.1675 0.4275 
*I *3:g B *C 1.5775 0.4275 
*I *21:g B *C 3.0225 1.1350 
*I *14:g B *C 1.6325 1.1350 
*N *7:4 *C 1.6050 0.8200 

*CAP
0 *14:g 1.03179e-16
1 *21:g 1.36578e-16
2 *3:g 4.53261e-17
3 *49:g 1.01925e-16
4 *7:4 1.1563e-16
5 *7 6.17593e-17

*RES
0 *49:g *21:g 128.908051  // $poly_conn
1 *21:g *14:g 492.018127  // $poly_conn
2 *14:g *7:4 32.512466  // $poly_conn
3 *7:4 *3:g 65.845802  // $poly_conn
4 *7 *7:4 45.031525  // $metal1_conn

*END

*D_NET *10 4.78737e-16

*CONN
*P *10 I *C 5.1000 0.6650 
*I *58:g B *C 5.1225 0.4450 
*I *61:g B *C 5.4425 0.4975 
*I *33:g B *C 4.7475 1.1600 
*I *8:g B *C 5.3875 1.0725 
*N *10:1 *C 4.8100 0.8550 
*N *10:4 *C 5.0850 0.6750 
*N *10:6 *C 5.4150 0.6850 

*CAP
0 *8:g 4.80185e-17
1 *33:g 5.15894e-17
2 *61:g 2.94991e-17
3 *58:g 6.41752e-17
4 *10:1 1.09959e-16
5 *10:4 4.07565e-17
6 *10:6 8.30142e-17
7 *10 5.1725e-17

*RES
0 *10:1 *33:g 66.7397  // $poly_conn
1 *58:g *10:4 61.15522  // $poly_conn
2 *61:g *10:6 20.974003  // $poly_conn
3 *10:6 *8:g 63.281693  // $poly_conn
4 *10:1 *10:4 0.334769  // $metal1_conn
5 *10:4 *10 0.010358  // $metal1_conn
6 *10 *10:6 45.236118  // $metal1_conn

*END

*D_NET *15 3.33452e-16

*CONN
*P *15 I *C 5.5000 0.8550 
*I *59:g B *C 5.2275 0.4450 
*I *37:g B *C 5.1525 1.1600 
*N *15:2 *C 5.2550 0.8450 

*CAP
0 *37:g 6.05404e-17
1 *59:g 8.10695e-17
2 *15:2 1.29136e-16
3 *15 6.27058e-17

*RES
0 *59:g *15:2 57.555679  // $poly_conn
1 *15:2 *37:g 29.633125  // $poly_conn
2 *15:2 *15 45.133396  // $metal1_conn

*END

*D_NET *53 1.43756e-16

*CONN
*P *53 O *C 0.3000 1.0450 
*I *63:d B *C 0.3050 0.4100 
*I *64:d B *C 0.3050 0.4100 
*I *9:d B *C 0.3100 1.1200 
*I *11:d B *C 0.3100 1.1200 

*CAP
0 *9:d 5.45735e-17
1 *63:d 4.81297e-17
2 *53 4.10524e-17

*RES
0 *63:d *53 75.337509  // $metal1_conn
1 *53 *9:d 20.711702  // $metal1_conn

*END

*D_NET *46 0

*CONN
*I *58:s B *C 5.1750 0.4450 
*I *59:d B *C 5.1750 0.4450 


*RES
0 *59:d *58:s 0.001  // $mwires

*END

*D_NET *45 5.68829e-18

*CONN
*I *56:d B *C 4.7125 0.4450 
*I *57:s B *C 4.7125 0.4450 

*CAP
0 *56:d 5.68829e-18

*RES
0 *57:s *56:d 0.001  // $mwires

*END

*D_NET *44 1.32971e-18

*CONN
*I *50:d B *C 3.3625 0.4275 
*I *51:s B *C 3.3625 0.4275 

*CAP
0 *50:d 1.32971e-18

*RES
0 *51:s *50:d 0.001  // $mwires

*END

*D_NET *43 6.64024e-19

*CONN
*I *49:d B *C 3.2200 0.4275 
*I *50:s B *C 3.2200 0.4275 

*CAP
0 *49:d 6.64024e-19

*RES
0 *50:s *49:d 0.001  // $mwires

*END

*D_NET *42 3.71125e-18

*CONN
*I *4:d B *C 1.9325 0.4275 
*I *5:s B *C 1.9325 0.4275 

*CAP
0 *4:d 3.71125e-18

*RES
0 *5:s *4:d 0.001  // $mwires

*END

*D_NET *41 8.95095e-18

*CONN
*I *2:s B *C 1.3975 0.4275 
*I *3:d B *C 1.3975 0.4275 

*CAP
0 *2:s 8.95095e-18

*RES
0 *3:d *2:s 0.001  // $mwires

*END

*D_NET *39 4.07306e-18

*CONN
*I *35:s B *C 5.0625 1.1600 
*I *37:d B *C 5.0625 1.1600 

*CAP
0 *35:s 4.07306e-18

*RES
0 *37:d *35:s 0.001  // $mwires

*END

*D_NET *38 3.81208e-18

*CONN
*I *31:d B *C 4.6700 1.1600 
*I *33:s B *C 4.6700 1.1600 

*CAP
0 *31:d 3.81208e-18

*RES
0 *33:s *31:d 0.001  // $mwires

*END

*D_NET *36 4.14787e-18

*CONN
*I *16:d B *C 1.9700 1.1350 
*I *17:s B *C 1.9700 1.1350 

*CAP
0 *16:d 4.14787e-18

*RES
0 *17:s *16:d 0.001  // $mwires

*END

*D_NET *34 1.27798e-15

*CONN
*I *52:g B *C 3.7625 0.4275 
*I *54:g B *C 4.3575 0.5025 
*I *1:d B *C 0.7775 0.4675 
*I *5:g B *C 2.0225 0.4275 
*I *25:g B *C 3.6625 1.0600 
*I *29:g B *C 4.3575 1.0725 
*I *12:d B *C 0.7100 1.2075 
*I *18:g B *C 2.3425 1.1350 
*N *34:2 *C 1.9850 0.7500 
*N *34:4 *C 2.3050 0.8800 
*N *34:7 *C 3.6350 1.3450 
*N *34:9 *C 4.3000 1.3450 
*N *34:11 *C 2.3050 1.2850 
*N *34:12 *C 1.9850 1.2850 
*N *34:13 *C 0.8800 1.2550 

*CAP
0 *18:g 3.08353e-17
1 *12:d 3.2095e-17
2 *29:g 3.72919e-17
3 *25:g 5.04217e-17
4 *5:g 4.30593e-17
5 *1:d 1.16323e-16
6 *54:g 5.51242e-17
7 *52:g 4.9328e-17
8 *34:13 1.25763e-16
9 *34:12 1.29563e-16
10 *34:11 9.91823e-17
11 *34:2 1.26938e-16
12 *34:4 8.48671e-17
13 *34:7 1.99423e-16
14 *34:9 9.77697e-17

*RES
0 *5:g *34:2 91.924454  // $poly_conn
1 *18:g *34:4 61.15522  // $poly_conn
2 *52:g *25:g 109.966843  // $poly_conn
3 *25:g *34:7 69.82016  // $poly_conn
4 *29:g *34:9 85.732117  // $poly_conn
5 *29:g *54:g 100  // $poly_conn
6 *34:9 *34:7 0.475576  // $metal1_conn
7 *34:7 *34:11 0.988514  // $metal1_conn
8 *34:11 *34:12 0.239912  // $metal1_conn
9 *34:12 *34:13 0.798828  // $metal1_conn
10 *34:13 *12:d 62.082397  // $metal1_conn
11 *34:11 *34:4 0.27709  // $metal1_conn
12 *34:12 *34:2 0.390323  // $metal1_conn
13 *34:13 *1:d 75.610229  // $metal1_conn

*END

*D_NET *32 8.55813e-16

*CONN
*I *51:g B *C 3.4525 0.4275 
*I *54:d B *C 4.2025 0.5025 
*I *6:g B *C 2.2475 0.4275 
*I *27:g B *C 3.8675 1.0600 
*I *29:d B *C 4.2650 1.0725 
*I *17:g B *C 2.0425 1.1350 
*N *32:2 *C 2.2475 0.6300 
*N *32:4 *C 2.4950 0.6300 
*N *32:6 *C 3.4900 0.6600 
*N *32:7 *C 4.0400 0.6850 
*N *32:10 *C 4.1300 0.6850 
*N *32:12 *C 4.1300 0.5150 
*N *32:13 *C 3.4700 0.3100 

*CAP
0 *17:g 8.93159e-17
1 *29:d 6.67668e-17
2 *27:g 5.27256e-17
3 *6:g 2.12804e-17
4 *54:d 6.18446e-17
5 *51:g 3.94931e-17
6 *32:13 1.62624e-16
7 *32:10 4.26231e-17
8 *32:2 4.16366e-17
9 *32:4 1.28835e-16
10 *32:6 1.00674e-16
11 *32:7 4.79936e-17

*RES
0 *6:g *32:2 15.869391  // $poly_conn
1 *32:2 *17:g 117.779495  // $poly_conn
2 *32:2 *32:4 68.432518  // $poly_conn
3 *51:g *32:6 68.847527  // $poly_conn
4 *32:7 *27:g 120.625824  // $poly_conn
5 *29:d *32:10 62.346634  // $metal1_conn
6 *32:10 *32:12 0.120152  // $metal1_conn
7 *32:12 *32:13 0.608367  // $metal1_conn
8 *32:13 *32:4 0.919508  // $metal1_conn
9 *32:10 *32:7 0.04617  // $metal1_conn
10 *32:13 *32:6 0.251103  // $metal1_conn
11 *54:d *32:12 75  // $metal1_conn

*END

*D_NET *30 8.69215e-16

*CONN
*I *63:g B *C 0.2025 0.4100 
*I *64:g B *C 0.4075 0.4100 
*I *2:d B *C 1.0825 0.4275 
*I *4:g B *C 1.8425 0.4275 
*I *9:g B *C 0.2075 1.1200 
*I *11:g B *C 0.4125 1.1200 
*I *13:d B *C 1.5300 1.1350 
*I *14:s B *C 1.5300 1.1350 
*I *16:g B *C 1.8975 1.1350 
*N *30:6 *C 0.4650 0.6500 
*N *30:9 *C 1.8050 0.6300 
*N *30:11 *C 1.3500 0.8300 
*N *30:13 *C 1.0300 0.3850 

*CAP
0 *16:g 8.45874e-17
1 *13:d 7.57627e-17
2 *11:g 1.7069e-16
3 *4:g 4.02785e-17
4 *2:d 1.42026e-16
5 *30:11 1.24986e-16
6 *30:6 1.04894e-16
7 *30:9 1.25989e-16

*RES
0 *16:g *30:9 82.532318  // $poly_conn
1 *30:9 *4:g 16.15522  // $poly_conn
2 *11:g *30:6 47.336754  // $poly_conn
3 *30:9 *30:11 45.480221  // $metal1_conn
4 *30:13 *30:6 0.700291  // $metal1_conn
5 *2:d *30:13 75  // $metal1_conn
6 *30:11 *13:d 62.351273  // $metal1_conn
7 *30:11 *30:13 0.545533  // $metal1_conn

*END

*D_NET *28 4.98561e-16

*CONN
*I *52:s B *C 3.8625 0.4275 
*I *57:d B *C 4.9775 0.4450 
*I *58:d B *C 4.9775 0.4450 
*I *27:s B *C 3.9600 1.0600 
*I *33:d B *C 4.8600 1.1600 
*I *35:d B *C 4.8600 1.1600 
*N *28:2 *C 4.6500 1.0450 
*N *28:4 *C 3.9700 1.0600 
*N *28:7 *C 4.8500 1.0750 

*CAP
0 *33:d 5.26388e-17
1 *27:s 1.76187e-16
2 *57:d 7.72285e-17
3 *52:s 7.72953e-17
4 *28:2 1.15212e-16

*RES
0 *57:d *28:2 75.554825  // $metal1_conn
1 *28:2 *28:4 0.587843  // $metal1_conn
2 *28:4 *52:s 75.494225  // $metal1_conn
3 *28:2 *28:7 0.144871  // $metal1_conn
4 *28:7 *33:d 62.147758  // $metal1_conn
5 *27:s *28:4 31  // $metal1_conn
6 *33:d *28:7 62  // $metal1_conn

*END

*D_NET *26 4.56952e-16

*CONN
*I *2:g B *C 1.2175 0.4275 
*I *5:d B *C 2.1350 0.4275 
*I *6:d B *C 2.1350 0.4275 
*I *13:g B *C 1.4275 1.1350 
*I *17:d B *C 2.1925 1.1350 
*I *18:d B *C 2.1925 1.1350 
*N *26:2 *C 1.1900 0.6400 
*N *26:6 *C 2.1450 0.4100 

*CAP
0 *17:d 1.07444e-16
1 *13:g 5.7091e-17
2 *5:d 1.26601e-16
3 *2:g 1.9782e-17
4 *26:2 1.46034e-16

*RES
0 *13:g *26:2 123.061714  // $poly_conn
1 *26:2 *2:g 16.530039  // $poly_conn
2 *17:d *26:6 62.498314  // $metal1_conn
3 *26:6 *26:2 45.828667  // $metal1_conn
4 *5:d *26:6 75  // $metal1_conn

*END

*D_NET *24 4.47008e-16

*CONN
*I *51:d B *C 3.6075 0.4275 
*I *52:d B *C 3.6075 0.4275 
*I *62:g B *C 2.8375 0.4275 
*I *25:d B *C 3.7650 1.0600 
*I *27:d B *C 3.7650 1.0600 
*I *19:g B *C 2.7575 1.1350 
*N *24:2 *C 2.8750 0.7500 
*N *24:5 *C 3.6900 0.8500 

*CAP
0 *19:g 5.55507e-17
1 *25:d 5.57602e-17
2 *62:g 3.89077e-17
3 *51:d 6.833e-17
4 *24:5 9.65061e-17
5 *24:2 1.31953e-16

*RES
0 *62:g *24:2 46.92445  // $poly_conn
1 *24:2 *19:g 65.087357  // $poly_conn
2 *25:d *24:5 31.223589  // $metal1_conn
3 *24:5 *24:2 45.620552  // $metal1_conn
4 *24:5 *51:d 75.305244  // $metal1_conn

*END

*D_NET *22 4.1404e-16

*CONN
*I *57:g B *C 4.8325 0.4450 
*I *61:d B *C 5.5350 0.4975 
*I *35:g B *C 4.9725 1.1600 
*I *8:d B *C 5.4800 1.0725 
*N *22:2 *C 5.0100 0.8650 
*N *22:6 *C 5.4900 1.0850 

*CAP
0 *8:d 1.13086e-16
1 *35:g 4.618e-17
2 *61:d 6.19244e-17
3 *57:g 5.28427e-17
4 *22:2 1.40007e-16

*RES
0 *35:g *22:2 16.3638  // $poly_conn
1 *22:2 *57:g 81.570656  // $poly_conn
2 *61:d *22:6 75.653519  // $metal1_conn
3 *22:6 *22:2 45.482502  // $metal1_conn
4 *8:d *22:6 62  // $metal1_conn

*END

*D_NET *20 4.25639e-16

*CONN
*I *50:g B *C 3.2725 0.4275 
*I *62:d B *C 2.5425 0.4275 
*I *6:s B *C 2.5425 0.4275 
*I *23:g B *C 3.2275 1.1350 
*I *18:s B *C 2.5500 1.1350 
*I *19:d B *C 2.5500 1.1350 
*N *20:2 *C 3.3100 0.6300 
*N *20:5 *C 2.6850 0.5900 

*CAP
0 *18:s 4.29645e-17
1 *23:g 6.03324e-17
2 *62:d 4.01472e-17
3 *50:g 5.53782e-17
4 *20:5 7.83835e-17
5 *20:2 1.48433e-16

*RES
0 *50:g *20:2 16.15522  // $poly_conn
1 *20:2 *23:g 79.968216  // $poly_conn
2 *18:s *20:5 62.315266  // $metal1_conn
3 *20:5 *62:d 75.091774  // $metal1_conn
4 *20:5 *20:2 45.426163  // $metal1_conn

*END

*D_NET *60 1.29898e-16

*CONN
*I *21:d B *C 3.1250 1.1350 
*I *23:d B *C 3.1250 1.1350 
*I *25:s B *C 3.5600 1.0600 

*CAP
0 *25:s 6.77921e-17
1 *21:d 6.21059e-17

*RES
0 *25:s *21:d 124.241905  // $metal1_conn

*END

