*SPEF "IEEE 1481-1999"
*DESIGN  "SDFFXL"
*DATE "Mon Sep 27 11:13:12 2010"
*VENDOR "Cadence Design Systems"
*PROGRAM "Assura RCX"
*VERSION "3.2 Red Hat Linux release 7.2 (Enigma) - (09/09/2009-10:39)"
*DESIGN_FLOW "Physical Verification"
*DIVIDER /
*DELIMITER :
*BUS_DELIMITER []
*T_UNIT 1 PS
*C_UNIT 1e15 FF
*R_UNIT 1 OHM
*L_UNIT 1 MH
// DeviceFingerDelim "@"
// MATCHED
// caps2d version: 10

*NAME_MAP
*1 mn20
*2 QN
*3 mn45
*4 mn50
*5 mn51
*6 mn40
*7 mp10
*8 mp40
*9 SE
*10 mp57
*11 mp56
*12 mp55
*13 mp20
*14 SI
*15 mp45
*16 mp50
*17 mp51
*18 n20
*19 mp30
*20 mout
*21 mp35
*22 SEb
*23 mp36
*24 n30
*25 mp25
*26 Db
*27 mp21
*28 qbint
*29 mp11
*30 CKbb
*31 mp12
*32 CKb
*33 mp14
*34 net376
*35 mp13
*36 net356
*37 net384
*38 CK
*39 net392
*40 net436
*41 net429
*42 net449
*43 net461
*44 VSS
*45 D
*46 mn30
*47 mn35
*48 mn36
*49 mn25
*50 Q
*51 mn21
*52 VDD
*53 mn11
*54 mn12
*55 mn14
*56 mn13
*57 net367
*58 mn10
*59 mn57
*60 mn56
*61 mn55

*GROUND_NETS VSS

*PORTS
*52 I
*44 I
*38 I
*45 I
*9 I
*14 I
*50 O
*2 O

*D_NET *52 6.85833e-16

*CONN
*P *52 I *C 0.1000 1.7100 
*I *19:s B *C 3.4300 1.1675 
*I *21:s B *C 3.4300 1.1675 
*I *27:s B *C 4.4600 1.2325 
*I *29:s B *C 4.4600 1.2325 
*I *35:s B *C 5.2900 1.2325 
*I *7:s B *C 5.2900 1.2325 
*I *10:s B *C 0.5050 1.0075 
*I *11:s B *C 0.5050 1.0075 
*I *12:s B *C 1.2900 1.1975 
*I *13:s B *C 1.2900 1.1975 
*I *15:s B *C 2.2950 1.1675 
*I *16:s B *C 2.2950 1.1675 
*N *52:2 *C 4.8000 1.7100 
*N *52:3 *C 4.8000 1.7100 
*N *52:4 *C 4.4600 1.7100 
*N *52:5 *C 3.3450 1.7100 
*N *52:6 *C 2.9000 1.7100 
*N *52:7 *C 2.1800 1.7100 
*N *52:8 *C 1.2900 1.7100 
*N *52:9 *C 1.0000 1.7100 
*N *52:10 *C 0.5050 1.7100 

*CAP
0 *15:s 1.51574e-17
1 *12:s 3.375e-17
2 *10:s 3.24803e-17
3 *35:s 3.97641e-17
4 *27:s 4.13666e-17
5 *19:s 1.45929e-17
6 *52:10 6.9902e-18
7 *52:8 1.83598e-17
8 *52:7 2.84738e-17
9 *52:5 3.50142e-17
10 *52:4 2.57626e-17
11 *52:2 3.90898e-16
12 *52 3.22334e-18

*RES
0 *35:s *52:3 62.540634  // $metal1_conn
1 *52:3 *52:4 0.170109  // $metal1_conn
2 *52:4 *52:5 0.558109  // $metal1_conn
3 *52:5 *52:6 0.222704  // $metal1_conn
4 *52:6 *52:7 0.36045  // $metal1_conn
5 *52:7 *52:8 0.445407  // $metal1_conn
6 *52:8 *52:9 0.145064  // $metal1_conn
7 *52:9 *52:10 0.247748  // $metal1_conn
8 *52:10 *52 0.202417  // $metal1_conn
9 *52:4 *27:s 62.268459  // $metal1_conn
10 *52:5 *19:s 62.074097  // $metal1_conn
11 *52:7 *15:s 62.097031  // $metal1_conn
12 *52:8 *12:s 62.294224  // $metal1_conn
13 *52:10 *10:s 62.415333  // $metal1_conn
14 *52:2 *52:3 7.5  // $metal1_conn
15 *52:2 *52:6 8.333333  // $metal1_conn
16 *52:2 *52:9 7.5  // $metal1_conn

*END

*D_NET *44 0

*CONN
*P *44 I *C 0.1000 0.0000 
*I *46:s B *C 3.4300 0.5225 
*I *47:s B *C 3.4300 0.5225 
*I *51:s B *C 4.5100 0.4375 
*I *53:s B *C 4.5100 0.4375 
*I *56:s B *C 5.3100 0.4375 
*I *58:s B *C 5.3100 0.4375 
*I *59:s B *C 0.5550 0.5875 
*I *60:s B *C 0.5550 0.5875 
*I *61:s B *C 1.3400 0.5675 
*I *1:s B *C 1.3400 0.5675 
*I *3:s B *C 2.1950 0.5225 
*I *4:s B *C 2.1950 0.5225 
*N *44:2 *C 4.8000 0.0000 
*N *44:3 *C 4.8000 0.0000 
*N *44:4 *C 4.5100 0.0000 
*N *44:5 *C 3.3750 0.0000 
*N *44:6 *C 2.9000 0.0000 
*N *44:7 *C 2.2100 0.0000 
*N *44:8 *C 1.2500 0.0000 
*N *44:9 *C 1.0000 0.0000 
*N *44:10 *C 0.5350 0.0000 


*RES
0 *56:s *44:3 75.560806  // $metal1_conn
1 *44:3 *44:4 0.145064  // $metal1_conn
2 *44:4 *44:5 0.568127  // $metal1_conn
3 *44:5 *44:6 0.23773  // $metal1_conn
4 *44:6 *44:7 0.345423  // $metal1_conn
5 *44:7 *44:8 0.48047  // $metal1_conn
6 *44:8 *44:9 0.125028  // $metal1_conn
7 *44:9 *44:10 0.232721  // $metal1_conn
8 *44:10 *44 0.217444  // $metal1_conn
9 *44:4 *51:s 75.268829  // $metal1_conn
10 *44:5 *46:s 75.117165  // $metal1_conn
11 *44:7 *3:s 75.33696  // $metal1_conn
12 *44:8 *61:s 75.074097  // $metal1_conn
13 *44:10 *59:s 75.074097  // $metal1_conn
14 *44:2 *44:3 6.2  // $metal1_conn
15 *44:2 *44:6 6.888889  // $metal1_conn
16 *44:2 *44:9 6.2  // $metal1_conn

*END

*D_NET *38 2.01516e-16

*CONN
*P *38 I *C 1.3000 1.0450 
*I *1:g B *C 1.3925 0.5675 
*I *13:g B *C 1.3925 1.1975 
*N *38:2 *C 1.3550 0.9200 

*CAP
0 *13:g 3.18054e-17
1 *1:g 3.84708e-17
2 *38:2 6.04859e-17
3 *38 7.07538e-17

*RES
0 *13:g *38:2 34.103935  // $poly_conn
1 *38:2 *1:g 62.309063  // $poly_conn
2 *38:2 *38 45.052685  // $metal1_conn

*END

*D_NET *45 2.45808e-16

*CONN
*P *45 I *C 4.3000 0.8550 
*I *53:g B *C 4.6125 0.4375 
*I *29:g B *C 4.5625 1.2325 
*N *45:2 *C 4.4900 0.8450 

*CAP
0 *29:g 4.47089e-17
1 *53:g 4.08232e-17
2 *45:2 1.06766e-16
3 *45 5.35094e-17

*RES
0 *53:g *45:2 92.29248  // $poly_conn
1 *45:2 *29:g 63.253952  // $poly_conn
2 *45:2 *45 45.075428  // $metal1_conn

*END

*D_NET *9 5.2375e-16

*CONN
*P *9 I *C 4.9000 0.6650 
*I *55:g B *C 5.1025 0.4375 
*I *58:g B *C 5.4125 0.4375 
*I *31:g B *C 4.7825 1.2325 
*I *7:g B *C 5.4125 1.2325 
*N *9:2 *C 4.8100 0.9500 
*N *9:4 *C 5.0750 0.6450 
*N *9:6 *C 5.4125 0.6450 
*N *9:7 *C 5.3550 0.6450 

*CAP
0 *7:g 4.69937e-17
1 *31:g 4.6553e-17
2 *58:g 2.65922e-17
3 *55:g 6.3059e-17
4 *9:6 3.17614e-17
5 *9:2 8.5871e-17
6 *9:4 9.87949e-17
7 *9:7 7.04711e-17
8 *9 5.3654e-17

*RES
0 *31:g *9:2 81.35862  // $poly_conn
1 *55:g *9:4 71.102211  // $poly_conn
2 *7:g *9:6 119.765884  // $poly_conn
3 *9:6 *9:7 45.778431  // $poly_conn
4 *9:6 *58:g 31.304344  // $poly_conn
5 *9:7 *9:4 0.160606  // $metal1_conn
6 *9:4 *9 0.087407  // $metal1_conn
7 *9 *9:2 0.241346  // $metal1_conn

*END

*D_NET *14 3.30094e-16

*CONN
*P *14 I *C 5.3000 0.8550 
*I *56:g B *C 5.2075 0.4375 
*I *35:g B *C 5.1675 1.2325 
*N *14:2 *C 5.1700 0.8350 

*CAP
0 *35:g 5.31514e-17
1 *56:g 7.68173e-17
2 *14:2 1.3391e-16
3 *14 6.62156e-17

*RES
0 *56:g *14:2 73.847527  // $poly_conn
1 *14:2 *35:g 64.873169  // $poly_conn
2 *14:2 *14 45.070629  // $metal1_conn

*END

*D_NET *50 1.46019e-16

*CONN
*P *50 O *C 0.9000 0.6650 
*I *61:d B *C 1.0950 0.5675 
*I *12:d B *C 1.0075 1.1975 

*CAP
0 *12:d 5.87712e-17
1 *61:d 2.74368e-17
2 *50 5.98109e-17

*RES
0 *61:d *50 75.141586  // $metal1_conn
1 *50 *12:d 62.290119  // $metal1_conn

*END

*D_NET *2 9.13408e-17

*CONN
*P *2 O *C 0.1000 0.4750 
*I *59:d B *C 0.2975 0.5875 
*I *10:d B *C 0.2975 1.0075 
*N *2:3 *C 0.2750 0.5750 

*CAP
0 *10:d 2.91635e-17
1 *59:d 3.75867e-17
2 *2 2.45906e-17

*RES
0 *10:d *2:3 62.234287  // $metal1_conn
1 *2:3 *2 0.04898  // $metal1_conn
2 *59:d *2:3 75  // $metal1_conn

*END

*D_NET *43 0

*CONN
*I *55:s B *C 5.1550 0.4375 
*I *56:d B *C 5.1550 0.4375 


*RES
0 *56:d *55:s 0.001  // $mwires

*END

*D_NET *42 6.14093e-18

*CONN
*I *53:d B *C 4.7550 0.4375 
*I *54:s B *C 4.7550 0.4375 

*CAP
0 *53:d 6.14093e-18

*RES
0 *54:s *53:d 0.001  // $mwires

*END

*D_NET *41 0

*CONN
*I *47:d B *C 3.5300 0.5225 
*I *48:s B *C 3.5300 0.5225 


*RES
0 *48:s *47:d 0.001  // $mwires

*END

*D_NET *40 0

*CONN
*I *4:d B *C 2.4325 0.5225 
*I *5:s B *C 2.4325 0.5225 


*RES
0 *5:s *4:d 0.001  // $mwires

*END

*D_NET *39 0

*CONN
*I *33:s B *C 5.0775 1.2325 
*I *35:d B *C 5.0775 1.2325 


*RES
0 *35:d *33:s 0.001  // $mwires

*END

*D_NET *37 4.61231e-18

*CONN
*I *29:d B *C 4.6725 1.2325 
*I *31:s B *C 4.6725 1.2325 

*CAP
0 *29:d 4.61231e-18

*RES
0 *31:s *29:d 0.001  // $mwires

*END

*D_NET *36 0

*CONN
*I *21:d B *C 3.5350 1.1675 
*I *23:s B *C 3.5350 1.1675 


*RES
0 *23:s *21:d 0.001  // $mwires

*END

*D_NET *34 5.47203e-18

*CONN
*I *16:d B *C 2.5325 1.1675 
*I *17:s B *C 2.5325 1.1675 

*CAP
0 *16:d 5.47203e-18

*RES
0 *17:s *16:d 0.001  // $mwires

*END

*D_NET *32 9.37998e-16

*CONN
*I *49:g B *C 3.8275 0.5225 
*I *51:g B *C 4.4075 0.4375 
*I *1:d B *C 1.5250 0.5675 
*I *5:g B *C 2.5225 0.5225 
*I *23:g B *C 3.5925 1.1675 
*I *27:g B *C 4.3575 1.2325 
*I *8:g B *C 2.9275 1.1675 
*I *13:d B *C 1.4850 1.1975 
*N *32:2 *C 2.4850 0.8300 
*N *32:4 *C 2.9650 1.3750 
*N *32:6 *C 4.3575 0.6925 
*N *32:7 *C 3.8275 0.6925 
*N *32:11 *C 3.6300 1.3750 
*N *32:12 *C 2.5150 1.2800 
*N *32:14 *C 1.4950 1.1500 

*CAP
0 *13:d 1.14231e-16
1 *8:g 4.83133e-17
2 *27:g 4.99913e-17
3 *23:g 6.17233e-17
4 *5:g 4.59419e-17
5 *1:d 5.04854e-17
6 *51:g 2.71349e-17
7 *49:g 2.26569e-17
8 *32:12 1.18861e-16
9 *32:7 6.04958e-17
10 *32:6 6.07171e-17
11 *32:2 1.01577e-16
12 *32:4 9.02716e-17
13 *32:11 8.55979e-17

*RES
0 *5:g *32:2 95.770599  // $poly_conn
1 *8:g *32:4 61.15522  // $poly_conn
2 *51:g *32:6 52.54937  // $poly_conn
3 *32:6 *32:7 133.59343  // $poly_conn
4 *32:7 *23:g 135.593124  // $poly_conn
5 *32:6 *27:g 106.197922  // $poly_conn
6 *32:7 *49:g 20.300484  // $poly_conn
7 *23:g *32:11 61.15522  // $poly_conn
8 *32:11 *32:4 0.448736  // $metal1_conn
9 *32:4 *32:12 0.369095  // $metal1_conn
10 *32:12 *32:14 0.760795  // $metal1_conn
11 *32:12 *32:2 0.326583  // $metal1_conn
12 *32:14 *1:d 75.342751  // $metal1_conn
13 *13:d *32:14 62  // $metal1_conn

*END

*D_NET *30 8.69673e-16

*CONN
*I *48:g B *C 3.5825 0.5225 
*I *51:d B *C 4.3150 0.4375 
*I *6:g B *C 2.7775 0.5225 
*I *25:g B *C 3.8575 1.1675 
*I *27:d B *C 4.2650 1.2325 
*I *17:g B *C 2.7225 1.1675 
*N *30:2 *C 2.7775 0.7200 
*N *30:4 *C 2.8650 0.7200 
*N *30:6 *C 3.6100 0.3250 
*N *30:8 *C 3.8850 0.8550 
*N *30:10 *C 3.9150 0.3750 

*CAP
0 *17:g 4.67997e-17
1 *27:d 7.6644e-17
2 *25:g 3.64013e-17
3 *6:g 2.00375e-17
4 *51:d 5.28466e-17
5 *48:g 8.35083e-17
6 *30:10 6.23669e-17
7 *30:2 2.96677e-17
8 *30:4 1.30357e-16
9 *30:6 1.4846e-16
10 *30:8 1.82584e-16

*RES
0 *6:g *30:2 22.279648  // $poly_conn
1 *30:2 *17:g 88.581886  // $poly_conn
2 *30:2 *30:4 51.41124  // $poly_conn
3 *48:g *30:6 68.538101  // $poly_conn
4 *25:g *30:8 89.050919  // $poly_conn
5 *27:d *30:8 62.590687  // $metal1_conn
6 *30:8 *30:10 0.379163  // $metal1_conn
7 *30:10 *30:6 0.225087  // $metal1_conn
8 *30:6 *30:4 0.831874  // $metal1_conn
9 *30:10 *51:d 75.269165  // $metal1_conn

*END

*D_NET *28 6.37597e-16

*CONN
*I *60:g B *C 0.6075 0.5875 
*I *61:g B *C 1.1875 0.5675 
*I *3:d B *C 1.9275 0.5225 
*I *4:g B *C 2.3425 0.5225 
*I *11:g B *C 0.6075 1.0075 
*I *12:g B *C 1.1875 1.1975 
*I *15:d B *C 1.9850 1.1675 
*I *16:g B *C 2.3425 1.1675 
*N *28:2 *C 1.2150 0.7500 
*N *28:3 *C 0.6075 0.7575 
*N *28:8 *C 2.3425 0.8300 
*N *28:9 *C 2.2650 0.8300 
*N *28:11 *C 1.9175 0.8300 
*N *28:13 *C 1.8900 0.5300 

*CAP
0 *16:g 3.72608e-17
1 *15:d 4.11641e-17
2 *12:g 4.29421e-17
3 *11:g 2.86676e-17
4 *4:g 3.72605e-17
5 *3:d 1.02881e-16
6 *61:g 2.23922e-17
7 *60:g 2.66906e-17
8 *28:11 5.08953e-17
9 *28:8 3.69537e-17
10 *28:3 3.02827e-17
11 *28:2 1.20093e-16
12 *28:9 6.01129e-17

*RES
0 *12:g *28:2 76.334709  // $poly_conn
1 *28:2 *28:3 141.775299  // $poly_conn
2 *28:3 *60:g 23.465221  // $poly_conn
3 *28:2 *61:g 16.530039  // $poly_conn
4 *28:3 *11:g 35.003685  // $poly_conn
5 *16:g *28:8 56.219673  // $poly_conn
6 *28:8 *28:9 47.826286  // $poly_conn
7 *28:8 *4:g 57.501724  // $poly_conn
8 *28:9 *28:11 0.222694  // $metal1_conn
9 *28:11 *28:13 0.213853  // $metal1_conn
10 *28:13 *28:2 45.697491  // $metal1_conn
11 *28:11 *15:d 62.20615  // $metal1_conn
12 *3:d *28:13 75  // $metal1_conn

*END

*D_NET *26 4.37197e-16

*CONN
*I *49:s B *C 4.0075 0.5225 
*I *54:d B *C 5.0000 0.4375 
*I *55:d B *C 5.0000 0.4375 
*I *25:s B *C 3.9925 1.1675 
*I *31:d B *C 4.8850 1.2325 
*I *33:d B *C 4.8850 1.2325 
*N *26:2 *C 4.6500 1.0750 
*N *26:3 *C 4.0750 1.0750 

*CAP
0 *31:d 3.34313e-17
1 *25:s 1.07671e-16
2 *54:d 8.59941e-17
3 *49:s 7.04996e-17
4 *26:2 1.39601e-16

*RES
0 *54:d *26:2 75.67466  // $metal1_conn
1 *26:2 *26:3 0.436244  // $metal1_conn
2 *26:3 *25:s 62.042156  // $metal1_conn
3 *26:2 *31:d 62.237354  // $metal1_conn
4 *26:3 *49:s 75.392883  // $metal1_conn

*END

*D_NET *24 4.25811e-16

*CONN
*I *3:g B *C 2.0475 0.5225 
*I *5:d B *C 2.6500 0.5225 
*I *6:d B *C 2.6500 0.5225 
*I *8:d B *C 2.8250 1.1675 
*I *15:g B *C 2.0775 1.1675 
*I *17:d B *C 2.8250 1.1675 
*N *24:3 *C 2.0200 0.3400 
*N *24:5 *C 2.6750 0.6700 

*CAP
0 *15:g 5.41438e-17
1 *8:d 6.38833e-17
2 *5:d 2.39644e-17
3 *3:g 3.71245e-17
4 *24:5 1.08759e-16
5 *24:3 1.37936e-16

*RES
0 *15:g *3:g 126.390381  // $poly_conn
1 *3:g *24:3 62.398674  // $poly_conn
2 *8:d *24:5 62.43425  // $metal1_conn
3 *24:5 *24:3 0.676773  // $metal1_conn
4 *24:5 *5:d 75.099831  // $metal1_conn

*END

*D_NET *22 3.68476e-16

*CONN
*I *54:g B *C 4.8975 0.4375 
*I *58:d B *C 5.5050 0.4375 
*I *33:g B *C 4.9875 1.2325 
*I *7:d B *C 5.5050 1.2325 
*N *22:2 *C 5.0250 1.0250 
*N *22:5 *C 5.5150 1.0900 

*CAP
0 *7:d 1.20561e-17
1 *33:g 3.74628e-17
2 *58:d 4.59214e-17
3 *54:g 6.99972e-17
4 *22:5 6.3293e-17
5 *22:2 1.39745e-16

*RES
0 *33:g *22:2 16.15522  // $poly_conn
1 *22:2 *54:g 128.90036  // $poly_conn
2 *7:d *22:5 62.073662  // $metal1_conn
3 *22:5 *22:2 45.35342  // $metal1_conn
4 *22:5 *58:d 75.457596  // $metal1_conn

*END

*D_NET *20 3.81436e-16

*CONN
*I *46:d B *C 2.9950 0.5225 
*I *47:g B *C 3.4775 0.5225 
*I *6:s B *C 2.9950 0.5225 
*I *19:d B *C 3.0700 1.1675 
*I *21:g B *C 3.4775 1.1675 
*I *8:s B *C 3.0700 1.1675 
*N *20:2 *C 3.4500 0.7050 
*N *20:4 *C 3.0550 0.7050 

*CAP
0 *21:g 7.7738e-17
1 *19:d 3.24799e-17
2 *47:g 4.98799e-17
3 *46:d 4.77681e-17
4 *20:4 6.15286e-17
5 *20:2 1.12042e-16

*RES
0 *21:g *20:2 82.512466  // $poly_conn
1 *20:2 *47:g 19.691952  // $poly_conn
2 *20:2 *20:4 45.26865  // $metal1_conn
3 *20:4 *46:d 75.143883  // $metal1_conn
4 *20:4 *19:d 62.288677  // $metal1_conn

*END

*D_NET *18 3.30472e-16

*CONN
*I *46:g B *C 3.2125 0.5225 
*I *48:d B *C 3.7050 0.5225 
*I *49:d B *C 3.7050 0.5225 
*I *19:g B *C 3.2125 1.1675 
*I *23:d B *C 3.7250 1.1675 
*I *25:d B *C 3.7250 1.1675 
*N *18:2 *C 3.2450 0.8650 
*N *18:5 *C 3.6950 0.8650 

*CAP
0 *23:d 4.30296e-17
1 *19:g 4.3379e-17
2 *48:d 5.43334e-17
3 *46:g 3.29708e-17
4 *18:5 6.14968e-17
5 *18:2 9.52629e-17

*RES
0 *19:g *18:2 39.19355  // $poly_conn
1 *18:2 *46:g 58.424316  // $poly_conn
2 *23:d *18:5 62.196243  // $metal1_conn
3 *18:5 *18:2 45.303822  // $metal1_conn
4 *18:5 *48:d 75.245598  // $metal1_conn

*END

*D_NET *57 1.99689e-16

*CONN
*I *59:g B *C 0.4025 0.5875 
*I *60:d B *C 0.7000 0.5875 
*I *10:g B *C 0.4025 1.0075 
*I *11:d B *C 0.7000 1.0075 
*N *57:1 *C 0.4650 0.8000 
*N *57:2 *C 0.4025 0.8000 
*N *57:6 *C 0.7000 0.8100 

*CAP
0 *11:d 2.99642e-17
1 *10:g 2.65936e-17
2 *60:d 2.79072e-17
3 *59:g 3.01535e-17
4 *57:6 2.84742e-17
5 *57:2 2.91959e-17
6 *57:1 2.73999e-17

*RES
0 *57:1 *57:2 46.294373  // $poly_conn
1 *57:2 *59:g 30.819893  // $poly_conn
2 *57:2 *10:g 20.563484  // $poly_conn
3 *11:d *57:6 62.093418  // $metal1_conn
4 *57:6 *57:1 0.122084  // $metal1_conn
5 *57:6 *60:d 75.129311  // $metal1_conn

*END

