*SPEF "IEEE 1481-1999"
*DESIGN  "SDFFSRX2"
*DATE "Mon Sep 27 11:07:52 2010"
*VENDOR "Cadence Design Systems"
*PROGRAM "Assura RCX"
*VERSION "3.2 Red Hat Linux release 7.2 (Enigma) - (09/09/2009-10:39)"
*DESIGN_FLOW "Physical Verification"
*DIVIDER /
*DELIMITER :
*BUS_DELIMITER []
*T_UNIT 1 PS
*C_UNIT 1e15 FF
*R_UNIT 1 OHM
*L_UNIT 1 MH
// DeviceFingerDelim "@"
// MATCHED
// caps2d version: 10

*NAME_MAP
*1 mn21
*2 mout
*3 CKb
*4 CKbb
*5 Db
*6 SEb
*7 n3
*8 n1
*9 n7
*10 mn10
*11 n5
*12 mn13
*13 n9
*14 mn14
*15 mn12
*16 mn11
*17 mn20
*18 n2
*19 n0
*20 n6
*21 mp51
*22 mp52
*23 mp50
*24 mp21
*25 mp25
*26 mp36
*27 mp35
*28 mp30
*29 mp32
*30 mp31
*31 mp10
*32 mp13
*33 VDD
*34 mp14
*35 mp12
*36 mp11
*37 mp20
*38 mn50
*39 mn45
*40 mp45
*41 mn22
*42 QN
*43 mp22
*44 mn55
*45 VSS
*46 mp55
*47 mn55\@1
*48 mp55\@1
*49 mn57
*50 mp57
*51 mn57\@1
*52 mp57\@1
*53 mn56
*54 mp56
*55 mn40
*56 mp40
*57 mp53
*58 D
*59 CK
*60 RN
*61 Q
*62 SE
*63 SI
*64 SN
*65 net573
*66 n8
*67 qbint
*68 n11
*69 n10
*70 n35
*71 RNb
*72 mn53
*73 n4
*74 mn51
*75 n20
*76 mn52
*77 mn25
*78 mn36
*79 mn35
*80 mn30
*81 mn32
*82 mn31

*GROUND_NETS VSS

*PORTS
*33 I
*45 I
*59 I
*58 I
*60 I
*62 I
*63 I
*64 I
*61 O
*42 O

*D_NET *33 1.25904e-15

*CONN
*P *33 I *C 0.1000 1.7100 
*I *40:s B *C 7.0425 1.0900 
*I *43:s B *C 7.9600 1.1100 
*I *46:s B *C 7.9600 1.1100 
*I *48:s B *C 8.4350 1.1100 
*I *50:s B *C 8.4350 1.1100 
*I *52:s B *C 8.9375 1.0225 
*I *54:s B *C 8.9375 1.0225 
*I *21:s B *C 5.5500 1.0425 
*I *23:s B *C 7.0425 1.0900 
*I *24:s B *C 2.2350 1.5700 
*I *27:s B *C 3.3750 1.1375 
*I *28:s B *C 3.3750 1.1375 
*I *30:s B *C 4.0800 1.2675 
*I *31:s B *C 0.4400 1.3425 
*I *32:s B *C 0.4400 1.3425 
*I *36:s B *C 1.5000 1.2975 
*I *37:s B *C 1.5000 1.2975 
*N *33:3 *C 8.2000 1.7100 
*N *33:6 *C 6.9600 1.7100 
*N *33:7 *C 5.9000 1.7100 
*N *33:8 *C 5.4950 1.7100 
*N *33:9 *C 4.1100 1.7100 
*N *33:10 *C 3.6000 1.7100 
*N *33:11 *C 3.2750 1.7100 
*N *33:12 *C 2.2100 1.7100 
*N *33:13 *C 1.4700 1.7100 
*N *33:14 *C 1.2000 1.7100 
*N *33:15 *C 0.4400 1.7100 

*CAP
0 *36:s 4.47046e-17
1 *31:s 2.85296e-17
2 *30:s 3.15295e-17
3 *27:s 9.14863e-18
4 *24:s 2.17731e-17
5 *21:s 3.14e-17
6 *52:s 1.96457e-16
7 *40:s 1.42793e-17
8 *33:15 1.91455e-17
9 *33:13 2.1168e-17
10 *33:12 4.51445e-17
11 *33:11 2.20925e-17
12 *33:9 4.15733e-17
13 *33:8 3.86319e-17
14 *33:6 4.30635e-17
15 *33:3 6.40905e-16
16 *33 9.49091e-18

*RES
0 *33:15 *33 0.170086  // $metal1_conn
1 *33:3 *52:s 6.25  // $metal1_conn
2 *33:3 *33:7 6.818182  // $metal1_conn
3 *33:3 *33:10 6.25  // $metal1_conn
4 *33:3 *33:14 6.25  // $metal1_conn
5 *33:6 *40:s 62.097355  // $metal1_conn
6 *33:8 *21:s 62.154579  // $metal1_conn
7 *33:9 *30:s 62.154579  // $metal1_conn
8 *33:11 *27:s 62.07473  // $metal1_conn
9 *33:12 *24:s 62.045826  // $metal1_conn
10 *33:13 *36:s 62.232143  // $metal1_conn
11 *33:15 *31:s 62.195015  // $metal1_conn
12 *52:s *33:6 0.486127  // $metal1_conn
13 *33:6 *33:7 0.531465  // $metal1_conn
14 *33:7 *33:8 0.202938  // $metal1_conn
15 *33:8 *33:9 0.694278  // $metal1_conn
16 *33:9 *33:10 0.255603  // $metal1_conn
17 *33:10 *33:11 0.162813  // $metal1_conn
18 *33:11 *33:12 0.532827  // $metal1_conn
19 *33:12 *33:13 0.369817  // $metal1_conn
20 *33:13 *33:14 0.135227  // $metal1_conn
21 *33:14 *33:15 0.380995  // $metal1_conn

*END

*D_NET *45 0

*CONN
*P *45 I *C 0.1000 0.0000 
*I *38:s B *C 7.1450 0.5225 
*I *39:s B *C 7.1450 0.5225 
*I *41:s B *C 7.9850 0.5300 
*I *44:s B *C 7.9850 0.5300 
*I *47:s B *C 8.5200 0.5300 
*I *49:s B *C 8.5200 0.5300 
*I *51:s B *C 9.1150 0.5875 
*I *53:s B *C 9.1150 0.5875 
*I *79:s B *C 3.4450 0.5075 
*I *80:s B *C 3.4450 0.5075 
*I *1:s B *C 2.1575 0.5875 
*I *10:s B *C 0.4125 0.4075 
*I *12:s B *C 0.4125 0.4075 
*I *16:s B *C 1.4675 0.4075 
*I *17:s B *C 1.4675 0.4075 
*N *45:3 *C 8.2000 0.0000 
*N *45:6 *C 7.1150 0.0000 
*N *45:7 *C 5.9000 0.0000 
*N *45:8 *C 3.6000 0.0000 
*N *45:9 *C 3.3600 0.0000 
*N *45:10 *C 2.1250 0.0000 
*N *45:11 *C 1.3750 0.0000 
*N *45:12 *C 1.2000 0.0000 
*N *45:13 *C 0.3850 0.0000 


*RES
0 *45:13 *45 0.1425  // $metal1_conn
1 *45:3 *51:s 5.166667  // $metal1_conn
2 *45:3 *45:7 5.636364  // $metal1_conn
3 *45:3 *45:8 5.166667  // $metal1_conn
4 *45:3 *45:12 5.166667  // $metal1_conn
5 *45:6 *38:s 75.321938  // $metal1_conn
6 *45:9 *79:s 75.045822  // $metal1_conn
7 *45:10 *1:s 75.365425  // $metal1_conn
8 *45:11 *16:s 75.255379  // $metal1_conn
9 *45:13 *10:s 75.246498  // $metal1_conn
10 *51:s *45:6 0.392388  // $metal1_conn
11 *45:6 *45:7 0.610227  // $metal1_conn
12 *45:7 *45:8 1.153603  // $metal1_conn
13 *45:8 *45:9 0.11923  // $metal1_conn
14 *45:9 *45:10 0.618093  // $metal1_conn
15 *45:10 *45:11 0.375783  // $metal1_conn
16 *45:11 *45:12 0.087578  // $metal1_conn
17 *45:12 *45:13 0.408581  // $metal1_conn

*END

*D_NET *59 2.03897e-16

*CONN
*P *59 I *C 1.7000 0.8550 
*I *17:g B *C 1.6625 0.4075 
*I *37:g B *C 1.7175 1.2975 
*N *59:2 *C 1.6900 0.6150 

*CAP
0 *37:g 4.31909e-17
1 *17:g 1.69711e-17
2 *59:2 9.37861e-17
3 *59 4.99485e-17

*RES
0 *37:g *59:2 138.922729  // $poly_conn
1 *59:2 *17:g 26.102209  // $poly_conn
2 *59 *59:2 45.144115  // $metal1_conn

*END

*D_NET *58 2.48182e-16

*CONN
*P *58 I *C 1.5000 0.6650 
*I *16:g B *C 1.2725 0.4075 
*I *36:g B *C 1.2825 1.2975 
*N *58:2 *C 1.3100 0.6600 

*CAP
0 *36:g 8.05158e-17
1 *16:g 2.26106e-17
2 *58:2 1.08612e-16
3 *58 3.64429e-17

*RES
0 *36:g *58:2 126.411629  // $poly_conn
1 *58:2 *16:g 36.668037  // $poly_conn
2 *58 *58:2 45.103313  // $metal1_conn

*END

*D_NET *60 2.14377e-16

*CONN
*P *60 I *C 7.7000 1.0450 
*I *41:g B *C 7.8275 0.5875 
*I *43:g B *C 7.8275 1.1975 
*N *60:2 *C 7.8000 0.9800 

*CAP
0 *43:g 3.48123e-17
1 *41:g 4.57391e-17
2 *60:2 5.41528e-17
3 *60 7.9673e-17

*RES
0 *43:g *60:2 19.691952  // $poly_conn
1 *60:2 *41:g 73.538109  // $poly_conn
2 *60:2 *60 45.047024  // $metal1_conn

*END

*D_NET *62 6.89154e-16

*CONN
*P *62 I *C 0.3000 0.6650 
*I *10:g B *C 0.2825 0.4075 
*I *14:g B *C 0.7725 0.4075 
*I *31:g B *C 0.3375 1.3425 
*I *35:g B *C 1.1775 1.2975 
*N *62:2 *C 0.3100 0.6150 
*N *62:5 *C 0.8000 0.5900 
*N *62:7 *C 1.1500 0.9700 
*N *62:8 *C 0.6850 0.5850 
*N *62:9 *C 0.3100 0.6150 

*CAP
0 *35:g 6.37525e-17
1 *31:g 5.35303e-17
2 *14:g 3.89466e-17
3 *10:g 2.18361e-17
4 *62:8 1.29044e-16
5 *62:2 1.13857e-16
6 *62:5 7.08574e-17
7 *62:7 1.97331e-16

*RES
0 *31:g *62:2 150.461182  // $poly_conn
1 *62:2 *10:g 26.102209  // $poly_conn
2 *14:g *62:5 64.691956  // $poly_conn
3 *35:g *62:7 92.897079  // $poly_conn
4 *62:7 *62:8 1.106116  // $metal1_conn
5 *62:8 *62:5 0.083423  // $metal1_conn
6 *62:8 *62:9 0.279126  // $metal1_conn
7 *62:9 *62 0.003432  // $metal1_conn
8 *62:2 *62:9 45  // $metal1_conn

*END

*D_NET *63 2.54698e-16

*CONN
*P *63 I *C 0.5000 0.8550 
*I *12:g B *C 0.5425 0.4075 
*I *32:g B *C 0.5425 1.3425 
*N *63:2 *C 0.5150 0.8600 
*N *63:4 *C 0.5150 0.8600 

*CAP
0 *32:g 4.53374e-17
1 *12:g 4.33843e-17
2 *63:2 5.71132e-17
3 *63 1.08863e-16

*RES
0 *32:g *63:2 87.640671  // $poly_conn
1 *63:2 *12:g 88.922722  // $poly_conn
2 *63 *63:4 0.004474  // $metal1_conn
3 *63:2 *63:4 45  // $metal1_conn

*END

*D_NET *64 1.02635e-15

*CONN
*P *64 I *C 3.3000 0.6650 
*I *38:g B *C 7.0125 0.4925 
*I *80:g B *C 3.4925 0.5075 
*I *23:g B *C 6.7975 1.0425 
*I *28:g B *C 3.4375 1.1375 
*N *64:2 *C 3.4550 0.7050 
*N *64:4 *C 3.4650 1.4100 
*N *64:7 *C 6.7100 1.3150 

*CAP
0 *28:g 3.59105e-17
1 *23:g 5.82953e-17
2 *80:g 2.66385e-17
3 *38:g 8.46306e-17
4 *64:2 8.39903e-17
5 *64:4 3.21377e-16
6 *64:7 3.45235e-16
7 *64 7.02707e-17

*RES
0 *80:g *64:2 22.565475  // $poly_conn
1 *64:2 *28:g 73.847527  // $poly_conn
2 *28:g *64:4 78.794518  // $poly_conn
3 *38:g *23:g 138.171967  // $poly_conn
4 *23:g *64:7 84.728386  // $poly_conn
5 *64:2 *64 45.091591  // $metal1_conn
6 *64:7 *64:4 2.435212  // $metal1_conn

*END

*D_NET *61 1.54483e-16

*CONN
*P *61 O *C 8.1000 1.0450 
*I *44:d B *C 8.1675 0.5300 
*I *47:d B *C 8.1675 0.5300 
*I *46:d B *C 8.1675 1.1100 
*I *48:d B *C 8.1675 1.1100 
*N *61:3 *C 8.1500 1.1100 

*CAP
0 *46:d 6.85268e-17
1 *44:d 7.35547e-17
2 *61 1.24013e-17

*RES
0 *61:3 *61 0.038633  // $metal1_conn
1 *44:d *61:3 75.306244  // $metal1_conn
2 *46:d *61:3 20.666666  // $metal1_conn

*END

*D_NET *42 1.59998e-16

*CONN
*P *42 O *C 8.5000 0.6650 
*I *49:d B *C 8.7325 0.5300 
*I *51:d B *C 8.7325 0.5300 
*I *50:d B *C 8.6700 1.1100 
*I *52:d B *C 8.6700 1.1100 
*N *42:2 *C 8.6700 0.7000 

*CAP
0 *50:d 7.58337e-17
1 *49:d 2.76029e-17
2 *42:2 2.24387e-17
3 *42 3.41231e-17

*RES
0 *42:2 *42 0.114579  // $metal1_conn
1 *42:2 *49:d 75.07692  // $metal1_conn
2 *50:d *42:2 20.979675  // $metal1_conn

*END

*D_NET *20 2.01952e-18

*CONN
*I *78:s B *C 3.1375 0.5075 
*I *79:d B *C 3.1375 0.5075 

*CAP
0 *78:s 2.01952e-18

*RES
0 *79:d *78:s 0.001  // $mwires

*END

*D_NET *19 2.92904e-18

*CONN
*I *15:s B *C 1.1250 0.4075 
*I *16:d B *C 1.1250 0.4075 

*CAP
0 *15:s 2.92904e-18

*RES
0 *16:d *15:s 0.001  // $mwires

*END

*D_NET *18 1.59759e-18

*CONN
*I *12:d B *C 0.6575 0.4075 
*I *14:s B *C 0.6575 0.4075 

*CAP
0 *12:d 1.59759e-18

*RES
0 *14:s *12:d 0.001  // $mwires

*END

*D_NET *13 2.86864e-17

*CONN
*I *21:d B *C 6.0875 1.0425 
*I *22:s B *C 6.0875 1.0425 

*CAP
0 *21:d 2.86864e-17

*RES
0 *22:s *21:d 0.001  // $mwires

*END

*D_NET *11 8.79766e-19

*CONN
*I *29:s B *C 3.8950 1.1375 
*I *30:d B *C 3.8950 1.1375 

*CAP
0 *29:s 8.79766e-19

*RES
0 *30:d *29:s 0.001  // $mwires

*END

*D_NET *9 1.61783e-18

*CONN
*I *26:s B *C 3.0900 1.1625 
*I *27:d B *C 3.0900 1.1625 

*CAP
0 *26:s 1.61783e-18

*RES
0 *27:d *26:s 0.001  // $mwires

*END

*D_NET *8 0

*CONN
*I *35:s B *C 1.2300 1.2975 
*I *36:d B *C 1.2300 1.2975 


*RES
0 *36:d *35:s 0.001  // $mwires

*END

*D_NET *7 0

*CONN
*I *32:d B *C 0.7050 1.3425 
*I *34:s B *C 0.7050 1.3425 


*RES
0 *34:s *32:d 0.001  // $mwires

*END

*D_NET *6 4.37287e-16

*CONN
*I *10:d B *C 0.1750 0.4075 
*I *15:g B *C 0.9775 0.4075 
*I *31:d B *C 0.2450 1.3425 
*I *34:g B *C 0.8675 1.3425 
*N *6:2 *C 0.8300 0.8550 
*N *6:4 *C 0.2350 1.2000 

*CAP
0 *34:g 4.25293e-17
1 *31:d 1.37799e-17
2 *15:g 5.35662e-17
3 *10:d 6.94587e-17
4 *6:4 9.5761e-17
5 *6:2 1.62192e-16

*RES
0 *15:g *6:2 109.959152  // $poly_conn
1 *6:2 *34:g 87.950089  // $poly_conn
2 *6:2 *6:4 45.689949  // $metal1_conn
3 *6:4 *10:d 75.623604  // $metal1_conn
4 *6:4 *31:d 62.049511  // $metal1_conn

*END

*D_NET *5 6.57602e-16

*CONN
*I *77:d B *C 2.6250 0.5075 
*I *14:d B *C 0.8750 0.4075 
*I *15:d B *C 0.8750 0.4075 
*I *25:s B *C 2.7100 1.1625 
*I *34:d B *C 1.1050 1.2975 
*I *35:d B *C 1.1050 1.2975 
*N *5:2 *C 2.5950 1.2950 
*N *5:3 *C 0.9900 1.1600 

*CAP
0 *34:d 1.97832e-17
1 *25:s 3.2613e-17
2 *14:d 1.10355e-16
3 *77:d 9.9567e-17
4 *5:3 2.09765e-16
5 *5:2 1.85518e-16

*RES
0 *77:d *5:2 75.490189  // $metal1_conn
1 *5:2 *5:3 1.312749  // $metal1_conn
2 *5:3 *14:d 75.655464  // $metal1_conn
3 *5:2 *25:s 62.020691  // $metal1_conn
4 *5:3 *34:d 62.093517  // $metal1_conn

*END

*D_NET *4 8.49301e-16

*CONN
*I *55:g B *C 4.8075 0.4975 
*I *78:g B *C 3.0475 0.5075 
*I *1:d B *C 2.3750 0.5875 
*I *57:g B *C 5.0125 1.0075 
*I *24:d B *C 2.4150 0.9600 
*I *25:g B *C 2.7825 1.1625 
*N *4:2 *C 2.7550 0.9400 
*N *4:4 *C 2.8800 0.3000 
*N *4:7 *C 3.7850 0.2600 
*N *4:8 *C 2.7550 0.3000 
*N *4:10 *C 2.3950 0.5750 

*CAP
0 *25:g 3.7402e-17
1 *24:d 5.68477e-17
2 *57:g 6.8428e-17
3 *1:d 9.70401e-17
4 *78:g 5.09684e-17
5 *55:g 8.95165e-17
6 *4:8 6.67035e-17
7 *4:2 1.27114e-16
8 *4:4 9.29473e-17
9 *4:7 1.62333e-16

*RES
0 *25:g *4:2 65.973999  // $poly_conn
1 *78:g *4:4 85.737335  // $poly_conn
2 *57:g *55:g 113.523422  // $poly_conn
3 *55:g *4:7 342.111267  // $poly_conn
4 *4:2 *4:8 0.494718  // $metal1_conn
5 *4:8 *4:10 0.424792  // $metal1_conn
6 *4:10 *24:d 62.301037  // $metal1_conn
7 *4:8 *4:4 0.089263  // $metal1_conn
8 *4:4 *4:7 0.699222  // $metal1_conn
9 *1:d *4:10 75  // $metal1_conn

*END

*D_NET *3 1.24255e-15

*CONN
*I *72:g B *C 5.0125 0.4975 
*I *77:g B *C 2.7375 0.5075 
*I *1:g B *C 2.2725 0.5875 
*I *17:d B *C 1.7550 0.4075 
*I *56:g B *C 4.7125 1.0075 
*I *24:g B *C 2.2725 1.0075 
*I *26:g B *C 3.0375 1.1625 
*I *37:d B *C 1.8100 1.2975 
*N *3:2 *C 3.0750 0.8250 
*N *3:3 *C 2.7375 0.7975 
*N *3:4 *C 2.2450 0.7700 
*N *3:9 *C 4.7500 0.8000 
*N *3:11 *C 4.9600 0.1900 
*N *3:12 *C 1.8700 0.7700 

*CAP
0 *37:d 5.78467e-17
1 *26:g 6.01578e-17
2 *24:g 1.90701e-17
3 *56:g 3.57653e-17
4 *17:d 5.07239e-17
5 *1:g 1.06455e-17
6 *77:g 3.38265e-17
7 *72:g 4.48966e-17
8 *3:12 7.16458e-17
9 *3:3 4.04521e-17
10 *3:4 4.93133e-17
11 *3:2 3.00452e-16
12 *3:9 3.59034e-16
13 *3:11 1.08722e-16

*RES
0 *26:g *3:2 49.488552  // $poly_conn
1 *3:2 *3:3 74.336548  // $poly_conn
2 *3:3 *3:4 115.644241  // $poly_conn
3 *3:3 *77:g 51.069717  // $poly_conn
4 *3:4 *1:g 16.530039  // $poly_conn
5 *3:4 *24:g 21.658245  // $poly_conn
6 *56:g *3:9 61.15522  // $poly_conn
7 *72:g *3:11 99.271973  // $poly_conn
8 *3:4 *3:12 45.242359  // $metal1_conn
9 *3:12 *17:d 75.342216  // $metal1_conn
10 *3:12 *37:d 62.339691  // $metal1_conn
11 *3:11 *3:9 0.584566  // $metal1_conn
12 *3:9 *3:2 46.923756  // $metal1_conn

*END

*D_NET *2 5.77045e-16

*CONN
*I *55:s B *C 4.6575 0.4975 
*I *79:g B *C 3.2275 0.5075 
*I *81:d B *C 4.1350 0.5075 
*I *82:d B *C 4.1350 0.5075 
*I *56:s B *C 4.6100 1.0075 
*I *27:g B *C 3.1425 1.1625 
*I *28:d B *C 3.6400 1.1375 
*I *29:d B *C 3.6400 1.1375 
*N *2:2 *C 3.2650 0.9300 
*N *2:6 *C 4.5900 0.9600 
*N *2:7 *C 4.1350 0.9300 
*N *2:8 *C 3.5700 0.9300 

*CAP
0 *28:d 3.43173e-17
1 *27:g 6.09194e-17
2 *56:s 7.11987e-17
3 *81:d 3.90774e-17
4 *79:g 5.72472e-17
5 *55:s 5.64266e-17
6 *2:8 5.94865e-17
7 *2:7 8.06602e-17
8 *2:2 1.17712e-16

*RES
0 *79:g *2:2 80.257782  // $poly_conn
1 *2:2 *27:g 39.446335  // $poly_conn
2 *55:s *2:6 75.329674  // $metal1_conn
3 *2:6 *2:7 0.340511  // $metal1_conn
4 *2:7 *2:8 0.447805  // $metal1_conn
5 *2:8 *2:2 45.251286  // $metal1_conn
6 *2:7 *81:d 75.2668  // $metal1_conn
7 *2:8 *28:d 62.083195  // $metal1_conn
8 *56:s *2:6 62  // $metal1_conn

*END

*D_NET *75 5.07178e-16

*CONN
*I *77:s B *C 2.8925 0.5075 
*I *78:d B *C 2.8925 0.5075 
*I *81:g B *C 4.0325 0.5075 
*I *25:d B *C 2.9100 1.1625 
*I *26:d B *C 2.9100 1.1625 
*I *29:g B *C 3.8425 1.1375 
*N *75:2 *C 3.8800 0.7050 
*N *75:5 *C 2.9450 0.4950 

*CAP
0 *29:g 7.05369e-17
1 *25:d 8.38696e-17
2 *81:g 4.79849e-17
3 *77:s 1.51744e-16
4 *75:2 1.53043e-16

*RES
0 *81:g *75:2 46.513458  // $poly_conn
1 *75:2 *29:g 73.847527  // $poly_conn
2 *75:2 *75:5 45.861755  // $metal1_conn
3 *75:5 *25:d 62.479939  // $metal1_conn
4 *77:s *75:5 75  // $metal1_conn

*END

*D_NET *73 1.28736e-16

*CONN
*I *80:d B *C 3.7625 0.5075 
*I *81:s B *C 3.7625 0.5075 
*I *82:s B *C 4.3300 0.5075 

*CAP
0 *82:s 5.96408e-17
1 *80:d 6.90947e-17

*RES
0 *82:s *80:d 150.460983  // $metal1_conn

*END

*D_NET *71 1.20699e-15

*CONN
*I *41:d B *C 7.7350 0.5875 
*I *74:g B *C 6.5875 0.4925 
*I *82:g B *C 4.2375 0.5075 
*I *43:d B *C 7.7350 1.1975 
*I *21:g B *C 5.5975 1.0425 
*I *30:g B *C 3.9475 1.1375 
*N *71:3 *C 5.3325 1.5775 
*N *71:5 *C 5.3600 1.1250 
*N *71:9 *C 7.7250 1.2450 

*CAP
0 *30:g 1.38986e-16
1 *21:g 8.39238e-17
2 *43:d 2.85675e-16
3 *82:g 6.32164e-17
4 *74:g 8.70602e-17
5 *41:d 1.16786e-16
6 *71:3 6.3006e-17
7 *71:5 3.68342e-16

*RES
0 *74:g *21:g 336.889923  // $poly_conn
1 *21:g *71:3 170.498077  // $poly_conn
2 *71:3 *30:g 433.318604  // $poly_conn
3 *71:3 *71:5 147.812958  // $poly_conn
4 *30:g *82:g 177.915558  // $poly_conn
5 *41:d *71:9 75.764839  // $metal1_conn
6 *71:9 *71:5 2.129965  // $metal1_conn
7 *43:d *71:9 62  // $metal1_conn

*END

*D_NET *70 6.51869e-16

*CONN
*I *39:g B *C 7.2175 0.5225 
*I *55:d B *C 4.9100 0.4975 
*I *72:d B *C 4.9100 0.4975 
*I *40:g B *C 7.1175 1.0900 
*I *56:d B *C 4.8625 1.0075 
*I *57:d B *C 4.8625 1.0075 
*N *70:2 *C 7.1550 0.8350 
*N *70:4 *C 4.9100 0.7900 

*CAP
0 *56:d 4.10612e-17
1 *40:g 3.54948e-17
2 *55:d 4.41817e-17
3 *39:g 4.22477e-17
4 *70:4 2.10895e-16
5 *70:2 2.77989e-16

*RES
0 *39:g *70:2 56.220726  // $poly_conn
1 *70:2 *40:g 16.15522  // $poly_conn
2 *70:2 *70:4 46.746437  // $metal1_conn
3 *70:4 *55:d 75.227844  // $metal1_conn
4 *70:4 *56:d 62.152069  // $metal1_conn

*END

*D_NET *69 2.8058e-16

*CONN
*I *72:s B *C 5.1050 0.4975 
*I *74:d B *C 6.6975 0.4925 
*I *76:d B *C 6.6975 0.4925 

*CAP
0 *74:d 1.68825e-16
1 *72:s 1.11755e-16

*RES
0 *72:s *74:d 151.252899  // $metal1_conn

*END

*D_NET *68 4.24274e-16

*CONN
*I *57:s B *C 5.1050 1.0075 
*I *22:d B *C 6.6875 1.0425 
*I *23:d B *C 6.6875 1.0425 

*CAP
0 *22:d 2.27866e-16
1 *57:s 1.96408e-16

*RES
0 *22:d *57:s 125.317459  // $metal1_conn

*END

*D_NET *67 1.01574e-15

*CONN
*I *39:d B *C 7.3225 0.5225 
*I *44:g B *C 8.0325 0.5300 
*I *47:g B *C 8.3025 0.5300 
*I *53:g B *C 9.1625 0.5875 
*I *76:g B *C 6.8075 0.4925 
*I *40:d B *C 7.2400 1.0900 
*I *46:g B *C 8.0325 1.1100 
*I *48:g B *C 8.3025 1.1100 
*I *54:g B *C 9.0025 1.0225 
*I *22:g B *C 6.5775 1.0425 
*N *67:2 *C 6.8075 0.6750 
*N *67:4 *C 6.8650 0.6750 
*N *67:13 *C 9.1900 0.4050 
*N *67:17 *C 7.3450 0.4800 
*N *67:18 *C 7.3450 0.6750 

*CAP
0 *22:g 5.73341e-17
1 *54:g 5.75321e-17
2 *48:g 3.90621e-16
3 *40:d 8.58637e-17
4 *76:g 3.11647e-17
5 *53:g 2.13394e-17
6 *39:d 6.02324e-17
7 *67:18 7.01522e-17
8 *67:2 3.76324e-17
9 *67:4 1.03609e-16
10 *67:13 1.00257e-16

*RES
0 *54:g *53:g 94.582222  // $poly_conn
1 *67:2 *22:g 99.326622  // $poly_conn
2 *53:g *67:13 64.691956  // $poly_conn
3 *76:g *67:2 16.33637  // $poly_conn
4 *67:2 *67:4 47.969933  // $poly_conn
5 *67:13 *48:g 0.617807  // $metal1_conn
6 *48:g *67:17 0.510883  // $metal1_conn
7 *67:18 *67:4 0.345772  // $metal1_conn
8 *39:d *67:17 75  // $metal1_conn
9 *67:18 *40:d 31.365919  // $metal1_conn
10 *67:17 *67:18 0.149704  // $metal1_conn

*END

*D_NET *66 1.56828e-16

*CONN
*I *38:d B *C 6.9100 0.4925 
*I *74:s B *C 6.4950 0.4925 
*I *76:s B *C 6.9100 0.4925 

*CAP
0 *74:s 7.54251e-17
1 *38:d 8.14026e-17

*RES
0 *38:d *74:s 150.379837  // $metal1_conn

*END

*D_NET *65 2.51614e-16

*CONN
*I *49:g B *C 8.5675 0.5300 
*I *51:g B *C 8.8975 0.5300 
*I *53:d B *C 9.2550 0.5875 
*I *50:g B *C 8.5675 1.1100 
*I *52:g B *C 8.7725 1.1100 
*I *54:d B *C 9.0950 1.0225 
*N *65:8 *C 9.1050 0.7600 

*CAP
0 *54:d 1.71164e-17
1 *52:g 1.84021e-16
2 *53:d 1.87382e-17
3 *65:8 3.17379e-17

*RES
0 *65:8 *52:g 45.14975  // $metal1_conn
1 *65:8 *54:d 62.154484  // $metal1_conn
2 *53:d *65:8 75.230431  // $metal1_conn

*END

