*SPEF "IEEE 1481-1999"
*DESIGN  "SDFFSRHQX1"
*DATE "Mon Sep 27 11:05:58 2010"
*VENDOR "Cadence Design Systems"
*PROGRAM "Assura RCX"
*VERSION "3.2 Red Hat Linux release 7.2 (Enigma) - (09/09/2009-10:39)"
*DESIGN_FLOW "Physical Verification"
*DIVIDER /
*DELIMITER :
*BUS_DELIMITER []
*T_UNIT 1 PS
*C_UNIT 1e15 FF
*R_UNIT 1 OHM
*L_UNIT 1 MH
// DeviceFingerDelim "@"
// MATCHED
// caps2d version: 10

*NAME_MAP
*1 VSS
*2 mp21
*3 mp20
*4 mp11
*5 mp12
*6 mp14
*7 mp13
*8 mp10
*9 mp32
*10 mp30
*11 CK
*12 mp35
*13 mn20
*14 mp36
*15 mn11
*16 mp25
*17 mn12
*18 mp55
*19 mn14
*20 mp45
*21 mn13
*22 mp22
*23 mn10
*24 SEb
*25 mp50
*26 mn32
*27 Db
*28 mp52
*29 mn30
*30 n20
*31 mp51
*32 mn35
*33 net469
*34 mp53
*35 mout
*36 CKbb
*37 CKb
*38 net486
*39 D
*40 net490
*41 net394
*42 mp40
*43 mp31
*44 VDD
*45 RNb
*46 qbint
*47 n35
*48 net437
*49 Q
*50 RN
*51 net417
*52 net425
*53 net445
*54 net453
*55 net514
*56 mn36
*57 net522
*58 mn25
*59 mn21
*60 SE
*61 mn55
*62 mn45
*63 mn22
*64 mn50
*65 SI
*66 mn52
*67 mn51
*68 net534
*69 mn53
*70 SN
*71 mn40
*72 mn31

*GROUND_NETS VSS

*PORTS
*44 I
*1 I
*11 I
*39 I
*50 I
*60 I
*65 I
*70 I
*49 O

*D_NET *44 1.12339e-15

*CONN
*P *44 I *C 0.1000 1.7100 
*I *2:s B *C 5.8600 1.1825 
*I *3:s B *C 6.6350 1.1650 
*I *4:s B *C 6.6350 1.1650 
*I *7:s B *C 7.3500 1.2525 
*I *8:s B *C 7.3500 1.2525 
*I *10:s B *C 4.5575 1.1000 
*I *12:s B *C 4.5575 1.1000 
*I *18:s B *C 0.3950 1.1350 
*I *20:s B *C 0.3950 1.1350 
*I *22:s B *C 1.2650 1.1150 
*I *25:s B *C 1.2650 1.1150 
*I *31:s B *C 1.9325 1.2000 
*I *43:s B *C 3.6175 1.1000 
*N *44:2 *C 6.8000 1.7100 
*N *44:3 *C 6.8000 1.7100 
*N *44:4 *C 6.6050 1.7100 
*N *44:5 *C 5.8800 1.7100 
*N *44:6 *C 4.9000 1.7100 
*N *44:7 *C 4.4100 1.7100 
*N *44:8 *C 3.4500 1.7100 
*N *44:9 *C 3.0000 1.7100 
*N *44:10 *C 1.9900 1.7100 
*N *44:11 *C 1.1900 1.7100 
*N *44:12 *C 1.0000 1.7100 
*N *44:13 *C 0.3450 1.7100 

*CAP
0 *43:s 5.68829e-17
1 *31:s 5.33386e-17
2 *22:s 6.73004e-17
3 *18:s 5.99693e-17
4 *10:s 5.36196e-17
5 *7:s 5.07108e-17
6 *3:s 2.00543e-17
7 *2:s 4.41197e-17
8 *44:13 2.05505e-17
9 *44:11 3.1341e-17
10 *44:10 4.04483e-17
11 *44:8 2.55634e-17
12 *44:7 2.80693e-17
13 *44:5 2.73062e-17
14 *44:4 1.42103e-17
15 *44:2 5.22986e-16
16 *44 6.91576e-18

*RES
0 *7:s *44:3 62.54945  // $metal1_conn
1 *44:3 *44:4 0.097675  // $metal1_conn
2 *44:4 *44:5 0.363486  // $metal1_conn
3 *44:5 *44:6 0.491668  // $metal1_conn
4 *44:6 *44:7 0.245736  // $metal1_conn
5 *44:7 *44:8 0.481433  // $metal1_conn
6 *44:8 *44:9 0.22566  // $metal1_conn
7 *44:9 *44:10 0.506725  // $metal1_conn
8 *44:10 *44:11 0.401129  // $metal1_conn
9 *44:11 *44:12 0.095165  // $metal1_conn
10 *44:12 *44:13 0.32855  // $metal1_conn
11 *44:13 *44 0.122519  // $metal1_conn
12 *44:4 *3:s 62.256622  // $metal1_conn
13 *44:5 *2:s 62.313004  // $metal1_conn
14 *44:7 *10:s 62.238358  // $metal1_conn
15 *44:8 *43:s 62.219688  // $metal1_conn
16 *44:10 *31:s 62.256279  // $metal1_conn
17 *44:11 *22:s 62.337303  // $metal1_conn
18 *44:13 *18:s 62.373768  // $metal1_conn
19 *44:2 *44:3 7.5  // $metal1_conn
20 *44:2 *44:6 8.333333  // $metal1_conn
21 *44:2 *44:9 7.5  // $metal1_conn
22 *44:2 *44:12 7.5  // $metal1_conn

*END

*D_NET *1 0

*CONN
*P *1 I *C 0.1000 0.0000 
*I *13:s B *C 6.6600 0.4450 
*I *15:s B *C 6.6600 0.4450 
*I *21:s B *C 7.4250 0.4775 
*I *23:s B *C 7.4250 0.4775 
*I *29:s B *C 4.5100 0.4075 
*I *32:s B *C 4.5100 0.4075 
*I *59:s B *C 5.7300 0.3375 
*I *61:s B *C 0.3800 0.5275 
*I *62:s B *C 0.3800 0.5275 
*I *63:s B *C 1.4050 0.4875 
*I *64:s B *C 1.4050 0.4875 
*N *1:2 *C 6.8000 0.0000 
*N *1:3 *C 6.8000 0.0000 
*N *1:4 *C 6.5750 0.0000 
*N *1:5 *C 5.6950 0.0000 
*N *1:6 *C 4.9000 0.0000 
*N *1:7 *C 4.4550 0.0000 
*N *1:8 *C 3.0000 0.0000 
*N *1:9 *C 1.3200 0.0000 
*N *1:10 *C 1.0000 0.0000 
*N *1:11 *C 0.3150 0.0000 


*RES
0 *21:s *1:3 75.622833  // $metal1_conn
1 *1:3 *1:4 0.111781  // $metal1_conn
2 *1:4 *1:5 0.43938  // $metal1_conn
3 *1:5 *1:6 0.397865  // $metal1_conn
4 *1:6 *1:7 0.22315  // $metal1_conn
5 *1:7 *1:8 0.730071  // $metal1_conn
6 *1:8 *1:9 0.842049  // $metal1_conn
7 *1:9 *1:10 0.159462  // $metal1_conn
8 *1:10 *1:11 0.343607  // $metal1_conn
9 *1:11 *1 0.107591  // $metal1_conn
10 *1:4 *13:s 75.045853  // $metal1_conn
11 *1:5 *59:s 75.045853  // $metal1_conn
12 *1:7 *29:s 75.222672  // $metal1_conn
13 *1:9 *63:s 75.045853  // $metal1_conn
14 *1:11 *61:s 75.31823  // $metal1_conn
15 *1:2 *1:3 6.2  // $metal1_conn
16 *1:2 *1:6 6.888889  // $metal1_conn
17 *1:2 *1:8 6.2  // $metal1_conn
18 *1:2 *1:10 6.2  // $metal1_conn

*END

*D_NET *11 2.4535e-16

*CONN
*P *11 I *C 6.1000 0.8550 
*I *13:g B *C 6.3125 0.5025 
*I *3:g B *C 6.5025 1.2525 
*N *11:2 *C 6.2750 0.8450 

*CAP
0 *3:g 4.59395e-17
1 *13:g 3.44891e-17
2 *11:2 8.19867e-17
3 *11 8.29343e-17

*RES
0 *3:g *11:2 111.241203  // $poly_conn
1 *11:2 *13:g 59.744961  // $poly_conn
2 *11:2 *11 45.10257  // $metal1_conn

*END

*D_NET *39 2.8614e-16

*CONN
*P *39 I *C 6.5000 0.6650 
*I *15:g B *C 6.7075 0.4450 
*I *4:g B *C 6.7075 1.1650 
*N *39:2 *C 6.7075 0.7025 
*N *39:3 *C 6.5050 0.6750 

*CAP
0 *4:g 1.04277e-16
1 *15:g 4.23795e-17
2 *39:2 2.62006e-17
3 *39:3 2.53798e-17
4 *39 8.79032e-17

*RES
0 *4:g *39:2 67.437737  // $poly_conn
1 *39:2 *39:3 83.710388  // $poly_conn
2 *39:2 *15:g 31.540302  // $poly_conn
3 *39 *39:3 0.004838  // $metal1_conn

*END

*D_NET *50 1.81935e-16

*CONN
*P *50 I *C 1.3000 0.8550 
*I *63:g B *C 1.0275 0.5375 
*I *22:g B *C 1.0275 1.0675 
*N *50:2 *C 1.0650 0.8500 

*CAP
0 *22:g 2.73023e-17
1 *63:g 2.62844e-17
2 *50:2 8.35675e-17
3 *50 4.47809e-17

*RES
0 *22:g *50:2 18.719322  // $poly_conn
1 *50:2 *63:g 52.052654  // $poly_conn
2 *50 *50:2 45.107182  // $metal1_conn

*END

*D_NET *60 5.54846e-16

*CONN
*P *60 I *C 7.5000 0.6650 
*I *19:g B *C 7.1675 0.4350 
*I *23:g B *C 7.4775 0.4775 
*I *5:g B *C 6.8125 1.1650 
*I *8:g B *C 7.4025 1.2525 
*N *60:2 *C 6.8550 0.8450 
*N *60:4 *C 7.1300 0.6750 
*N *60:6 *C 7.4500 0.6750 
*N *60:8 *C 7.4500 0.6750 

*CAP
0 *8:g 5.21378e-17
1 *5:g 7.39586e-17
2 *23:g 3.0293e-17
3 *19:g 7.54058e-17
4 *60:2 1.08377e-16
5 *60:4 9.7666e-17
6 *60:6 9.17713e-17
7 *60 2.52357e-17

*RES
0 *5:g *60:2 66.244827  // $poly_conn
1 *19:g *60:4 63.719322  // $poly_conn
2 *23:g *60:6 23.538105  // $poly_conn
3 *60:6 *8:g 119.402382  // $poly_conn
4 *60:2 *60:4 0.316187  // $metal1_conn
5 *60:4 *60:8 0.237434  // $metal1_conn
6 *60:8 *60 0.03394  // $metal1_conn
7 *60:6 *60:8 45  // $metal1_conn

*END

*D_NET *65 3.31983e-16

*CONN
*P *65 I *C 7.3000 0.8550 
*I *21:g B *C 7.2725 0.4350 
*I *7:g B *C 7.1975 1.1650 
*N *65:2 *C 7.2350 0.8700 

*CAP
0 *7:g 6.10027e-17
1 *21:g 8.93411e-17
2 *65:2 9.39242e-17
3 *65 8.77146e-17

*RES
0 *21:g *65:2 70.989632  // $poly_conn
1 *65:2 *7:g 18.425531  // $poly_conn
2 *65:2 *65 45.022415  // $metal1_conn

*END

*D_NET *70 9.08691e-16

*CONN
*P *70 I *C 1.5000 0.8550 
*I *29:g B *C 4.3825 0.4075 
*I *64:g B *C 1.4525 0.4875 
*I *10:g B *C 4.2575 1.1000 
*I *25:g B *C 1.4525 1.1150 
*N *70:2 *C 1.4900 0.8500 
*N *70:6 *C 4.2200 1.3550 

*CAP
0 *25:g 4.60342e-17
1 *10:g 7.11281e-17
2 *64:g 3.78229e-17
3 *29:g 6.82538e-17
4 *70:2 3.70444e-16
5 *70:6 3.15009e-16

*RES
0 *25:g *70:2 18.719322  // $poly_conn
1 *70:2 *64:g 57.180859  // $poly_conn
2 *29:g *10:g 131.761719  // $poly_conn
3 *10:g *70:6 61.15522  // $poly_conn
4 *70:6 *70 2.574706  // $metal1_conn
5 *70 *70:2 45.003735  // $metal1_conn

*END

*D_NET *49 1.02102e-16

*CONN
*P *49 O *C 0.1000 0.6650 
*I *61:d B *C 0.1200 0.5000 
*I *18:d B *C 0.1500 1.0950 

*CAP
0 *18:d 4.40117e-17
1 *61:d 1.47333e-17
2 *49 4.33575e-17

*RES
0 *18:d *49 20.978298  // $metal1_conn
1 *49 *61:d 75.0606  // $metal1_conn

*END

*D_NET *68 0

*CONN
*I *19:s B *C 7.2200 0.4350 
*I *21:d B *C 7.2200 0.4350 


*RES
0 *21:d *19:s 0.001  // $mwires

*END

*D_NET *57 6.85487e-18

*CONN
*I *15:d B *C 6.8350 0.4450 
*I *17:s B *C 6.8350 0.4450 

*CAP
0 *15:d 6.85487e-18

*RES
0 *17:s *15:d 0.001  // $mwires

*END

*D_NET *55 2.24542e-18

*CONN
*I *32:d B *C 4.7150 0.4075 
*I *56:s B *C 4.7150 0.4075 

*CAP
0 *32:d 2.24542e-18

*RES
0 *56:s *32:d 0.001  // $mwires

*END

*D_NET *54 4.83964e-18

*CONN
*I *6:s B *C 7.1075 1.1650 
*I *7:d B *C 7.1075 1.1650 

*CAP
0 *6:s 4.83964e-18

*RES
0 *7:d *6:s 0.001  // $mwires

*END

*D_NET *53 2.61316e-18

*CONN
*I *4:d B *C 6.7600 1.1650 
*I *5:s B *C 6.7600 1.1650 

*CAP
0 *4:d 2.61316e-18

*RES
0 *5:s *4:d 0.001  // $mwires

*END

*D_NET *52 3.46728e-18

*CONN
*I *12:d B *C 4.7575 1.1000 
*I *14:s B *C 4.7575 1.1000 

*CAP
0 *12:d 3.46728e-18

*RES
0 *14:s *12:d 0.001  // $mwires

*END

*D_NET *51 5.4236e-18

*CONN
*I *9:s B *C 3.8900 1.1000 
*I *43:d B *C 3.8900 1.1000 

*CAP
0 *9:s 5.4236e-18

*RES
0 *43:d *9:s 0.001  // $mwires

*END

*D_NET *48 1.24016e-18

*CONN
*I *28:s B *C 1.7100 1.2000 
*I *31:d B *C 1.7100 1.2000 

*CAP
0 *28:s 1.24016e-18

*RES
0 *31:d *28:s 0.001  // $mwires

*END

*D_NET *47 7.94332e-16

*CONN
*I *62:g B *C 0.4475 0.5275 
*I *69:d B *C 2.5800 0.4525 
*I *71:d B *C 2.5800 0.4525 
*I *20:g B *C 0.4475 1.1350 
*I *34:d B *C 2.6050 1.0700 
*I *42:d B *C 2.6050 1.0700 
*N *47:2 *C 0.4750 0.7400 
*N *47:5 *C 2.5900 0.8150 

*CAP
0 *34:d 7.35114e-17
1 *20:g 4.71539e-17
2 *69:d 5.75038e-17
3 *62:g 3.45077e-17
4 *47:5 3.0556e-16
5 *47:2 2.76095e-16

*RES
0 *20:g *47:2 53.025284  // $poly_conn
1 *47:2 *62:g 19.691952  // $poly_conn
2 *34:d *47:5 31.19812  // $metal1_conn
3 *47:5 *47:2 47.126507  // $metal1_conn
4 *47:5 *69:d 75.256584  // $metal1_conn

*END

*D_NET *46 6.21635e-16

*CONN
*I *61:g B *C 0.2125 0.5000 
*I *62:d B *C 0.5825 0.5275 
*I *66:g B *C 1.6575 0.4875 
*I *18:g B *C 0.2425 1.0950 
*I *20:d B *C 0.5900 1.2300 
*I *28:g B *C 1.6575 1.2000 
*N *46:2 *C 0.2500 0.8000 
*N *46:4 *C 0.3000 0.8000 
*N *46:6 *C 1.0000 1.4450 
*N *46:9 *C 0.5500 1.2300 
*N *46:10 *C 0.6350 0.9300 

*CAP
0 *28:g 1.35292e-16
1 *20:d 5.69759e-17
2 *18:g 4.51015e-17
3 *66:g 7.37259e-17
4 *62:d 5.50884e-17
5 *61:g 4.00216e-17
6 *46:10 4.92193e-17
7 *46:2 1.35195e-17
8 *46:4 7.39248e-17
9 *46:6 7.87657e-17

*RES
0 *18:g *46:2 17.962704  // $poly_conn
1 *46:2 *61:g 45.726273  // $poly_conn
2 *46:2 *46:4 47.88456  // $poly_conn
3 *28:g *46:6 229.290756  // $poly_conn
4 *28:g *66:g 116.666672  // $poly_conn
5 *46:6 *46:9 0.475714  // $metal1_conn
6 *46:9 *46:10 0.247029  // $metal1_conn
7 *46:10 *46:4 0.311002  // $metal1_conn
8 *46:10 *62:d 75.269997  // $metal1_conn
9 *20:d *46:9 62  // $metal1_conn

*END

*D_NET *45 6.91893e-16

*CONN
*I *63:d B *C 0.9350 0.5375 
*I *67:g B *C 1.8675 0.4875 
*I *72:g B *C 3.7775 0.4125 
*I *22:d B *C 0.9550 1.0675 
*I *31:g B *C 1.7625 1.2000 
*I *43:g B *C 3.7775 1.1000 
*N *45:2 *C 1.8000 1.4550 
*N *45:7 *C 0.8950 1.0200 

*CAP
0 *43:g 1.04897e-16
1 *31:g 7.24008e-17
2 *22:d 1.48579e-16
3 *72:g 4.78968e-17
4 *67:g 6.55891e-17
5 *63:d 6.49692e-17
6 *45:2 1.87562e-16

*RES
0 *43:g *45:2 547.795532  // $poly_conn
1 *45:2 *31:g 16.15522  // $poly_conn
2 *43:g *72:g 110.256416  // $poly_conn
3 *31:g *67:g 131.761719  // $poly_conn
4 *45:2 *45:7 45.967602  // $metal1_conn
5 *45:7 *63:d 75.328979  // $metal1_conn
6 *22:d *45:7 62  // $metal1_conn

*END

*D_NET *41 1.89283e-16

*CONN
*I *25:d B *C 1.6050 1.2000 
*I *28:d B *C 1.6050 1.2000 
*I *34:s B *C 2.3375 1.0700 

*CAP
0 *34:s 1.03791e-16
1 *25:d 8.54923e-17

*RES
0 *34:s *25:d 124.533249  // $metal1_conn

*END

*D_NET *40 1.94522e-16

*CONN
*I *66:d B *C 1.7625 0.4875 
*I *67:d B *C 1.7625 0.4875 
*I *69:s B *C 2.2975 0.4525 

*CAP
0 *69:s 9.9544e-17
1 *66:d 9.49782e-17

*RES
0 *66:d *69:s 150.410873  // $metal1_conn

*END

*D_NET *38 1.6193e-16

*CONN
*I *64:d B *C 1.5550 0.4875 
*I *66:s B *C 1.5550 0.4875 
*I *67:s B *C 1.9800 0.4875 

*CAP
0 *67:s 7.75491e-17
1 *64:d 8.4381e-17

*RES
0 *67:s *64:d 150.40741  // $metal1_conn

*END

*D_NET *37 1.62561e-15

*CONN
*I *13:d B *C 6.2200 0.5025 
*I *58:g B *C 5.0675 0.4075 
*I *59:g B *C 5.6325 0.5225 
*I *69:g B *C 2.4375 0.4525 
*I *2:g B *C 5.7575 1.1825 
*I *3:d B *C 6.4100 1.2525 
*I *14:g B *C 4.8775 1.1000 
*I *42:g B *C 2.7225 1.0700 
*N *37:2 *C 2.4000 0.6550 
*N *37:4 *C 2.7500 0.8050 
*N *37:6 *C 5.7200 0.7200 
*N *37:7 *C 5.6325 0.6925 
*N *37:8 *C 5.0675 0.6925 
*N *37:13 *C 5.7200 0.7200 
*N *37:14 *C 5.7200 1.0400 

*CAP
0 *42:g 4.33017e-17
1 *14:g 4.99728e-17
2 *3:d 6.92985e-17
3 *2:g 3.04632e-17
4 *69:g 3.45452e-17
5 *59:g 2.66071e-17
6 *58:g 2.97486e-17
7 *13:d 7.58693e-17
8 *37:14 3.97678e-16
9 *37:8 6.19939e-17
10 *37:7 1.84917e-17
11 *37:2 1.37877e-16
12 *37:4 5.38164e-16
13 *37:6 1.11596e-16

*RES
0 *69:g *37:2 61.15522  // $poly_conn
1 *42:g *37:4 64.691956  // $poly_conn
2 *2:g *37:6 81.539833  // $poly_conn
3 *37:6 *37:7 9.608804  // $poly_conn
4 *37:7 *37:8 139.211655  // $poly_conn
5 *37:8 *14:g 100.098732  // $poly_conn
6 *37:7 *59:g 20.300484  // $poly_conn
7 *37:8 *58:g 45.260094  // $poly_conn
8 *13:d *37:13 75.511742  // $metal1_conn
9 *37:13 *37:14 0.256461  // $metal1_conn
10 *37:14 *37:4 3.05479  // $metal1_conn
11 *37:4 *37:2 0.882063  // $metal1_conn
12 *37:14 *3:d 62.569038  // $metal1_conn
13 *37:6 *37:13 45  // $metal1_conn

*END

*D_NET *36 1.12926e-15

*CONN
*I *56:g B *C 4.7925 0.4075 
*I *59:d B *C 5.5400 0.5225 
*I *71:g B *C 2.7225 0.4525 
*I *2:d B *C 5.6175 1.1825 
*I *16:g B *C 5.2275 1.1000 
*I *34:g B *C 2.4875 1.0700 
*N *36:2 *C 2.7225 0.6625 
*N *36:4 *C 3.1600 0.6900 
*N *36:6 *C 4.8200 0.7050 
*N *36:8 *C 5.2000 0.8350 
*N *36:11 *C 5.5600 1.1350 
*N *36:12 *C 5.1700 1.1650 

*CAP
0 *34:g 5.06933e-17
1 *16:g 2.60638e-17
2 *2:d 1.0581e-16
3 *71:g 2.76841e-17
4 *59:d 9.29206e-17
5 *56:g 4.92263e-17
6 *36:12 1.26112e-16
7 *36:2 5.59488e-17
8 *36:4 2.2332e-16
9 *36:6 2.73507e-16
10 *36:8 9.79779e-17

*RES
0 *71:g *36:2 23.055975  // $poly_conn
1 *36:2 *34:g 105.723175  // $poly_conn
2 *36:2 *36:4 147.131531  // $poly_conn
3 *56:g *36:6 86.486824  // $poly_conn
4 *16:g *36:8 64.691956  // $poly_conn
5 *59:d *36:11 75.412987  // $metal1_conn
6 *36:11 *36:12 0.306994  // $metal1_conn
7 *36:12 *36:6 0.626116  // $metal1_conn
8 *36:6 *36:4 1.477411  // $metal1_conn
9 *36:12 *36:8 0.232596  // $metal1_conn
10 *2:d *36:11 62  // $metal1_conn

*END

*D_NET *35 8.20961e-16

*CONN
*I *26:d B *C 3.8900 0.4125 
*I *32:g B *C 4.6375 0.4075 
*I *71:s B *C 2.8875 0.4525 
*I *72:d B *C 3.8900 0.4125 
*I *9:d B *C 4.1300 1.1000 
*I *10:d B *C 4.1300 1.1000 
*I *12:g B *C 4.6375 1.1000 
*I *42:s B *C 2.8575 1.0700 
*N *35:2 *C 4.6000 0.8450 
*N *35:5 *C 2.9700 0.4950 
*N *35:6 *C 2.9700 0.8700 
*N *35:10 *C 4.1050 1.0050 

*CAP
0 *42:s 3.47177e-17
1 *12:g 3.75363e-17
2 *9:d 1.88586e-16
3 *71:s 1.12007e-16
4 *32:g 5.45408e-17
5 *26:d 1.33054e-16
6 *35:6 1.43514e-16
7 *35:2 1.17005e-16

*RES
0 *12:g *35:2 16.15522  // $poly_conn
1 *35:2 *32:g 76.411629  // $poly_conn
2 *35:5 *35:6 0.27559  // $metal1_conn
3 *35:6 *42:s 62.122017  // $metal1_conn
4 *35:5 *26:d 75.712364  // $metal1_conn
5 *35:6 *35:10 1.00089  // $metal1_conn
6 *35:10 *35:2 45.484798  // $metal1_conn
7 *71:s *35:5 75  // $metal1_conn
8 *9:d *35:10 62  // $metal1_conn

*END

*D_NET *33 1.26742e-16

*CONN
*I *26:s B *C 4.3100 0.4075 
*I *29:d B *C 4.3100 0.4075 
*I *72:s B *C 3.6850 0.4125 

*CAP
0 *72:s 7.39074e-17
1 *26:s 5.2835e-17

*RES
0 *26:s *72:s 150.310471  // $metal1_conn

*END

*D_NET *30 4.45294e-16

*CONN
*I *26:g B *C 4.0025 0.4125 
*I *56:d B *C 4.9300 0.4075 
*I *58:s B *C 4.9300 0.4075 
*I *9:g B *C 4.0025 1.1000 
*I *14:d B *C 5.0525 1.1000 
*I *16:d B *C 5.0525 1.1000 
*N *30:2 *C 4.0025 0.5925 
*N *30:4 *C 4.2500 0.6250 
*N *30:6 *C 4.8950 0.5250 

*CAP
0 *14:d 8.20073e-17
1 *9:g 6.19857e-17
2 *56:d 1.69833e-17
3 *26:g 3.34086e-17
4 *30:6 1.02521e-16
5 *30:2 2.8475e-17
6 *30:4 1.19913e-16

*RES
0 *9:g *30:2 89.232613  // $poly_conn
1 *30:2 *26:g 18.71979  // $poly_conn
2 *30:2 *30:4 94.276215  // $poly_conn
3 *14:d *30:6 62.456184  // $metal1_conn
4 *30:6 *30:4 0.556219  // $metal1_conn
5 *30:6 *56:d 75.036354  // $metal1_conn

*END

*D_NET *27 6.25993e-16

*CONN
*I *17:d B *C 7.1150 0.4350 
*I *19:d B *C 7.1150 0.4350 
*I *58:d B *C 5.1600 0.4075 
*I *5:d B *C 6.9150 1.1650 
*I *6:d B *C 6.9150 1.1650 
*I *16:s B *C 5.3350 1.1000 
*N *27:2 *C 6.9150 1.0650 
*N *27:3 *C 6.6950 0.3550 
*N *27:5 *C 5.1700 0.3850 

*CAP
0 *16:s 9.44883e-17
1 *5:d 1.16809e-16
2 *58:d 1.81389e-16
3 *17:d 4.08976e-17
4 *27:3 1.92409e-16

*RES
0 *5:d *27:2 62.16354  // $metal1_conn
1 *27:2 *27:3 0.614727  // $metal1_conn
2 *27:3 *27:5 1.113445  // $metal1_conn
3 *27:3 *17:d 75.241478  // $metal1_conn
4 *27:5 *16:s 62.595814  // $metal1_conn
5 *5:d *27:2 62  // $metal1_conn
6 *58:d *27:5 75  // $metal1_conn

*END

*D_NET *24 4.2738e-16

*CONN
*I *17:g B *C 6.9625 0.4450 
*I *23:d B *C 7.5700 0.4775 
*I *6:g B *C 7.0175 1.1650 
*I *8:d B *C 7.4950 1.2525 
*N *24:2 *C 7.0450 0.8700 
*N *24:5 *C 7.5050 1.1100 

*CAP
0 *8:d 1.29823e-17
1 *6:g 4.58599e-17
2 *23:d 7.33508e-17
3 *17:g 7.13353e-17
4 *24:5 9.81732e-17
5 *24:2 1.25678e-16

*RES
0 *6:g *24:2 17.624828  // $poly_conn
1 *24:2 *17:g 74.333618  // $poly_conn
2 *23:d *24:5 75.700127  // $metal1_conn
3 *24:5 *24:2 45.485664  // $metal1_conn
4 *24:5 *8:d 62.049797  // $metal1_conn

*END

