*SPEF "IEEE 1481-1999"
*DESIGN  "SEDFFTRX4"
*DATE "Mon Sep 27 11:15:52 2010"
*VENDOR "Cadence Design Systems"
*PROGRAM "Assura RCX"
*VERSION "3.2 Red Hat Linux release 7.2 (Enigma) - (09/09/2009-10:39)"
*DESIGN_FLOW "Physical Verification"
*DIVIDER /
*DELIMITER :
*BUS_DELIMITER []
*T_UNIT 1 PS
*C_UNIT 1e15 FF
*R_UNIT 1 OHM
*L_UNIT 1 MH
// DeviceFingerDelim "@"
// MATCHED
// caps2d version: 10

*NAME_MAP
*1 mp21
*2 mn4
*3 mp25
*4 mn6
*5 mp36
*6 mn7
*7 mp35
*8 mn0
*9 mn1
*10 mn55
*11 RN
*12 SE
*13 SI
*14 mn55\@1
*15 mn55\@2
*16 mn57
*17 mn57\@1
*18 mn57\@2
*19 mn57\@3
*20 mn56
*21 D
*22 mn55\@3
*23 E
*24 mn30
*25 mn40
*26 CK
*27 mn51
*28 mn50
*29 mn45
*30 Q
*31 mn45\@1
*32 mn20
*33 mn10
*34 mn13
*35 mn14
*36 mn12
*37 Db
*38 mn11
*39 net493
*40 net505
*41 Eb
*42 RNb
*43 net582
*44 n30
*45 qbint
*46 mout
*47 mn21
*48 mn25
*49 mn36
*50 mn35
*51 CKb
*52 n20
*53 CKbb
*54 VSS
*55 Dpb
*56 Dp
*57 SEb
*58 net557
*59 net549
*60 net521
*61 net529
*62 mp2
*63 mp3
*64 mp5
*65 mp4
*66 mp6
*67 net658
*68 mp7
*69 net650
*70 mp0
*71 net606
*72 mp1
*73 net618
*74 mp55
*75 net634
*76 net638
*77 mp55\@1
*78 mp55\@2
*79 mp57
*80 mp57\@1
*81 mp57\@2
*82 mp57\@3
*83 mp56
*84 mp40
*85 mp51
*86 mp50
*87 mp45
*88 mp45\@1
*89 mp20
*90 mp55\@3
*91 mp30
*92 mp10
*93 QN
*94 mp13
*95 mp14
*96 mp12
*97 mp11
*98 mn2
*99 mn3
*100 VDD
*101 mn5

*GROUND_NETS VSS

*PORTS
*100 I
*54 I
*26 I
*21 I
*23 I
*11 I
*12 I
*13 I
*30 O
*93 O

*D_NET *100 1.25056e-15

*CONN
*P *100 I *C 0.1000 1.7100 
*I *62:s B *C 7.4200 1.1025 
*I *63:s B *C 7.4200 1.1025 
*I *70:s B *C 9.3000 1.0075 
*I *72:s B *C 9.3000 1.0075 
*I *74:s B *C 5.1150 1.1050 
*I *77:s B *C 5.1150 1.1050 
*I *78:s B *C 5.6150 1.1050 
*I *79:s B *C 5.6150 1.1050 
*I *80:s B *C 6.0850 1.1050 
*I *81:s B *C 6.0850 1.1050 
*I *82:s B *C 6.5550 1.1050 
*I *83:s B *C 6.5550 1.1050 
*I *86:s B *C 3.5825 1.5700 
*I *87:s B *C 3.5825 1.5700 
*I *88:s B *C 3.9500 1.2650 
*I *89:s B *C 4.6450 1.1050 
*I *90:s B *C 4.6450 1.1050 
*I *91:s B *C 2.4325 1.1725 
*I *92:s B *C 0.5300 1.0975 
*I *94:s B *C 0.5300 1.0975 
*I *97:s B *C 1.3300 1.5700 
*I *1:s B *C 1.3300 1.5700 
*I *7:s B *C 2.4325 1.1725 
*N *100:2 *C 7.3350 1.7100 
*N *100:4 *C 6.0000 1.7100 
*N *100:11 *C 2.1350 1.7100 
*N *100:12 *C 1.3050 1.7100 
*N *100:13 *C 1.2000 1.7100 
*N *100:14 *C 0.4150 1.7100 
*N *100:15 *C 8.4000 1.7100 

*CAP
0 *97:s 2.09003e-17
1 *92:s 3.93259e-17
2 *91:s 1.75897e-17
3 *88:s 4.76691e-17
4 *82:s 1.85312e-16
5 *70:s 4.93651e-17
6 *62:s 1.61537e-17
7 *100:14 1.20033e-17
8 *100:12 1.80936e-17
9 *100:11 6.4664e-17
10 *100:2 3.84269e-17
11 *100:4 7.3212e-16
12 *100 8.93757e-18

*RES
0 *100:14 *100 0.157573  // $metal1_conn
1 *100:4 *82:s 6.25  // $metal1_conn
2 *100:4 *88:s 6.25  // $metal1_conn
3 *100:4 *100:13 6.25  // $metal1_conn
4 *100:4 *100:15 6.25  // $metal1_conn
5 *100:15 *70:s 62.644291  // $metal1_conn
6 *62:s *100:2 62.075058  // $metal1_conn
7 *100:11 *91:s 62.074837  // $metal1_conn
8 *100:12 *97:s 62.045834  // $metal1_conn
9 *100:14 *92:s 62.268566  // $metal1_conn
10 *100:2 *82:s 0.448173  // $metal1_conn
11 *100:2 *100:15 0.53365  // $metal1_conn
12 *82:s *88:s 0.289615  // $metal1_conn
13 *88:s *100:11 0.734722  // $metal1_conn
14 *100:11 *100:12 0.415028  // $metal1_conn
15 *100:12 *100:13 0.051519  // $metal1_conn
16 *100:13 *100:14 0.3936  // $metal1_conn

*END

*D_NET *54 0

*CONN
*P *54 I *C 0.1000 0.0000 
*I *98:s B *C 7.5875 0.4775 
*I *99:s B *C 7.5875 0.4775 
*I *2:s B *C 8.1300 0.3150 
*I *4:s B *C 8.4075 0.4025 
*I *8:s B *C 9.3000 0.5875 
*I *9:s B *C 9.3000 0.5875 
*I *10:s B *C 5.2750 0.4500 
*I *14:s B *C 5.2750 0.4500 
*I *15:s B *C 5.7450 0.4500 
*I *16:s B *C 5.7450 0.4500 
*I *17:s B *C 6.2150 0.4500 
*I *18:s B *C 6.2150 0.4500 
*I *19:s B *C 6.6850 0.4500 
*I *20:s B *C 6.6850 0.4500 
*I *22:s B *C 4.8050 0.4500 
*I *24:s B *C 2.4350 0.5875 
*I *28:s B *C 3.5150 0.5575 
*I *29:s B *C 3.5150 0.5575 
*I *31:s B *C 3.9100 0.5575 
*I *32:s B *C 4.8050 0.4500 
*I *33:s B *C 0.4350 0.4775 
*I *34:s B *C 0.4350 0.4775 
*I *38:s B *C 1.2350 0.4775 
*I *47:s B *C 1.2350 0.4775 
*I *50:s B *C 2.4350 0.5875 
*N *54:2 *C 8.4000 0.0000 
*N *54:3 *C 8.4000 0.0000 
*N *54:4 *C 8.0950 0.0000 
*N *54:5 *C 7.4900 0.0000 
*N *54:15 *C 2.3500 0.0000 
*N *54:16 *C 1.2000 0.0000 
*N *54:17 *C 0.4150 0.0000 


*RES
0 *54:17 *54 0.157573  // $metal1_conn
1 *54:2 *54:3 5.166667  // $metal1_conn
2 *54:2 *19:s 5.166667  // $metal1_conn
3 *54:2 *31:s 5.166667  // $metal1_conn
4 *54:2 *54:16 5.166667  // $metal1_conn
5 *8:s *54:3 75.561386  // $metal1_conn
6 *54:3 *4:s 75.255272  // $metal1_conn
7 *54:4 *2:s 75.074837  // $metal1_conn
8 *54:5 *98:s 75.04583  // $metal1_conn
9 *54:15 *24:s 75.04583  // $metal1_conn
10 *54:16 *38:s 75.323067  // $metal1_conn
11 *54:17 *33:s 75.310173  // $metal1_conn
12 *54:3 *54:4 0.152807  // $metal1_conn
13 *54:4 *54:5 0.302156  // $metal1_conn
14 *54:5 *19:s 0.444177  // $metal1_conn
15 *19:s *31:s 0.415028  // $metal1_conn
16 *31:s *54:15 0.563015  // $metal1_conn
17 *54:15 *54:16 0.576366  // $metal1_conn
18 *54:16 *54:17 0.3936  // $metal1_conn

*END

*D_NET *26 1.68418e-16

*CONN
*P *26 I *C 4.5000 0.6650 
*I *32:g B *C 4.4975 0.5075 
*I *89:g B *C 4.4225 1.0175 
*N *26:2 *C 4.4600 0.6800 

*CAP
0 *89:g 2.556e-17
1 *32:g 2.77175e-17
2 *26:2 1.1514e-16

*RES
0 *32:g *26:2 18.425531  // $poly_conn
1 *26:2 *89:g 51.758865  // $poly_conn
2 *26:2 *26 45.031891  // $metal1_conn

*END

*D_NET *21 1.96868e-16

*CONN
*P *21 I *C 9.3000 0.4750 
*I *9:g B *C 9.3475 0.5875 
*I *72:g B *C 9.3475 1.0075 
*N *21:2 *C 9.3100 0.7600 

*CAP
0 *72:g 3.79632e-17
1 *9:g 2.63768e-17
2 *21:2 9.53461e-17
3 *21 3.71817e-17

*RES
0 *72:g *21:2 26.411629  // $poly_conn
1 *21:2 *9:g 16.15522  // $poly_conn
2 *21 *21:2 45.171246  // $metal1_conn

*END

*D_NET *23 4.29184e-16

*CONN
*P *23 I *C 8.9000 0.8550 
*I *4:g B *C 8.5175 0.4025 
*I *8:g B *C 9.1525 0.5875 
*I *66:g B *C 8.4525 1.1625 
*I *70:g B *C 9.1525 1.0075 
*N *23:2 *C 8.4900 0.8700 
*N *23:5 *C 9.1525 0.7725 
*N *23:6 *C 8.9200 0.8000 

*CAP
0 *70:g 4.24682e-17
1 *66:g 4.5177e-17
2 *8:g 2.70017e-17
3 *4:g 5.26103e-17
4 *23:5 2.29933e-17
5 *23:2 1.21817e-16
6 *23:6 5.1492e-17
7 *23 6.56243e-17

*RES
0 *4:g *23:2 89.606964  // $poly_conn
1 *23:2 *66:g 37.171444  // $poly_conn
2 *70:g *23:5 31.540302  // $poly_conn
3 *23:5 *23:6 91.402695  // $poly_conn
4 *23:5 *8:g 27.694149  // $poly_conn
5 *23:6 *23 0.032101  // $metal1_conn
6 *23 *23:2 45.249359  // $metal1_conn

*END

*D_NET *11 2.49681e-16

*CONN
*P *11 I *C 7.3000 1.0450 
*I *98:g B *C 7.3575 0.4775 
*I *62:g B *C 7.2025 1.1025 
*N *11:2 *C 7.3200 0.8100 

*CAP
0 *62:g 3.58436e-17
1 *98:g 4.67992e-17
2 *11:2 9.62445e-17
3 *11 7.07934e-17

*RES
0 *98:g *11:2 57.180859  // $poly_conn
1 *11:2 *62:g 52.923717  // $poly_conn
2 *11 *11:2 45.113716  // $metal1_conn

*END

*D_NET *12 6.00007e-16

*CONN
*P *12 I *C 0.3000 0.6650 
*I *33:g B *C 0.3125 0.4775 
*I *35:g B *C 0.6625 0.4775 
*I *92:g B *C 0.3125 1.0975 
*I *96:g B *C 1.0125 1.0975 
*N *12:2 *C 0.2850 0.6600 
*N *12:5 *C 0.6900 0.6750 
*N *12:7 *C 1.0400 0.7900 
*N *12:8 *C 0.5750 0.6750 

*CAP
0 *96:g 5.28252e-17
1 *92:g 4.66052e-17
2 *35:g 6.20916e-17
3 *33:g 2.34506e-17
4 *12:8 1.02776e-16
5 *12:2 3.09294e-17
6 *12:5 6.98898e-17
7 *12:7 1.60023e-16
8 *12 5.14164e-17

*RES
0 *92:g *12:2 76.102211  // $poly_conn
1 *12:2 *33:g 19.691952  // $poly_conn
2 *35:g *12:5 68.538101  // $poly_conn
3 *96:g *12:7 87.768875  // $poly_conn
4 *12:7 *12:8 0.902765  // $metal1_conn
5 *12:8 *12 0.220049  // $metal1_conn
6 *12 *12:2 45.011524  // $metal1_conn
7 *12:8 *12:5 0.08522  // $metal1_conn

*END

*D_NET *13 3.15053e-16

*CONN
*P *13 I *C 0.5000 0.8550 
*I *34:g B *C 0.5575 0.4775 
*I *94:g B *C 0.5775 1.0975 
*N *13:2 *C 0.5675 0.8350 
*N *13:3 *C 0.5200 0.8350 

*CAP
0 *94:g 6.1403e-17
1 *34:g 6.00797e-17
2 *13:3 1.9357e-16

*RES
0 *94:g *13:2 40.837986  // $poly_conn
1 *13:2 *13:3 47.215244  // $poly_conn
2 *13:2 *34:g 74.171326  // $poly_conn
3 *13:3 *13 0.003299  // $metal1_conn

*END

*D_NET *30 2.21166e-16

*CONN
*P *30 O *C 5.1000 1.0450 
*I *10:d B *C 4.9550 0.4500 
*I *14:d B *C 5.4250 0.4500 
*I *15:d B *C 5.4250 0.4500 
*I *22:d B *C 4.9550 0.4500 
*I *74:d B *C 4.7950 1.1050 
*I *77:d B *C 5.2800 1.1050 
*I *78:d B *C 5.2800 1.1050 
*I *90:d B *C 4.7950 1.1050 

*CAP
0 *10:d 1.29536e-16
1 *30 9.16297e-17

*RES
0 *10:d *30 0.384187  // $metal1_conn

*END

*D_NET *93 1.95379e-16

*CONN
*P *93 O *C 5.9000 1.0450 
*I *16:d B *C 5.8950 0.4500 
*I *17:d B *C 5.8950 0.4500 
*I *18:d B *C 6.3650 0.4500 
*I *19:d B *C 6.3650 0.4500 
*I *79:d B *C 5.7650 1.1050 
*I *80:d B *C 5.7650 1.1050 
*I *81:d B *C 6.2350 1.1050 
*I *82:d B *C 6.2350 1.1050 

*CAP
0 *16:d 1.05731e-16
1 *93 8.96479e-17

*RES
0 *16:d *93 0.331219  // $metal1_conn

*END

*D_NET *76 1.0327e-18

*CONN
*I *4:d B *C 8.5875 0.4025 
*I *6:s B *C 8.5875 0.4025 

*CAP
0 *4:d 1.0327e-18

*RES
0 *6:s *4:d 0.001  // $mwires

*END

*D_NET *75 0

*CONN
*I *101:s B *C 7.9425 0.4775 
*I *2:d B *C 7.9425 0.4775 


*RES
0 *2:d *101:s 0.001  // $mwires

*END

*D_NET *73 1.63901e-18

*CONN
*I *27:s B *C 3.2800 0.5875 
*I *28:d B *C 3.2800 0.5875 

*CAP
0 *27:s 1.63901e-18

*RES
0 *28:d *27:s 0.001  // $mwires

*END

*D_NET *71 0

*CONN
*I *49:s B *C 2.1650 0.5875 
*I *50:d B *C 2.1650 0.5875 


*RES
0 *50:d *49:s 0.001  // $mwires

*END

*D_NET *69 2.55267e-18

*CONN
*I *36:s B *C 1.0000 0.4775 
*I *38:d B *C 1.0000 0.4775 

*CAP
0 *36:s 2.55267e-18

*RES
0 *38:d *36:s 0.001  // $mwires

*END

*D_NET *67 8.64555e-20

*CONN
*I *34:d B *C 0.6100 0.4775 
*I *35:s B *C 0.6100 0.4775 

*CAP
0 *34:d 8.64555e-20

*RES
0 *35:s *34:d 0.001  // $mwires

*END

*D_NET *61 4.31774e-18

*CONN
*I *85:s B *C 3.2325 1.1725 
*I *86:d B *C 3.2325 1.1725 

*CAP
0 *85:s 4.31774e-18

*RES
0 *86:d *85:s 0.001  // $mwires

*END

*D_NET *60 3.16211e-18

*CONN
*I *5:s B *C 2.1825 1.1725 
*I *7:d B *C 2.1825 1.1725 

*CAP
0 *5:s 3.16211e-18

*RES
0 *7:d *5:s 0.001  // $mwires

*END

*D_NET *59 2.87797e-18

*CONN
*I *96:s B *C 1.0925 1.0975 
*I *97:d B *C 1.0925 1.0975 

*CAP
0 *96:s 2.87797e-18

*RES
0 *97:d *96:s 0.001  // $mwires

*END

*D_NET *58 2.09628e-18

*CONN
*I *94:d B *C 0.6300 1.0975 
*I *95:s B *C 0.6300 1.0975 

*CAP
0 *94:d 2.09628e-18

*RES
0 *95:s *94:d 0.001  // $mwires

*END

*D_NET *57 4.40237e-16

*CONN
*I *33:d B *C 0.2200 0.4775 
*I *36:g B *C 0.8675 0.4775 
*I *92:d B *C 0.2200 1.0975 
*I *95:g B *C 0.6825 1.0975 
*N *57:2 *C 0.7200 0.8900 
*N *57:5 *C 0.2100 1.1450 

*CAP
0 *95:g 4.7769e-17
1 *92:d 1.23351e-16
2 *36:g 5.32913e-17
3 *33:d 6.81522e-17
4 *57:2 1.47673e-16

*RES
0 *36:g *57:2 91.173775  // $poly_conn
1 *57:2 *95:g 16.15522  // $poly_conn
2 *57:2 *57:5 45.545929  // $metal1_conn
3 *57:5 *33:d 75.622108  // $metal1_conn
4 *92:d *57:5 62  // $metal1_conn

*END

*D_NET *56 1.82075e-15

*CONN
*I *99:d B *C 7.7500 0.4775 
*I *101:d B *C 7.7500 0.4775 
*I *6:d B *C 8.7500 0.4025 
*I *38:g B *C 1.1325 0.4775 
*I *66:d B *C 8.3525 1.1625 
*I *68:d B *C 8.7500 1.1625 
*I *97:g B *C 1.1725 1.0975 
*N *56:1 *C 1.1450 1.3450 
*N *56:5 *C 8.3325 1.0500 
*N *56:6 *C 8.3000 0.8100 
*N *56:7 *C 7.7800 0.8100 

*CAP
0 *97:g 6.58488e-17
1 *68:d 6.79605e-17
2 *66:d 3.05005e-17
3 *38:g 6.19945e-17
4 *6:d 9.66222e-17
5 *99:d 4.19622e-17
6 *56:7 5.71378e-16
7 *56:6 1.30901e-16
8 *56:5 5.44879e-17
9 *56:1 6.99093e-16

*RES
0 *56:1 *97:g 72.384262  // $poly_conn
1 *97:g *38:g 114.299553  // $poly_conn
2 *68:d *56:5 62.344017  // $metal1_conn
3 *56:5 *56:6 0.18245  // $metal1_conn
4 *56:6 *56:7 0.386459  // $metal1_conn
5 *56:7 *56:1 5.424598  // $metal1_conn
6 *56:5 *66:d 62.033928  // $metal1_conn
7 *56:6 *6:d 75.607063  // $metal1_conn
8 *56:7 *99:d 75.197289  // $metal1_conn

*END

*D_NET *55 4.4727e-16

*CONN
*I *35:d B *C 0.7650 0.4775 
*I *36:d B *C 0.7650 0.4775 
*I *48:s B *C 1.6700 0.5875 
*I *95:d B *C 0.8475 1.0975 
*I *96:d B *C 0.8475 1.0975 
*I *3:s B *C 1.7850 1.1725 
*N *55:2 *C 1.6600 1.1800 
*N *55:4 *C 0.8800 1.1450 

*CAP
0 *3:s 3.08476e-17
1 *95:d 1.29506e-16
2 *48:s 7.27268e-17
3 *35:d 9.96919e-17
4 *55:2 1.14497e-16

*RES
0 *48:s *55:2 75.391747  // $metal1_conn
1 *55:2 *55:4 0.6447  // $metal1_conn
2 *55:4 *35:d 75.518852  // $metal1_conn
3 *55:2 *3:s 62.059681  // $metal1_conn
4 *95:d *55:4 62  // $metal1_conn

*END

*D_NET *53 7.72187e-16

*CONN
*I *25:g B *C 2.8425 0.5875 
*I *47:d B *C 1.4300 0.4775 
*I *49:g B *C 2.1125 0.5875 
*I *85:g B *C 3.1275 1.1725 
*I *1:d B *C 1.4600 1.0975 
*I *3:g B *C 1.8775 1.1725 
*N *53:2 *C 1.8200 0.8900 
*N *53:4 *C 1.9750 0.4100 
*N *53:6 *C 2.8050 0.7600 
*N *53:8 *C 1.8200 0.4100 
*N *53:10 *C 1.4400 0.4650 

*CAP
0 *3:g 4.21681e-17
1 *1:d 6.3851e-17
2 *85:g 6.76666e-17
3 *49:g 8.36475e-17
4 *47:d 6.56225e-17
5 *25:g 1.83432e-17
6 *53:8 5.40971e-17
7 *53:2 1.19741e-16
8 *53:4 9.62293e-17
9 *53:6 1.60821e-16

*RES
0 *3:g *53:2 87.022728  // $poly_conn
1 *49:g *53:4 74.853539  // $poly_conn
2 *85:g *53:6 125.054184  // $poly_conn
3 *53:6 *25:g 16.15522  // $poly_conn
4 *53:6 *53:4 45.848282  // $metal1_conn
5 *53:4 *53:8 0.108219  // $metal1_conn
6 *53:8 *53:10 0.26645  // $metal1_conn
7 *53:8 *53:2 0.362996  // $metal1_conn
8 *53:10 *1:d 62.423492  // $metal1_conn
9 *47:d *53:10 75  // $metal1_conn

*END

*D_NET *52 3.30067e-16

*CONN
*I *24:g B *C 2.4825 0.5875 
*I *48:d B *C 1.9375 0.5875 
*I *49:d B *C 1.9375 0.5875 
*I *91:g B *C 2.4825 1.1725 
*I *3:d B *C 1.9800 1.1725 
*I *5:d B *C 1.9800 1.1725 
*N *52:2 *C 2.4825 0.7600 
*N *52:3 *C 2.4250 0.7600 
*N *52:5 *C 1.9800 0.7600 

*CAP
0 *3:d 4.79463e-17
1 *91:g 5.53374e-17
2 *48:d 3.38609e-17
3 *24:g 2.77991e-17
4 *52:5 6.16364e-17
5 *52:2 2.85166e-17
6 *52:3 7.497e-17

*RES
0 *91:g *52:2 75.450439  // $poly_conn
1 *52:2 *52:3 45.794373  // $poly_conn
2 *52:2 *24:g 22.886339  // $poly_conn
3 *52:3 *52:5 0.305535  // $metal1_conn
4 *52:5 *3:d 62.281616  // $metal1_conn
5 *52:5 *48:d 75.110878  // $metal1_conn

*END

*D_NET *51 1.1659e-15

*CONN
*I *27:g B *C 3.2225 0.5875 
*I *32:d B *C 4.3575 0.5075 
*I *47:g B *C 1.3375 0.4775 
*I *48:g B *C 1.7625 0.5875 
*I *84:g B *C 2.8425 1.1725 
*I *89:d B *C 4.3050 1.0175 
*I *1:g B *C 1.3675 1.0975 
*I *5:g B *C 2.0825 1.1725 
*N *51:1 *C 2.1400 0.9650 
*N *51:2 *C 2.0825 0.9650 
*N *51:3 *C 1.7625 0.7575 
*N *51:4 *C 1.3750 0.7575 
*N *51:10 *C 2.8050 0.9650 
*N *51:12 *C 3.1850 0.8350 
*N *51:13 *C 3.2150 1.1200 
*N *51:14 *C 2.8350 1.2850 
*N *51:16 *C 4.2700 0.9700 

*CAP
0 *5:g 3.63583e-17
1 *1:g 5.05173e-17
2 *89:d 1.06434e-16
3 *84:g 3.41208e-17
4 *48:g 2.61759e-17
5 *47:g 3.12431e-17
6 *32:d 7.09012e-17
7 *27:g 5.67205e-17
8 *51:14 1.46296e-16
9 *51:13 1.59803e-16
10 *51:4 3.62236e-17
11 *51:3 3.89628e-17
12 *51:2 8.49911e-17
13 *51:1 1.00789e-16
14 *51:10 8.96976e-17
15 *51:12 9.66639e-17

*RES
0 *51:1 *51:2 47.934158  // $poly_conn
1 *51:2 *51:3 108.587563  // $poly_conn
2 *51:3 *51:4 97.485703  // $poly_conn
3 *51:4 *47:g 62.164814  // $poly_conn
4 *51:2 *5:g 16.468296  // $poly_conn
5 *51:3 *48:g 20.300484  // $poly_conn
6 *51:4 *1:g 57.131645  // $poly_conn
7 *84:g *51:10 61.15522  // $poly_conn
8 *27:g *51:12 80.385986  // $poly_conn
9 *51:12 *51:13 0.225279  // $metal1_conn
10 *51:13 *51:14 0.418922  // $metal1_conn
11 *51:14 *51:1 0.734475  // $metal1_conn
12 *51:13 *51:16 0.901365  // $metal1_conn
13 *51:16 *32:d 75.338448  // $metal1_conn
14 *51:14 *51:10 0.223235  // $metal1_conn
15 *89:d *51:16 62  // $metal1_conn

*END

*D_NET *46 3.66505e-16

*CONN
*I *24:d B *C 2.6625 0.5875 
*I *25:s B *C 2.6625 0.5875 
*I *50:g B *C 2.2175 0.5875 
*I *84:s B *C 2.6625 1.1725 
*I *91:d B *C 2.6625 1.1725 
*I *7:g B *C 2.2825 1.1725 
*N *46:2 *C 2.3300 0.9200 
*N *46:4 *C 2.6150 0.9200 

*CAP
0 *7:g 4.57683e-17
1 *84:s 4.2894e-17
2 *50:g 7.40368e-17
3 *24:d 4.9955e-17
4 *46:4 4.62459e-17
5 *46:2 1.07605e-16

*RES
0 *7:g *46:2 27.69368  // $poly_conn
1 *46:2 *50:g 62.019497  // $poly_conn
2 *46:2 *46:4 45.189537  // $metal1_conn
3 *46:4 *24:d 75.230621  // $metal1_conn
4 *46:4 *84:s 62.152542  // $metal1_conn

*END

*D_NET *45 1.58448e-15

*CONN
*I *101:g B *C 7.8525 0.4775 
*I *10:g B *C 5.0575 0.4500 
*I *14:g B *C 5.3225 0.4500 
*I *15:g B *C 5.5275 0.4500 
*I *20:g B *C 6.7325 0.4500 
*I *22:g B *C 4.8525 0.4500 
*I *28:g B *C 3.3375 0.5875 
*I *29:d B *C 3.7125 0.5575 
*I *31:d B *C 3.7125 0.5575 
*I *64:g B *C 7.8275 1.1025 
*I *74:g B *C 4.8975 1.1050 
*I *77:g B *C 5.1625 1.1050 
*I *78:g B *C 5.3975 1.1050 
*I *83:g B *C 6.6025 1.1050 
*I *86:g B *C 3.3375 1.1725 
*I *87:d B *C 3.7150 1.0550 
*I *88:d B *C 3.7150 1.0550 
*I *90:g B *C 4.6925 1.1050 
*N *45:2 *C 3.3750 0.9200 
*N *45:20 *C 6.6450 0.7050 
*N *45:24 *C 7.8150 0.3050 
*N *45:25 *C 6.6450 0.3150 
*N *45:26 *C 4.7650 0.3150 
*N *45:27 *C 3.7150 0.6750 
*N *45:29 *C 3.7150 0.9600 

*CAP
0 *87:d 5.18396e-17
1 *86:g 4.31087e-17
2 *83:g 5.50656e-17
3 *78:g 3.03731e-16
4 *64:g 5.00785e-17
5 *29:d 1.58953e-17
6 *28:g 6.174e-17
7 *20:g 2.79332e-17
8 *101:g 5.1592e-17
9 *45:27 3.67943e-16
10 *45:25 2.43138e-16
11 *45:2 9.93264e-17
12 *45:20 7.84915e-17
13 *45:24 1.34595e-16

*RES
0 *64:g *101:g 125.467682  // $poly_conn
1 *45:20 *83:g 43.227261  // $poly_conn
2 *86:g *45:2 27.69368  // $poly_conn
3 *101:g *45:24 67.791962  // $poly_conn
4 *20:g *45:20 27.420818  // $poly_conn
5 *45:2 *28:g 57.180859  // $poly_conn
6 *45:26 *78:g 0.315662  // $metal1_conn
7 *45:24 *45:25 0.84331  // $metal1_conn
8 *45:25 *45:20 45.285801  // $metal1_conn
9 *45:29 *45:2 45.254864  // $metal1_conn
10 *87:d *45:29 62  // $metal1_conn
11 *45:27 *29:d 75.058449  // $metal1_conn
12 *45:25 *45:26 1.437746  // $metal1_conn
13 *45:26 *45:27 1.032496  // $metal1_conn
14 *45:27 *45:29 0.207537  // $metal1_conn

*END

*D_NET *44 3.73036e-16

*CONN
*I *25:d B *C 3.0325 0.5875 
*I *27:d B *C 3.0325 0.5875 
*I *29:g B *C 3.6075 0.5575 
*I *31:g B *C 3.8175 0.5575 
*I *84:d B *C 2.9850 1.1725 
*I *85:d B *C 2.9850 1.1725 
*I *87:g B *C 3.6125 1.0550 
*I *88:g B *C 3.8175 1.0550 
*N *44:4 *C 3.5550 0.7600 
*N *44:8 *C 2.9950 0.6750 

*CAP
0 *88:g 1.1326e-16
1 *84:d 7.4607e-17
2 *25:d 2.23605e-17
3 *44:8 6.24032e-17
4 *44:4 1.00406e-16

*RES
0 *88:g *44:4 48.130318  // $poly_conn
1 *44:4 *44:8 0.439589  // $metal1_conn
2 *44:8 *84:d 62.327282  // $metal1_conn
3 *44:8 *25:d 75.061798  // $metal1_conn

*END

*D_NET *43 4.47754e-16

*CONN
*I *16:g B *C 5.7925 0.4500 
*I *17:g B *C 5.9975 0.4500 
*I *18:g B *C 6.2625 0.4500 
*I *19:g B *C 6.4675 0.4500 
*I *20:d B *C 6.8250 0.4500 
*I *79:g B *C 5.6625 1.1050 
*I *80:g B *C 5.8675 1.1050 
*I *81:g B *C 6.1325 1.1050 
*I *82:g B *C 6.3375 1.1050 
*I *83:d B *C 6.6950 1.1050 
*N *43:15 *C 6.7050 0.8950 

*CAP
0 *83:d 1.59246e-17
1 *82:g 3.14207e-16
2 *20:d 6.45955e-17
3 *43:15 5.30265e-17

*RES
0 *43:15 *82:g 45.354603  // $metal1_conn
1 *83:d *43:15 62.037479  // $metal1_conn
2 *43:15 *20:d 75.357979  // $metal1_conn

*END

*D_NET *42 3.17997e-16

*CONN
*I *98:d B *C 7.2650 0.4775 
*I *99:g B *C 7.6475 0.4775 
*I *62:d B *C 7.1100 1.1025 
*I *63:g B *C 7.4675 1.1025 
*N *42:2 *C 7.5050 0.6500 
*N *42:4 *C 7.2550 0.6500 

*CAP
0 *63:g 4.14528e-17
1 *62:d 5.55918e-17
2 *99:g 4.44777e-17
3 *98:d 2.85611e-17
4 *42:4 5.64545e-17
5 *42:2 9.1459e-17

*RES
0 *99:g *42:2 43.773693  // $poly_conn
1 *42:2 *63:g 78.975731  // $poly_conn
2 *42:2 *42:4 45.18705  // $metal1_conn
3 *42:4 *62:d 62.377274  // $metal1_conn
4 *42:4 *98:d 75.08667  // $metal1_conn

*END

*D_NET *41 5.0208e-16

*CONN
*I *2:g B *C 8.0325 0.4775 
*I *8:d B *C 9.0600 0.5875 
*I *65:g B *C 8.0325 1.1025 
*I *70:d B *C 9.0600 1.0075 
*N *41:2 *C 8.0700 0.6500 
*N *41:6 *C 9.0500 0.5750 

*CAP
0 *70:d 6.35501e-17
1 *65:g 4.67175e-17
2 *8:d 1.59133e-16
3 *2:g 2.73495e-17
4 *41:2 2.0533e-16

*RES
0 *65:g *41:2 78.975731  // $poly_conn
1 *41:2 *2:g 16.15522  // $poly_conn
2 *70:d *41:6 62.367222  // $metal1_conn
3 *41:6 *41:2 46.207199  // $metal1_conn
4 *8:d *41:6 75  // $metal1_conn

*END

*D_NET *40 1.55085e-16

*CONN
*I *64:d B *C 7.9300 1.1025 
*I *65:d B *C 7.9300 1.1025 
*I *66:s B *C 8.5550 1.1625 
*I *68:s B *C 8.5550 1.1625 

*CAP
0 *66:s 8.27025e-17
1 *64:d 7.23822e-17

*RES
0 *64:d *66:s 124.513817  // $metal1_conn

*END

*D_NET *39 1.55657e-16

*CONN
*I *63:d B *C 7.6475 1.1025 
*I *64:s B *C 7.6475 1.1025 
*I *65:s B *C 8.1250 1.1025 

*CAP
0 *65:s 8.1776e-17
1 *63:d 7.38813e-17

*RES
0 *65:s *63:d 124.299049  // $metal1_conn

*END

*D_NET *37 3.65185e-16

*CONN
*I *6:g B *C 8.6575 0.4025 
*I *9:d B *C 9.4500 0.5875 
*I *68:g B *C 8.6575 1.1625 
*I *72:d B *C 9.4500 1.0075 
*N *37:1 *C 8.7150 1.3700 
*N *37:5 *C 9.4700 0.9600 

*CAP
0 *72:d 8.61871e-17
1 *68:g 5.46239e-17
2 *9:d 3.94542e-17
3 *6:g 6.75202e-17
4 *37:1 1.174e-16

*RES
0 *37:1 *68:g 65.732071  // $poly_conn
1 *68:g *6:g 148.717941  // $poly_conn
2 *37:5 *37:1 0.79292  // $metal1_conn
3 *37:5 *9:d 75.263969  // $metal1_conn
4 *72:d *37:5 62  // $metal1_conn

*END

