*SPEF "IEEE 1481-1999"
*DESIGN  "SEDFFX1"
*DATE "Mon Sep 27 11:16:39 2010"
*VENDOR "Cadence Design Systems"
*PROGRAM "Assura RCX"
*VERSION "3.2 Red Hat Linux release 7.2 (Enigma) - (09/09/2009-10:39)"
*DESIGN_FLOW "Physical Verification"
*DIVIDER /
*DELIMITER :
*BUS_DELIMITER []
*T_UNIT 1 PS
*C_UNIT 1e15 FF
*R_UNIT 1 OHM
*L_UNIT 1 MH
// DeviceFingerDelim "@"
// MATCHED
// caps2d version: 10

*NAME_MAP
*1 mn55
*2 mn45
*3 mn50
*4 mn51
*5 mp55
*6 mn40
*7 mp45
*8 mn30
*9 mp50
*10 mn35
*11 mp51
*12 mn36
*13 mp40
*14 mn25
*15 SE
*16 mp30
*17 mp35
*18 mp36
*19 mp25
*20 SI
*21 VSS
*22 mp21
*23 mp20
*24 mp0
*25 mp3
*26 mp4
*27 mp2
*28 mp1
*29 mp57
*30 mp56
*31 mp10
*32 mout
*33 mp11
*34 n20
*35 mp13
*36 CKb
*37 mp12
*38 n30
*39 CKbb
*40 Dbp
*41 D
*42 SEb
*43 E
*44 net536
*45 net502
*46 Db
*47 Eb
*48 net473
*49 Q
*50 net425
*51 net465
*52 net457
*53 CK
*54 net437
*55 net554
*56 net514
*57 net546
*58 VDD
*59 net534
*60 mn21
*61 mn20
*62 mn0
*63 mn3
*64 mn4
*65 mn2
*66 net526
*67 mn1
*68 mn57
*69 QN
*70 mn56
*71 mn10
*72 mn11
*73 mn13
*74 mn12

*GROUND_NETS VSS

*PORTS
*58 I
*21 I
*53 I
*41 I
*43 I
*15 I
*20 I
*49 O
*69 O

*D_NET *58 9.3888e-16

*CONN
*P *58 I *C 0.1000 1.7100 
*I *5:s B *C 3.6100 1.1700 
*I *7:s B *C 4.4300 1.1375 
*I *9:s B *C 4.4300 1.1375 
*I *16:s B *C 5.4475 1.1375 
*I *17:s B *C 5.4475 1.1375 
*I *22:s B *C 6.5725 1.2525 
*I *23:s B *C 6.5725 1.2525 
*I *24:s B *C 0.5400 1.1775 
*I *25:s B *C 0.5400 1.1775 
*I *28:s B *C 1.7700 1.0950 
*I *29:s B *C 1.7700 1.0950 
*I *30:s B *C 2.4400 1.0675 
*I *31:s B *C 2.4400 1.0675 
*I *37:s B *C 3.6100 1.1700 
*N *58:2 *C 5.8000 1.7100 
*N *58:3 *C 5.8000 1.7100 
*N *58:4 *C 5.3550 1.7100 
*N *58:5 *C 4.3450 1.7100 
*N *58:6 *C 3.5000 1.7100 
*N *58:7 *C 2.3550 1.7100 
*N *58:8 *C 1.6850 1.7100 
*N *58:9 *C 1.2000 1.7100 
*N *58:10 *C 0.5100 1.7100 

*CAP
0 *30:s 2.40792e-17
1 *28:s 9.96242e-18
2 *24:s 3.59347e-17
3 *22:s 6.60202e-17
4 *16:s 2.43732e-17
5 *7:s 4.55067e-18
6 *5:s 2.86089e-17
7 *58:10 1.07108e-17
8 *58:8 1.63027e-17
9 *58:7 5.52781e-17
10 *58:5 3.28336e-17
11 *58:4 3.59949e-17
12 *58:2 5.86215e-16
13 *58 8.01608e-18

*RES
0 *22:s *58:3 62.720676  // $metal1_conn
1 *58:3 *58:4 0.222051  // $metal1_conn
2 *58:4 *58:5 0.50524  // $metal1_conn
3 *58:5 *58:6 0.424498  // $metal1_conn
4 *58:6 *58:7 0.573506  // $metal1_conn
5 *58:7 *58:8 0.334708  // $metal1_conn
6 *58:8 *58:9 0.243064  // $metal1_conn
7 *58:9 *58:10 0.345885  // $metal1_conn
8 *58:10 *58 0.205195  // $metal1_conn
9 *58:4 *16:s 62.045826  // $metal1_conn
10 *58:5 *7:s 62.07473  // $metal1_conn
11 *58:6 *5:s 62.071472  // $metal1_conn
12 *58:7 *30:s 62.045826  // $metal1_conn
13 *58:8 *28:s 62.07473  // $metal1_conn
14 *58:10 *24:s 62.301598  // $metal1_conn
15 *58:2 *58:3 6.25  // $metal1_conn
16 *58:2 *58:6 6.818182  // $metal1_conn
17 *58:2 *58:9 6.25  // $metal1_conn

*END

*D_NET *21 0

*CONN
*P *21 I *C 0.1000 0.0000 
*I *1:s B *C 3.4125 0.5300 
*I *2:s B *C 4.5250 0.5525 
*I *3:s B *C 4.5250 0.5525 
*I *8:s B *C 5.5100 0.5525 
*I *10:s B *C 5.5100 0.5525 
*I *60:s B *C 6.5450 0.4825 
*I *61:s B *C 6.5450 0.4825 
*I *62:s B *C 0.5125 0.5375 
*I *63:s B *C 0.5125 0.5375 
*I *67:s B *C 1.6000 0.4800 
*I *68:s B *C 1.6000 0.4800 
*I *70:s B *C 2.2850 0.5775 
*I *71:s B *C 2.2850 0.5775 
*I *74:s B *C 3.4125 0.5300 
*N *21:2 *C 5.8000 0.0000 
*N *21:3 *C 5.8000 0.0000 
*N *21:4 *C 5.3950 0.0000 
*N *21:5 *C 4.4100 0.0000 
*N *21:6 *C 3.5000 0.0000 
*N *21:7 *C 3.3450 0.0000 
*N *21:8 *C 2.2850 0.0000 
*N *21:9 *C 1.5150 0.0000 
*N *21:10 *C 1.2000 0.0000 
*N *21:11 *C 0.5150 0.0000 


*RES
0 *60:s *21:3 75.721298  // $metal1_conn
1 *21:3 *21:4 0.202938  // $metal1_conn
2 *21:4 *21:5 0.493651  // $metal1_conn
3 *21:5 *21:6 0.45623  // $metal1_conn
4 *21:6 *21:7 0.077547  // $metal1_conn
5 *21:7 *21:8 0.531268  // $metal1_conn
6 *21:8 *21:9 0.385814  // $metal1_conn
7 *21:9 *21:10 0.157797  // $metal1_conn
8 *21:10 *21:11 0.343377  // $metal1_conn
9 *21:11 *21 0.207703  // $metal1_conn
10 *21:4 *8:s 75.097351  // $metal1_conn
11 *21:5 *2:s 75.141212  // $metal1_conn
12 *21:7 *1:s 75.316139  // $metal1_conn
13 *21:8 *70:s 75.40802  // $metal1_conn
14 *21:9 *67:s 75.07473  // $metal1_conn
15 *21:11 *62:s 75.328323  // $metal1_conn
16 *21:2 *21:3 5.166667  // $metal1_conn
17 *21:2 *21:6 5.636364  // $metal1_conn
18 *21:2 *21:10 5.166667  // $metal1_conn

*END

*D_NET *53 1.73427e-16

*CONN
*P *53 I *C 6.7000 0.8550 
*I *61:g B *C 6.6625 0.4825 
*I *23:g B *C 6.7175 1.2525 
*N *53:2 *C 6.6900 0.8500 
*N *53:4 *C 6.6900 0.8500 

*CAP
0 *23:g 3.03631e-17
1 *61:g 3.55908e-17
2 *53:2 1.07473e-16

*RES
0 *23:g *53:2 67.127846  // $poly_conn
1 *53:2 *61:g 67.127846  // $poly_conn
2 *53:4 *53 0.003489  // $metal1_conn
3 *53:2 *53:4 45  // $metal1_conn

*END

*D_NET *41 2.14785e-16

*CONN
*P *41 I *C 0.7000 0.8550 
*I *63:g B *C 0.6425 0.5375 
*I *25:g B *C 0.6425 1.1775 
*N *41:2 *C 0.6150 0.8450 
*N *41:4 *C 0.6150 0.8450 

*CAP
0 *25:g 3.46047e-17
1 *63:g 2.89491e-17
2 *41:2 8.54089e-17
3 *41 6.58218e-17

*RES
0 *25:g *41:2 49.179131  // $poly_conn
1 *41:2 *63:g 51.743237  // $poly_conn
2 *41:4 *41 0.042956  // $metal1_conn
3 *41:2 *41:4 45  // $metal1_conn

*END

*D_NET *43 6.479e-16

*CONN
*P *43 I *C 0.3000 0.8550 
*I *62:g B *C 0.3825 0.5375 
*I *64:g B *C 1.0025 0.5375 
*I *24:g B *C 0.4375 1.1775 
*I *27:g B *C 1.5175 1.1775 
*N *43:2 *C 0.4100 0.7200 
*N *43:5 *C 1.0100 0.7200 
*N *43:7 *C 1.4900 0.8500 
*N *43:8 *C 0.9150 0.6850 
*N *43:9 *C 0.4100 0.7200 

*CAP
0 *27:g 5.76068e-17
1 *24:g 4.06536e-17
2 *64:g 3.94791e-17
3 *62:g 2.05486e-17
4 *43:8 1.24945e-16
5 *43:2 8.73598e-17
6 *43:5 4.27918e-17
7 *43:7 1.86429e-16
8 *43 4.8086e-17

*RES
0 *24:g *43:2 81.230408  // $poly_conn
1 *43:2 *62:g 19.691952  // $poly_conn
2 *64:g *43:5 62.398674  // $poly_conn
3 *27:g *43:7 92.897079  // $poly_conn
4 *43:7 *43:8 0.993457  // $metal1_conn
5 *43:8 *43:9 0.378176  // $metal1_conn
6 *43:9 *43 0.154948  // $metal1_conn
7 *43:8 *43:5 0.067597  // $metal1_conn
8 *43:2 *43:9 45  // $metal1_conn

*END

*D_NET *15 3.46404e-16

*CONN
*P *15 I *C 2.3000 1.0450 
*I *71:g B *C 2.3875 0.5775 
*I *73:g B *C 3.0725 0.5875 
*I *31:g B *C 2.4875 1.0675 
*I *33:g B *C 2.9125 1.2325 
*N *15:2 *C 2.9125 0.8625 
*N *15:3 *C 2.4875 0.8625 
*N *15:4 *C 2.4150 0.8250 

*CAP
0 *33:g 3.57782e-17
1 *31:g 2.74263e-17
2 *73:g 5.30835e-17
3 *71:g 2.57787e-17
4 *15:3 1.44688e-17
5 *15:2 4.97912e-17
6 *15:4 7.55511e-17
7 *15 6.45257e-17

*RES
0 *73:g *15:2 85.882698  // $poly_conn
1 *15:2 *15:3 106.670349  // $poly_conn
2 *15:3 *15:4 7.951931  // $poly_conn
3 *15:4 *71:g 33.196705  // $poly_conn
4 *15:2 *33:g 62.608177  // $poly_conn
5 *15:3 *31:g 20.300484  // $poly_conn
6 *15:4 *15 45.164131  // $metal1_conn

*END

*D_NET *20 2.56179e-16

*CONN
*P *20 I *C 3.3000 0.8550 
*I *74:g B *C 3.2125 0.5875 
*I *37:g B *C 3.3175 1.2325 
*N *20:2 *C 3.2900 0.7950 
*N *20:4 *C 3.2900 0.7950 

*CAP
0 *37:g 5.43486e-17
1 *74:g 2.76805e-17
2 *20:4 5.80523e-17
3 *20:2 4.17495e-17
4 *20 7.43477e-17

*RES
0 *37:g *20:2 72.9403  // $poly_conn
1 *20:2 *74:g 29.471972  // $poly_conn
2 *20:4 *20 0.037368  // $metal1_conn
3 *20:2 *20:4 45  // $metal1_conn

*END

*D_NET *49 1.41488e-16

*CONN
*P *49 O *C 3.7000 0.6650 
*I *1:d B *C 3.6550 0.5300 
*I *5:d B *C 3.7650 1.1700 

*CAP
0 *5:d 5.62084e-17
1 *1:d 4.43556e-17
2 *49 4.09243e-17

*RES
0 *5:d *49 62.325035  // $metal1_conn
1 *49 *1:d 75.014229  // $metal1_conn

*END

*D_NET *69 1.31124e-16

*CONN
*P *69 O *C 1.9000 0.8550 
*I *68:d B *C 1.7825 0.4800 
*I *29:d B *C 1.9100 1.0950 

*CAP
0 *29:d 3.48349e-17
1 *68:d 7.44301e-17
2 *69 2.18594e-17

*RES
0 *68:d *69 75.173515  // $metal1_conn
1 *69 *29:d 62.057537  // $metal1_conn

*END

*D_NET *66 5.54575e-19

*CONN
*I *10:d B *C 5.6725 0.5525 
*I *12:s B *C 5.6725 0.5525 

*CAP
0 *10:d 5.54575e-19

*RES
0 *12:s *10:d 0.001  // $mwires

*END

*D_NET *59 0

*CONN
*I *3:d B *C 4.6475 0.5525 
*I *4:s B *C 4.6475 0.5525 


*RES
0 *4:s *3:d 0.001  // $mwires

*END

*D_NET *57 1.3848e-18

*CONN
*I *73:s B *C 3.1425 0.5875 
*I *74:d B *C 3.1425 0.5875 

*CAP
0 *73:s 1.3848e-18

*RES
0 *74:d *73:s 0.001  // $mwires

*END

*D_NET *56 2.98245e-18

*CONN
*I *65:s B *C 1.2950 0.5375 
*I *67:d B *C 1.2950 0.5375 

*CAP
0 *65:s 2.98245e-18

*RES
0 *67:d *65:s 0.001  // $mwires

*END

*D_NET *55 1.8568e-18

*CONN
*I *63:d B *C 0.8225 0.5375 
*I *64:s B *C 0.8225 0.5375 

*CAP
0 *63:d 1.8568e-18

*RES
0 *64:s *63:d 0.001  // $mwires

*END

*D_NET *54 7.65789e-19

*CONN
*I *17:d B *C 5.5550 1.1375 
*I *18:s B *C 5.5550 1.1375 

*CAP
0 *17:d 7.65789e-19

*RES
0 *18:s *17:d 0.001  // $mwires

*END

*D_NET *52 4.16552e-18

*CONN
*I *9:d B *C 4.5675 1.1375 
*I *11:s B *C 4.5675 1.1375 

*CAP
0 *9:d 4.16552e-18

*RES
0 *11:s *9:d 0.001  // $mwires

*END

*D_NET *51 3.2841e-18

*CONN
*I *35:s B *C 3.2425 1.2325 
*I *37:d B *C 3.2425 1.2325 

*CAP
0 *35:s 3.2841e-18

*RES
0 *37:d *35:s 0.001  // $mwires

*END

*D_NET *50 2.97905e-18

*CONN
*I *27:s B *C 1.5700 1.1775 
*I *28:d B *C 1.5700 1.1775 

*CAP
0 *27:s 2.97905e-18

*RES
0 *28:d *27:s 0.001  // $mwires

*END

*D_NET *48 1.23721e-17

*CONN
*I *25:d B *C 0.9250 1.1775 
*I *26:s B *C 0.9250 1.1775 

*CAP
0 *25:d 1.23721e-17

*RES
0 *26:s *25:d 0.001  // $mwires

*END

*D_NET *47 3.78374e-16

*CONN
*I *62:d B *C 0.2750 0.5375 
*I *65:g B *C 1.2075 0.5375 
*I *24:d B *C 0.3450 1.1775 
*I *26:g B *C 1.2075 1.1775 
*N *47:2 *C 1.1700 0.9700 
*N *47:4 *C 0.3350 1.0650 

*CAP
0 *26:g 2.0596e-17
1 *24:d 7.05248e-18
2 *65:g 5.60834e-17
3 *62:d 5.56229e-17
4 *47:4 1.21722e-16
5 *47:2 1.17298e-16

*RES
0 *26:g *47:2 16.15522  // $poly_conn
1 *47:2 *65:g 82.821884  // $poly_conn
2 *47:2 *47:4 45.675194  // $metal1_conn
3 *47:4 *62:d 75.587448  // $metal1_conn
4 *47:4 *24:d 62.029465  // $metal1_conn

*END

*D_NET *46 5.30927e-16

*CONN
*I *64:d B *C 1.1050 0.5375 
*I *65:d B *C 1.1050 0.5375 
*I *72:d B *C 2.7750 0.5875 
*I *26:d B *C 1.3625 1.1775 
*I *27:d B *C 1.3625 1.1775 
*I *33:s B *C 2.8200 1.2325 
*N *46:3 *C 2.8100 1.2200 
*N *46:5 *C 1.3300 1.2200 

*CAP
0 *33:s 1.97939e-16
1 *26:d 1.38877e-16
2 *72:d 8.78303e-17
3 *64:d 1.0628e-16

*RES
0 *72:d *46:3 75.449989  // $metal1_conn
1 *46:3 *46:5 1.055925  // $metal1_conn
2 *46:5 *64:d 75.626518  // $metal1_conn
3 *33:s *46:3 62  // $metal1_conn
4 *26:d *46:5 62  // $metal1_conn

*END

*D_NET *45 4.77391e-16

*CONN
*I *67:g B *C 1.3825 0.5375 
*I *68:g B *C 1.6475 0.4800 
*I *70:d B *C 2.0900 0.5775 
*I *28:g B *C 1.6225 1.1775 
*I *29:g B *C 1.8175 1.0950 
*I *30:d B *C 2.1300 1.0675 
*N *45:2 *C 1.6750 0.7350 
*N *45:3 *C 1.6125 0.7350 
*N *45:9 *C 2.0800 0.5650 

*CAP
0 *30:d 5.75544e-17
1 *29:g 3.86492e-17
2 *28:g 5.88391e-17
3 *70:d 1.25469e-16
4 *68:g 2.32333e-17
5 *67:g 3.91826e-17
6 *45:3 4.40528e-17
7 *45:2 9.0411e-17

*RES
0 *29:g *45:2 54.205765  // $poly_conn
1 *45:2 *45:3 3.898696  // $poly_conn
2 *45:3 *67:g 79.845116  // $poly_conn
3 *45:2 *68:g 25.200842  // $poly_conn
4 *45:3 *28:g 79.283401  // $poly_conn
5 *30:d *45:9 62.35844  // $metal1_conn
6 *45:9 *45:2 45.711098  // $metal1_conn
7 *70:d *45:9 75  // $metal1_conn

*END

*D_NET *44 9.6706e-16

*CONN
*I *1:g B *C 3.5625 0.5300 
*I *2:d B *C 4.0950 0.5525 
*I *3:g B *C 4.5725 0.5525 
*I *70:g B *C 2.1825 0.5775 
*I *5:g B *C 3.6575 1.1700 
*I *7:d B *C 4.1200 1.1375 
*I *9:g B *C 4.4775 1.1375 
*I *30:g B *C 2.2225 1.0675 
*N *44:1 *C 2.1950 1.4100 
*N *44:5 *C 3.6300 0.8650 
*N *44:8 *C 4.4775 0.7525 
*N *44:9 *C 4.3550 0.7250 
*N *44:11 *C 4.0300 0.7250 
*N *44:13 *C 4.1100 1.0900 
*N *44:14 *C 3.6300 1.4100 

*CAP
0 *30:g 4.48054e-17
1 *9:g 5.41287e-17
2 *7:d 5.46979e-17
3 *5:g 3.55599e-17
4 *70:g 4.2611e-17
5 *3:g 4.14964e-17
6 *2:d 3.40406e-17
7 *1:g 3.05712e-17
8 *44:14 1.99976e-16
9 *44:11 3.26128e-17
10 *44:8 2.64927e-17
11 *44:1 1.89689e-16
12 *44:5 1.06211e-16
13 *44:9 7.41668e-17

*RES
0 *44:1 *30:g 96.74324  // $poly_conn
1 *30:g *70:g 80.966232  // $poly_conn
2 *5:g *44:5 16.530041  // $poly_conn
3 *44:5 *1:g 46.434372  // $poly_conn
4 *3:g *44:8 49.985264  // $poly_conn
5 *44:8 *44:9 66.745071  // $poly_conn
6 *44:8 *9:g 66.45433  // $poly_conn
7 *44:9 *44:11 0.221196  // $metal1_conn
8 *44:11 *44:13 0.275263  // $metal1_conn
9 *44:13 *44:14 0.542655  // $metal1_conn
10 *44:14 *44:1 1.191222  // $metal1_conn
11 *44:11 *2:d 75.103905  // $metal1_conn
12 *44:14 *44:5 45.40239  // $metal1_conn
13 *7:d *44:13 62  // $metal1_conn

*END

*D_NET *42 5.34337e-16

*CONN
*I *71:d B *C 2.4800 0.5775 
*I *72:g B *C 2.8675 0.5875 
*I *31:d B *C 2.5800 1.0675 
*I *35:g B *C 3.1675 1.2325 
*N *42:2 *C 2.8950 0.2250 
*N *42:4 *C 3.1300 0.9950 
*N *42:6 *C 2.4900 0.5650 

*CAP
0 *35:g 4.9732e-17
1 *31:d 6.29336e-17
2 *72:g 3.71733e-17
3 *71:d 1.04069e-16
4 *42:2 1.24815e-16
5 *42:4 1.55614e-16

*RES
0 *72:g *42:2 110.845795  // $poly_conn
1 *35:g *42:4 68.847527  // $poly_conn
2 *42:4 *42:2 0.772327  // $metal1_conn
3 *42:2 *42:6 0.522938  // $metal1_conn
4 *42:6 *31:d 62.398426  // $metal1_conn
5 *71:d *42:6 75  // $metal1_conn

*END

*D_NET *40 9.66065e-16

*CONN
*I *14:d B *C 6.0850 0.5525 
*I *72:s B *C 2.9700 0.5875 
*I *73:d B *C 2.9700 0.5875 
*I *19:s B *C 6.0425 1.1375 
*I *33:d B *C 3.0400 1.2325 
*I *35:d B *C 3.0400 1.2325 
*N *40:3 *C 6.0950 0.5400 
*N *40:5 *C 3.0150 1.2800 

*CAP
0 *33:d 4.52057e-16
1 *19:s 8.02292e-17
2 *72:s 9.07546e-17
3 *14:d 3.43024e-16

*RES
0 *19:s *40:3 62.43483  // $metal1_conn
1 *40:3 *40:5 2.929897  // $metal1_conn
2 *40:5 *72:s 75.519058  // $metal1_conn
3 *14:d *40:3 75  // $metal1_conn
4 *33:d *40:5 62  // $metal1_conn

*END

*D_NET *39 8.80328e-16

*CONN
*I *6:g B *C 4.9425 0.5525 
*I *12:g B *C 5.7875 0.5525 
*I *60:d B *C 6.3200 0.4825 
*I *11:g B *C 4.6575 1.1375 
*I *19:g B *C 5.9075 1.1375 
*I *22:d B *C 6.3200 1.2525 
*N *39:2 *C 4.7050 0.8950 
*N *39:4 *C 4.9800 0.8000 
*N *39:6 *C 5.9350 0.9200 
*N *39:9 *C 6.2950 1.2050 
*N *39:10 *C 5.9350 1.2350 
*N *39:11 *C 4.9500 0.8650 

*CAP
0 *22:d 1.05483e-16
1 *19:g 2.71452e-17
2 *11:g 4.67011e-17
3 *60:d 8.62716e-17
4 *12:g 4.43097e-17
5 *6:g 4.12169e-17
6 *39:11 1.30138e-16
7 *39:10 1.63355e-16
8 *39:2 8.56007e-17
9 *39:4 5.65077e-17
10 *39:6 9.35988e-17

*RES
0 *11:g *39:2 68.808929  // $poly_conn
1 *6:g *39:4 80.385986  // $poly_conn
2 *19:g *39:6 19.691952  // $poly_conn
3 *39:6 *12:g 86.069054  // $poly_conn
4 *39:9 *39:10 0.352238  // $metal1_conn
5 *39:10 *39:11 1.04146  // $metal1_conn
6 *39:11 *39:2 0.158962  // $metal1_conn
7 *39:9 *60:d 75.577133  // $metal1_conn
8 *39:10 *39:6 45.251945  // $metal1_conn
9 *39:11 *39:4 0.050933  // $metal1_conn
10 *22:d *39:9 62  // $metal1_conn

*END

*D_NET *38 3.15471e-16

*CONN
*I *2:g B *C 4.2125 0.5525 
*I *4:d B *C 4.8325 0.5525 
*I *6:s B *C 4.8325 0.5525 
*I *7:g B *C 4.2125 1.1375 
*I *11:d B *C 4.7600 1.1375 
*I *13:d B *C 4.7600 1.1375 
*N *38:2 *C 4.2500 0.8850 
*N *38:5 *C 4.5450 0.8850 

*CAP
0 *11:d 3.46381e-17
1 *7:g 3.18435e-17
2 *4:d 6.79953e-17
3 *2:g 4.17626e-17
4 *38:5 7.13403e-17
5 *38:2 6.78916e-17

*RES
0 *7:g *38:2 27.69368  // $poly_conn
1 *38:2 *2:g 57.180859  // $poly_conn
2 *11:d *38:5 62.297695  // $metal1_conn
3 *38:5 *38:2 45.195415  // $metal1_conn
4 *38:5 *4:d 75.388  // $metal1_conn

*END

*D_NET *36 9.3203e-16

*CONN
*I *4:g B *C 4.7225 0.5525 
*I *14:g B *C 5.9925 0.5525 
*I *60:g B *C 6.4275 0.4825 
*I *61:d B *C 6.7550 0.4825 
*I *13:g B *C 4.8625 1.1375 
*I *18:g B *C 5.6075 1.1375 
*I *22:g B *C 6.4275 1.2525 
*I *23:d B *C 6.8100 1.2525 
*N *36:3 *C 4.8900 1.4100 
*N *36:5 *C 5.6350 1.4400 
*N *36:7 *C 6.4550 0.6900 
*N *36:11 *C 6.4550 0.6900 
*N *36:12 *C 6.4550 1.1100 

*CAP
0 *23:d 4.69377e-17
1 *22:g 3.34049e-17
2 *18:g 6.26078e-17
3 *13:g 5.72401e-17
4 *61:d 4.95012e-17
5 *60:g 2.13278e-17
6 *14:g 4.52984e-17
7 *4:g 7.68189e-17
8 *36:12 1.29036e-16
9 *36:3 1.0098e-16
10 *36:5 2.14758e-16
11 *36:7 9.41192e-17

*RES
0 *4:g *13:g 125.10685  // $poly_conn
1 *13:g *36:3 76.501236  // $poly_conn
2 *18:g *36:5 86.486824  // $poly_conn
3 *22:g *36:7 104.783997  // $poly_conn
4 *36:7 *14:g 128.189926  // $poly_conn
5 *36:7 *60:g 22.940296  // $poly_conn
6 *61:d *36:11 75.292633  // $metal1_conn
7 *36:11 *36:12 0.329616  // $metal1_conn
8 *36:12 *36:5 0.883536  // $metal1_conn
9 *36:5 *36:3 0.60863  // $metal1_conn
10 *36:12 *23:d 62.266003  // $metal1_conn
11 *36:7 *36:11 45  // $metal1_conn

*END

*D_NET *34 3.13623e-16

*CONN
*I *8:g B *C 5.2925 0.5525 
*I *12:d B *C 5.8900 0.5525 
*I *14:s B *C 5.8900 0.5525 
*I *16:g B *C 5.2925 1.1375 
*I *18:d B *C 5.7575 1.1375 
*I *19:d B *C 5.7575 1.1375 
*N *34:1 *C 5.3600 0.9250 
*N *34:2 *C 5.2925 0.9250 
*N *34:6 *C 5.7750 0.9250 

*CAP
0 *18:d 3.6616e-17
1 *16:g 3.76711e-17
2 *12:d 6.05053e-17
3 *8:g 4.12902e-17
4 *34:6 5.27683e-17
5 *34:2 4.06365e-17
6 *34:1 4.41359e-17

*RES
0 *34:1 *34:2 46.794373  // $poly_conn
1 *34:2 *8:g 71.845535  // $poly_conn
2 *34:2 *16:g 21.845535  // $poly_conn
3 *12:d *34:6 75.334381  // $metal1_conn
4 *34:6 *34:1 0.282659  // $metal1_conn
5 *34:6 *18:d 62.116863  // $metal1_conn

*END

*D_NET *32 3.51899e-16

*CONN
*I *6:d B *C 5.1175 0.5525 
*I *8:d B *C 5.1175 0.5525 
*I *10:g B *C 5.5575 0.5525 
*I *13:s B *C 5.0775 1.1375 
*I *16:d B *C 5.0775 1.1375 
*I *17:g B *C 5.5025 1.1375 
*N *32:2 *C 5.5300 0.7350 
*N *32:5 *C 5.1700 0.7050 

*CAP
0 *17:g 9.04614e-17
1 *13:s 5.98632e-17
2 *10:g 3.09396e-17
3 *6:d 4.97273e-17
4 *32:5 4.39979e-17
5 *32:2 7.69101e-17

*RES
0 *10:g *32:2 19.691952  // $poly_conn
1 *32:2 *17:g 67.127846  // $poly_conn
2 *13:s *32:5 62.26886  // $metal1_conn
3 *32:5 *6:d 75.192192  // $metal1_conn
4 *32:5 *32:2 45.237766  // $metal1_conn

*END

