*SPEF "IEEE 1481-1999"
*DESIGN  "SEDFFX2"
*DATE "Mon Sep 27 11:17:01 2010"
*VENDOR "Cadence Design Systems"
*PROGRAM "Assura RCX"
*VERSION "3.2 Red Hat Linux release 7.2 (Enigma) - (09/09/2009-10:39)"
*DESIGN_FLOW "Physical Verification"
*DIVIDER /
*DELIMITER :
*BUS_DELIMITER []
*T_UNIT 1 PS
*C_UNIT 1e15 FF
*R_UNIT 1 OHM
*L_UNIT 1 MH
// DeviceFingerDelim "@"
// MATCHED
// caps2d version: 10

*NAME_MAP
*1 mn55
*2 net536
*3 net457
*4 net437
*5 net465
*6 net425
*7 net473
*8 net534
*9 net526
*10 mn55\@1
*11 net546
*12 mn45
*13 net514
*14 mn50
*15 mn51
*16 mn40
*17 net554
*18 mp13
*19 mp11
*20 mp10
*21 mp30
*22 mp35
*23 mp36
*24 mp25
*25 mp21
*26 mp56
*27 mp55
*28 mp55\@1
*29 mp45
*30 VDD
*31 mp50
*32 mp51
*33 mp40
*34 mn57
*35 mn57\@1
*36 mp57
*37 mn1
*38 QN
*39 mp57\@1
*40 mn2
*41 VSS
*42 mp1
*43 mn4
*44 mp2
*45 mn3
*46 mp4
*47 mn0
*48 mp3
*49 mn20
*50 mp0
*51 mn12
*52 mp20
*53 mp12
*54 D
*55 E
*56 CK
*57 Q
*58 SE
*59 SI
*60 Eb
*61 SEb
*62 Db
*63 CKb
*64 net502
*65 Dbp
*66 n20
*67 mout
*68 mn13
*69 n30
*70 mn11
*71 CKbb
*72 mn10
*73 mn30
*74 mn35
*75 mn36
*76 mn25
*77 mn21
*78 mn56

*GROUND_NETS VSS

*PORTS
*30 I
*41 I
*56 I
*54 I
*55 I
*58 I
*59 I
*57 O
*38 O

*D_NET *30 1.10469e-15

*CONN
*P *30 I *C 0.1000 1.7100 
*I *36:s B *C 5.9700 1.1500 
*I *39:s B *C 6.4400 1.2325 
*I *42:s B *C 6.4400 1.2325 
*I *48:s B *C 7.2325 1.2325 
*I *50:s B *C 7.2325 1.2325 
*I *52:s B *C 4.3850 1.1725 
*I *53:s B *C 4.3850 1.1725 
*I *20:s B *C 5.9700 1.1500 
*I *21:s B *C 1.9050 1.2025 
*I *22:s B *C 1.9050 1.2025 
*I *25:s B *C 3.1775 1.0075 
*I *26:s B *C 3.1775 1.0075 
*I *27:s B *C 0.1150 1.0950 
*I *28:s B *C 0.5700 1.5700 
*I *29:s B *C 0.5700 1.5700 
*I *31:s B *C 1.0050 1.2025 
*N *30:2 *C 6.8000 1.7100 
*N *30:3 *C 6.8000 1.7100 
*N *30:6 *C 4.9000 1.7100 
*N *30:7 *C 4.2650 1.7100 
*N *30:8 *C 3.0900 1.7100 
*N *30:9 *C 3.0000 1.7100 
*N *30:10 *C 1.9350 1.7100 
*N *30:11 *C 1.0000 1.7100 
*N *30:12 *C 0.9000 1.7100 

*CAP
0 *31:s 2.83747e-17
1 *25:s 5.6611e-17
2 *21:s 5.57939e-17
3 *52:s 2.25879e-17
4 *48:s 3.04099e-17
5 *39:s 1.05375e-16
6 *30:12 4.47015e-18
7 *30:10 4.64074e-17
8 *30:8 2.94183e-17
9 *30:7 4.5869e-17
10 *30:2 6.17183e-16
11 *30 6.21926e-17

*RES
0 *30:2 *30:3 7.5  // $metal1_conn
1 *30:2 *30:6 8.333333  // $metal1_conn
2 *30:2 *30:9 7.5  // $metal1_conn
3 *30:2 *30:11 7.5  // $metal1_conn
4 *48:s *30:3 62.482159  // $metal1_conn
5 *30:7 *52:s 62.045826  // $metal1_conn
6 *30:8 *25:s 62.280064  // $metal1_conn
7 *30:10 *21:s 62.30299  // $metal1_conn
8 *30:12 *31:s 62.18388  // $metal1_conn
9 *30:3 *39:s 0.238048  // $metal1_conn
10 *39:s *30:6 0.4788  // $metal1_conn
11 *30:6 *30:7 0.317349  // $metal1_conn
12 *30:7 *30:8 0.587999  // $metal1_conn
13 *30:8 *30:9 0.044937  // $metal1_conn
14 *30:9 *30:10 0.533972  // $metal1_conn
15 *30:10 *30:11 0.468769  // $metal1_conn
16 *30:11 *30:12 0.049961  // $metal1_conn
17 *30:12 *30 0.177664  // $metal1_conn

*END

*D_NET *41 0

*CONN
*P *41 I *C 0.1000 0.0000 
*I *34:s B *C 5.9350 0.3900 
*I *35:s B *C 6.4325 0.4475 
*I *37:s B *C 6.4325 0.4475 
*I *45:s B *C 7.1950 0.4475 
*I *47:s B *C 7.1950 0.4475 
*I *49:s B *C 4.3000 0.4475 
*I *51:s B *C 4.3000 0.4475 
*I *72:s B *C 5.9350 0.3900 
*I *73:s B *C 1.9900 0.5875 
*I *74:s B *C 1.9900 0.5875 
*I *77:s B *C 3.1550 0.5875 
*I *78:s B *C 3.1550 0.5875 
*I *1:s B *C 0.1150 0.5300 
*I *10:s B *C 0.6000 0.5575 
*I *12:s B *C 0.6000 0.5575 
*I *14:s B *C 1.0850 0.5875 
*N *41:4 *C 4.9000 0.0000 
*N *41:5 *C 4.9000 0.0000 
*N *41:6 *C 4.3650 0.0000 
*N *41:7 *C 3.1550 0.0000 
*N *41:8 *C 3.0000 0.0000 
*N *41:9 *C 1.9350 0.0000 
*N *41:10 *C 1.0000 0.0000 
*N *41:13 *C 6.8000 0.0000 


*RES
0 *41:4 *41:5 6.888889  // $metal1_conn
1 *41:4 *41:8 6.2  // $metal1_conn
2 *41:4 *41:10 6.2  // $metal1_conn
3 *41:4 *41:13 6.2  // $metal1_conn
4 *41:13 *45:s 75.430283  // $metal1_conn
5 *41:6 *49:s 75.299431  // $metal1_conn
6 *41:7 *77:s 75.402916  // $metal1_conn
7 *41:9 *73:s 75.144554  // $metal1_conn
8 *41:10 *14:s 75.120285  // $metal1_conn
9 *35:s *41:13 0.217574  // $metal1_conn
10 *35:s *41:5 0.528957  // $metal1_conn
11 *41:5 *41:6 0.268142  // $metal1_conn
12 *41:6 *41:7 0.606504  // $metal1_conn
13 *41:7 *41:8 0.077547  // $metal1_conn
14 *41:8 *41:9 0.533972  // $metal1_conn
15 *41:9 *41:10 0.469076  // $metal1_conn
16 *41:10 *41 0.243371  // $metal1_conn

*END

*D_NET *56 1.87778e-16

*CONN
*P *56 I *C 3.9000 0.8550 
*I *49:g B *C 4.1325 0.4475 
*I *52:g B *C 4.1325 1.1725 
*N *56:2 *C 4.1050 0.9000 

*CAP
0 *52:g 2.92439e-17
1 *49:g 2.85341e-17
2 *56:2 8.10297e-17
3 *56 4.89699e-17

*RES
0 *52:g *56:2 33.794518  // $poly_conn
1 *56:2 *49:g 88.922722  // $poly_conn
2 *56:2 *56 45.117649  // $metal1_conn

*END

*D_NET *54 2.70139e-16

*CONN
*P *54 I *C 7.1000 0.8550 
*I *45:g B *C 6.9625 0.4475 
*I *48:g B *C 7.0375 1.2325 
*N *54:2 *C 7.0000 0.7750 

*CAP
0 *48:g 5.7614e-17
1 *45:g 4.1721e-17
2 *54:2 1.25118e-16
3 *54 4.56861e-17

*RES
0 *48:g *54:2 82.528091  // $poly_conn
1 *54:2 *45:g 58.169121  // $poly_conn
2 *54 *54:2 45.016125  // $metal1_conn

*END

*D_NET *55 5.20636e-16

*CONN
*P *55 I *C 7.5000 0.6650 
*I *43:g B *C 6.8075 0.4475 
*I *47:g B *C 7.4275 0.4475 
*I *44:g B *C 6.6675 1.2325 
*I *50:g B *C 7.4275 1.2325 
*N *55:2 *C 6.7050 1.0250 
*N *55:4 *C 6.7350 0.6200 
*N *55:6 *C 7.4550 0.6450 
*N *55:8 *C 7.4550 0.6450 

*CAP
0 *50:g 3.49977e-17
1 *44:g 4.84464e-17
2 *47:g 1.79106e-17
3 *43:g 4.98305e-17
4 *55:2 9.99167e-17
5 *55:4 1.45812e-16
6 *55:6 9.73677e-17
7 *55 2.63538e-17

*RES
0 *44:g *55:2 61.15522  // $poly_conn
1 *43:g *55:4 68.693275  // $poly_conn
2 *50:g *55:6 114.563744  // $poly_conn
3 *55:6 *47:g 23.538105  // $poly_conn
4 *55:2 *55:4 0.311796  // $metal1_conn
5 *55:4 *55:8 0.530308  // $metal1_conn
6 *55:8 *55 0.028374  // $metal1_conn
7 *55:6 *55:8 45  // $metal1_conn

*END

*D_NET *58 3.73146e-16

*CONN
*P *58 I *C 5.7000 0.6650 
*I *68:g B *C 4.6475 0.4475 
*I *72:g B *C 5.7325 0.4475 
*I *19:g B *C 4.8275 1.1725 
*I *20:g B *C 5.6775 1.0625 
*N *58:2 *C 5.7050 0.7600 
*N *58:3 *C 4.8275 0.7975 

*CAP
0 *20:g 3.13561e-17
1 *19:g 4.03886e-17
2 *72:g 3.69297e-17
3 *68:g 4.81493e-17
4 *58:3 8.57002e-17
5 *58:2 1.04496e-16
6 *58 2.61261e-17

*RES
0 *72:g *58:2 49.863373  // $poly_conn
1 *58:2 *58:3 211.006058  // $poly_conn
2 *58:3 *68:g 103.944885  // $poly_conn
3 *58:2 *20:g 38.950092  // $poly_conn
4 *58:3 *19:g 67.054962  // $poly_conn
5 *58 *58:2 45.045971  // $metal1_conn

*END

*D_NET *59 2.69657e-16

*CONN
*P *59 I *C 4.3000 0.8550 
*I *51:g B *C 4.4675 0.4475 
*I *53:g B *C 4.4675 1.1725 
*N *59:2 *C 4.4675 0.8750 
*N *59:3 *C 4.3350 0.8750 

*CAP
0 *53:g 5.95807e-17
1 *51:g 3.77824e-17
2 *59:2 4.07079e-17
3 *59:3 8.29879e-17
4 *59 4.85979e-17

*RES
0 *53:g *59:2 45.40691  // $poly_conn
1 *59:2 *59:3 52.24773  // $poly_conn
2 *59:2 *51:g 87.7146  // $poly_conn
3 *59:3 *59 0.00495  // $metal1_conn

*END

*D_NET *57 9.43757e-17

*CONN
*P *57 O *C 0.3000 0.6650 
*I *1:d B *C 0.3100 0.5300 
*I *10:d B *C 0.3100 0.5300 
*I *27:d B *C 0.3100 1.0950 
*I *28:d B *C 0.3100 1.0950 

*CAP
0 *27:d 6.37659e-17
1 *1:d 3.06098e-17

*RES
0 *27:d *57 20.98381  // $metal1_conn
1 *57 *1:d 75.054298  // $metal1_conn

*END

*D_NET *38 1.25348e-16

*CONN
*P *38 O *C 6.1000 1.0450 
*I *34:d B *C 6.1300 0.3900 
*I *35:d B *C 6.1300 0.3900 
*I *36:d B *C 6.1200 1.1500 
*I *39:d B *C 6.1200 1.1500 
*N *38:3 *C 6.1200 1.0150 

*CAP
0 *36:d 6.56829e-17
1 *34:d 5.96652e-17

*RES
0 *38:3 *38 0.014706  // $metal1_conn
1 *34:d *38:3 75.33609  // $metal1_conn
2 *36:d *38:3 62  // $metal1_conn

*END

*D_NET *17 0

*CONN
*I *43:s B *C 6.8850 0.4475 
*I *45:d B *C 6.8850 0.4475 


*RES
0 *45:d *43:s 0.001  // $mwires

*END

*D_NET *13 1.91437e-18

*CONN
*I *37:d B *C 6.5400 0.4475 
*I *40:s B *C 6.5400 0.4475 

*CAP
0 *37:d 1.91437e-18

*RES
0 *40:s *37:d 0.001  // $mwires

*END

*D_NET *11 1.54988e-18

*CONN
*I *51:d B *C 4.5575 0.4475 
*I *68:s B *C 4.5575 0.4475 

*CAP
0 *51:d 1.54988e-18

*RES
0 *68:s *51:d 0.001  // $mwires

*END

*D_NET *9 0

*CONN
*I *74:d B *C 2.0900 0.5875 
*I *75:s B *C 2.0900 0.5875 


*RES
0 *75:s *74:d 0.001  // $mwires

*END

*D_NET *8 1.22895e-19

*CONN
*I *14:d B *C 1.1900 0.5875 
*I *15:s B *C 1.1900 0.5875 

*CAP
0 *14:d 1.22895e-19

*RES
0 *15:s *14:d 0.001  // $mwires

*END

*D_NET *7 0

*CONN
*I *46:s B *C 6.9550 1.2325 
*I *48:d B *C 6.9550 1.2325 


*RES
0 *48:d *46:s 0.001  // $mwires

*END

*D_NET *6 5.04083e-18

*CONN
*I *42:d B *C 6.5775 1.2325 
*I *44:s B *C 6.5775 1.2325 

*CAP
0 *42:d 5.04083e-18

*RES
0 *44:s *42:d 0.001  // $mwires

*END

*D_NET *5 4.91347e-19

*CONN
*I *53:d B *C 4.5200 1.1725 
*I *18:s B *C 4.5200 1.1725 

*CAP
0 *53:d 4.91347e-19

*RES
0 *18:s *53:d 0.001  // $mwires

*END

*D_NET *4 1.06974e-18

*CONN
*I *22:d B *C 2.0900 1.2025 
*I *23:s B *C 2.0900 1.2025 

*CAP
0 *22:d 1.06974e-18

*RES
0 *23:s *22:d 0.001  // $mwires

*END

*D_NET *3 8.85234e-19

*CONN
*I *31:d B *C 1.1525 1.2025 
*I *32:s B *C 1.1525 1.2025 

*CAP
0 *31:d 8.85234e-19

*RES
0 *32:s *31:d 0.001  // $mwires

*END

*D_NET *2 9.49903e-16

*CONN
*I *78:g B *C 3.2575 0.5875 
*I *1:g B *C 0.2075 0.5300 
*I *10:g B *C 0.4125 0.5300 
*I *12:d B *C 0.7900 0.6000 
*I *14:g B *C 1.1325 0.5875 
*I *26:g B *C 3.2575 1.0075 
*I *27:g B *C 0.2075 1.0950 
*I *28:g B *C 0.4125 1.0950 
*I *29:d B *C 0.7850 0.9750 
*I *31:g B *C 1.0725 1.2025 
*N *2:6 *C 0.5000 0.7600 
*N *2:10 *C 1.0900 1.4100 
*N *2:12 *C 2.8400 1.3750 
*N *2:14 *C 1.1200 1.3450 
*N *2:16 *C 0.7450 0.9900 
*N *2:17 *C 0.6750 0.7600 

*CAP
0 *31:g 4.42386e-17
1 *29:d 5.58036e-17
2 *28:g 1.19362e-16
3 *26:g 6.09632e-17
4 *14:g 8.03613e-17
5 *12:d 2.50814e-17
6 *78:g 2.88799e-17
7 *2:17 2.11544e-17
8 *2:14 2.19743e-16
9 *2:6 4.05759e-17
10 *2:10 4.39994e-17
11 *2:12 2.0974e-16

*RES
0 *26:g *78:g 61.538464  // $poly_conn
1 *26:g *2:12 212.933517  // $poly_conn
2 *14:g *31:g 115.095047  // $poly_conn
3 *31:g *2:10 61.15522  // $poly_conn
4 *28:g *2:6 51.352463  // $poly_conn
5 *2:12 *2:14 1.575265  // $metal1_conn
6 *2:14 *2:10 0.048375  // $metal1_conn
7 *2:17 *2:6 0.096447  // $metal1_conn
8 *2:17 *12:d 75.165092  // $metal1_conn
9 *29:d *2:16 62  // $metal1_conn
10 *2:14 *2:16 0.509495  // $metal1_conn
11 *2:16 *2:17 0.191449  // $metal1_conn

*END

*D_NET *71 9.18272e-16

*CONN
*I *75:g B *C 2.1425 0.5875 
*I *77:d B *C 2.9600 0.5875 
*I *16:g B *C 1.4525 0.5875 
*I *24:g B *C 2.3875 1.2025 
*I *25:d B *C 2.8350 1.0075 
*I *32:g B *C 1.2325 1.2025 
*N *71:2 *C 1.2050 0.9000 
*N *71:4 *C 1.4150 0.3700 
*N *71:6 *C 2.1800 0.3700 
*N *71:8 *C 2.4150 0.9100 
*N *71:11 *C 2.9500 0.5750 
*N *71:12 *C 2.4750 0.4100 

*CAP
0 *32:g 5.93831e-17
1 *25:d 5.6096e-17
2 *24:g 3.80651e-17
3 *16:g 5.57978e-17
4 *77:d 7.39903e-17
5 *75:g 8.08888e-17
6 *71:12 6.71613e-17
7 *71:2 1.45318e-16
8 *71:4 1.11696e-16
9 *71:6 1.03983e-16
10 *71:8 1.25893e-16

*RES
0 *32:g *71:2 86.486824  // $poly_conn
1 *16:g *71:4 72.69368  // $poly_conn
2 *75:g *71:6 72.69368  // $poly_conn
3 *24:g *71:8 83.922722  // $poly_conn
4 *25:d *71:11 62.328094  // $metal1_conn
5 *71:11 *71:12 0.424899  // $metal1_conn
6 *71:12 *71:6 0.213116  // $metal1_conn
7 *71:6 *71:4 0.624582  // $metal1_conn
8 *71:4 *71:2 0.560689  // $metal1_conn
9 *71:12 *71:8 0.382769  // $metal1_conn
10 *77:d *71:11 75  // $metal1_conn

*END

*D_NET *69 3.97917e-16

*CONN
*I *12:g B *C 0.6475 0.5575 
*I *15:d B *C 1.3500 0.5875 
*I *16:s B *C 1.3500 0.5875 
*I *29:g B *C 0.6425 1.0550 
*I *32:d B *C 1.3425 1.2025 
*I *33:d B *C 1.3425 1.2025 
*N *69:2 *C 0.6425 0.7725 
*N *69:4 *C 0.8650 0.8000 
*N *69:6 *C 1.3575 1.0600 

*CAP
0 *32:d 2.81627e-17
1 *29:g 5.16534e-17
2 *15:d 6.54354e-17
3 *12:g 4.31614e-17
4 *69:6 1.03157e-16
5 *69:2 2.4877e-17
6 *69:4 8.147e-17

*RES
0 *12:g *69:2 27.741272  // $poly_conn
1 *69:2 *29:g 31.396593  // $poly_conn
2 *69:2 *69:4 88.856583  // $poly_conn
3 *15:d *69:6 75.346069  // $metal1_conn
4 *69:6 *69:4 0.498373  // $metal1_conn
5 *69:6 *32:d 62.04586  // $metal1_conn

*END

*D_NET *67 4.2735e-16

*CONN
*I *73:d B *C 1.6125 0.5875 
*I *74:g B *C 2.0375 0.5875 
*I *16:d B *C 1.6125 0.5875 
*I *21:d B *C 1.6125 1.2025 
*I *22:g B *C 2.0375 1.2025 
*I *33:s B *C 1.6125 1.2025 
*N *67:2 *C 2.0000 0.9300 
*N *67:4 *C 1.5550 0.9300 

*CAP
0 *22:g 6.47148e-17
1 *21:d 5.4605e-17
2 *74:g 6.85224e-17
3 *73:d 4.73969e-17
4 *67:4 6.66234e-17
5 *67:2 1.25488e-16

*RES
0 *22:g *67:2 32.821884  // $poly_conn
1 *67:2 *74:g 59.744961  // $poly_conn
2 *67:2 *67:4 45.332203  // $metal1_conn
3 *67:4 *73:d 75.256615  // $metal1_conn
4 *67:4 *21:d 62.181904  // $metal1_conn

*END

*D_NET *66 3.20691e-16

*CONN
*I *73:g B *C 1.7725 0.5875 
*I *75:d B *C 2.3375 0.5875 
*I *76:s B *C 2.3375 0.5875 
*I *21:g B *C 1.7725 1.2025 
*I *23:d B *C 2.2650 1.2025 
*I *24:d B *C 2.2650 1.2025 
*N *66:2 *C 1.8000 0.7700 
*N *66:5 *C 2.2550 0.7700 

*CAP
0 *23:d 5.27523e-17
1 *21:g 4.92169e-17
2 *75:d 3.75595e-17
3 *73:g 3.1506e-17
4 *66:5 5.77026e-17
5 *66:2 9.19534e-17

*RES
0 *21:g *66:2 74.820152  // $poly_conn
1 *66:2 *73:g 19.691952  // $poly_conn
2 *23:d *66:5 62.295551  // $metal1_conn
3 *66:5 *66:2 45.309391  // $metal1_conn
4 *66:5 *75:d 75.120529  // $metal1_conn

*END

*D_NET *65 6.96912e-16

*CONN
*I *68:d B *C 4.7900 0.4475 
*I *70:s B *C 4.7900 0.4475 
*I *76:d B *C 2.6250 0.5875 
*I *18:d B *C 4.7000 1.1725 
*I *19:d B *C 4.7000 1.1725 
*I *24:s B *C 2.4800 1.2025 
*N *65:2 *C 4.4950 1.1250 
*N *65:3 *C 2.6350 1.1200 

*CAP
0 *24:s 2.9917e-17
1 *18:d 2.77404e-17
2 *76:d 6.84693e-17
3 *68:d 9.43978e-17
4 *65:3 2.27986e-16
5 *65:2 2.48402e-16

*RES
0 *68:d *65:2 75.642578  // $metal1_conn
1 *65:2 *65:3 1.745983  // $metal1_conn
2 *65:3 *24:s 62.094608  // $metal1_conn
3 *65:2 *18:d 62.097683  // $metal1_conn
4 *65:3 *76:d 75.39682  // $metal1_conn

*END

*D_NET *64 1.05632e-15

*CONN
*I *34:g B *C 6.0275 0.3900 
*I *35:g B *C 6.2325 0.3900 
*I *37:g B *C 6.4875 0.4475 
*I *78:d B *C 3.3500 0.5875 
*I *36:g B *C 6.0175 1.1500 
*I *39:g B *C 6.2225 1.1500 
*I *42:g B *C 6.4875 1.2325 
*I *26:d B *C 3.4550 1.0075 
*N *64:2 *C 6.4875 0.8475 
*N *64:5 *C 5.9700 0.8200 
*N *64:12 *C 3.3600 0.5750 

*CAP
0 *26:d 7.42268e-17
1 *42:g 3.90282e-17
2 *39:g 1.13404e-16
3 *78:d 3.47372e-16
4 *37:g 5.30257e-17
5 *64:2 4.18392e-17
6 *64:5 3.87419e-16

*RES
0 *42:g *64:2 70.001846  // $poly_conn
1 *64:2 *37:g 82.822357  // $poly_conn
2 *39:g *64:5 47.402767  // $poly_conn
3 *64:2 *39:g 60.871815  // $poly_conn
4 *64:5 *64:12 2.868923  // $metal1_conn
5 *64:12 *26:d 62.430801  // $metal1_conn
6 *78:d *64:12 75  // $metal1_conn

*END

*D_NET *63 9.39713e-16

*CONN
*I *49:d B *C 4.0325 0.4475 
*I *76:g B *C 2.5325 0.5875 
*I *77:g B *C 3.0525 0.5875 
*I *15:g B *C 1.2475 0.5875 
*I *52:d B *C 4.0400 1.1725 
*I *23:g B *C 2.1425 1.2025 
*I *25:g B *C 2.9275 1.0075 
*I *33:g B *C 1.4525 1.2025 
*N *63:2 *C 3.0150 0.7950 
*N *63:3 *C 2.9275 0.7950 
*N *63:4 *C 2.5325 0.7675 
*N *63:11 *C 3.7300 1.1900 

*CAP
0 *33:g 1.12646e-16
1 *25:g 3.94245e-17
2 *23:g 1.47431e-16
3 *52:d 4.79805e-17
4 *15:g 1.00858e-16
5 *77:g 1.94404e-17
6 *76:g 1.81457e-17
7 *49:d 1.09583e-16
8 *63:11 1.60726e-16
9 *63:4 5.2754e-17
10 *63:3 1.44266e-17
11 *63:2 1.16297e-16

*RES
0 *77:g *63:2 25.129578  // $poly_conn
1 *63:2 *63:3 6.496478  // $poly_conn
2 *63:3 *63:4 100.480415  // $poly_conn
3 *63:4 *23:g 165.080307  // $poly_conn
4 *23:g *33:g 268.941223  // $poly_conn
5 *33:g *15:g 140.446503  // $poly_conn
6 *63:3 *25:g 17.108824  // $poly_conn
7 *63:4 *76:g 22.864588  // $poly_conn
8 *49:d *63:11 75.694016  // $metal1_conn
9 *63:11 *63:2 45.776455  // $metal1_conn
10 *63:11 *52:d 62.222866  // $metal1_conn

*END

*D_NET *62 6.32215e-16

*CONN
*I *40:d B *C 6.7000 0.4475 
*I *43:d B *C 6.7000 0.4475 
*I *70:d B *C 5.0250 0.4475 
*I *44:d B *C 6.7700 1.2325 
*I *46:d B *C 6.7700 1.2325 
*I *19:s B *C 4.9200 1.1725 
*N *62:2 *C 6.5450 1.2850 
*N *62:4 *C 4.9300 1.1550 

*CAP
0 *19:s 2.05538e-16
1 *44:d 2.87688e-17
2 *70:d 1.25143e-16
3 *40:d 8.52441e-17
4 *62:2 1.87521e-16

*RES
0 *40:d *62:2 75.67675  // $metal1_conn
1 *62:2 *62:4 1.243574  // $metal1_conn
2 *62:2 *44:d 62.150776  // $metal1_conn
3 *62:4 *70:d 75.721214  // $metal1_conn
4 *19:s *62:4 62  // $metal1_conn

*END

*D_NET *61 5.91273e-16

*CONN
*I *70:g B *C 4.9325 0.4475 
*I *72:d B *C 5.5975 0.4475 
*I *18:g B *C 4.5725 1.1725 
*I *20:d B *C 5.5850 1.0625 
*N *61:1 *C 4.6850 0.9450 
*N *61:4 *C 4.9600 0.6550 
*N *61:5 *C 5.3100 0.6450 

*CAP
0 *20:d 8.97972e-17
1 *18:g 6.44551e-17
2 *72:d 4.30308e-17
3 *70:g 2.03932e-17
4 *61:1 1.2367e-16
5 *61:4 1.02742e-16
6 *61:5 1.47184e-16

*RES
0 *61:1 *18:g 81.673355  // $poly_conn
1 *70:g *61:4 23.565474  // $poly_conn
2 *61:4 *61:5 116.744606  // $poly_conn
3 *61:4 *61:1 45.324783  // $metal1_conn
4 *20:d *61:5 62.436913  // $metal1_conn
5 *61:5 *72:d 75.239861  // $metal1_conn

*END

*D_NET *60 4.81571e-16

*CONN
*I *40:g B *C 6.5925 0.4475 
*I *47:d B *C 7.5200 0.4475 
*I *46:g B *C 6.8725 1.2325 
*I *50:d B *C 7.5200 1.2325 
*N *60:2 *C 6.8950 1.0250 
*N *60:5 *C 7.6950 1.0250 

*CAP
0 *50:d 1.41589e-17
1 *46:g 4.21473e-17
2 *47:d 5.98715e-17
3 *40:g 1.06735e-16
4 *60:5 7.65199e-17
5 *60:2 1.82139e-16

*RES
0 *46:g *60:2 16.15522  // $poly_conn
1 *60:2 *40:g 176.12207  // $poly_conn
2 *47:d *60:5 75.508728  // $metal1_conn
3 *60:5 *60:2 45.565601  // $metal1_conn
4 *60:5 *50:d 62.229347  // $metal1_conn

*END

