*SPEF "IEEE 1481-1999"
*DESIGN  "SEDFFHQX8"
*DATE "Mon Sep 27 11:14:44 2010"
*VENDOR "Cadence Design Systems"
*PROGRAM "Assura RCX"
*VERSION "3.2 Red Hat Linux release 7.2 (Enigma) - (09/09/2009-10:39)"
*DESIGN_FLOW "Physical Verification"
*DIVIDER /
*DELIMITER :
*BUS_DELIMITER []
*T_UNIT 1 PS
*C_UNIT 1e15 FF
*R_UNIT 1 OHM
*L_UNIT 1 MH
// DeviceFingerDelim "@"
// MATCHED
// caps2d version: 10

*NAME_MAP
*1 VDD
*2 CK
*3 mn13
*4 mn11
*5 mn10
*6 mn1
*7 mn2
*8 mn4
*9 mn3
*10 mn0
*11 mn36
*12 mn25
*13 mout
*14 mn21
*15 mn56
*16 mn56\@1
*17 mn12
*18 mn20
*19 mn50
*20 mn51
*21 mn40
*22 mn30
*23 mp36
*24 mp25
*25 mn35
*26 mp21
*27 mp13
*28 mn55
*29 mp56
*30 mp11
*31 mn55\@1
*32 mp56\@1
*33 mp10
*34 mn55\@2
*35 n20
*36 mp12
*37 mp1
*38 mn55\@3
*39 CKb
*40 mp20
*41 mp2
*42 mn55\@4
*43 Eb
*44 mp50
*45 mp4
*46 mn55\@5
*47 SEb
*48 mp51
*49 mp3
*50 mn55\@6
*51 Db
*52 D
*53 mp40
*54 mp0
*55 mn45
*56 n30
*57 E
*58 mp35
*59 mn45\@1
*60 qint
*61 Dbp
*62 Ckbb
*63 qbint
*64 mp30
*65 mp55
*66 mn45\@2
*67 mp55\@1
*68 mp55\@2
*69 mp55\@3
*70 net426
*71 Q
*72 mp55\@4
*73 net417
*74 mp55\@5
*75 net441
*76 mp55\@6
*77 net405
*78 mp45
*79 net449
*80 mp45\@1
*81 net509
*82 net501
*83 net518
*84 net494
*85 net526
*86 mp45\@2
*87 VSS
*88 SE
*89 SI

*GROUND_NETS VSS

*PORTS
*1 I
*87 I
*2 I
*52 I
*57 I
*88 I
*89 I
*71 O

*D_NET *1 1.34602e-15

*CONN
*P *1 I *C 0.1000 1.7100 
*I *33:s B *C 7.5550 1.2750 
*I *37:s B *C 7.5550 1.2750 
*I *49:s B *C 8.3100 1.1875 
*I *54:s B *C 8.3100 1.1875 
*I *58:s B *C 4.3050 1.0550 
*I *26:s B *C 5.7550 1.1050 
*I *29:s B *C 5.7550 1.1050 
*I *32:s B *C 6.1450 1.1050 
*I *36:s B *C 6.1450 1.1050 
*I *40:s B *C 2.8375 1.0550 
*I *44:s B *C 2.8375 1.0550 
*I *64:s B *C 4.3050 1.0550 
*I *65:s B *C 0.3150 1.1225 
*I *67:s B *C 0.3150 1.1225 
*I *68:s B *C 0.7250 1.1225 
*I *69:s B *C 0.7250 1.1225 
*I *72:s B *C 1.1350 1.1225 
*I *74:s B *C 1.1350 1.1225 
*I *76:s B *C 1.5950 1.1500 
*I *78:s B *C 1.5950 1.1500 
*I *80:s B *C 1.9550 1.1500 
*I *86:s B *C 1.9550 1.1500 
*N *1:2 *C 7.7000 1.7100 
*N *1:3 *C 7.7000 1.7100 
*N *1:4 *C 7.4700 1.7100 
*N *1:7 *C 5.5000 1.7100 
*N *1:8 *C 4.1900 1.7100 
*N *1:9 *C 3.3000 1.7100 
*N *1:10 *C 2.7300 1.7100 

*CAP
0 *80:s 4.57698e-16
1 *40:s 1.16621e-17
2 *32:s 1.23206e-16
3 *58:s 5.43705e-17
4 *49:s 5.73592e-17
5 *33:s 2.36268e-17
6 *1:10 2.36569e-17
7 *1:8 3.88956e-17
8 *1:4 3.8777e-17
9 *1:2 5.09786e-16
10 *1 6.98535e-18

*RES
0 *80:s *1 0.107562  // $metal1_conn
1 *1:2 *1:3 6.818182  // $metal1_conn
2 *1:2 *1:7 6.818182  // $metal1_conn
3 *1:2 *1:9 6.818182  // $metal1_conn
4 *1:2 *80:s 6.818182  // $metal1_conn
5 *49:s *1:3 62.490799  // $metal1_conn
6 *1:4 *33:s 62.045834  // $metal1_conn
7 *1:8 *58:s 62.270241  // $metal1_conn
8 *1:10 *40:s 62.074837  // $metal1_conn
9 *1:3 *1:4 0.114234  // $metal1_conn
10 *1:4 *32:s 0.695952  // $metal1_conn
11 *32:s *1:7 0.085084  // $metal1_conn
12 *1:7 *1:8 0.656966  // $metal1_conn
13 *1:8 *1:9 0.446273  // $metal1_conn
14 *1:9 *1:10 0.285745  // $metal1_conn
15 *1:10 *80:s 0.388387  // $metal1_conn

*END

*D_NET *87 0

*CONN
*P *87 I *C 0.1000 0.0000 
*I *5:s B *C 7.5300 0.3700 
*I *6:s B *C 7.5300 0.3700 
*I *9:s B *C 8.4425 0.4275 
*I *10:s B *C 8.4425 0.4275 
*I *14:s B *C 5.6975 0.3900 
*I *15:s B *C 5.6975 0.3900 
*I *16:s B *C 6.1675 0.3900 
*I *17:s B *C 6.1675 0.3900 
*I *18:s B *C 3.0400 0.3925 
*I *19:s B *C 3.0400 0.3925 
*I *22:s B *C 4.1900 0.3925 
*I *25:s B *C 4.1900 0.3925 
*I *28:s B *C 0.3150 0.5125 
*I *31:s B *C 0.3150 0.5125 
*I *34:s B *C 0.7250 0.5125 
*I *38:s B *C 0.7250 0.5125 
*I *42:s B *C 1.1350 0.5125 
*I *46:s B *C 1.1350 0.5125 
*I *50:s B *C 1.5950 0.5300 
*I *55:s B *C 1.5950 0.5300 
*I *59:s B *C 1.9700 0.5300 
*I *66:s B *C 1.9700 0.5300 
*N *87:2 *C 7.7000 0.0000 
*N *87:3 *C 7.7000 0.0000 
*N *87:4 *C 7.4100 0.0000 
*N *87:7 *C 5.5000 0.0000 
*N *87:8 *C 4.1600 0.0000 
*N *87:9 *C 3.3000 0.0000 
*N *87:10 *C 2.9850 0.0000 


*RES
0 *59:s *87 0.107562  // $metal1_conn
1 *87:2 *87:3 5.636364  // $metal1_conn
2 *87:2 *87:7 5.636364  // $metal1_conn
3 *87:2 *87:9 5.636364  // $metal1_conn
4 *87:2 *59:s 5.636364  // $metal1_conn
5 *9:s *87:3 75.620773  // $metal1_conn
6 *87:4 *5:s 75.18045  // $metal1_conn
7 *87:8 *22:s 75.211685  // $metal1_conn
8 *87:10 *18:s 75.14476  // $metal1_conn
9 *87:3 *87:4 0.145282  // $metal1_conn
10 *87:4 *16:s 0.594064  // $metal1_conn
11 *16:s *87:7 0.042437  // $metal1_conn
12 *87:7 *87:8 0.672016  // $metal1_conn
13 *87:8 *87:9 0.431223  // $metal1_conn
14 *87:9 *87:10 0.157824  // $metal1_conn
15 *87:10 *59:s 0.516308  // $metal1_conn

*END

*D_NET *2 2.29432e-16

*CONN
*P *2 I *C 2.7000 0.8550 
*I *18:g B *C 2.7275 0.4225 
*I *40:g B *C 2.6525 1.0075 
*N *2:2 *C 2.6900 0.7600 

*CAP
0 *40:g 2.98372e-17
1 *18:g 3.58683e-17
2 *2:2 8.4088e-17
3 *2 7.96389e-17

*RES
0 *18:g *2:2 60.733223  // $poly_conn
1 *2:2 *40:g 28.681942  // $poly_conn
2 *2:2 *2 45.035099  // $metal1_conn

*END

*D_NET *52 3.39494e-16

*CONN
*P *52 I *C 8.3000 0.8550 
*I *9:g B *C 8.2325 0.3700 
*I *49:g B *C 8.1225 1.2750 
*N *52:2 *C 8.2000 0.8350 

*CAP
0 *49:g 7.57836e-17
1 *9:g 7.73423e-17
2 *52:2 1.09885e-16
3 *52 7.64829e-17

*RES
0 *9:g *52:2 76.411629  // $poly_conn
1 *52:2 *49:g 62.791615  // $poly_conn
2 *52 *52:2 45.056751  // $metal1_conn

*END

*D_NET *57 5.66299e-16

*CONN
*P *57 I *C 8.1000 0.6650 
*I *8:g B *C 8.1275 0.3700 
*I *10:g B *C 8.5525 0.4275 
*I *41:g B *C 7.7475 1.2750 
*I *54:g B *C 8.3575 1.1875 
*N *57:2 *C 7.7900 0.9500 
*N *57:4 *C 8.0900 0.6650 
*N *57:6 *C 8.5800 0.7050 

*CAP
0 *54:g 6.33384e-17
1 *41:g 5.76513e-17
2 *10:g 2.88232e-17
3 *8:g 6.45577e-17
4 *57:2 1.0511e-16
5 *57:4 1.50762e-16
6 *57:6 9.60562e-17

*RES
0 *41:g *57:2 67.526878  // $poly_conn
1 *8:g *57:4 77.821884  // $poly_conn
2 *10:g *57:6 40.889015  // $poly_conn
3 *57:6 *54:g 128.189926  // $poly_conn
4 *57:2 *57:4 0.42584  // $metal1_conn
5 *57:4 *57 0.007027  // $metal1_conn
6 *57 *57:6 45.346485  // $metal1_conn

*END

*D_NET *88 4.12547e-16

*CONN
*P *88 I *C 7.3000 0.8550 
*I *3:g B *C 6.5425 0.3900 
*I *5:g B *C 7.3375 0.3125 
*I *30:g B *C 6.7575 1.1050 
*I *33:g B *C 7.3375 1.2025 
*N *88:2 *C 7.3100 0.7750 
*N *88:3 *C 6.7575 0.8125 
*N *88:7 *C 7.3050 0.7750 

*CAP
0 *33:g 4.58351e-17
1 *30:g 2.9604e-17
2 *5:g 4.25107e-17
3 *3:g 6.5572e-17
4 *88:7 3.41258e-17
5 *88:3 7.19062e-17
6 *88:2 5.84418e-17
7 *88 6.45514e-17

*RES
0 *33:g *88:2 71.001373  // $poly_conn
1 *88:2 *88:3 127.672737  // $poly_conn
2 *88:3 *3:g 116.765388  // $poly_conn
3 *88:2 *5:g 88.324913  // $poly_conn
4 *88:3 *30:g 23.465221  // $poly_conn
5 *88:7 *88 0.049849  // $metal1_conn
6 *88:2 *88:7 45  // $metal1_conn

*END

*D_NET *89 2.53655e-16

*CONN
*P *89 I *C 6.1000 0.8550 
*I *17:g B *C 6.3275 0.3900 
*I *36:g B *C 6.2825 1.1050 
*N *89:2 *C 6.2450 0.6700 

*CAP
0 *36:g 7.71991e-17
1 *17:g 3.14514e-17
2 *89:2 9.2692e-17
3 *89 5.23128e-17

*RES
0 *17:g *89:2 32.297016  // $poly_conn
1 *89:2 *36:g 52.462776  // $poly_conn
2 *89:2 *89 45.166042  // $metal1_conn

*END

*D_NET *71 4.70304e-16

*CONN
*P *71 O *C 0.1000 0.6650 
*I *28:d B *C 0.1200 0.5125 
*I *31:d B *C 0.5200 0.5125 
*I *34:d B *C 0.5200 0.5125 
*I *38:d B *C 0.9300 0.5125 
*I *42:d B *C 0.9300 0.5125 
*I *46:d B *C 1.3400 0.5125 
*I *50:d B *C 1.3400 0.5125 
*I *65:d B *C 0.1200 1.1225 
*I *67:d B *C 0.5200 1.1225 
*I *68:d B *C 0.5200 1.1225 
*I *69:d B *C 0.9300 1.1225 
*I *72:d B *C 0.9300 1.1225 
*I *74:d B *C 1.3400 1.1225 
*I *76:d B *C 1.3400 1.1225 

*CAP
0 *71 4.70304e-16


*END

*D_NET *85 1.56937e-19

*CONN
*I *8:s B *C 8.1800 0.3700 
*I *9:d B *C 8.1800 0.3700 

*CAP
0 *8:s 1.56937e-19

*RES
0 *9:d *8:s 0.001  // $mwires

*END

*D_NET *84 8.34231e-18

*CONN
*I *6:d B *C 7.7625 0.3700 
*I *7:s B *C 7.7625 0.3700 

*CAP
0 *6:d 8.34231e-18

*RES
0 *7:s *6:d 0.001  // $mwires

*END

*D_NET *83 3.88713e-18

*CONN
*I *3:s B *C 6.4350 0.3900 
*I *17:d B *C 6.4350 0.3900 

*CAP
0 *3:s 3.88713e-18

*RES
0 *17:d *3:s 0.001  // $mwires

*END

*D_NET *82 1.73278e-18

*CONN
*I *11:s B *C 4.3575 0.3925 
*I *25:d B *C 4.3575 0.3925 

*CAP
0 *11:s 1.73278e-18

*RES
0 *25:d *11:s 0.001  // $mwires

*END

*D_NET *81 1.61824e-18

*CONN
*I *19:d B *C 3.1400 0.3925 
*I *20:s B *C 3.1400 0.3925 

*CAP
0 *19:d 1.61824e-18

*RES
0 *20:s *19:d 0.001  // $mwires

*END

*D_NET *79 4.25077e-18

*CONN
*I *45:s B *C 8.0375 1.2750 
*I *49:d B *C 8.0375 1.2750 

*CAP
0 *45:s 4.25077e-18

*RES
0 *49:d *45:s 0.001  // $mwires

*END

*D_NET *77 3.55892e-18

*CONN
*I *37:d B *C 7.6750 1.2750 
*I *41:s B *C 7.6750 1.2750 

*CAP
0 *37:d 3.55892e-18

*RES
0 *41:s *37:d 0.001  // $mwires

*END

*D_NET *75 6.901e-20

*CONN
*I *27:s B *C 6.3350 1.1050 
*I *36:d B *C 6.3350 1.1050 

*CAP
0 *27:s 6.901e-20

*RES
0 *36:d *27:s 0.001  // $mwires

*END

*D_NET *73 6.92718e-18

*CONN
*I *58:d B *C 4.4900 1.0550 
*I *23:s B *C 4.4900 1.0550 

*CAP
0 *58:d 6.92718e-18

*RES
0 *23:s *58:d 0.001  // $mwires

*END

*D_NET *70 8.72398e-19

*CONN
*I *44:d B *C 2.9975 1.0550 
*I *48:s B *C 2.9975 1.0550 

*CAP
0 *44:d 8.72398e-19

*RES
0 *48:s *44:d 0.001  // $mwires

*END

*D_NET *63 1.74578e-15

*CONN
*I *15:g B *C 5.7725 0.3900 
*I *16:g B *C 6.0075 0.3900 
*I *19:g B *C 3.0875 0.3925 
*I *28:g B *C 0.2125 0.5125 
*I *31:g B *C 0.4175 0.5125 
*I *34:g B *C 0.6225 0.5125 
*I *38:g B *C 0.8275 0.5125 
*I *42:g B *C 1.0325 0.5125 
*I *46:g B *C 1.2375 0.5125 
*I *50:g B *C 1.4425 0.5125 
*I *55:d B *C 1.7500 0.5300 
*I *59:d B *C 1.7500 0.5300 
*I *66:d B *C 2.2225 0.5300 
*I *29:g B *C 5.8025 1.1050 
*I *32:g B *C 6.0075 1.1050 
*I *44:g B *C 2.9075 1.0550 
*I *65:g B *C 0.2125 1.1225 
*I *67:g B *C 0.4175 1.1225 
*I *68:g B *C 0.6225 1.1225 
*I *69:g B *C 0.8275 1.1225 
*I *72:g B *C 1.0325 1.1225 
*I *74:g B *C 1.2375 1.1225 
*I *76:g B *C 1.4425 1.1225 
*I *78:d B *C 1.7500 1.1500 
*I *80:d B *C 1.7500 1.1500 
*I *86:d B *C 2.2000 1.2850 
*N *63:23 *C 2.8700 0.8000 
*N *63:32 *C 2.8900 1.2550 

*CAP
0 *86:d 3.10923e-16
1 *76:g 3.627e-16
2 *44:g 4.44551e-17
3 *32:g 4.17785e-16
4 *19:g 9.1266e-17
5 *63:32 3.91361e-16
6 *63:23 1.27286e-16

*RES
0 *63:23 *44:g 16.15522  // $poly_conn
1 *19:g *63:23 103.045135  // $poly_conn
2 *32:g *63:32 47.791531  // $metal1_conn
3 *63:32 *63:23 45.416756  // $metal1_conn
4 *86:d *76:g 45.167809  // $metal1_conn
5 *63:32 *86:d 0.47611  // $metal1_conn

*END

*D_NET *62 1.15729e-15

*CONN
*I *11:g B *C 4.4225 0.3925 
*I *14:d B *C 5.2450 0.4475 
*I *21:g B *C 3.5125 0.3925 
*I *24:g B *C 4.8525 1.0550 
*I *26:d B *C 5.2750 1.0175 
*I *48:g B *C 3.0875 1.0550 
*N *62:2 *C 3.0500 0.8000 
*N *62:4 *C 3.5500 0.6700 
*N *62:6 *C 4.4800 0.6700 
*N *62:8 *C 4.8900 0.8000 
*N *62:11 *C 5.2650 0.9700 
*N *62:12 *C 4.8900 1.1500 
*N *62:13 *C 4.5100 0.9600 
*N *62:14 *C 3.5500 1.1500 

*CAP
0 *48:g 3.48552e-17
1 *26:d 6.48416e-17
2 *24:g 3.72158e-17
3 *21:g 3.10862e-17
4 *14:d 5.64894e-17
5 *11:g 5.64892e-17
6 *62:14 2.07365e-16
7 *62:13 1.57118e-16
8 *62:12 9.30546e-17
9 *62:2 1.25258e-16
10 *62:4 1.13661e-16
11 *62:6 9.20622e-17
12 *62:8 8.77952e-17

*RES
0 *48:g *62:2 61.15522  // $poly_conn
1 *21:g *62:4 80.385986  // $poly_conn
2 *11:g *62:6 87.022728  // $poly_conn
3 *24:g *62:8 61.15522  // $poly_conn
4 *14:d *62:11 75.373299  // $metal1_conn
5 *62:11 *62:12 0.412189  // $metal1_conn
6 *62:12 *62:13 0.432147  // $metal1_conn
7 *62:13 *62:14 0.885444  // $metal1_conn
8 *62:14 *62:2 0.638977  // $metal1_conn
9 *62:12 *62:8 0.257037  // $metal1_conn
10 *62:13 *62:6 0.19907  // $metal1_conn
11 *62:14 *62:4 0.365784  // $metal1_conn
12 *26:d *62:11 62  // $metal1_conn

*END

*D_NET *61 5.67751e-16

*CONN
*I *3:d B *C 6.7025 0.3900 
*I *4:s B *C 6.7025 0.3900 
*I *12:s B *C 4.7700 0.3925 
*I *27:d B *C 6.5725 1.1050 
*I *30:s B *C 6.5725 1.1050 
*I *24:s B *C 4.9925 1.0550 
*N *61:2 *C 6.4475 0.5100 
*N *61:4 *C 6.4900 0.9700 
*N *61:6 *C 4.8300 0.3500 

*CAP
0 *24:s 9.11624e-17
1 *27:d 5.84465e-17
2 *12:s 1.93842e-16
3 *3:d 4.37012e-17
4 *61:2 1.80599e-16

*RES
0 *3:d *61:2 75.132812  // $metal1_conn
1 *61:2 *61:4 0.316971  // $metal1_conn
2 *61:2 *61:6 1.507814  // $metal1_conn
3 *61:6 *24:s 62.598625  // $metal1_conn
4 *27:d *61:4 62  // $metal1_conn
5 *12:s *61:6 75  // $metal1_conn

*END

*D_NET *60 7.20479e-16

*CONN
*I *6:g B *C 7.6025 0.3700 
*I *15:d B *C 5.8900 0.3900 
*I *16:d B *C 5.8900 0.3900 
*I *37:g B *C 7.6025 1.2750 
*I *29:d B *C 5.9050 1.1050 
*I *32:d B *C 5.9050 1.1050 
*N *60:2 *C 7.6025 0.9700 
*N *60:3 *C 7.4700 0.9700 
*N *60:6 *C 5.9050 1.1050 

*CAP
0 *29:d 2.59651e-16
1 *37:g 5.29287e-17
2 *15:d 6.31985e-17
3 *6:g 5.62277e-17
4 *60:2 4.15989e-17
5 *60:3 2.46874e-16

*RES
0 *37:g *60:2 24.894089  // $poly_conn
1 *60:2 *6:g 117.201782  // $poly_conn
2 *60:2 *60:3 52.24773  // $poly_conn
3 *60:3 *60:6 1.654646  // $metal1_conn
4 *29:d *60:6 20.666666  // $metal1_conn
5 *60:6 *15:d 75.504326  // $metal1_conn

*END

*D_NET *56 6.66503e-16

*CONN
*I *20:d B *C 3.3525 0.3925 
*I *21:d B *C 3.3525 0.3925 
*I *55:g B *C 1.6475 0.5300 
*I *59:g B *C 1.8525 0.5300 
*I *66:g B *C 2.0875 0.5300 
*I *48:d B *C 3.3475 1.0550 
*I *53:d B *C 3.3475 1.0550 
*I *78:g B *C 1.6475 1.1500 
*I *80:g B *C 1.8525 1.1500 
*I *86:g B *C 2.0575 1.1500 
*N *56:13 *C 3.3900 0.3800 

*CAP
0 *86:g 3.66408e-16
1 *48:d 8.06424e-17
2 *20:d 2.19452e-16

*RES
0 *56:13 *86:g 46.440739  // $metal1_conn
1 *48:d *56:13 62.434055  // $metal1_conn
2 *20:d *56:13 75  // $metal1_conn

*END

*D_NET *51 4.59266e-16

*CONN
*I *4:d B *C 6.9550 0.3900 
*I *7:d B *C 8.0250 0.3700 
*I *8:d B *C 8.0250 0.3700 
*I *30:d B *C 6.8550 1.1050 
*I *41:d B *C 7.8500 1.2750 
*I *45:d B *C 7.8500 1.2750 
*N *51:2 *C 7.6300 0.4700 
*N *51:3 *C 7.0600 0.4900 

*CAP
0 *41:d 1.14685e-16
1 *30:d 6.74725e-17
2 *7:d 5.06876e-17
3 *4:d 2.87449e-17
4 *51:3 8.50383e-17
5 *51:2 1.12638e-16

*RES
0 *7:d *51:2 75.292877  // $metal1_conn
1 *51:2 *51:3 0.44679  // $metal1_conn
2 *51:3 *30:d 62.458138  // $metal1_conn
3 *51:2 *41:d 21.423813  // $metal1_conn
4 *51:3 *4:d 75.073311  // $metal1_conn

*END

*D_NET *47 5.79504e-16

*CONN
*I *4:g B *C 6.8625 0.3900 
*I *5:d B *C 7.2450 0.3125 
*I *27:g B *C 6.3875 1.1050 
*I *33:d B *C 7.2450 1.2025 
*N *47:1 *C 6.6250 0.7600 
*N *47:4 *C 6.9000 0.6800 
*N *47:6 *C 6.8050 0.7050 

*CAP
0 *33:d 1.09739e-16
1 *27:g 8.57963e-17
2 *5:d 8.05716e-17
3 *4:g 3.01907e-17
4 *47:6 7.15978e-17
5 *47:1 1.3227e-16
6 *47:4 6.93383e-17

*RES
0 *47:1 *27:g 119.343773  // $poly_conn
1 *4:g *47:4 76.539833  // $poly_conn
2 *33:d *47:1 62.733829  // $metal1_conn
3 *47:1 *47:6 0.152109  // $metal1_conn
4 *47:6 *5:d 75.575752  // $metal1_conn
5 *47:6 *47:4 0.053395  // $metal1_conn

*END

*D_NET *43 4.1805e-16

*CONN
*I *7:g B *C 7.9225 0.3700 
*I *10:d B *C 8.6450 0.4275 
*I *45:g B *C 7.9525 1.2750 
*I *54:d B *C 8.4500 1.1875 
*N *43:2 *C 7.9800 0.9800 
*N *43:6 *C 8.4600 1.2350 

*CAP
0 *54:d 1.02362e-16
1 *45:g 4.81927e-17
2 *10:d 7.72056e-17
3 *7:g 6.51908e-17
4 *43:2 1.25099e-16

*RES
0 *45:g *43:2 16.15522  // $poly_conn
1 *43:2 *7:g 129.349564  // $poly_conn
2 *10:d *43:6 75.732155  // $metal1_conn
3 *43:6 *43:2 45.457939  // $metal1_conn
4 *54:d *43:6 62  // $metal1_conn

*END

*D_NET *39 7.72083e-16

*CONN
*I *12:g B *C 4.6275 0.3925 
*I *14:g B *C 5.3375 0.4475 
*I *18:d B *C 2.6100 0.4225 
*I *20:g B *C 3.1925 0.3925 
*I *23:g B *C 4.6275 1.0550 
*I *26:g B *C 5.3675 1.0175 
*I *40:d B *C 2.5800 1.0075 
*I *53:g B *C 3.6075 1.0550 
*N *39:2 *C 5.3300 0.6175 
*N *39:3 *C 4.6275 0.6175 
*N *39:6 *C 3.2300 0.6000 
*N *39:11 *C 2.4550 0.5700 

*CAP
0 *53:g 9.83007e-17
1 *40:d 6.51267e-17
2 *26:g 3.40012e-17
3 *23:g 8.72903e-17
4 *20:g 4.99319e-17
5 *18:d 4.40576e-17
6 *14:g 2.74744e-17
7 *12:g 2.81136e-17
8 *39:11 8.98861e-17
9 *39:3 6.19974e-17
10 *39:2 3.98531e-17
11 *39:6 1.4605e-16

*RES
0 *26:g *39:2 83.295868  // $poly_conn
1 *39:2 *39:3 174.898819  // $poly_conn
2 *39:3 *23:g 70.901115  // $poly_conn
3 *23:g *53:g 353.55658  // $poly_conn
4 *53:g *39:6 145.059036  // $poly_conn
5 *39:6 *20:g 19.707582  // $poly_conn
6 *39:2 *14:g 22.516262  // $poly_conn
7 *39:3 *12:g 29.875479  // $poly_conn
8 *18:d *39:11 75.210495  // $metal1_conn
9 *39:11 *40:d 62.28973  // $metal1_conn
10 *39:11 *39:6 45.570389  // $metal1_conn

*END

*D_NET *35 3.54986e-16

*CONN
*I *11:d B *C 4.5250 0.3925 
*I *12:d B *C 4.5250 0.3925 
*I *22:g B *C 4.0875 0.3925 
*I *23:d B *C 4.7400 1.0550 
*I *24:d B *C 4.7400 1.0550 
*I *64:g B *C 4.0875 1.0550 
*N *35:2 *C 4.1250 0.5950 
*N *35:5 *C 4.5250 0.5100 

*CAP
0 *64:g 6.03994e-17
1 *23:d 8.97015e-17
2 *22:g 2.60417e-17
3 *11:d 1.54851e-17
4 *35:5 7.15125e-17
5 *35:2 9.18461e-17

*RES
0 *64:g *35:2 68.719322  // $poly_conn
1 *35:2 *22:g 16.15522  // $poly_conn
2 *23:d *35:5 62.48251  // $metal1_conn
3 *35:5 *35:2 45.345268  // $metal1_conn
4 *35:5 *11:d 75.036201  // $metal1_conn

*END

*D_NET *13 3.80727e-16

*CONN
*I *21:s B *C 3.8000 0.3925 
*I *22:d B *C 3.8000 0.3925 
*I *25:g B *C 4.2925 0.3925 
*I *58:g B *C 4.3525 1.0550 
*I *53:s B *C 3.8475 1.0550 
*I *64:d B *C 3.8475 1.0550 
*N *13:2 *C 4.2650 0.7850 
*N *13:4 *C 3.7100 0.7850 

*CAP
0 *53:s 5.1155e-17
1 *58:g 5.35144e-17
2 *25:g 6.57627e-17
3 *21:s 2.63852e-17
4 *13:4 6.6162e-17
5 *13:2 1.17748e-16

*RES
0 *58:g *13:2 25.02058  // $poly_conn
1 *13:2 *25:g 62.683887  // $poly_conn
2 *13:2 *13:4 45.395878  // $metal1_conn
3 *13:4 *21:s 75.262932  // $metal1_conn
4 *13:4 *53:s 62.138943  // $metal1_conn

*END

