*SPEF "IEEE 1481-1999"
*DESIGN  "SEDFFXL"
*DATE "Mon Sep 27 11:17:47 2010"
*VENDOR "Cadence Design Systems"
*PROGRAM "Assura RCX"
*VERSION "3.2 Red Hat Linux release 7.2 (Enigma) - (09/09/2009-10:39)"
*DESIGN_FLOW "Physical Verification"
*DIVIDER /
*DELIMITER :
*BUS_DELIMITER []
*T_UNIT 1 PS
*C_UNIT 1e15 FF
*R_UNIT 1 OHM
*L_UNIT 1 MH
// DeviceFingerDelim "@"
// MATCHED
// caps2d version: 10

*NAME_MAP
*1 CK
*2 VDD
*3 mn21
*4 mn20
*5 mn0
*6 mn3
*7 mn4
*8 mn2
*9 mn1
*10 mn57
*11 mn56
*12 mn10
*13 QN
*14 mn11
*15 n20
*16 mn13
*17 mout
*18 mn12
*19 CKbb
*20 CKb
*21 n30
*22 Dbp
*23 SEb
*24 net536
*25 net502
*26 Db
*27 mp21
*28 Eb
*29 mp20
*30 net473
*31 SE
*32 mp0
*33 net425
*34 mp3
*35 net465
*36 mp4
*37 net457
*38 mp2
*39 net437
*40 SI
*41 mp1
*42 net554
*43 D
*44 mp57
*45 net514
*46 E
*47 mp56
*48 net546
*49 mp10
*50 net534
*51 mp11
*52 net526
*53 VSS
*54 mp13
*55 mn55
*56 mp12
*57 mn45
*58 Q
*59 mp55
*60 mn50
*61 mp45
*62 mn51
*63 mp50
*64 mn40
*65 mp51
*66 mn30
*67 mp40
*68 mn35
*69 mp30
*70 mn36
*71 mp35
*72 mn25
*73 mp36
*74 mp25

*GROUND_NETS VSS

*PORTS
*2 I
*53 I
*1 I
*43 I
*46 I
*31 I
*40 I
*58 O
*13 O

*D_NET *2 9.13329e-16

*CONN
*P *2 I *C 0.1000 1.7100 
*I *59:s B *C 3.6975 1.1525 
*I *61:s B *C 4.4600 1.0675 
*I *63:s B *C 4.4600 1.0675 
*I *69:s B *C 5.6600 1.0675 
*I *71:s B *C 5.6600 1.0675 
*I *27:s B *C 6.8700 1.1425 
*I *29:s B *C 6.8700 1.1425 
*I *32:s B *C 0.5700 1.1975 
*I *34:s B *C 0.5700 1.1975 
*I *41:s B *C 1.6050 1.5700 
*I *44:s B *C 1.6050 1.5700 
*I *47:s B *C 2.5300 1.0225 
*I *49:s B *C 2.5300 1.0225 
*I *56:s B *C 3.6975 1.1525 
*N *2:2 *C 5.5750 1.7100 
*N *2:3 *C 4.4600 1.7100 
*N *2:4 *C 3.6000 1.7100 
*N *2:5 *C 3.6000 1.7100 
*N *2:6 *C 2.4450 1.7100 
*N *2:7 *C 1.5800 1.7100 
*N *2:8 *C 1.2000 1.7100 
*N *2:9 *C 0.5400 1.7100 
*N *2:10 *C 6.0000 1.7100 

*CAP
0 *47:s 1.43676e-17
1 *41:s 1.14138e-17
2 *32:s 3.86139e-17
3 *27:s 5.2435e-17
4 *69:s 1.79073e-17
5 *61:s 5.48219e-17
6 *59:s 2.87518e-17
7 *2:9 1.14628e-17
8 *2:7 2.2949e-17
9 *2:6 4.21838e-17
10 *2:3 3.51454e-17
11 *2:2 3.28142e-17
12 *2:4 5.43609e-16
13 *2 6.85411e-18

*RES
0 *69:s *2:2 62.047024  // $metal1_conn
1 *2:2 *2:3 0.555505  // $metal1_conn
2 *2:3 *2:5 0.431151  // $metal1_conn
3 *2:5 *2:6 0.578164  // $metal1_conn
4 *2:6 *2:7 0.432513  // $metal1_conn
5 *2:7 *2:8 0.190399  // $metal1_conn
6 *2:8 *2:9 0.330838  // $metal1_conn
7 *2:9 *2 0.220242  // $metal1_conn
8 *2:2 *2:10 0.20962  // $metal1_conn
9 *2:10 *27:s 62.578979  // $metal1_conn
10 *2:3 *61:s 62.399204  // $metal1_conn
11 *2:5 *59:s 62.104908  // $metal1_conn
12 *2:6 *47:s 62.045826  // $metal1_conn
13 *2:7 *41:s 62.07473  // $metal1_conn
14 *2:9 *32:s 62.288231  // $metal1_conn
15 *2:4 *2:5 6.25  // $metal1_conn
16 *2:4 *2:8 6.25  // $metal1_conn
17 *2:4 *2:10 6.25  // $metal1_conn

*END

*D_NET *53 0

*CONN
*P *53 I *C 0.1000 0.0000 
*I *55:s B *C 3.6125 0.4225 
*I *57:s B *C 4.6250 0.5275 
*I *60:s B *C 4.6250 0.5275 
*I *66:s B *C 5.7150 0.5275 
*I *68:s B *C 5.7150 0.5275 
*I *3:s B *C 6.8000 0.4825 
*I *4:s B *C 6.8000 0.4825 
*I *5:s B *C 0.5600 0.5275 
*I *6:s B *C 0.5600 0.5275 
*I *9:s B *C 1.4250 0.5275 
*I *10:s B *C 1.4250 0.5275 
*I *11:s B *C 2.4150 0.5875 
*I *12:s B *C 2.4150 0.5875 
*I *18:s B *C 3.6125 0.4225 
*N *53:2 *C 6.0000 0.0000 
*N *53:3 *C 6.0000 0.0000 
*N *53:4 *C 5.6600 0.0000 
*N *53:5 *C 4.5700 0.0000 
*N *53:6 *C 3.6000 0.0000 
*N *53:7 *C 2.4150 0.0000 
*N *53:8 *C 1.3400 0.0000 
*N *53:9 *C 1.2000 0.0000 
*N *53:10 *C 0.4100 0.0000 


*RES
0 *3:s *53:3 75.744019  // $metal1_conn
1 *53:3 *53:4 0.170337  // $metal1_conn
2 *53:4 *53:5 0.546315  // $metal1_conn
3 *53:5 *53:6 0.486324  // $metal1_conn
4 *53:6 *53:7 0.59416  // $metal1_conn
5 *53:7 *53:8 0.538792  // $metal1_conn
6 *53:8 *53:9 0.070023  // $metal1_conn
7 *53:9 *53:10 0.396042  // $metal1_conn
8 *53:10 *53 0.155039  // $metal1_conn
9 *53:4 *66:s 75.117203  // $metal1_conn
10 *53:5 *57:s 75.117203  // $metal1_conn
11 *53:6 *55:s 75.29052  // $metal1_conn
12 *53:7 *11:s 75.389923  // $metal1_conn
13 *53:8 *9:s 75.07473  // $metal1_conn
14 *53:10 *5:s 75.305687  // $metal1_conn
15 *53:2 *53:3 5.166667  // $metal1_conn
16 *53:2 *53:6 5.166667  // $metal1_conn
17 *53:2 *53:9 5.166667  // $metal1_conn

*END

*D_NET *1 1.94025e-16

*CONN
*P *1 I *C 6.9000 0.8550 
*I *4:g B *C 6.9175 0.4825 
*I *29:g B *C 6.9175 1.1425 
*N *1:2 *C 6.8900 0.8500 

*CAP
0 *29:g 3.12067e-17
1 *4:g 3.56812e-17
2 *1:2 1.27137e-16

*RES
0 *29:g *1:2 38.922722  // $poly_conn
1 *1:2 *4:g 67.127846  // $poly_conn
2 *1 *1:2 45.00248  // $metal1_conn

*END

*D_NET *43 2.33155e-16

*CONN
*P *43 I *C 0.5000 0.8550 
*I *6:g B *C 0.6725 0.5275 
*I *34:g B *C 0.6725 1.1975 
*N *43:2 *C 0.6450 0.8350 
*N *43:4 *C 0.5005 0.8450 
*N *43:5 *C 0.6450 0.8350 
*N *43:6 *C 0.6450 0.8450 

*CAP
0 *34:g 3.91992e-17
1 *6:g 4.39325e-17
2 *43:6 4.22341e-17
3 *43:4 5.99554e-17
4 *43:2 4.78337e-17

*RES
0 *34:g *43:2 56.871437  // $poly_conn
1 *43:2 *6:g 51.743237  // $poly_conn
2 *43:4 *43 0.00236  // $metal1_conn
3 *43:5 *43:6 0.00236  // $metal1_conn
4 *43:4 *43:6 0.055973  // $metal1_conn
5 *43:2 *43:5 45  // $metal1_conn

*END

*D_NET *46 6.27764e-16

*CONN
*P *46 I *C 0.7000 0.6650 
*I *5:g B *C 0.2775 0.5275 
*I *7:g B *C 0.8075 0.5275 
*I *32:g B *C 0.4675 1.1975 
*I *38:g B *C 1.3425 1.1975 
*N *46:2 *C 0.3050 0.7100 
*N *46:5 *C 0.8350 0.7100 
*N *46:7 *C 1.3150 0.8700 
*N *46:8 *C 0.7350 0.6650 

*CAP
0 *38:g 5.51971e-17
1 *32:g 4.68613e-17
2 *7:g 5.16728e-17
3 *5:g 2.17432e-17
4 *46:8 9.67814e-17
5 *46:2 9.35982e-17
6 *46:5 4.67283e-17
7 *46:7 1.81351e-16
8 *46 3.3831e-17

*RES
0 *32:g *46:2 114.087364  // $poly_conn
1 *46:2 *5:g 16.530039  // $poly_conn
2 *7:g *46:5 64.691956  // $poly_conn
3 *38:g *46:7 92.897079  // $poly_conn
4 *46:7 *46:8 1.009995  // $metal1_conn
5 *46:8 *46 0.024298  // $metal1_conn
6 *46 *46:2 45.283344  // $metal1_conn
7 *46:8 *46:5 0.070933  // $metal1_conn

*END

*D_NET *31 3.50338e-16

*CONN
*P *31 I *C 2.3000 0.8550 
*I *12:g B *C 2.5175 0.5875 
*I *16:g B *C 3.2425 0.4225 
*I *49:g B *C 2.5775 1.0225 
*I *51:g B *C 3.0525 1.1525 
*N *31:2 *C 3.0525 0.8375 
*N *31:3 *C 2.5775 0.8375 
*N *31:4 *C 2.4900 0.8100 

*CAP
0 *51:g 3.1261e-17
1 *49:g 3.13146e-17
2 *16:g 5.54603e-17
3 *12:g 2.46588e-17
4 *31:3 1.62752e-17
5 *31:2 6.46124e-17
6 *31:4 6.08226e-17
7 *31 6.59326e-17

*RES
0 *16:g *31:2 117.644409  // $poly_conn
1 *31:2 *31:3 119.490868  // $poly_conn
2 *31:3 *31:4 9.608804  // $poly_conn
3 *31:2 *51:g 48.505615  // $poly_conn
4 *31:3 *49:g 15.172279  // $poly_conn
5 *31:4 *12:g 28.975733  // $poly_conn
6 *31:4 *31 45.098629  // $metal1_conn

*END

*D_NET *40 2.45595e-16

*CONN
*P *40 I *C 3.5000 0.6650 
*I *18:g B *C 3.4525 0.4225 
*I *56:g B *C 3.4525 1.1525 
*N *40:2 *C 3.4900 0.6300 
*N *40:4 *C 3.4900 0.6300 

*CAP
0 *56:g 7.20861e-17
1 *18:g 2.4088e-17
2 *40:4 2.40828e-17
3 *40:2 4.29355e-17
4 *40 8.24027e-17

*RES
0 *56:g *40:2 96.924454  // $poly_conn
1 *40:2 *18:g 25.129578  // $poly_conn
2 *40:4 *40 0.021798  // $metal1_conn
3 *40:2 *40:4 45  // $metal1_conn

*END

*D_NET *58 1.81376e-16

*CONN
*P *58 O *C 3.9000 0.6650 
*I *55:d B *C 3.8650 0.4225 
*I *59:d B *C 3.8875 1.1525 

*CAP
0 *59:d 6.869e-17
1 *55:d 5.74556e-17
2 *58 5.52304e-17

*RES
0 *58 *55:d 75.140747  // $metal1_conn
1 *58 *59:d 62.263905  // $metal1_conn

*END

*D_NET *13 1.53052e-16

*CONN
*P *13 O *C 1.7000 0.6650 
*I *10:d B *C 1.6075 0.5275 
*I *44:d B *C 1.7350 1.1975 

*CAP
0 *44:d 5.61653e-17
1 *10:d 4.92182e-17
2 *13 4.76683e-17

*RES
0 *44:d *13 62.285671  // $metal1_conn
1 *13 *10:d 75.072563  // $metal1_conn

*END

*D_NET *52 9.1449e-19

*CONN
*I *68:d B *C 5.8650 0.5275 
*I *70:s B *C 5.8650 0.5275 

*CAP
0 *68:d 9.1449e-19

*RES
0 *70:s *68:d 0.001  // $mwires

*END

*D_NET *50 3.05409e-18

*CONN
*I *60:d B *C 4.7975 0.5275 
*I *62:s B *C 4.7975 0.5275 

*CAP
0 *60:d 3.05409e-18

*RES
0 *62:s *60:d 0.001  // $mwires

*END

*D_NET *48 1.52006e-18

*CONN
*I *16:s B *C 3.3475 0.4225 
*I *18:d B *C 3.3475 0.4225 

*CAP
0 *16:s 1.52006e-18

*RES
0 *18:d *16:s 0.001  // $mwires

*END

*D_NET *45 3.10312e-18

*CONN
*I *8:s B *C 1.1175 0.5275 
*I *9:d B *C 1.1175 0.5275 

*CAP
0 *8:s 3.10312e-18

*RES
0 *9:d *8:s 0.001  // $mwires

*END

*D_NET *42 1.40406e-18

*CONN
*I *6:d B *C 0.7400 0.5275 
*I *7:s B *C 0.7400 0.5275 

*CAP
0 *6:d 1.40406e-18

*RES
0 *7:s *6:d 0.001  // $mwires

*END

*D_NET *39 7.04986e-19

*CONN
*I *71:d B *C 5.7600 1.0675 
*I *73:s B *C 5.7600 1.0675 

*CAP
0 *71:d 7.04986e-19

*RES
0 *73:s *71:d 0.001  // $mwires

*END

*D_NET *37 2.27913e-18

*CONN
*I *63:d B *C 4.6475 1.0675 
*I *65:s B *C 4.6475 1.0675 

*CAP
0 *63:d 2.27913e-18

*RES
0 *65:s *63:d 0.001  // $mwires

*END

*D_NET *35 3.47598e-18

*CONN
*I *54:s B *C 3.3900 1.1525 
*I *56:d B *C 3.3900 1.1525 

*CAP
0 *54:s 3.47598e-18

*RES
0 *56:d *54:s 0.001  // $mwires

*END

*D_NET *33 9.07624e-19

*CONN
*I *38:s B *C 1.3950 1.1975 
*I *41:d B *C 1.3950 1.1975 

*CAP
0 *38:s 9.07624e-19

*RES
0 *41:d *38:s 0.001  // $mwires

*END

*D_NET *30 7.19064e-18

*CONN
*I *34:d B *C 0.8500 1.1975 
*I *36:s B *C 0.8500 1.1975 

*CAP
0 *34:d 7.19064e-18

*RES
0 *36:s *34:d 0.001  // $mwires

*END

*D_NET *28 3.57594e-16

*CONN
*I *5:d B *C 0.1800 0.5275 
*I *8:g B *C 1.0275 0.5275 
*I *32:d B *C 0.3750 1.1975 
*I *36:g B *C 1.0275 1.1975 
*N *28:2 *C 0.9950 0.9800 
*N *28:4 *C 0.3650 1.0850 

*CAP
0 *36:g 2.21265e-17
1 *32:d 6.50703e-18
2 *8:g 5.52834e-17
3 *5:d 6.17878e-17
4 *28:4 1.09801e-16
5 *28:2 1.02088e-16

*RES
0 *36:g *28:2 17.398676  // $poly_conn
1 *28:2 *8:g 86.629448  // $poly_conn
2 *28:2 *28:4 45.535973  // $metal1_conn
3 *28:4 *5:d 75.557152  // $metal1_conn
4 *28:4 *32:d 62.029465  // $metal1_conn

*END

*D_NET *26 6.44457e-16

*CONN
*I *7:d B *C 0.9175 0.5275 
*I *8:d B *C 0.9175 0.5275 
*I *14:d B *C 2.9300 0.4225 
*I *36:d B *C 1.1850 1.1975 
*I *38:d B *C 1.1850 1.1975 
*I *51:s B *C 2.9600 1.1525 
*N *26:3 *C 2.9500 1.1050 
*N *26:5 *C 1.1550 1.2450 

*CAP
0 *51:s 2.48014e-16
1 *36:d 2.01245e-16
2 *14:d 8.64758e-17
3 *7:d 1.08722e-16

*RES
0 *14:d *26:3 75.444054  // $metal1_conn
1 *26:3 *26:5 1.47306  // $metal1_conn
2 *26:5 *7:d 75.682205  // $metal1_conn
3 *51:s *26:3 62  // $metal1_conn
4 *36:d *26:5 62  // $metal1_conn

*END

*D_NET *25 4.65255e-16

*CONN
*I *9:g B *C 1.2075 0.5275 
*I *10:g B *C 1.4725 0.5275 
*I *11:d B *C 2.1800 0.5875 
*I *41:g B *C 1.4475 1.1975 
*I *44:g B *C 1.6425 1.1975 
*I *47:d B *C 2.1650 1.0225 
*N *25:2 *C 1.5000 0.7250 
*N *25:3 *C 1.4375 0.7250 
*N *25:9 *C 2.1300 0.5750 

*CAP
0 *47:d 6.86988e-17
1 *44:g 2.63756e-17
2 *41:g 6.1968e-17
3 *11:d 1.06416e-16
4 *10:g 1.31582e-17
5 *9:g 3.79277e-17
6 *25:3 4.66072e-17
7 *25:2 1.04104e-16

*RES
0 *44:g *25:2 105.487831  // $poly_conn
1 *25:2 *25:3 3.898696  // $poly_conn
2 *25:3 *9:g 79.845116  // $poly_conn
3 *25:2 *10:g 25.200842  // $poly_conn
4 *25:3 *41:g 86.975708  // $poly_conn
5 *47:d *25:9 62.279213  // $metal1_conn
6 *25:9 *25:2 45.865219  // $metal1_conn
7 *11:d *25:9 75  // $metal1_conn

*END

*D_NET *24 8.76661e-16

*CONN
*I *55:g B *C 3.7725 0.4225 
*I *57:d B *C 4.2175 0.5275 
*I *60:g B *C 4.6725 0.5275 
*I *11:g B *C 2.3125 0.5875 
*I *59:g B *C 3.7725 1.1525 
*I *61:d B *C 4.2650 1.0675 
*I *63:g B *C 4.5625 1.0675 
*I *47:g B *C 2.3125 1.0225 
*N *24:2 *C 2.2850 1.2950 
*N *24:6 *C 3.8100 1.3600 
*N *24:8 *C 4.5725 0.7275 
*N *24:9 *C 4.5000 0.7000 
*N *24:11 *C 4.1300 0.7000 
*N *24:13 *C 4.2550 1.0500 

*CAP
0 *47:g 4.49017e-17
1 *63:g 4.88081e-17
2 *61:d 8.62551e-17
3 *59:g 3.18878e-17
4 *11:g 3.37766e-17
5 *60:g 3.43478e-17
6 *57:d 3.17226e-17
7 *55:g 4.222e-17
8 *24:11 4.32476e-17
9 *24:2 1.78257e-16
10 *24:6 1.98785e-16
11 *24:9 1.02451e-16

*RES
0 *47:g *24:2 78.794518  // $poly_conn
1 *47:g *11:g 65.384613  // $poly_conn
2 *59:g *55:g 141.025635  // $poly_conn
3 *59:g *24:6 61.15522  // $poly_conn
4 *60:g *24:8 51.836048  // $poly_conn
5 *24:8 *24:9 54.557125  // $poly_conn
6 *24:8 *63:g 58.54892  // $poly_conn
7 *24:9 *24:11 0.256837  // $metal1_conn
8 *24:11 *24:13 0.32774  // $metal1_conn
9 *24:13 *24:6 0.528231  // $metal1_conn
10 *24:6 *24:2 1.160842  // $metal1_conn
11 *24:11 *57:d 75.110825  // $metal1_conn
12 *61:d *24:13 62  // $metal1_conn

*END

*D_NET *23 5.43344e-16

*CONN
*I *12:d B *C 2.6100 0.5875 
*I *14:g B *C 3.0225 0.4225 
*I *49:d B *C 2.6700 1.0225 
*I *54:g B *C 3.3275 1.1525 
*N *23:2 *C 3.0500 0.2000 
*N *23:4 *C 3.3000 0.8250 
*N *23:5 *C 3.0500 0.2750 
*N *23:7 *C 2.6200 0.5750 

*CAP
0 *54:g 5.16785e-17
1 *49:d 5.58789e-17
2 *14:g 4.62063e-17
3 *12:d 8.67084e-17
4 *23:5 1.17279e-16
5 *23:2 5.2061e-17
6 *23:4 1.33531e-16

*RES
0 *14:g *23:2 74.948364  // $poly_conn
1 *54:g *23:4 92.897079  // $poly_conn
2 *23:4 *23:5 0.639368  // $metal1_conn
3 *23:5 *23:7 0.547003  // $metal1_conn
4 *23:5 *23:2 0.022567  // $metal1_conn
5 *23:7 *49:d 62.263721  // $metal1_conn
6 *12:d *23:7 75  // $metal1_conn

*END

*D_NET *22 1.01169e-15

*CONN
*I *72:d B *C 6.2650 0.5275 
*I *14:s B *C 3.1325 0.4225 
*I *16:d B *C 3.1325 0.4225 
*I *74:s B *C 6.2025 1.0675 
*I *51:d B *C 3.1900 1.1525 
*I *54:d B *C 3.1900 1.1525 
*N *22:3 *C 6.2750 0.5150 
*N *22:5 *C 3.1550 1.2000 

*CAP
0 *51:d 4.6328e-16
1 *74:s 6.79738e-17
2 *14:s 1.03441e-16
3 *72:d 3.76992e-16

*RES
0 *74:s *22:3 62.355659  // $metal1_conn
1 *22:3 *22:5 3.146509  // $metal1_conn
2 *22:5 *14:s 75.534508  // $metal1_conn
3 *72:d *22:3 75  // $metal1_conn
4 *51:d *22:5 62  // $metal1_conn

*END

*D_NET *21 3.24086e-16

*CONN
*I *57:g B *C 4.3575 0.5275 
*I *62:d B *C 5.0250 0.5275 
*I *64:s B *C 5.0250 0.5275 
*I *61:g B *C 4.3575 1.0675 
*I *65:d B *C 4.8775 1.0675 
*I *67:d B *C 4.8775 1.0675 
*N *21:2 *C 4.3200 0.8600 
*N *21:5 *C 4.6900 0.8600 

*CAP
0 *65:d 3.06875e-17
1 *61:g 2.47704e-17
2 *62:d 7.30279e-17
3 *57:g 4.41048e-17
4 *21:5 6.7455e-17
5 *21:2 8.40404e-17

*RES
0 *61:g *21:2 16.15522  // $poly_conn
1 *21:2 *57:g 57.180859  // $poly_conn
2 *62:d *21:5 75.468407  // $metal1_conn
3 *21:5 *21:2 45.255749  // $metal1_conn
4 *21:5 *65:d 62.212982  // $metal1_conn

*END

*D_NET *20 8.81955e-16

*CONN
*I *62:g B *C 4.9225 0.5275 
*I *72:g B *C 6.1725 0.5275 
*I *3:g B *C 6.6825 0.4825 
*I *4:d B *C 7.0100 0.4825 
*I *67:g B *C 5.0225 1.0675 
*I *73:g B *C 5.8125 1.0675 
*I *27:g B *C 6.6525 1.1425 
*I *29:d B *C 7.0100 1.1425 
*N *20:1 *C 4.9950 1.3400 
*N *20:5 *C 5.8400 1.3700 
*N *20:7 *C 6.7100 0.6900 
*N *20:11 *C 6.7100 1.1900 
*N *20:12 *C 6.7100 0.6900 

*CAP
0 *29:d 2.49982e-17
1 *27:g 3.33385e-17
2 *73:g 6.6852e-17
3 *67:g 5.2506e-17
4 *4:d 5.30862e-17
5 *3:g 2.16193e-17
6 *72:g 4.50187e-17
7 *62:g 6.72982e-17
8 *20:11 1.42412e-16
9 *20:1 1.01225e-16
10 *20:5 1.64903e-16
11 *20:7 1.08698e-16

*RES
0 *20:1 *67:g 78.79451  // $poly_conn
1 *67:g *62:g 106.120689  // $poly_conn
2 *73:g *20:5 86.486824  // $poly_conn
3 *3:g *20:7 23.539934  // $poly_conn
4 *20:7 *72:g 144.890488  // $poly_conn
5 *20:7 *27:g 77.286232  // $poly_conn
6 *29:d *20:11 62.200405  // $metal1_conn
7 *20:11 *20:5 0.749416  // $metal1_conn
8 *20:5 *20:1 0.630389  // $metal1_conn
9 *20:11 *20:12 0.362426  // $metal1_conn
10 *20:12 *4:d 75.296715  // $metal1_conn
11 *20:7 *20:12 45  // $metal1_conn

*END

*D_NET *19 8.08313e-16

*CONN
*I *64:g B *C 5.1275 0.5275 
*I *70:g B *C 5.9675 0.5275 
*I *3:d B *C 6.5750 0.4825 
*I *65:g B *C 4.7325 1.0675 
*I *74:g B *C 6.0475 1.0675 
*I *27:d B *C 6.5600 1.1425 
*N *19:1 *C 4.8800 0.8600 
*N *19:4 *C 5.1650 0.8600 
*N *19:6 *C 6.0850 0.8600 
*N *19:9 *C 6.5500 1.0950 
*N *19:10 *C 6.1150 1.1650 

*CAP
0 *27:d 1.02412e-16
1 *74:g 2.51677e-17
2 *65:g 5.11309e-17
3 *3:d 6.62719e-17
4 *70:g 4.23646e-17
5 *64:g 4.28735e-17
6 *19:10 1.55516e-16
7 *19:1 6.42103e-17
8 *19:4 1.70914e-16
9 *19:6 8.74519e-17

*RES
0 *19:1 *65:g 78.556  // $poly_conn
1 *64:g *19:4 102.180862  // $poly_conn
2 *74:g *19:6 16.15522  // $poly_conn
3 *19:6 *70:g 65.865654  // $poly_conn
4 *19:9 *19:10 0.398898  // $metal1_conn
5 *19:10 *19:4 0.974995  // $metal1_conn
6 *19:4 *19:1 0.191567  // $metal1_conn
7 *19:9 *3:d 75.400955  // $metal1_conn
8 *19:10 *19:6 45.234898  // $metal1_conn
9 *27:d *19:9 62  // $metal1_conn

*END

*D_NET *17 3.44067e-16

*CONN
*I *64:d B *C 5.3125 0.5275 
*I *66:d B *C 5.3125 0.5275 
*I *68:g B *C 5.7625 0.5275 
*I *67:s B *C 5.2325 1.0675 
*I *69:d B *C 5.2325 1.0675 
*I *71:g B *C 5.7075 1.0675 
*N *17:2 *C 5.7350 0.7100 
*N *17:5 *C 5.3550 0.6750 

*CAP
0 *71:g 7.79031e-17
1 *67:s 5.63083e-17
2 *68:g 3.26574e-17
3 *64:d 4.58493e-17
4 *17:5 4.14482e-17
5 *17:2 8.99003e-17

*RES
0 *68:g *17:2 19.691952  // $poly_conn
1 *17:2 *71:g 55.58939  // $poly_conn
2 *67:s *17:5 62.246956  // $metal1_conn
3 *17:5 *64:d 75.173996  // $metal1_conn
4 *17:5 *17:2 45.250946  // $metal1_conn

*END

*D_NET *15 3.23072e-16

*CONN
*I *66:g B *C 5.4975 0.5275 
*I *70:d B *C 6.0700 0.5275 
*I *72:s B *C 6.0700 0.5275 
*I *69:g B *C 5.4425 1.0675 
*I *73:d B *C 5.9300 1.0675 
*I *74:d B *C 5.9300 1.0675 
*N *15:2 *C 5.5450 0.8350 
*N *15:5 *C 5.8950 0.9000 

*CAP
0 *73:d 3.53563e-17
1 *69:g 3.54763e-17
2 *70:d 6.58795e-17
3 *66:g 3.62516e-17
4 *15:5 5.53301e-17
5 *15:2 9.47777e-17

*RES
0 *66:g *15:2 50.770603  // $poly_conn
1 *15:2 *69:g 32.754025  // $poly_conn
2 *70:d *15:5 75.379303  // $metal1_conn
3 *15:5 *15:2 45.247902  // $metal1_conn
4 *15:5 *73:d 62.09177  // $metal1_conn

*END

