*SPEF "IEEE 1481-1999"
*DESIGN  "SEDFFHQX4"
*DATE "Mon Sep 27 11:14:21 2010"
*VENDOR "Cadence Design Systems"
*PROGRAM "Assura RCX"
*VERSION "3.2 Red Hat Linux release 7.2 (Enigma) - (09/09/2009-10:39)"
*DESIGN_FLOW "Physical Verification"
*DIVIDER /
*DELIMITER :
*BUS_DELIMITER []
*T_UNIT 1 PS
*C_UNIT 1e15 FF
*R_UNIT 1 OHM
*L_UNIT 1 MH
// DeviceFingerDelim "@"
// MATCHED
// caps2d version: 10

*NAME_MAP
*1 mn55\@1
*2 net426
*3 net417
*4 net441
*5 net405
*6 net449
*7 net509
*8 net501
*9 net518
*10 mn55\@2
*11 net494
*12 mn55\@3
*13 net526
*14 mn45
*15 mn45\@1
*16 mn50
*17 mn51
*18 mp3
*19 mp0
*20 mp30
*21 mp35
*22 mp36
*23 mp25
*24 mp21
*25 mp40
*26 mp55
*27 mp55\@1
*28 mp55\@2
*29 mp55\@3
*30 VDD
*31 mp45
*32 mp45\@1
*33 mp50
*34 mp51
*35 Eb
*36 mn56
*37 mn20
*38 mp56
*39 mn12
*40 mp20
*41 mn13
*42 VSS
*43 mp12
*44 mn11
*45 mp13
*46 mn10
*47 mp11
*48 mn1
*49 mp10
*50 mn2
*51 mp1
*52 mn4
*53 mp2
*54 mp4
*55 D
*56 E
*57 CK
*58 Q
*59 SE
*60 SI
*61 SEb
*62 Db
*63 qint
*64 CKb
*65 Dbp
*66 mout
*67 n20
*68 Ckbb
*69 mn3
*70 n30
*71 mn0
*72 qbint
*73 mn40
*74 mn30
*75 mn35
*76 mn36
*77 mn25
*78 mn21
*79 mn55

*GROUND_NETS VSS

*PORTS
*30 I
*42 I
*57 I
*55 I
*56 I
*59 I
*60 I
*58 O

*D_NET *30 1.15347e-15

*CONN
*P *30 I *C 0.1000 1.7100 
*I *38:s B *C 4.0525 1.0950 
*I *40:s B *C 5.3750 1.2350 
*I *43:s B *C 5.3750 1.2350 
*I *49:s B *C 6.8200 1.1650 
*I *51:s B *C 6.8200 1.1650 
*I *18:s B *C 7.7700 1.0775 
*I *19:s B *C 7.7700 1.0775 
*I *20:s B *C 2.6275 1.1950 
*I *21:s B *C 2.6275 1.1950 
*I *24:s B *C 4.0525 1.0950 
*I *26:s B *C 0.1100 1.1550 
*I *27:s B *C 0.5100 1.1550 
*I *28:s B *C 0.5100 1.1550 
*I *29:s B *C 0.9900 1.1950 
*I *31:s B *C 0.9900 1.1950 
*I *32:s B *C 1.4850 1.1950 
*I *33:s B *C 1.4850 1.1950 
*N *30:2 *C 7.2000 1.7100 
*N *30:3 *C 7.2000 1.7100 
*N *30:4 *C 6.7900 1.7100 
*N *30:5 *C 5.2900 1.7100 
*N *30:6 *C 5.2000 1.7100 
*N *30:7 *C 3.9850 1.7100 
*N *30:8 *C 3.2000 1.7100 
*N *30:9 *C 2.7000 1.7100 

*CAP
0 *20:s 4.6924e-17
1 *18:s 3.63493e-17
2 *49:s 4.01218e-17
3 *40:s 1.67428e-17
4 *38:s 6.05022e-17
5 *30:9 3.8417e-17
6 *30:7 4.60456e-17
7 *30:5 3.1893e-17
8 *30:4 3.45771e-17
9 *30:2 5.23032e-16
10 *30 2.7887e-16

*RES
0 *30:2 *30:3 7.5  // $metal1_conn
1 *30:2 *30:6 7.5  // $metal1_conn
2 *30:2 *30:8 7.5  // $metal1_conn
3 *30:2 *30 6.818182  // $metal1_conn
4 *18:s *30:3 62.493866  // $metal1_conn
5 *30:4 *49:s 62.256302  // $metal1_conn
6 *30:5 *40:s 62.074837  // $metal1_conn
7 *30:7 *38:s 62.274143  // $metal1_conn
8 *30:9 *20:s 62.266083  // $metal1_conn
9 *30:3 *30:4 0.205481  // $metal1_conn
10 *30:4 *30:5 0.752084  // $metal1_conn
11 *30:5 *30:6 0.044945  // $metal1_conn
12 *30:6 *30:7 0.609309  // $metal1_conn
13 *30:7 *30:8 0.3936  // $metal1_conn
14 *30:8 *30:9 0.250629  // $metal1_conn
15 *30:9 *30 0.651753  // $metal1_conn

*END

*D_NET *42 0

*CONN
*P *42 I *C 0.1000 0.0000 
*I *36:s B *C 4.0400 0.5300 
*I *37:s B *C 5.3500 0.4900 
*I *39:s B *C 5.3500 0.4900 
*I *46:s B *C 6.7650 0.4450 
*I *48:s B *C 6.7650 0.4450 
*I *69:s B *C 7.7775 0.4775 
*I *71:s B *C 7.7775 0.4775 
*I *74:s B *C 2.6275 0.5025 
*I *75:s B *C 2.6275 0.5025 
*I *78:s B *C 4.0400 0.5300 
*I *79:s B *C 0.1100 0.5300 
*I *1:s B *C 0.5100 0.5300 
*I *10:s B *C 0.5100 0.5300 
*I *12:s B *C 0.9900 0.5025 
*I *14:s B *C 0.9900 0.5025 
*I *15:s B *C 1.4000 0.5025 
*I *16:s B *C 1.4000 0.5025 
*N *42:2 *C 7.2000 0.0000 
*N *42:3 *C 7.2000 0.0000 
*N *42:4 *C 6.7200 0.0000 
*N *42:5 *C 5.3100 0.0000 
*N *42:6 *C 5.2000 0.0000 
*N *42:7 *C 4.0100 0.0000 
*N *42:8 *C 3.2000 0.0000 
*N *42:9 *C 2.7100 0.0000 


*RES
0 *42:2 *42:3 6.2  // $metal1_conn
1 *42:2 *42:6 6.2  // $metal1_conn
2 *42:2 *42:8 6.2  // $metal1_conn
3 *42:2 *42 5.636364  // $metal1_conn
4 *69:s *42:3 75.53067  // $metal1_conn
5 *42:4 *46:s 75.239166  // $metal1_conn
6 *42:5 *37:s 75.266708  // $metal1_conn
7 *42:7 *36:s 75.300323  // $metal1_conn
8 *42:9 *74:s 75.297844  // $metal1_conn
9 *42:3 *42:4 0.240596  // $metal1_conn
10 *42:4 *42:5 0.706935  // $metal1_conn
11 *42:5 *42:6 0.054985  // $metal1_conn
12 *42:6 *42:7 0.596768  // $metal1_conn
13 *42:7 *42:8 0.406141  // $metal1_conn
14 *42:8 *42:9 0.245613  // $metal1_conn
15 *42:9 *42 0.671819  // $metal1_conn

*END

*D_NET *57 2.05722e-16

*CONN
*P *57 I *C 4.9000 0.8550 
*I *37:g B *C 5.1025 0.5475 
*I *40:g B *C 5.1575 1.1475 
*N *57:2 *C 5.1300 0.8350 

*CAP
0 *40:g 2.47127e-17
1 *37:g 3.84262e-17
2 *57:2 1.00824e-16
3 *57 4.17593e-17

*RES
0 *40:g *57:2 44.050922  // $poly_conn
1 *57:2 *37:g 46.615028  // $poly_conn
2 *57 *57:2 45.102341  // $metal1_conn

*END

*D_NET *55 2.84411e-16

*CONN
*P *55 I *C 7.5000 0.8550 
*I *69:g B *C 7.4875 0.4450 
*I *18:g B *C 7.4875 1.1650 
*N *55:2 *C 7.5150 0.8350 

*CAP
0 *18:g 4.35547e-17
1 *69:g 6.89456e-17
2 *55:2 3.84031e-17
3 *55 1.33508e-16

*RES
0 *18:g *55:2 26.102209  // $poly_conn
1 *55:2 *69:g 58.153492  // $poly_conn
2 *55 *55:2 45.005089  // $metal1_conn

*END

*D_NET *56 5.25626e-16

*CONN
*P *56 I *C 7.7000 0.6650 
*I *52:g B *C 7.3825 0.4450 
*I *71:g B *C 7.9675 0.4775 
*I *53:g B *C 6.9975 1.1650 
*I *19:g B *C 7.9125 1.0775 
*N *56:1 *C 7.0700 0.8600 
*N *56:4 *C 7.3450 0.6750 
*N *56:6 *C 7.9400 0.6850 

*CAP
0 *19:g 3.48736e-17
1 *53:g 7.21859e-17
2 *71:g 1.81403e-17
3 *52:g 6.96533e-17
4 *56:1 1.03941e-16
5 *56:4 1.06053e-16
6 *56:6 5.46718e-17
7 *56 6.61071e-17

*RES
0 *56:1 *53:g 67.58181  // $poly_conn
1 *52:g *56:4 61.15522  // $poly_conn
2 *71:g *56:6 26.102209  // $poly_conn
3 *56:6 *19:g 64.563744  // $poly_conn
4 *56:1 *56:4 0.311425  // $metal1_conn
5 *56:4 *56 0.266031  // $metal1_conn
6 *56 *56:6 45.140594  // $metal1_conn

*END

*D_NET *59 4.44302e-16

*CONN
*P *59 I *C 6.5000 0.8550 
*I *41:g B *C 5.6325 0.4900 
*I *46:g B *C 6.4725 0.5025 
*I *47:g B *C 5.7625 1.2350 
*I *49:g B *C 6.6575 1.2125 
*N *59:2 *C 6.4450 0.8750 
*N *59:3 *C 5.7625 0.9125 

*CAP
0 *49:g 4.00417e-17
1 *47:g 4.78377e-17
2 *46:g 3.77306e-17
3 *41:g 6.48276e-17
4 *59:3 6.58031e-17
5 *59:2 1.17436e-16
6 *59 7.06255e-17

*RES
0 *49:g *59:2 88.446335  // $poly_conn
1 *59:2 *59:3 161.006058  // $poly_conn
2 *59:3 *41:g 94.970528  // $poly_conn
3 *59:2 *46:g 65.247986  // $poly_conn
4 *59:3 *47:g 31.15753  // $poly_conn
5 *59 *59:2 45.020443  // $metal1_conn

*END

*D_NET *60 3.17123e-16

*CONN
*P *60 I *C 5.3000 1.0450 
*I *39:g B *C 5.4425 0.4900 
*I *43:g B *C 5.4225 1.2350 
*N *60:2 *C 5.4225 0.9300 
*N *60:3 *C 5.3100 0.9300 

*CAP
0 *43:g 7.1231e-17
1 *39:g 4.84965e-17
2 *60:2 3.85793e-17
3 *60:3 1.05781e-16
4 *60 5.30351e-17

*RES
0 *39:g *60:2 73.857407  // $poly_conn
1 *60:2 *60:3 50.493343  // $poly_conn
2 *60:2 *43:g 24.894089  // $poly_conn
3 *60 *60:3 0.070014  // $metal1_conn

*END

*D_NET *58 2.46338e-16

*CONN
*P *58 O *C 0.3000 0.6650 
*I *79:d B *C 0.3050 0.5300 
*I *1:d B *C 0.3050 0.5300 
*I *10:d B *C 0.7150 0.5300 
*I *12:d B *C 0.7150 0.5300 
*I *26:d B *C 0.3050 1.1550 
*I *27:d B *C 0.3050 1.1550 
*I *28:d B *C 0.7150 1.1550 
*I *29:d B *C 0.7150 1.1550 

*CAP
0 *58 2.46338e-16


*END

*D_NET *13 0

*CONN
*I *52:s B *C 7.4350 0.4450 
*I *69:d B *C 7.4350 0.4450 


*RES
0 *69:d *52:s 0.001  // $mwires

*END

*D_NET *11 7.23173e-18

*CONN
*I *48:d B *C 7.0350 0.4450 
*I *50:s B *C 7.0350 0.4450 

*CAP
0 *48:d 7.23173e-18

*RES
0 *50:s *48:d 0.001  // $mwires

*END

*D_NET *9 4.05524e-18

*CONN
*I *39:d B *C 5.5375 0.4900 
*I *41:s B *C 5.5375 0.4900 

*CAP
0 *39:d 4.05524e-18

*RES
0 *41:s *39:d 0.001  // $mwires

*END

*D_NET *8 3.92598e-19

*CONN
*I *75:d B *C 2.8350 0.5025 
*I *76:s B *C 2.8350 0.5025 

*CAP
0 *75:d 3.92598e-19

*RES
0 *76:s *75:d 0.001  // $mwires

*END

*D_NET *7 2.51707e-18

*CONN
*I *16:d B *C 1.6750 0.5025 
*I *17:s B *C 1.6750 0.5025 

*CAP
0 *16:d 2.51707e-18

*RES
0 *17:s *16:d 0.001  // $mwires

*END

*D_NET *6 6.73594e-18

*CONN
*I *54:s B *C 7.3550 1.1650 
*I *18:d B *C 7.3550 1.1650 

*CAP
0 *54:s 6.73594e-18

*RES
0 *18:d *54:s 0.001  // $mwires

*END

*D_NET *5 2.43549e-18

*CONN
*I *51:d B *C 6.9450 1.1650 
*I *53:s B *C 6.9450 1.1650 

*CAP
0 *51:d 2.43549e-18

*RES
0 *53:s *51:d 0.001  // $mwires

*END

*D_NET *4 2.40277e-18

*CONN
*I *43:d B *C 5.4750 1.2350 
*I *45:s B *C 5.4750 1.2350 

*CAP
0 *43:d 2.40277e-18

*RES
0 *45:s *43:d 0.001  // $mwires

*END

*D_NET *3 3.48325e-18

*CONN
*I *21:d B *C 2.8850 1.1950 
*I *22:s B *C 2.8850 1.1950 

*CAP
0 *21:d 3.48325e-18

*RES
0 *22:s *21:d 0.001  // $mwires

*END

*D_NET *2 4.31478e-18

*CONN
*I *33:d B *C 1.6125 1.1950 
*I *34:s B *C 1.6125 1.1950 

*CAP
0 *33:d 4.31478e-18

*RES
0 *34:s *33:d 0.001  // $mwires

*END

*D_NET *72 1.09471e-15

*CONN
*I *36:g B *C 4.1125 0.5300 
*I *79:g B *C 0.2025 0.5300 
*I *1:g B *C 0.4075 0.5300 
*I *10:g B *C 0.6125 0.5300 
*I *12:g B *C 0.8175 0.5300 
*I *14:d B *C 1.1650 0.5025 
*I *15:d B *C 1.1650 0.5025 
*I *16:g B *C 1.5325 0.5025 
*I *38:g B *C 4.1125 1.0950 
*I *26:g B *C 0.2025 1.1550 
*I *27:g B *C 0.4075 1.1550 
*I *28:g B *C 0.6125 1.1550 
*I *29:g B *C 0.8175 1.1550 
*I *31:d B *C 1.1650 1.1950 
*I *32:d B *C 1.1650 1.1950 
*I *33:g B *C 1.5325 1.1950 
*N *72:8 *C 0.9050 0.7600 
*N *72:15 *C 1.5325 0.9400 
*N *72:16 *C 1.4100 0.9400 
*N *72:19 *C 3.7950 1.4400 
*N *72:21 *C 1.1650 0.9700 
*N *72:22 *C 1.0800 0.7600 

*CAP
0 *33:g 4.39407e-17
1 *31:d 3.8611e-17
2 *29:g 2.02558e-16
3 *38:g 4.5947e-17
4 *16:g 3.67558e-17
5 *14:d 3.14979e-17
6 *36:g 3.98378e-17
7 *72:22 2.81802e-17
8 *72:21 2.32514e-17
9 *72:15 3.15925e-17
10 *72:8 4.19818e-17
11 *72:16 2.57402e-16
12 *72:19 2.73156e-16

*RES
0 *38:g *36:g 61.538464  // $poly_conn
1 *38:g *72:19 142.420685  // $poly_conn
2 *33:g *72:15 22.886339  // $poly_conn
3 *72:15 *16:g 83.142754  // $poly_conn
4 *72:15 *72:16 52.613522  // $poly_conn
5 *29:g *72:8 51.352463  // $poly_conn
6 *72:19 *72:16 2.259265  // $metal1_conn
7 *72:16 *72:21 0.184074  // $metal1_conn
8 *72:22 *72:8 0.096472  // $metal1_conn
9 *72:21 *31:d 31.133837  // $metal1_conn
10 *72:22 *14:d 75.185806  // $metal1_conn
11 *72:21 *72:22 0.220018  // $metal1_conn

*END

*D_NET *70 4.63963e-16

*CONN
*I *73:d B *C 1.9825 0.5025 
*I *14:g B *C 1.0625 0.5025 
*I *15:g B *C 1.2675 0.5025 
*I *17:d B *C 1.9825 0.5025 
*I *25:d B *C 1.8425 1.1950 
*I *31:g B *C 1.0625 1.1950 
*I *32:g B *C 1.2675 1.1950 
*I *34:d B *C 1.8425 1.1950 
*N *70:8 *C 1.8900 1.0250 

*CAP
0 *32:g 2.68592e-16
1 *25:d 2.72506e-17
2 *73:d 7.72385e-17
3 *70:8 9.08828e-17

*RES
0 *70:8 *32:g 45.643311  // $metal1_conn
1 *25:d *70:8 62.061012  // $metal1_conn
2 *70:8 *73:d 75.369812  // $metal1_conn

*END

*D_NET *68 1.04996e-15

*CONN
*I *73:g B *C 2.1475 0.5025 
*I *76:g B *C 2.8875 0.5025 
*I *78:d B *C 3.7850 0.5825 
*I *23:g B *C 3.2125 1.1950 
*I *24:d B *C 3.7000 1.0075 
*I *34:g B *C 1.6925 1.1950 
*N *68:2 *C 1.7300 0.8350 
*N *68:4 *C 2.1100 0.7050 
*N *68:6 *C 2.9250 0.7350 
*N *68:8 *C 3.2500 0.9250 
*N *68:11 *C 3.7750 0.5700 
*N *68:12 *C 3.2500 0.3825 
*N *68:13 *C 2.8700 0.6200 
*N *68:14 *C 2.1100 0.3850 

*CAP
0 *34:g 5.09823e-17
1 *24:d 6.32414e-17
2 *23:g 3.63609e-17
3 *78:d 7.61429e-17
4 *76:g 5.88903e-17
5 *73:g 3.21992e-17
6 *68:14 1.30489e-16
7 *68:13 1.21891e-16
8 *68:12 1.03833e-16
9 *68:2 1.17567e-16
10 *68:4 7.70575e-17
11 *68:6 7.96274e-17
12 *68:8 1.01678e-16

*RES
0 *34:g *68:2 88.078293  // $poly_conn
1 *73:g *68:4 61.15522  // $poly_conn
2 *76:g *68:6 68.847527  // $poly_conn
3 *23:g *68:8 65.001373  // $poly_conn
4 *24:d *68:11 62.332279  // $metal1_conn
5 *68:11 *68:12 0.497531  // $metal1_conn
6 *68:12 *68:13 0.456477  // $metal1_conn
7 *68:13 *68:14 0.712194  // $metal1_conn
8 *68:14 *68:2 0.596222  // $metal1_conn
9 *68:12 *68:8 0.420898  // $metal1_conn
10 *68:13 *68:6 0.083372  // $metal1_conn
11 *68:14 *68:4 0.231942  // $metal1_conn
12 *78:d *68:11 75  // $metal1_conn

*END

*D_NET *67 3.95586e-16

*CONN
*I *74:g B *C 2.4725 0.5025 
*I *76:d B *C 3.0250 0.5025 
*I *77:d B *C 3.0250 0.5025 
*I *20:g B *C 2.4725 1.1950 
*I *22:d B *C 3.1000 1.1950 
*I *23:d B *C 3.1000 1.1950 
*N *67:2 *C 2.5100 0.9400 
*N *67:5 *C 3.0900 0.9400 

*CAP
0 *22:d 5.82819e-17
1 *20:g 3.74891e-17
2 *76:d 6.9054e-17
3 *74:g 3.90876e-17
4 *67:5 7.81277e-17
5 *67:2 1.13546e-16

*RES
0 *20:g *67:2 16.15522  // $poly_conn
1 *67:2 *74:g 76.411629  // $poly_conn
2 *22:d *67:5 31.169022  // $metal1_conn
3 *67:5 *67:2 45.439674  // $metal1_conn
4 *67:5 *76:d 75.316833  // $metal1_conn

*END

*D_NET *66 3.71752e-16

*CONN
*I *73:s B *C 2.3100 0.5025 
*I *74:d B *C 2.3100 0.5025 
*I *75:g B *C 2.7825 0.5025 
*I *20:d B *C 2.2325 1.1950 
*I *21:g B *C 2.7825 1.1950 
*I *25:s B *C 2.2325 1.1950 
*N *66:2 *C 2.7825 0.7800 
*N *66:3 *C 2.6800 0.7800 
*N *66:5 *C 2.3250 0.7800 

*CAP
0 *21:g 5.23697e-17
1 *20:d 5.00335e-17
2 *75:g 5.53572e-17
3 *73:s 5.06857e-17
4 *66:5 4.3934e-17
5 *66:2 3.48453e-17
6 *66:3 8.45265e-17

*RES
0 *21:g *66:2 63.355629  // $poly_conn
1 *66:2 *66:3 49.61615  // $poly_conn
2 *66:2 *75:g 41.560753  // $poly_conn
3 *66:3 *66:5 0.261107  // $metal1_conn
4 *66:5 *73:s 75.159874  // $metal1_conn
5 *66:5 *20:d 62.226078  // $metal1_conn

*END

*D_NET *65 7.34908e-16

*CONN
*I *41:d B *C 5.7500 0.4900 
*I *44:s B *C 5.7500 0.4900 
*I *77:s B *C 3.3425 0.5025 
*I *45:d B *C 5.6450 1.2350 
*I *47:s B *C 5.6450 1.2350 
*I *23:s B *C 3.3050 1.1950 
*N *65:2 *C 5.4700 1.1200 
*N *65:3 *C 3.4700 1.1175 
*N *65:6 *C 5.6300 1.1500 

*CAP
0 *23:s 4.20248e-17
1 *45:d 5.10967e-17
2 *77:s 6.98919e-17
3 *41:d 8.20821e-17
4 *65:3 2.50241e-16
5 *65:2 2.39571e-16

*RES
0 *41:d *65:2 75.615768  // $metal1_conn
1 *65:2 *65:3 1.788457  // $metal1_conn
2 *65:3 *23:s 62.159538  // $metal1_conn
3 *65:2 *65:6 0.086668  // $metal1_conn
4 *65:6 *45:d 62.179386  // $metal1_conn
5 *65:3 *77:s 75.433846  // $metal1_conn
6 *45:d *65:6 62  // $metal1_conn

*END

*D_NET *64 8.01116e-16

*CONN
*I *37:d B *C 5.0050 0.5475 
*I *77:g B *C 3.1625 0.5025 
*I *78:g B *C 3.8775 0.5825 
*I *17:g B *C 1.8175 0.5025 
*I *40:d B *C 5.0650 1.1475 
*I *22:g B *C 2.9875 1.1950 
*I *24:g B *C 3.8225 1.0075 
*I *25:g B *C 1.9925 1.1950 
*N *64:2 *C 3.8500 0.7900 
*N *64:3 *C 3.1625 0.7525 
*N *64:10 *C 4.7050 1.1250 

*CAP
0 *25:g 7.84117e-17
1 *24:g 2.02599e-17
2 *22:g 1.00012e-16
3 *40:d 5.56463e-17
4 *17:g 6.10289e-17
5 *78:g 2.28846e-17
6 *77:g 2.68833e-17
7 *37:d 8.52304e-17
8 *64:10 1.6542e-16
9 *64:3 5.62465e-17
10 *64:2 1.29093e-16

*RES
0 *78:g *64:2 23.565474  // $poly_conn
1 *64:2 *64:3 165.644241  // $poly_conn
2 *64:3 *22:g 99.695694  // $poly_conn
3 *22:g *25:g 347.146332  // $poly_conn
4 *25:g *17:g 140.517761  // $poly_conn
5 *64:2 *24:g 16.530039  // $poly_conn
6 *64:3 *77:g 33.120998  // $poly_conn
7 *37:d *64:10 75.557152  // $metal1_conn
8 *64:10 *64:2 45.896221  // $metal1_conn
9 *64:10 *40:d 62.17757  // $metal1_conn

*END

*D_NET *63 8.09711e-16

*CONN
*I *36:d B *C 4.2050 0.5300 
*I *48:g B *C 6.8925 0.4450 
*I *38:d B *C 4.3300 1.0950 
*I *51:g B *C 6.8925 1.1650 
*N *63:2 *C 6.8925 0.6525 
*N *63:3 *C 6.6900 0.6750 
*N *63:6 *C 4.2150 0.4600 

*CAP
0 *51:g 1.05647e-16
1 *38:d 7.81904e-17
2 *48:g 2.67052e-17
3 *36:d 2.63046e-16
4 *63:2 2.39668e-17
5 *63:3 3.12156e-16

*RES
0 *51:g *63:2 80.258255  // $poly_conn
1 *63:2 *63:3 81.417114  // $poly_conn
2 *63:2 *48:g 18.71979  // $poly_conn
3 *63:3 *63:6 2.380705  // $metal1_conn
4 *63:6 *38:d 62.5256  // $metal1_conn
5 *36:d *63:6 75  // $metal1_conn

*END

*D_NET *62 5.08348e-16

*CONN
*I *44:d B *C 5.9600 0.4900 
*I *50:d B *C 7.2800 0.4450 
*I *52:d B *C 7.2800 0.4450 
*I *47:d B *C 5.8975 1.2350 
*I *53:d B *C 7.1100 1.1650 
*I *54:d B *C 7.1100 1.1650 
*N *62:2 *C 6.8800 1.0700 
*N *62:3 *C 6.0550 1.0700 

*CAP
0 *53:d 5.40422e-17
1 *47:d 4.27717e-17
2 *50:d 9.36553e-17
3 *44:d 7.05586e-17
4 *62:3 9.25566e-17
5 *62:2 1.54763e-16

*RES
0 *50:d *62:2 75.651535  // $metal1_conn
1 *62:2 *62:3 0.640891  // $metal1_conn
2 *62:3 *47:d 62.08075  // $metal1_conn
3 *62:2 *53:d 31.246042  // $metal1_conn
4 *62:3 *44:d 75.430038  // $metal1_conn

*END

*D_NET *61 6.18238e-16

*CONN
*I *44:g B *C 5.8675 0.4900 
*I *46:d B *C 6.3800 0.5025 
*I *45:g B *C 5.5275 1.2350 
*I *49:d B *C 6.5650 1.2125 
*N *61:1 *C 5.6300 0.9300 
*N *61:4 *C 5.8950 0.7350 
*N *61:5 *C 6.2450 0.7250 
*N *61:8 *C 5.7900 0.9350 

*CAP
0 *49:d 9.25013e-17
1 *45:g 7.68453e-17
2 *46:d 5.75716e-17
3 *44:g 3.00161e-17
4 *61:8 1.15708e-16
5 *61:1 8.72722e-17
6 *61:4 7.63859e-17
7 *61:5 8.19378e-17

*RES
0 *61:1 *45:g 71.266663  // $poly_conn
1 *44:g *61:4 18.437269  // $poly_conn
2 *61:4 *61:5 116.744606  // $poly_conn
3 *46:d *61:5 75.192497  // $metal1_conn
4 *49:d *61:8 62.794987  // $metal1_conn
5 *61:8 *61:1 0.085494  // $metal1_conn
6 *61:8 *61:4 45.211712  // $metal1_conn

*END

*D_NET *35 3.90838e-16

*CONN
*I *50:g B *C 7.1775 0.4450 
*I *71:d B *C 8.0750 0.4775 
*I *54:g B *C 7.2225 1.1650 
*I *19:d B *C 8.0050 1.0775 
*N *35:2 *C 7.2025 0.8700 
*N *35:4 *C 7.2600 0.8700 
*N *35:7 *C 8.0150 1.1250 

*CAP
0 *19:d 9.5422e-17
1 *54:g 3.75586e-17
2 *71:d 4.53313e-17
3 *50:g 6.27635e-17
4 *35:2 5.09271e-17
5 *35:4 9.88359e-17

*RES
0 *54:g *35:2 44.983788  // $poly_conn
1 *35:2 *50:g 93.314606  // $poly_conn
2 *35:2 *35:4 45.794373  // $poly_conn
3 *71:d *35:7 75.464226  // $metal1_conn
4 *35:7 *35:4 0.687709  // $metal1_conn
5 *19:d *35:7 62  // $metal1_conn

*END

