*SPEF "IEEE 1481-1999"
*DESIGN  "SEDFFX4"
*DATE "Mon Sep 27 11:17:24 2010"
*VENDOR "Cadence Design Systems"
*PROGRAM "Assura RCX"
*VERSION "3.2 Red Hat Linux release 7.2 (Enigma) - (09/09/2009-10:39)"
*DESIGN_FLOW "Physical Verification"
*DIVIDER /
*DELIMITER :
*BUS_DELIMITER []
*T_UNIT 1 PS
*C_UNIT 1e15 FF
*R_UNIT 1 OHM
*L_UNIT 1 MH
// DeviceFingerDelim "@"
// MATCHED
// caps2d version: 10

*NAME_MAP
*1 net526
*2 net546
*3 net514
*4 mp12
*5 mp13
*6 mp11
*7 mn20
*8 mp10
*9 mn12
*10 mp57\@3
*11 mn13
*12 mp30
*13 mn11
*14 mp35
*15 mn10
*16 net554
*17 mp36
*18 mn30
*19 mp25
*20 mn35
*21 mp21
*22 mn36
*23 mn25
*24 mn21
*25 mp56
*26 mp55
*27 mp55\@1
*28 mn56
*29 mp55\@2
*30 mn55
*31 mp55\@3
*32 mn55\@1
*33 mp45
*34 mn55\@2
*35 mp45\@1
*36 mn55\@3
*37 mp50
*38 mn45
*39 mp51
*40 mn45\@1
*41 mp40
*42 mn50
*43 mn51
*44 mn40
*45 QN
*46 D
*47 E
*48 VSS
*49 Q
*50 mp57
*51 VDD
*52 mp57\@1
*53 mp57\@2
*54 mp1
*55 mp2
*56 mp4
*57 SE
*58 mp3
*59 mp0
*60 mp20
*61 SI
*62 CK
*63 Eb
*64 SEb
*65 Db
*66 net502
*67 CKb
*68 Dbp
*69 n20
*70 mout
*71 CKbb
*72 n30
*73 mn57
*74 mn57\@1
*75 mn57\@2
*76 mn1
*77 mn2
*78 mn4
*79 mn3
*80 net536
*81 mn0
*82 net457
*83 mn57\@3
*84 net437
*85 net465
*86 net425
*87 net473
*88 net534

*GROUND_NETS VSS

*PORTS
*51 I
*48 I
*62 I
*46 I
*47 I
*57 I
*61 I
*49 O
*45 O

*D_NET *51 1.24115e-15

*CONN
*P *51 I *C 0.1000 1.7100 
*I *50:s B *C 6.4250 1.1850 
*I *52:s B *C 6.4250 1.1850 
*I *53:s B *C 6.8950 1.2225 
*I *54:s B *C 6.8950 1.2225 
*I *58:s B *C 7.6700 1.2225 
*I *59:s B *C 7.6700 1.2225 
*I *60:s B *C 4.6475 1.2525 
*I *4:s B *C 4.6475 1.2525 
*I *8:s B *C 5.9550 1.1850 
*I *10:s B *C 5.9550 1.1850 
*I *12:s B *C 2.3850 1.1425 
*I *14:s B *C 2.3850 1.1425 
*I *21:s B *C 3.6675 1.0950 
*I *25:s B *C 3.6675 1.0950 
*I *26:s B *C 0.1100 1.1500 
*I *27:s B *C 0.5100 1.1500 
*I *29:s B *C 0.5100 1.1500 
*I *31:s B *C 0.9700 1.1900 
*I *33:s B *C 0.9700 1.1900 
*I *35:s B *C 1.4525 1.1425 
*I *37:s B *C 1.4525 1.1425 
*N *51:2 *C 7.0000 1.7100 
*N *51:3 *C 7.0000 1.7100 
*N *51:7 *C 5.0000 1.7100 
*N *51:8 *C 4.6700 1.7100 
*N *51:9 *C 3.5900 1.7100 
*N *51:10 *C 3.0000 1.7100 
*N *51:11 *C 2.4150 1.7100 

*CAP
0 *21:s 5.2832e-17
1 *12:s 6.28814e-17
2 *60:s 4.5844e-17
3 *58:s 3.30296e-17
4 *53:s 1.44333e-16
5 *51:11 3.16605e-17
6 *51:9 3.48743e-17
7 *51:8 2.83519e-17
8 *51:2 5.22249e-16
9 *51 2.85097e-16

*RES
0 *51:2 *51:3 7.5  // $metal1_conn
1 *51:2 *51:7 7.5  // $metal1_conn
2 *51:2 *51:10 7.5  // $metal1_conn
3 *51:2 *51 7.5  // $metal1_conn
4 *58:s *51:3 62.407646  // $metal1_conn
5 *51:8 *60:s 62.265198  // $metal1_conn
6 *51:9 *21:s 62.279747  // $metal1_conn
7 *51:11 *12:s 62.348534  // $metal1_conn
8 *51:3 *53:s 0.110518  // $metal1_conn
9 *53:s *51:7 0.421261  // $metal1_conn
10 *51:7 *51:8 0.165376  // $metal1_conn
11 *51:8 *51:9 0.541481  // $metal1_conn
12 *51:9 *51:10 0.295827  // $metal1_conn
13 *51:10 *51:11 0.293318  // $metal1_conn
14 *51:11 *51 0.528937  // $metal1_conn

*END

*D_NET *48 0

*CONN
*P *48 I *C 0.1000 0.0000 
*I *73:s B *C 6.4400 0.4750 
*I *74:s B *C 6.4400 0.4750 
*I *75:s B *C 6.9350 0.4525 
*I *76:s B *C 6.9350 0.4525 
*I *79:s B *C 7.6100 0.4525 
*I *81:s B *C 7.6100 0.4525 
*I *83:s B *C 6.0400 0.4750 
*I *7:s B *C 4.7400 0.5425 
*I *9:s B *C 4.7400 0.5425 
*I *15:s B *C 6.0400 0.4750 
*I *18:s B *C 2.4700 0.5275 
*I *20:s B *C 2.4700 0.5275 
*I *24:s B *C 3.6450 0.5300 
*I *28:s B *C 3.6450 0.5300 
*I *30:s B *C 0.1100 0.5300 
*I *32:s B *C 0.5100 0.5300 
*I *34:s B *C 0.5100 0.5300 
*I *36:s B *C 1.0050 0.5575 
*I *38:s B *C 1.0050 0.5575 
*I *40:s B *C 1.4325 0.5275 
*I *42:s B *C 1.4325 0.5275 
*N *48:2 *C 7.0000 0.0000 
*N *48:3 *C 7.0000 0.0000 
*N *48:7 *C 5.0000 0.0000 
*N *48:8 *C 4.6850 0.0000 
*N *48:9 *C 3.6350 0.0000 
*N *48:10 *C 3.0000 0.0000 
*N *48:11 *C 2.4150 0.0000 


*RES
0 *48:2 *48:3 6.2  // $metal1_conn
1 *48:2 *48:7 6.2  // $metal1_conn
2 *48:2 *48:10 6.2  // $metal1_conn
3 *48:2 *48 6.2  // $metal1_conn
4 *79:s *48:3 75.623192  // $metal1_conn
5 *48:8 *7:s 75.117203  // $metal1_conn
6 *48:9 *24:s 75.301781  // $metal1_conn
7 *48:11 *18:s 75.117203  // $metal1_conn
8 *48:3 *75:s 0.075064  // $metal1_conn
9 *75:s *48:7 0.51659  // $metal1_conn
10 *48:7 *48:8 0.15785  // $metal1_conn
11 *48:8 *48:9 0.526429  // $metal1_conn
12 *48:9 *48:10 0.318405  // $metal1_conn
13 *48:10 *48:11 0.293318  // $metal1_conn
14 *48:11 *48 0.528937  // $metal1_conn

*END

*D_NET *62 2.14341e-16

*CONN
*P *62 I *C 4.5000 0.7300 
*I *7:g B *C 4.5225 0.5425 
*I *60:g B *C 4.5225 1.2525 
*N *62:2 *C 4.4950 0.7250 
*N *62:4 *C 4.4950 0.7250 

*CAP
0 *60:g 4.76966e-17
1 *7:g 2.94072e-17
2 *62:2 3.37673e-17
3 *62 1.0347e-16

*RES
0 *60:g *62:2 99.179131  // $poly_conn
1 *62:2 *7:g 19.691952  // $poly_conn
2 *62:4 *62 0.00216  // $metal1_conn
3 *62:2 *62:4 45  // $metal1_conn

*END

*D_NET *46 3.05472e-16

*CONN
*P *46 I *C 7.5000 1.0450 
*I *79:g B *C 7.5075 0.4525 
*I *58:g B *C 7.4525 1.2225 
*N *46:2 *C 7.4800 0.9450 

*CAP
0 *58:g 4.70238e-17
1 *79:g 5.88138e-17
2 *46:2 1.34991e-16
3 *46 6.46431e-17

*RES
0 *79:g *46:2 99.179131  // $poly_conn
1 *46:2 *58:g 35.076569  // $poly_conn
2 *46 *46:2 45.01828  // $metal1_conn

*END

*D_NET *47 4.93617e-16

*CONN
*P *47 I *C 7.5000 0.6650 
*I *78:g B *C 7.3275 0.4525 
*I *81:g B *C 7.7125 0.4525 
*I *55:g B *C 7.0475 1.2225 
*I *59:g B *C 7.7175 1.2225 
*N *47:2 *C 7.0750 0.8950 
*N *47:4 *C 7.3650 0.7550 
*N *47:6 *C 7.6800 0.7550 
*N *47:8 *C 7.5000 0.7550 

*CAP
0 *59:g 4.5879e-17
1 *55:g 6.26481e-17
2 *81:g 3.11697e-17
3 *78:g 5.11019e-17
4 *47:8 2.52616e-17
5 *47:2 1.07219e-16
6 *47:4 8.63615e-17
7 *47:6 6.96044e-17
8 *47 1.43713e-17

*RES
0 *55:g *47:2 92.897079  // $poly_conn
1 *78:g *47:4 94.488556  // $poly_conn
2 *59:g *47:6 82.821884  // $poly_conn
3 *47:6 *81:g 49.488552  // $poly_conn
4 *47:6 *47:8 45.135403  // $metal1_conn
5 *47:8 *47:4 0.10235  // $metal1_conn
6 *47:4 *47:2 0.261779  // $metal1_conn
7 *47:8 *47 0.036075  // $metal1_conn

*END

*D_NET *57 4.14697e-16

*CONN
*P *57 I *C 5.9000 0.8550 
*I *11:g B *C 5.0775 0.5425 
*I *15:g B *C 5.8975 0.5325 
*I *6:g B *C 5.2275 1.2525 
*I *8:g B *C 5.7375 1.0975 
*N *57:2 *C 5.8600 0.8650 
*N *57:3 *C 5.7375 0.8925 
*N *57:4 *C 5.2275 0.8925 

*CAP
0 *8:g 2.53335e-17
1 *6:g 3.52526e-17
2 *15:g 4.85311e-17
3 *11:g 4.21113e-17
4 *57:4 7.51638e-17
5 *57:3 3.31858e-17
6 *57:2 1.12567e-16
7 *57 4.25522e-17

*RES
0 *15:g *57:2 57.180859  // $poly_conn
1 *57:2 *57:3 18.583162  // $poly_conn
2 *57:3 *57:4 125.109093  // $poly_conn
3 *57:4 *11:g 96.252571  // $poly_conn
4 *57:3 *8:g 20.300484  // $poly_conn
5 *57:4 *6:g 63.208809  // $poly_conn
6 *57:2 *57 45.005581  // $metal1_conn

*END

*D_NET *61 2.41748e-16

*CONN
*P *61 I *C 4.7000 0.5500 
*I *9:g B *C 4.7875 0.5425 
*I *4:g B *C 4.7725 1.2525 
*N *61:2 *C 4.7800 0.7400 
*N *61:3 *C 4.7350 0.7400 

*CAP
0 *4:g 5.55761e-17
1 *9:g 2.98558e-17
2 *61:3 1.10457e-16
3 *61 4.58584e-17

*RES
0 *9:g *61:2 31.394903  // $poly_conn
1 *61:2 *61:3 46.980618  // $poly_conn
2 *61:2 *4:g 103.189774  // $poly_conn
3 *61:3 *61 0.108687  // $metal1_conn

*END

*D_NET *49 2.50716e-16

*CONN
*P *49 O *C 0.3000 0.6650 
*I *30:d B *C 0.3050 0.5300 
*I *32:d B *C 0.3050 0.5300 
*I *34:d B *C 0.7150 0.5300 
*I *36:d B *C 0.7150 0.5300 
*I *26:d B *C 0.3050 1.1500 
*I *27:d B *C 0.3050 1.1500 
*I *29:d B *C 0.7150 1.1500 
*I *31:d B *C 0.7150 1.1500 

*CAP
0 *49 2.50716e-16


*END

*D_NET *45 1.76258e-16

*CONN
*P *45 O *C 6.3000 1.0450 
*I *73:d B *C 6.2350 0.4750 
*I *74:d B *C 6.6450 0.4750 
*I *75:d B *C 6.6450 0.4750 
*I *83:d B *C 6.2350 0.4750 
*I *50:d B *C 6.1050 1.1850 
*I *52:d B *C 6.5750 1.1850 
*I *53:d B *C 6.5750 1.1850 
*I *10:d B *C 6.1050 1.1850 

*CAP
0 *73:d 8.13898e-17
1 *45 9.48683e-17

*RES
0 *73:d *45 0.293729  // $metal1_conn

*END

*D_NET *16 0

*CONN
*I *78:s B *C 7.4175 0.4525 
*I *79:d B *C 7.4175 0.4525 


*RES
0 *79:d *78:s 0.001  // $mwires

*END

*D_NET *3 0

*CONN
*I *76:d B *C 7.0525 0.4525 
*I *77:s B *C 7.0525 0.4525 


*RES
0 *77:s *76:d 0.001  // $mwires

*END

*D_NET *2 1.60563e-18

*CONN
*I *9:d B *C 4.9325 0.5425 
*I *11:s B *C 4.9325 0.5425 

*CAP
0 *9:d 1.60563e-18

*RES
0 *11:s *9:d 0.001  // $mwires

*END

*D_NET *1 0

*CONN
*I *20:d B *C 2.5700 0.5275 
*I *22:s B *C 2.5700 0.5275 


*RES
0 *22:s *20:d 0.001  // $mwires

*END

*D_NET *88 1.55404e-18

*CONN
*I *42:d B *C 1.6175 0.5275 
*I *43:s B *C 1.6175 0.5275 

*CAP
0 *42:d 1.55404e-18

*RES
0 *43:s *42:d 0.001  // $mwires

*END

*D_NET *87 3.75519e-18

*CONN
*I *56:s B *C 7.3625 1.2225 
*I *58:d B *C 7.3625 1.2225 

*CAP
0 *56:s 3.75519e-18

*RES
0 *58:d *56:s 0.001  // $mwires

*END

*D_NET *86 1.02542e-18

*CONN
*I *54:d B *C 6.9950 1.2225 
*I *55:s B *C 6.9950 1.2225 

*CAP
0 *54:d 1.02542e-18

*RES
0 *55:s *54:d 0.001  // $mwires

*END

*D_NET *85 2.42689e-18

*CONN
*I *4:d B *C 4.8675 1.2525 
*I *5:s B *C 4.8675 1.2525 

*CAP
0 *4:d 2.42689e-18

*RES
0 *5:s *4:d 0.001  // $mwires

*END

*D_NET *84 1.73074e-18

*CONN
*I *14:d B *C 2.5750 1.1425 
*I *17:s B *C 2.5750 1.1425 

*CAP
0 *14:d 1.73074e-18

*RES
0 *17:s *14:d 0.001  // $mwires

*END

*D_NET *82 1.78441e-18

*CONN
*I *37:d B *C 1.6000 1.1425 
*I *39:s B *C 1.6000 1.1425 

*CAP
0 *37:d 1.78441e-18

*RES
0 *39:s *37:d 0.001  // $mwires

*END

*D_NET *80 1.06048e-15

*CONN
*I *28:g B *C 3.7375 0.5300 
*I *30:g B *C 0.2025 0.5300 
*I *32:g B *C 0.4075 0.5300 
*I *34:g B *C 0.6125 0.5300 
*I *36:g B *C 0.8175 0.5300 
*I *38:d B *C 1.1550 0.5575 
*I *40:d B *C 1.1550 0.5575 
*I *42:g B *C 1.5075 0.5275 
*I *25:g B *C 3.7375 1.0950 
*I *26:g B *C 0.2025 1.1500 
*I *27:g B *C 0.4075 1.1500 
*I *29:g B *C 0.6125 1.1500 
*I *31:g B *C 0.8175 1.1500 
*I *33:d B *C 1.1250 1.1900 
*I *35:d B *C 1.1250 1.1900 
*I *37:g B *C 1.5075 1.1425 
*N *80:15 *C 1.5500 1.3500 
*N *80:17 *C 3.3400 1.3750 
*N *80:19 *C 1.5500 1.2850 
*N *80:21 *C 1.1255 1.1900 
*N *80:22 *C 1.0800 0.7675 

*CAP
0 *37:g 5.72131e-17
1 *33:d 7.35419e-17
2 *31:g 2.46461e-16
3 *25:g 4.4648e-17
4 *42:g 5.35632e-17
5 *38:d 2.25769e-17
6 *28:g 4.49011e-17
7 *80:22 3.94492e-17
8 *80:19 2.19688e-16
9 *80:15 4.93631e-17
10 *80:17 2.09079e-16

*RES
0 *25:g *28:g 61.538464  // $poly_conn
1 *25:g *80:17 162.933517  // $poly_conn
2 *37:g *42:g 111.53846  // $poly_conn
3 *37:g *80:15 61.15522  // $poly_conn
4 *80:17 *80:19 1.656416  // $metal1_conn
5 *80:19 *80:15 0.034657  // $metal1_conn
6 *80:22 *31:g 45.160854  // $metal1_conn
7 *33:d *80:21 31  // $metal1_conn
8 *80:22 *38:d 75.161438  // $metal1_conn
9 *80:19 *80:21 0.336185  // $metal1_conn
10 *80:21 *80:22 0.287074  // $metal1_conn

*END

*D_NET *72 4.06144e-16

*CONN
*I *38:g B *C 1.0525 0.5575 
*I *40:g B *C 1.2575 0.5575 
*I *43:d B *C 1.8300 0.5275 
*I *44:s B *C 1.8300 0.5275 
*I *33:g B *C 1.0225 1.1900 
*I *35:g B *C 1.2275 1.1900 
*I *39:d B *C 1.8125 1.1425 
*I *41:d B *C 1.8125 1.1425 
*N *72:8 *C 1.8000 1.0300 

*CAP
0 *39:d 2.78782e-17
1 *35:g 2.38537e-16
2 *43:d 6.63679e-17
3 *72:8 7.33604e-17

*RES
0 *35:g *72:8 45.421631  // $metal1_conn
1 *72:8 *39:d 62.048336  // $metal1_conn
2 *72:8 *43:d 75.377426  // $metal1_conn

*END

*D_NET *71 9.48349e-16

*CONN
*I *22:g B *C 2.6225 0.5275 
*I *24:d B *C 3.4100 0.5875 
*I *44:g B *C 1.9325 0.5275 
*I *19:g B *C 2.8375 1.1425 
*I *21:d B *C 3.3350 1.0075 
*I *39:g B *C 1.6925 1.1425 
*N *71:2 *C 1.6400 0.8400 
*N *71:4 *C 1.9700 0.3100 
*N *71:6 *C 2.6600 0.3100 
*N *71:7 *C 2.9250 0.8900 
*N *71:9 *C 2.9550 0.3500 
*N *71:11 *C 3.4000 0.5750 

*CAP
0 *39:g 5.09055e-17
1 *21:d 6.56801e-17
2 *19:g 3.83699e-17
3 *44:g 5.27601e-17
4 *24:d 9.15142e-17
5 *22:g 8.57308e-17
6 *71:9 7.66755e-17
7 *71:2 1.34918e-16
8 *71:4 1.38407e-16
9 *71:6 9.93679e-17
10 *71:7 1.1402e-16

*RES
0 *39:g *71:2 94.612106  // $poly_conn
1 *44:g *71:4 72.69368  // $poly_conn
2 *22:g *71:6 72.69368  // $poly_conn
3 *71:7 *19:g 83.136909  // $poly_conn
4 *71:7 *71:9 0.40634  // $metal1_conn
5 *71:9 *71:6 0.219492  // $metal1_conn
6 *71:6 *71:4 0.47029  // $metal1_conn
7 *71:4 *71:2 0.577648  // $metal1_conn
8 *71:9 *71:11 0.458294  // $metal1_conn
9 *71:11 *21:d 62.327015  // $metal1_conn
10 *24:d *71:11 75  // $metal1_conn

*END

*D_NET *70 4.03892e-16

*CONN
*I *18:d B *C 2.0925 0.5275 
*I *20:g B *C 2.5175 0.5275 
*I *44:d B *C 2.0925 0.5275 
*I *12:d B *C 2.0925 1.1425 
*I *14:g B *C 2.5175 1.1425 
*I *41:s B *C 2.0925 1.1425 
*N *70:2 *C 2.4900 0.8700 
*N *70:4 *C 2.0350 0.8700 

*CAP
0 *14:g 5.90723e-17
1 *12:d 5.17634e-17
2 *20:g 6.54144e-17
3 *18:d 4.72651e-17
4 *70:4 5.54137e-17
5 *70:2 1.24963e-16

*RES
0 *14:g *70:2 33.794518  // $poly_conn
1 *70:2 *20:g 60.71759  // $poly_conn
2 *70:2 *70:4 45.341526  // $metal1_conn
3 *70:4 *18:d 75.244995  // $metal1_conn
4 *70:4 *12:d 62.173183  // $metal1_conn

*END

*D_NET *69 3.01741e-16

*CONN
*I *18:g B *C 2.2525 0.5275 
*I *22:d B *C 2.7450 0.5275 
*I *23:s B *C 2.7450 0.5275 
*I *12:g B *C 2.2525 1.1425 
*I *17:d B *C 2.7350 1.1425 
*I *19:d B *C 2.7350 1.1425 
*N *69:2 *C 2.2800 0.7100 
*N *69:5 *C 2.7350 0.7100 

*CAP
0 *17:d 4.04684e-17
1 *12:g 4.86271e-17
2 *22:d 3.44496e-17
3 *18:g 2.89263e-17
4 *69:5 5.69677e-17
5 *69:2 9.23016e-17

*RES
0 *12:g *69:2 74.820152  // $poly_conn
1 *69:2 *18:g 19.691952  // $poly_conn
2 *17:d *69:5 62.29538  // $metal1_conn
3 *69:5 *69:2 45.311016  // $metal1_conn
4 *69:5 *22:d 75.120605  // $metal1_conn

*END

*D_NET *68 7.38248e-16

*CONN
*I *11:d B *C 5.2050 0.5425 
*I *13:s B *C 5.2050 0.5425 
*I *23:d B *C 3.0325 0.5275 
*I *5:d B *C 5.0950 1.2525 
*I *6:d B *C 5.0950 1.2525 
*I *19:s B *C 2.9300 1.1425 
*N *68:2 *C 4.8950 1.1100 
*N *68:3 *C 3.1150 1.1200 

*CAP
0 *19:s 3.24773e-17
1 *5:d 2.56484e-17
2 *23:d 9.39623e-17
3 *11:d 8.9201e-17
4 *68:3 2.3171e-16
5 *68:2 2.6525e-16

*RES
0 *11:d *68:2 75.618294  // $metal1_conn
1 *68:2 *68:3 1.650939  // $metal1_conn
2 *68:3 *19:s 62.116974  // $metal1_conn
3 *68:2 *5:d 62.188644  // $metal1_conn
4 *68:3 *23:d 75.438446  // $metal1_conn

*END

*D_NET *67 8.35944e-16

*CONN
*I *7:d B *C 4.3725 0.5425 
*I *23:g B *C 2.8675 0.5275 
*I *24:g B *C 3.5025 0.5875 
*I *43:g B *C 1.7275 0.5275 
*I *60:d B *C 4.3950 1.2525 
*I *17:g B *C 2.6325 1.1425 
*I *21:g B *C 3.4275 1.0075 
*I *41:g B *C 1.9325 1.1425 
*N *67:2 *C 3.4650 0.7850 
*N *67:3 *C 2.8675 0.7575 
*N *67:11 *C 4.3500 1.2050 

*CAP
0 *41:g 1.02144e-16
1 *21:g 2.89935e-17
2 *17:g 1.23276e-16
3 *60:d 1.80605e-16
4 *43:g 7.6865e-17
5 *24:g 2.37131e-17
6 *23:g 2.96698e-17
7 *7:d 7.49433e-17
8 *67:3 6.47635e-17
9 *67:2 1.30971e-16

*RES
0 *24:g *67:2 22.975597  // $poly_conn
1 *67:2 *67:3 141.246674  // $poly_conn
2 *67:3 *17:g 112.516205  // $poly_conn
3 *17:g *41:g 271.50531  // $poly_conn
4 *41:g *43:g 140.446503  // $poly_conn
5 *67:2 *21:g 18.780884  // $poly_conn
6 *67:3 *23:g 35.685101  // $poly_conn
7 *7:d *67:11 75.472954  // $metal1_conn
8 *67:11 *67:2 45.93491  // $metal1_conn
9 *60:d *67:11 62  // $metal1_conn

*END

*D_NET *66 9.4321e-16

*CONN
*I *73:g B *C 6.3375 0.4750 
*I *74:g B *C 6.5425 0.4750 
*I *75:g B *C 6.7475 0.4750 
*I *76:g B *C 6.9825 0.4525 
*I *83:g B *C 6.1325 0.4750 
*I *28:d B *C 3.8300 0.5300 
*I *50:g B *C 6.2075 1.1850 
*I *52:g B *C 6.4725 1.1850 
*I *53:g B *C 6.6775 1.1850 
*I *54:g B *C 6.9425 1.2225 
*I *10:g B *C 6.0025 1.1850 
*I *25:d B *C 3.9450 1.0950 
*N *66:2 *C 6.9400 0.7325 
*N *66:21 *C 3.8400 0.4600 

*CAP
0 *25:d 8.40332e-17
1 *54:g 7.19914e-17
2 *53:g 2.34471e-16
3 *28:d 4.73938e-16
4 *76:g 3.41119e-17
5 *66:2 4.46641e-17

*RES
0 *66:2 *54:g 93.815979  // $poly_conn
1 *76:g *66:2 58.654976  // $poly_conn
2 *66:2 *53:g 47.200508  // $poly_conn
3 *53:g *66:21 47.08083  // $metal1_conn
4 *66:21 *25:d 62.503815  // $metal1_conn
5 *28:d *66:21 75  // $metal1_conn

*END

*D_NET *65 5.97251e-16

*CONN
*I *77:d B *C 7.2250 0.4525 
*I *78:d B *C 7.2250 0.4525 
*I *13:d B *C 5.4250 0.5425 
*I *55:d B *C 7.1600 1.2225 
*I *56:d B *C 7.1600 1.2225 
*I *6:s B *C 5.3200 1.2525 
*N *65:2 *C 6.9150 1.2825 
*N *65:4 *C 5.3300 1.2050 

*CAP
0 *6:s 1.90197e-16
1 *55:d 4.18399e-17
2 *13:d 9.77847e-17
3 *77:d 7.70537e-17
4 *65:2 1.90375e-16

*RES
0 *77:d *65:2 75.741905  // $metal1_conn
1 *65:2 *65:4 1.209289  // $metal1_conn
2 *65:2 *55:d 62.098873  // $metal1_conn
3 *65:4 *13:d 75.643654  // $metal1_conn
4 *6:s *65:4 62  // $metal1_conn

*END

*D_NET *64 4.85117e-16

*CONN
*I *13:g B *C 5.3325 0.5425 
*I *15:d B *C 5.7625 0.5325 
*I *5:g B *C 4.9625 1.2525 
*I *8:d B *C 5.6450 1.0975 
*N *64:1 *C 5.0850 1.0200 
*N *64:4 *C 5.3600 0.7500 
*N *64:5 *C 5.6800 0.7400 

*CAP
0 *8:d 6.94871e-17
1 *5:g 3.90018e-17
2 *15:d 5.11535e-17
3 *13:g 2.44173e-17
4 *64:1 1.08604e-16
5 *64:4 9.61663e-17
6 *64:5 9.6287e-17

*RES
0 *64:1 *5:g 86.983063  // $poly_conn
1 *13:g *64:4 23.565474  // $poly_conn
2 *64:4 *64:5 109.052299  // $poly_conn
3 *64:4 *64:1 45.27808  // $metal1_conn
4 *8:d *64:5 62.216717  // $metal1_conn
5 *64:5 *15:d 75.122887  // $metal1_conn

*END

*D_NET *63 4.53512e-16

*CONN
*I *77:g B *C 7.1225 0.4525 
*I *81:d B *C 7.8050 0.4525 
*I *56:g B *C 7.2725 1.2225 
*I *59:d B *C 7.8100 1.2225 
*N *63:2 *C 7.3100 1.0150 
*N *63:6 *C 7.8200 1.2700 

*CAP
0 *59:d 1.20577e-16
1 *56:g 3.33351e-17
2 *81:d 6.44071e-17
3 *77:g 8.69883e-17
4 *63:2 1.48204e-16

*RES
0 *56:g *63:2 16.15522  // $poly_conn
1 *63:2 *77:g 137.87471  // $poly_conn
2 *81:d *63:6 75.649124  // $metal1_conn
3 *63:6 *63:2 45.518921  // $metal1_conn
4 *59:d *63:6 62  // $metal1_conn

*END

