*SPEF "IEEE 1481-1999"
*DESIGN  "SEDFFTRX1"
*DATE "Mon Sep 27 11:15:07 2010"
*VENDOR "Cadence Design Systems"
*PROGRAM "Assura RCX"
*VERSION "3.2 Red Hat Linux release 7.2 (Enigma) - (09/09/2009-10:39)"
*DESIGN_FLOW "Physical Verification"
*DIVIDER /
*DELIMITER :
*BUS_DELIMITER []
*T_UNIT 1 PS
*C_UNIT 1e15 FF
*R_UNIT 1 OHM
*L_UNIT 1 MH
// DeviceFingerDelim "@"
// MATCHED
// caps2d version: 10

*NAME_MAP
*1 net618
*2 net606
*3 mn12
*4 net658
*5 mn11
*6 net650
*7 mn55
*8 net634
*9 VDD
*10 mn2
*11 net638
*12 mn35
*13 mn36
*14 mn25
*15 mn21
*16 QN
*17 mn20
*18 mn10
*19 VSS
*20 mn57
*21 mn56
*22 mn45
*23 mn50
*24 mn51
*25 mn40
*26 mn30
*27 RN
*28 CK
*29 SE
*30 SI
*31 mp12
*32 mp11
*33 mp55
*34 mp2
*35 mp35
*36 mp36
*37 mp25
*38 mp21
*39 mp20
*40 mp10
*41 D
*42 E
*43 mp57
*44 mp56
*45 mp45
*46 mp50
*47 mp51
*48 mp40
*49 mp30
*50 Q
*51 Db
*52 net493
*53 net505
*54 Eb
*55 mn3
*56 RNb
*57 mn5
*58 Dp
*59 mn4
*60 SEb
*61 mp3
*62 mn6
*63 CKb
*64 mp5
*65 mn7
*66 Dpb
*67 mp4
*68 mn0
*69 mp6
*70 mn1
*71 mp7
*72 mn13
*73 mp0
*74 mn14
*75 mp1
*76 mp13
*77 mp14
*78 n20
*79 mout
*80 n30
*81 CKbb
*82 net582
*83 qbint
*84 net529
*85 net521
*86 net557
*87 net549

*GROUND_NETS VSS

*PORTS
*9 I
*19 I
*28 I
*41 I
*42 I
*27 I
*29 I
*30 I
*50 O
*16 O

*D_NET *9 1.15409e-15

*CONN
*P *9 I *C 0.1000 1.7100 
*I *61:s B *C 6.1100 1.1225 
*I *73:s B *C 7.9300 1.4900 
*I *75:s B *C 7.9300 1.4900 
*I *76:s B *C 4.1950 1.0575 
*I *32:s B *C 5.2250 1.1450 
*I *33:s B *C 5.2250 1.1450 
*I *34:s B *C 6.1100 1.1225 
*I *35:s B *C 2.1000 1.2025 
*I *38:s B *C 3.3100 1.0075 
*I *39:s B *C 3.3100 1.0075 
*I *40:s B *C 4.1950 1.0575 
*I *43:s B *C 0.4000 1.0075 
*I *44:s B *C 0.4000 1.0075 
*I *45:s B *C 1.1850 1.2025 
*I *46:s B *C 1.1850 1.2025 
*I *49:s B *C 2.1000 1.2025 
*N *9:2 *C 7.2000 1.7100 
*N *9:3 *C 7.2000 1.7100 
*N *9:4 *C 6.0250 1.7100 
*N *9:5 *C 5.2000 1.7100 
*N *9:6 *C 5.1100 1.7100 
*N *9:7 *C 4.1100 1.7100 
*N *9:8 *C 3.2000 1.7100 
*N *9:9 *C 2.1300 1.7100 
*N *9:10 *C 1.1000 1.7100 
*N *9:11 *C 0.3150 1.7100 

*CAP
0 *45:s 4.04176e-17
1 *43:s 7.64799e-17
2 *38:s 2.22744e-17
3 *35:s 5.9308e-17
4 *32:s 3.94881e-17
5 *76:s 2.39957e-17
6 *73:s 3.82679e-17
7 *61:s 1.4449e-17
8 *9:11 1.27761e-17
9 *9:9 5.26185e-17
10 *9:7 4.77888e-17
11 *9:6 4.30063e-17
12 *9:4 3.92827e-17
13 *9:2 6.37187e-16
14 *9 6.75288e-18

*RES
0 *73:s *9:3 62.486202  // $metal1_conn
1 *9:3 *9:4 0.588392  // $metal1_conn
2 *9:4 *9:5 0.412785  // $metal1_conn
3 *9:5 *9:6 0.045028  // $metal1_conn
4 *9:6 *9:7 0.500392  // $metal1_conn
5 *9:7 *9:8 0.456302  // $metal1_conn
6 *9:8 *9:9 0.537018  // $metal1_conn
7 *9:9 *9:10 0.51659  // $metal1_conn
8 *9:10 *9:11 0.393665  // $metal1_conn
9 *9:11 *9 0.107571  // $metal1_conn
10 *9:4 *61:s 62.045841  // $metal1_conn
11 *9:6 *32:s 62.208263  // $metal1_conn
12 *9:7 *76:s 62.045841  // $metal1_conn
13 *9:8 *38:s 62.071499  // $metal1_conn
14 *9:9 *35:s 62.306461  // $metal1_conn
15 *9:10 *45:s 62.213829  // $metal1_conn
16 *9:11 *43:s 21.080509  // $metal1_conn
17 *9:2 *9:3 7.5  // $metal1_conn
18 *9:2 *9:5 7.5  // $metal1_conn
19 *9:2 *9:8 7.5  // $metal1_conn
20 *9:2 *9:10 6.818182  // $metal1_conn

*END

*D_NET *19 0

*CONN
*P *19 I *C 0.1000 0.0000 
*I *55:s B *C 6.0675 0.4375 
*I *59:s B *C 6.6850 0.3850 
*I *62:s B *C 6.9250 0.3325 
*I *68:s B *C 7.8750 0.5525 
*I *70:s B *C 7.8750 0.5525 
*I *72:s B *C 4.1675 0.5775 
*I *5:s B *C 5.2000 0.5300 
*I *7:s B *C 5.2000 0.5300 
*I *10:s B *C 6.0675 0.4375 
*I *12:s B *C 2.1850 0.5875 
*I *15:s B *C 3.1950 0.3625 
*I *17:s B *C 3.1950 0.3625 
*I *18:s B *C 4.1675 0.5775 
*I *20:s B *C 0.4000 0.5875 
*I *21:s B *C 0.4000 0.5875 
*I *22:s B *C 1.1250 0.5875 
*I *23:s B *C 1.1250 0.5875 
*I *26:s B *C 2.1850 0.5875 
*N *19:2 *C 7.2000 0.0000 
*N *19:3 *C 7.2000 0.0000 
*N *19:4 *C 6.8850 0.0000 
*N *19:5 *C 6.6550 0.0000 
*N *19:6 *C 6.1700 0.0000 
*N *19:7 *C 5.2000 0.0000 
*N *19:8 *C 5.1300 0.0000 
*N *19:9 *C 4.0250 0.0000 
*N *19:10 *C 3.2000 0.0000 
*N *19:11 *C 2.1300 0.0000 
*N *19:12 *C 1.1000 0.0000 
*N *19:13 *C 0.3150 0.0000 


*RES
0 *68:s *19:3 75.737038  // $metal1_conn
1 *19:3 *19:4 0.15785  // $metal1_conn
2 *19:4 *19:5 0.115007  // $metal1_conn
3 *19:5 *19:6 0.242949  // $metal1_conn
4 *19:6 *19:7 0.486486  // $metal1_conn
5 *19:7 *19:8 0.034978  // $metal1_conn
6 *19:8 *19:9 0.554024  // $metal1_conn
7 *19:9 *19:10 0.413735  // $metal1_conn
8 *19:10 *19:11 0.53666  // $metal1_conn
9 *19:11 *19:12 0.51659  // $metal1_conn
10 *19:12 *19:13 0.393665  // $metal1_conn
11 *19:13 *19 0.107571  // $metal1_conn
12 *19:4 *62:s 75.191879  // $metal1_conn
13 *19:5 *59:s 75.203484  // $metal1_conn
14 *19:6 *55:s 75.272766  // $metal1_conn
15 *19:8 *5:s 75.305107  // $metal1_conn
16 *19:9 *72:s 75.09745  // $metal1_conn
17 *19:10 *15:s 75.235374  // $metal1_conn
18 *19:11 *12:s 75.117203  // $metal1_conn
19 *19:12 *22:s 75.386162  // $metal1_conn
20 *19:13 *20:s 75.289398  // $metal1_conn
21 *19:2 *19:3 6.2  // $metal1_conn
22 *19:2 *19:7 6.2  // $metal1_conn
23 *19:2 *19:10 6.2  // $metal1_conn
24 *19:2 *19:12 5.636364  // $metal1_conn

*END

*D_NET *28 1.93031e-16

*CONN
*P *28 I *C 3.3000 0.8550 
*I *17:g B *C 3.2975 0.3625 
*I *39:g B *C 3.3575 1.0075 
*N *28:2 *C 3.3200 0.7300 
*N *28:4 *C 3.3100 0.7300 
*N *28:5 *C 3.3200 0.7300 
*N *28:6 *C 3.3100 0.8550 

*CAP
0 *39:g 3.57744e-17
1 *17:g 3.51807e-17
2 *28:6 5.62186e-17
3 *28:4 3.31625e-17
4 *28:2 3.26944e-17

*RES
0 *39:g *28:2 34.103935  // $poly_conn
1 *28:2 *17:g 66.15522  // $poly_conn
2 *28:4 *28:5 0.001437  // $metal1_conn
3 *28 *28:6 0.001365  // $metal1_conn
4 *28:4 *28:6 0.071045  // $metal1_conn
5 *28:2 *28:5 45  // $metal1_conn

*END

*D_NET *41 1.85696e-16

*CONN
*P *41 I *C 7.9000 1.0450 
*I *70:g B *C 7.9775 0.5525 
*I *75:g B *C 7.9775 1.0075 
*N *41:2 *C 7.9400 0.7600 

*CAP
0 *75:g 3.1524e-17
1 *70:g 2.69211e-17
2 *41:2 7.1096e-17
3 *41 5.61546e-17

*RES
0 *75:g *41:2 26.411629  // $poly_conn
1 *41:2 *70:g 25.129578  // $poly_conn
2 *41:2 *41 45.168175  // $metal1_conn

*END

*D_NET *42 4.46372e-16

*CONN
*P *42 I *C 7.5000 0.8550 
*I *62:g B *C 7.0175 0.3325 
*I *68:g B *C 7.7725 0.5525 
*I *69:g B *C 6.9725 1.0925 
*I *73:g B *C 7.7725 1.0075 
*N *42:2 *C 7.0450 0.8000 
*N *42:5 *C 7.7725 0.7725 
*N *42:6 *C 7.4800 0.8000 

*CAP
0 *73:g 3.83249e-17
1 *69:g 4.04272e-17
2 *68:g 2.52298e-17
3 *62:g 6.87252e-17
4 *42:5 2.37647e-17
5 *42:2 1.4517e-16
6 *42:6 8.06156e-17
7 *42 2.41148e-17

*RES
0 *62:g *42:2 89.606964  // $poly_conn
1 *42:2 *69:g 41.010433  // $poly_conn
2 *73:g *42:5 31.540302  // $poly_conn
3 *42:5 *42:6 106.787308  // $poly_conn
4 *42:5 *68:g 36.668507  // $poly_conn
5 *42 *42:6 0.031222  // $metal1_conn
6 *42:6 *42:2 45.262878  // $metal1_conn

*END

*D_NET *27 2.27682e-16

*CONN
*P *27 I *C 5.9000 1.0450 
*I *10:g B *C 5.8925 0.4375 
*I *34:g B *C 5.8925 1.1225 
*N *27:2 *C 5.9200 0.9050 

*CAP
0 *34:g 3.10969e-17
1 *10:g 4.13947e-17
2 *27:2 1.0694e-16
3 *27 4.82512e-17

*RES
0 *34:g *27:2 19.691952  // $poly_conn
1 *27:2 *10:g 92.768875  // $poly_conn
2 *27 *27:2 45.078079  // $metal1_conn

*END

*D_NET *29 4.35002e-16

*CONN
*P *29 I *C 3.9000 0.6650 
*I *74:g B *C 4.6575 0.5775 
*I *18:g B *C 3.9225 0.5775 
*I *31:g B *C 4.7325 1.0575 
*I *40:g B *C 3.9775 1.0575 
*N *29:2 *C 3.9500 0.7600 
*N *29:5 *C 4.6300 0.7600 
*N *29:7 *C 3.9500 0.6650 

*CAP
0 *40:g 3.7657e-17
1 *31:g 3.66774e-17
2 *18:g 2.03809e-17
3 *74:g 2.45884e-17
4 *29:7 1.14397e-16
5 *29:2 4.47911e-17
6 *29:5 1.32079e-16
7 *29 2.44302e-17

*RES
0 *40:g *29:2 40.204773  // $poly_conn
1 *29:2 *18:g 19.691952  // $poly_conn
2 *31:g *29:5 49.984791  // $poly_conn
3 *29:5 *74:g 16.530039  // $poly_conn
4 *29:5 *29:7 45.798164  // $metal1_conn
5 *29:7 *29 0.011755  // $metal1_conn
6 *29:7 *29:2 45.082756  // $metal1_conn

*END

*D_NET *30 2.25457e-16

*CONN
*P *30 I *C 4.3000 0.8550 
*I *72:g B *C 4.2425 0.5775 
*I *76:g B *C 4.2425 1.0575 
*N *30:2 *C 4.2150 0.7600 

*CAP
0 *76:g 4.68848e-17
1 *72:g 2.35586e-17
2 *30:2 1.11827e-16
3 *30 4.31867e-17

*RES
0 *76:g *30:2 40.204773  // $poly_conn
1 *30:2 *72:g 19.691952  // $poly_conn
2 *30 *30:2 45.019501  // $metal1_conn

*END

*D_NET *50 1.47205e-16

*CONN
*P *50 O *C 5.5000 0.6650 
*I *7:d B *C 5.4025 0.5300 
*I *33:d B *C 5.3650 1.1450 
*N *50:2 *C 5.4500 0.6000 

*CAP
0 *33:d 6.87668e-17
1 *7:d 7.84379e-17

*RES
0 *50:2 *50 0.043535  // $metal1_conn
1 *50 *33:d 62.266411  // $metal1_conn
2 *7:d *50:2 75  // $metal1_conn

*END

*D_NET *16 7.74219e-17

*CONN
*P *16 O *C 0.1000 0.6650 
*I *20:d B *C 0.1200 0.5300 
*I *43:d B *C 0.1200 1.0950 

*CAP
0 *43:d 5.12334e-17
1 *20:d 9.39907e-18
2 *16 1.67894e-17

*RES
0 *16 *20:d 75.039078  // $metal1_conn
1 *16 *43:d 20.925203  // $metal1_conn

*END

*D_NET *11 0

*CONN
*I *62:d B *C 7.0700 0.3325 
*I *65:s B *C 7.0700 0.3325 


*RES
0 *65:s *62:d 0.001  // $mwires

*END

*D_NET *8 2.06852e-18

*CONN
*I *57:s B *C 6.5000 0.4375 
*I *59:d B *C 6.5000 0.4375 

*CAP
0 *57:s 2.06852e-18

*RES
0 *59:d *57:s 0.001  // $mwires

*END

*D_NET *6 0

*CONN
*I *3:s B *C 4.9450 0.5775 
*I *5:d B *C 4.9450 0.5775 


*RES
0 *5:d *3:s 0.001  // $mwires

*END

*D_NET *4 6.43259e-18

*CONN
*I *72:d B *C 4.4500 0.5775 
*I *74:s B *C 4.4500 0.5775 

*CAP
0 *72:d 6.43259e-18

*RES
0 *74:s *72:d 0.001  // $mwires

*END

*D_NET *2 0

*CONN
*I *12:d B *C 2.2850 0.5875 
*I *13:s B *C 2.2850 0.5875 


*RES
0 *13:s *12:d 0.001  // $mwires

*END

*D_NET *1 1.54164e-18

*CONN
*I *23:d B *C 1.3500 0.5875 
*I *24:s B *C 1.3500 0.5875 

*CAP
0 *23:d 1.54164e-18

*RES
0 *24:s *23:d 0.001  // $mwires

*END

*D_NET *87 1.41178e-18

*CONN
*I *31:s B *C 4.8650 1.0575 
*I *32:d B *C 4.8650 1.0575 

*CAP
0 *31:s 1.41178e-18

*RES
0 *32:d *31:s 0.001  // $mwires

*END

*D_NET *86 3.38088e-18

*CONN
*I *76:d B *C 4.3425 1.0575 
*I *77:s B *C 4.3425 1.0575 

*CAP
0 *76:d 3.38088e-18

*RES
0 *77:s *76:d 0.001  // $mwires

*END

*D_NET *85 1.06974e-18

*CONN
*I *35:d B *C 2.2850 1.2025 
*I *36:s B *C 2.2850 1.2025 

*CAP
0 *35:d 1.06974e-18

*RES
0 *36:s *35:d 0.001  // $mwires

*END

*D_NET *84 3.62286e-19

*CONN
*I *46:d B *C 1.3475 1.2025 
*I *47:s B *C 1.3475 1.2025 

*CAP
0 *46:d 3.62286e-19

*RES
0 *47:s *46:d 0.001  // $mwires

*END

*D_NET *83 1.74918e-15

*CONN
*I *57:g B *C 6.4475 0.4375 
*I *7:g B *C 5.2725 0.5300 
*I *21:g B *C 0.4475 0.5875 
*I *22:d B *C 0.8900 0.5875 
*I *23:g B *C 1.2575 0.5875 
*I *64:g B *C 6.3625 1.1225 
*I *33:g B *C 5.2725 1.1450 
*I *44:g B *C 0.4475 1.0075 
*I *45:d B *C 0.8500 1.2025 
*I *46:g B *C 1.2575 1.2025 
*N *83:1 *C 0.5050 1.2150 
*N *83:6 *C 1.2950 1.4100 
*N *83:8 *C 5.2450 0.8400 
*N *83:12 *C 6.3000 1.3350 
*N *83:13 *C 5.1850 1.2100 
*N *83:14 *C 1.2950 1.3450 
*N *83:16 *C 0.8400 1.2100 

*CAP
0 *46:g 5.48735e-17
1 *45:d 8.62963e-17
2 *44:g 3.10433e-17
3 *33:g 3.26395e-17
4 *64:g 5.16707e-17
5 *23:g 5.47778e-17
6 *22:d 4.51064e-17
7 *21:g 4.42416e-17
8 *7:g 4.66715e-17
9 *57:g 9.50818e-17
10 *83:14 4.24595e-16
11 *83:13 4.8584e-16
12 *83:1 5.16567e-17
13 *83:6 4.87706e-17
14 *83:8 7.03456e-17
15 *83:12 1.25567e-16

*RES
0 *83:1 *44:g 65.732071  // $poly_conn
1 *44:g *21:g 61.538464  // $poly_conn
2 *46:g *23:g 111.53846  // $poly_conn
3 *46:g *83:6 61.15522  // $poly_conn
4 *33:g *83:8 19.691952  // $poly_conn
5 *83:8 *7:g 37.640671  // $poly_conn
6 *57:g *64:g 139.454025  // $poly_conn
7 *64:g *83:12 66.938644  // $poly_conn
8 *83:12 *83:13 0.853507  // $metal1_conn
9 *83:13 *83:14 3.35651  // $metal1_conn
10 *83:14 *83:16 0.409356  // $metal1_conn
11 *83:16 *83:1 0.222107  // $metal1_conn
12 *83:13 *83:8 45.253551  // $metal1_conn
13 *83:14 *83:6 0.034657  // $metal1_conn
14 *83:16 *22:d 75.423637  // $metal1_conn
15 *45:d *83:16 62  // $metal1_conn

*END

*D_NET *82 2.08399e-16

*CONN
*I *20:g B *C 0.2125 0.5300 
*I *21:d B *C 0.5400 0.5875 
*I *43:g B *C 0.2125 1.0950 
*I *44:d B *C 0.5400 1.0075 
*N *82:1 *C 0.3000 0.7600 
*N *82:2 *C 0.2125 0.7600 
*N *82:6 *C 0.5400 0.7500 

*CAP
0 *44:d 3.18029e-17
1 *43:g 4.25834e-17
2 *21:d 1.56129e-17
3 *20:g 3.70827e-17
4 *82:6 2.21106e-17
5 *82:2 6.9428e-18
6 *82:1 5.22638e-17

*RES
0 *82:1 *82:2 48.890118  // $poly_conn
1 *82:2 *20:g 20.563484  // $poly_conn
2 *82:2 *43:g 30.819893  // $poly_conn
3 *44:d *82:6 62.129974  // $metal1_conn
4 *82:6 *82:1 0.125716  // $metal1_conn
5 *82:6 *21:d 75.093895  // $metal1_conn

*END

*D_NET *81 8.81482e-16

*CONN
*I *13:g B *C 2.3375 0.5875 
*I *15:d B *C 2.9900 0.3625 
*I *25:g B *C 1.6475 0.5875 
*I *37:g B *C 2.5725 1.2025 
*I *38:d B *C 2.9900 1.0075 
*I *47:g B *C 1.4375 1.2025 
*N *81:2 *C 1.4000 0.8900 
*N *81:4 *C 1.6850 0.3700 
*N *81:6 *C 2.3750 0.3450 
*N *81:8 *C 2.6100 0.8900 
*N *81:11 *C 2.9700 0.3750 
*N *81:12 *C 2.6100 0.3450 

*CAP
0 *47:g 5.29538e-17
1 *38:d 5.7241e-17
2 *37:g 3.33607e-17
3 *25:g 5.78888e-17
4 *15:d 6.67347e-17
5 *13:g 8.18389e-17
6 *81:12 5.45623e-17
7 *81:2 1.3233e-16
8 *81:4 1.16879e-16
9 *81:6 9.33101e-17
10 *81:8 1.34384e-16

*RES
0 *47:g *81:2 88.078293  // $poly_conn
1 *25:g *81:4 72.69368  // $poly_conn
2 *13:g *81:6 79.103935  // $poly_conn
3 *37:g *81:8 88.078293  // $poly_conn
4 *38:d *81:11 62.436111  // $metal1_conn
5 *81:11 *81:12 0.255833  // $metal1_conn
6 *81:12 *81:6 0.172062  // $metal1_conn
7 *81:6 *81:4 0.532138  // $metal1_conn
8 *81:4 *81:2 0.585665  // $metal1_conn
9 *81:12 *81:8 0.409867  // $metal1_conn
10 *15:d *81:11 75  // $metal1_conn

*END

*D_NET *80 3.45582e-16

*CONN
*I *22:g B *C 0.9925 0.5875 
*I *24:d B *C 1.5450 0.5875 
*I *25:d B *C 1.5450 0.5875 
*I *45:g B *C 0.9425 1.2025 
*I *47:d B *C 1.5425 1.2025 
*I *48:d B *C 1.5425 1.2025 
*N *80:2 *C 1.0300 0.9700 
*N *80:5 *C 1.5675 1.0500 

*CAP
0 *47:d 3.36719e-17
1 *45:g 3.13475e-17
2 *24:d 6.44591e-17
3 *22:g 3.15821e-17
4 *80:5 8.36728e-17
5 *80:2 1.00849e-16

*RES
0 *22:g *80:2 70.001373  // $poly_conn
1 *80:2 *45:g 30.471972  // $poly_conn
2 *24:d *80:5 75.342812  // $metal1_conn
3 *80:5 *80:2 45.422264  // $metal1_conn
4 *80:5 *47:d 62.059532  // $metal1_conn

*END

*D_NET *79 4.27571e-16

*CONN
*I *12:g B *C 2.2325 0.5875 
*I *25:s B *C 1.8075 0.5875 
*I *26:d B *C 1.8075 0.5875 
*I *35:g B *C 2.2325 1.2025 
*I *48:s B *C 1.8075 1.2025 
*I *49:d B *C 1.8075 1.2025 
*N *79:2 *C 2.2050 0.9300 
*N *79:4 *C 1.7500 0.9300 

*CAP
0 *48:s 5.49344e-17
1 *35:g 6.38599e-17
2 *25:s 4.73047e-17
3 *12:g 6.81184e-17
4 *79:4 6.74202e-17
5 *79:2 1.25934e-16

*RES
0 *35:g *79:2 33.794518  // $poly_conn
1 *79:2 *12:g 60.71759  // $poly_conn
2 *79:2 *79:4 45.341526  // $metal1_conn
3 *79:4 *25:s 75.257355  // $metal1_conn
4 *79:4 *48:s 62.182423  // $metal1_conn

*END

*D_NET *78 3.09985e-16

*CONN
*I *13:d B *C 2.4450 0.5875 
*I *14:d B *C 2.4450 0.5875 
*I *26:g B *C 1.9675 0.5875 
*I *36:d B *C 2.4550 1.2025 
*I *37:d B *C 2.4550 1.2025 
*I *49:g B *C 1.9675 1.2025 
*N *78:2 *C 1.9950 0.7700 
*N *78:5 *C 2.4500 0.7700 

*CAP
0 *49:g 4.81813e-17
1 *36:d 4.60113e-17
2 *26:g 3.24379e-17
3 *13:d 2.90471e-17
4 *78:5 6.3845e-17
5 *78:2 9.04628e-17

*RES
0 *49:g *78:2 74.820152  // $poly_conn
1 *78:2 *26:g 19.691952  // $poly_conn
2 *36:d *78:5 62.292496  // $metal1_conn
3 *78:5 *78:2 45.311016  // $metal1_conn
4 *78:5 *13:d 75.126137  // $metal1_conn

*END

*D_NET *66 6.6068e-16

*CONN
*I *74:d B *C 4.7750 0.5775 
*I *3:d B *C 4.7750 0.5775 
*I *14:s B *C 2.7025 0.5875 
*I *77:d B *C 4.5875 1.0575 
*I *31:d B *C 4.5875 1.0575 
*I *37:s B *C 2.7125 1.2025 
*N *66:3 *C 4.6300 1.0100 
*N *66:5 *C 2.7700 1.2200 

*CAP
0 *37:s 2.37357e-16
1 *77:d 2.74676e-16
2 *14:s 8.45874e-17
3 *74:d 6.4059e-17

*RES
0 *74:d *66:3 75.412216  // $metal1_conn
1 *66:3 *66:5 1.630146  // $metal1_conn
2 *66:5 *14:s 75.415504  // $metal1_conn
3 *77:d *66:3 62  // $metal1_conn
4 *37:s *66:5 62  // $metal1_conn

*END

*D_NET *63 7.07262e-16

*CONN
*I *14:g B *C 2.5525 0.5875 
*I *15:g B *C 3.0925 0.3625 
*I *17:d B *C 3.4300 0.3625 
*I *24:g B *C 1.4425 0.5875 
*I *36:g B *C 2.3375 1.2025 
*I *38:g B *C 3.0925 1.0075 
*I *39:d B *C 3.4600 1.0075 
*I *48:g B *C 1.6475 1.2025 
*N *63:2 *C 3.0925 0.7575 
*N *63:3 *C 2.5525 0.7575 
*N *63:7 *C 3.1300 0.5700 
*N *63:11 *C 3.4800 0.5400 

*CAP
0 *48:g 1.12543e-16
1 *39:d 5.86919e-17
2 *38:g 3.15414e-17
3 *36:g 1.28684e-16
4 *24:g 8.26736e-17
5 *17:d 2.68086e-17
6 *15:g 2.44978e-17
7 *14:g 2.21847e-17
8 *63:11 5.08736e-17
9 *63:3 7.00223e-17
10 *63:2 2.54271e-17
11 *63:7 7.33136e-17

*RES
0 *38:g *63:2 35.386456  // $poly_conn
1 *63:2 *63:3 132.610016  // $poly_conn
2 *63:3 *36:g 122.772614  // $poly_conn
3 *36:g *48:g 268.941223  // $poly_conn
4 *48:g *24:g 140.446503  // $poly_conn
5 *63:2 *63:7 36.118465  // $poly_conn
6 *63:7 *15:g 23.808931  // $poly_conn
7 *63:3 *14:g 20.300484  // $poly_conn
8 *39:d *63:11 62.342648  // $metal1_conn
9 *63:11 *63:7 45.228024  // $metal1_conn
10 *63:11 *17:d 75.120949  // $metal1_conn

*END

*D_NET *60 7.01398e-16

*CONN
*I *3:g B *C 4.8925 0.5775 
*I *18:d B *C 3.7725 0.5775 
*I *77:g B *C 4.4425 1.0575 
*I *40:d B *C 3.8850 1.0575 
*N *60:2 *C 4.4700 0.8400 
*N *60:4 *C 4.8550 0.2250 
*N *60:6 *C 3.7050 0.5650 
*N *60:8 *C 3.8750 1.0900 

*CAP
0 *40:d 1.3476e-16
1 *77:g 4.26196e-17
2 *18:d 1.75867e-16
3 *3:g 6.4049e-17
4 *60:2 1.29121e-16
5 *60:4 1.54982e-16

*RES
0 *77:g *60:2 64.691956  // $poly_conn
1 *3:g *60:4 107.309067  // $poly_conn
2 *60:4 *60:6 1.067737  // $metal1_conn
3 *60:6 *60:8 0.481775  // $metal1_conn
4 *60:8 *60:2 0.646178  // $metal1_conn
5 *18:d *60:6 75  // $metal1_conn
6 *40:d *60:8 62  // $metal1_conn

*END

*D_NET *58 9.37819e-16

*CONN
*I *55:d B *C 6.3450 0.4375 
*I *57:d B *C 6.3450 0.4375 
*I *65:d B *C 7.2150 0.3325 
*I *5:g B *C 4.9975 0.5775 
*I *69:d B *C 6.8800 1.0925 
*I *71:d B *C 7.2700 1.0925 
*I *32:g B *C 4.9975 1.0575 
*N *58:2 *C 5.0250 0.7600 
*N *58:5 *C 6.8625 0.9800 
*N *58:6 *C 6.3750 0.5850 
*N *58:8 *C 6.3450 0.4500 

*CAP
0 *32:g 3.69338e-17
1 *71:d 7.15639e-17
2 *69:d 2.2422e-17
3 *5:g 4.74002e-17
4 *65:d 1.1059e-16
5 *55:d 9.39857e-17
6 *58:6 2.33181e-16
7 *58:5 1.10796e-16
8 *58:2 2.10946e-16

*RES
0 *32:g *58:2 40.204773  // $poly_conn
1 *58:2 *5:g 19.691952  // $poly_conn
2 *71:d *58:5 62.338211  // $metal1_conn
3 *58:5 *58:6 0.638559  // $metal1_conn
4 *58:6 *58:8 0.070994  // $metal1_conn
5 *58:5 *69:d 62.045097  // $metal1_conn
6 *58:6 *58:2 46.474819  // $metal1_conn
7 *58:8 *65:d 75.701256  // $metal1_conn
8 *55:d *58:8 75  // $metal1_conn

*END

*D_NET *56 3.67416e-16

*CONN
*I *55:g B *C 6.2425 0.4375 
*I *10:d B *C 5.7850 0.4375 
*I *61:g B *C 6.1575 1.1225 
*I *34:d B *C 5.7700 1.1225 
*N *56:2 *C 6.1200 0.7450 
*N *56:4 *C 5.7300 0.7450 

*CAP
0 *34:d 5.30426e-17
1 *61:g 5.81242e-17
2 *10:d 4.52892e-17
3 *55:g 3.79357e-17
4 *56:4 5.41798e-17
5 *56:2 1.18844e-16

*RES
0 *55:g *56:2 67.651459  // $poly_conn
1 *56:2 *61:g 59.744961  // $poly_conn
2 *56:2 *56:4 45.285679  // $metal1_conn
3 *56:4 *34:d 62.24432  // $metal1_conn
4 *56:4 *10:d 75.212334  // $metal1_conn

*END

*D_NET *54 4.69594e-16

*CONN
*I *59:g B *C 6.5525 0.4375 
*I *68:d B *C 7.6800 0.5525 
*I *67:g B *C 6.5675 1.1225 
*I *73:d B *C 7.6800 1.0075 
*N *54:2 *C 6.5950 0.6400 
*N *54:5 *C 7.6700 0.6400 

*CAP
0 *73:d 5.09477e-17
1 *67:g 5.28251e-17
2 *68:d 2.19003e-17
3 *59:g 4.58937e-17
4 *54:5 1.04243e-16
5 *54:2 1.93784e-16

*RES
0 *67:g *54:2 84.478767  // $poly_conn
1 *54:2 *59:g 23.925888  // $poly_conn
2 *73:d *54:5 62.236462  // $metal1_conn
3 *54:5 *54:2 45.826115  // $metal1_conn
4 *54:5 *68:d 75.063705  // $metal1_conn

*END

*D_NET *53 1.47016e-16

*CONN
*I *64:d B *C 6.4650 1.1225 
*I *67:d B *C 6.4650 1.1225 
*I *69:s B *C 7.0750 1.0925 
*I *71:s B *C 7.0750 1.0925 
*N *53:3 *C 6.4650 1.1700 

*CAP
0 *69:s 7.95851e-17
1 *64:d 6.74306e-17

*RES
0 *69:s *53:3 62.511852  // $metal1_conn
1 *64:d *53:3 62  // $metal1_conn

*END

*D_NET *52 1.37307e-16

*CONN
*I *61:d B *C 6.2600 1.1225 
*I *64:s B *C 6.2600 1.1225 
*I *67:s B *C 6.6600 1.1225 

*CAP
0 *67:s 7.66907e-17
1 *61:d 6.06162e-17

*RES
0 *67:s *61:d 124.331734  // $metal1_conn

*END

*D_NET *51 3.99128e-16

*CONN
*I *65:g B *C 7.1225 0.3325 
*I *70:d B *C 8.0800 0.5525 
*I *71:g B *C 7.1775 1.0925 
*I *75:d B *C 8.0800 1.0075 
*N *51:3 *C 7.2200 1.3000 
*N *51:5 *C 8.1000 1.0550 

*CAP
0 *75:d 1.08429e-16
1 *71:g 5.97251e-17
2 *70:d 4.32152e-17
3 *65:g 8.71843e-17
4 *51:3 1.00574e-16

*RES
0 *65:g *71:g 150.992477  // $poly_conn
1 *71:g *51:3 61.15522  // $poly_conn
2 *51:5 *51:3 0.775011  // $metal1_conn
3 *51:5 *70:d 75.356995  // $metal1_conn
4 *75:d *51:5 62  // $metal1_conn

*END

