*SPEF "IEEE 1481-1999"
*DESIGN  "SMDFFHQX4"
*DATE "Mon Sep 27 11:18:55 2010"
*VENDOR "Cadence Design Systems"
*PROGRAM "Assura RCX"
*VERSION "3.2 Red Hat Linux release 7.2 (Enigma) - (09/09/2009-10:39)"
*DESIGN_FLOW "Physical Verification"
*DIVIDER /
*DELIMITER :
*BUS_DELIMITER []
*T_UNIT 1 PS
*C_UNIT 1e15 FF
*R_UNIT 1 OHM
*L_UNIT 1 MH
// DeviceFingerDelim "@"
// MATCHED
// caps2d version: 10

*NAME_MAP
*1 mn55
*2 net409
*3 net393
*4 net417
*5 net425
*6 net429
*7 net482
*8 net474
*9 net490
*10 mn55\@1
*11 net498
*12 mn55\@2
*13 net510
*14 mn55\@3
*15 mn45
*16 mn45\@1
*17 mp3
*18 mp0
*19 mp50
*20 mp51
*21 mp40
*22 mp30
*23 mp35
*24 mp36
*25 mp20
*26 mp55
*27 mp55\@1
*28 mp55\@2
*29 VDD
*30 mp55\@3
*31 mp45
*32 mp45\@1
*33 mn25
*34 mn21
*35 mp25
*36 mn12
*37 mp21
*38 mn13
*39 VSS
*40 mp12
*41 mn11
*42 mp13
*43 mn10
*44 D0
*45 mp11
*46 mn1
*47 S0
*48 D1
*49 mp10
*50 mn2
*51 mp1
*52 mn4
*53 mp2
*54 mp4
*55 CK
*56 Q
*57 SE
*58 SI
*59 mout
*60 qbint
*61 n30
*62 n20
*63 dbp
*64 S0b
*65 SEb
*66 db
*67 mn3
*68 CKbb
*69 mn0
*70 CKb
*71 mn50
*72 mn51
*73 mn40
*74 mn30
*75 mn35
*76 mn36
*77 mn20

*GROUND_NETS VSS

*PORTS
*29 I
*39 I
*55 I
*44 I
*48 I
*47 I
*57 I
*58 I
*56 O

*D_NET *29 8.285e-16

*CONN
*P *29 I *C 0.1000 1.7100 
*I *37:s B *C 4.1150 1.1650 
*I *40:s B *C 4.1150 1.1650 
*I *49:s B *C 5.2900 1.2850 
*I *51:s B *C 5.2900 1.2850 
*I *17:s B *C 6.2075 1.1975 
*I *18:s B *C 6.2075 1.1975 
*I *19:s B *C 1.8600 1.1150 
*I *22:s B *C 2.9800 1.1150 
*I *23:s B *C 2.9800 1.1150 
*I *25:s B *C 0.4500 1.1550 
*I *26:s B *C 0.4500 1.1550 
*I *27:s B *C 0.9200 1.1550 
*I *28:s B *C 0.9200 1.1550 
*I *30:s B *C 1.3900 1.1150 
*I *31:s B *C 1.3900 1.1150 
*I *32:s B *C 1.8600 1.1150 
*N *29:2 *C 5.7000 1.7100 
*N *29:3 *C 5.7000 1.7100 
*N *29:4 *C 5.2800 1.7100 
*N *29:5 *C 4.0450 1.7100 
*N *29:6 *C 3.5000 1.7100 
*N *29:7 *C 2.8650 1.7100 

*CAP
0 *22:s 3.33369e-17
1 *19:s 1.63206e-16
2 *17:s 5.17106e-17
3 *49:s 4.88833e-17
4 *37:s 3.53414e-17
5 *29:7 2.56315e-17
6 *29:5 3.05322e-17
7 *29:4 3.20116e-17
8 *29:2 4.00853e-16
9 *29 6.99405e-18

*RES
0 *19:s *29 0.132402  // $metal1_conn
1 *29:2 *29:3 6.818182  // $metal1_conn
2 *29:2 *29:6 6.818182  // $metal1_conn
3 *29:2 *19:s 6.25  // $metal1_conn
4 *17:s *29:3 62.393772  // $metal1_conn
5 *29:4 *49:s 31.222467  // $metal1_conn
6 *29:5 *37:s 62.254074  // $metal1_conn
7 *29:7 *22:s 62.203827  // $metal1_conn
8 *29:3 *29:4 0.210357  // $metal1_conn
9 *29:4 *29:5 0.618733  // $metal1_conn
10 *29:5 *29:6 0.273021  // $metal1_conn
11 *29:6 *29:7 0.318139  // $metal1_conn
12 *29:7 *19:s 0.561081  // $metal1_conn

*END

*D_NET *39 0

*CONN
*P *39 I *C 0.1000 0.0000 
*I *34:s B *C 4.1450 0.4900 
*I *36:s B *C 4.1450 0.4900 
*I *43:s B *C 5.5600 0.3650 
*I *46:s B *C 5.5600 0.3650 
*I *67:s B *C 6.2675 0.4225 
*I *69:s B *C 6.2675 0.4225 
*I *71:s B *C 1.7000 0.4975 
*I *74:s B *C 2.9800 0.4975 
*I *75:s B *C 2.9800 0.4975 
*I *77:s B *C 0.4100 0.5250 
*I *1:s B *C 0.4100 0.5250 
*I *10:s B *C 0.7650 0.5250 
*I *12:s B *C 0.7650 0.5250 
*I *14:s B *C 1.2250 0.4975 
*I *15:s B *C 1.2250 0.4975 
*I *16:s B *C 1.7000 0.4975 
*N *39:2 *C 5.7000 0.0000 
*N *39:3 *C 5.7000 0.0000 
*N *39:4 *C 5.2700 0.0000 
*N *39:5 *C 4.1150 0.0000 
*N *39:6 *C 3.5000 0.0000 
*N *39:7 *C 2.8950 0.0000 


*RES
0 *71:s *39 0.112349  // $metal1_conn
1 *39:2 *39:3 5.636364  // $metal1_conn
2 *39:2 *39:6 5.636364  // $metal1_conn
3 *39:2 *71:s 5.166667  // $metal1_conn
4 *67:s *39:3 75.524895  // $metal1_conn
5 *39:4 *43:s 75.181259  // $metal1_conn
6 *39:5 *34:s 75.27034  // $metal1_conn
7 *39:7 *74:s 75.045799  // $metal1_conn
8 *39:3 *39:4 0.21537  // $metal1_conn
9 *39:4 *39:5 0.578627  // $metal1_conn
10 *39:5 *39:6 0.308113  // $metal1_conn
11 *39:6 *39:7 0.302151  // $metal1_conn
12 *39:7 *71:s 0.655382  // $metal1_conn

*END

*D_NET *55 1.95164e-16

*CONN
*P *55 I *C 0.3000 0.8550 
*I *77:g B *C 0.2625 0.5825 
*I *25:g B *C 0.2325 1.0675 
*N *55:2 *C 0.2900 0.8500 
*N *55:4 *C 0.2900 0.8500 

*CAP
0 *25:g 3.25285e-17
1 *77:g 3.09061e-17
2 *55:2 1.31729e-16

*RES
0 *77:g *55:2 41.983803  // $poly_conn
1 *55:2 *25:g 28.148882  // $poly_conn
2 *55:4 *55 0.003109  // $metal1_conn
3 *55:2 *55:4 45  // $metal1_conn

*END

*D_NET *44 3.53995e-16

*CONN
*P *44 I *C 5.3000 0.6650 
*I *46:g B *C 5.6325 0.3650 
*I *51:g B *C 5.3825 1.2850 
*N *44:2 *C 5.3825 0.6300 
*N *44:3 *C 5.3100 0.6300 

*CAP
0 *51:g 9.12854e-17
1 *46:g 7.45384e-17
2 *44:2 3.11267e-17
3 *44:3 8.12441e-17
4 *44 7.58006e-17

*RES
0 *46:g *44:2 84.288452  // $poly_conn
1 *44:2 *44:3 49.285572  // $poly_conn
2 *44:2 *51:g 106.051529  // $poly_conn
3 *44:3 *44 0.021765  // $metal1_conn

*END

*D_NET *48 3.24565e-16

*CONN
*P *48 I *C 6.1000 1.0450 
*I *67:g B *C 6.0475 0.3650 
*I *17:g B *C 5.9425 1.2850 
*N *48:2 *C 6.0750 0.8350 

*CAP
0 *17:g 6.56879e-17
1 *67:g 7.66923e-17
2 *48:2 1.34308e-16
3 *48 4.78763e-17

*RES
0 *67:g *48:2 75.504395  // $poly_conn
1 *48:2 *17:g 74.343773  // $poly_conn
2 *48 *48:2 45.054539  // $metal1_conn

*END

*D_NET *47 5.24581e-16

*CONN
*P *47 I *C 6.3000 0.6650 
*I *52:g B *C 5.9425 0.3650 
*I *69:g B *C 6.3875 0.4225 
*I *53:g B *C 5.5375 1.2850 
*I *18:g B *C 6.3325 1.1975 
*N *47:1 *C 5.6300 0.9300 
*N *47:4 *C 5.9050 0.6750 
*N *47:6 *C 6.3600 0.7050 
*N *47:8 *C 6.3600 0.7050 

*CAP
0 *18:g 3.96707e-17
1 *53:g 5.70855e-17
2 *69:g 2.62961e-17
3 *52:g 6.51551e-17
4 *47:1 1.22177e-16
5 *47:4 1.15245e-16
6 *47:6 5.92676e-17
7 *47 3.96843e-17

*RES
0 *47:1 *53:g 84.728386  // $poly_conn
1 *52:g *47:4 81.668037  // $poly_conn
2 *69:g *47:6 45.332973  // $poly_conn
3 *47:6 *18:g 90.204765  // $poly_conn
4 *47:1 *47:4 0.382085  // $metal1_conn
5 *47:4 *47 0.292547  // $metal1_conn
6 *47 *47:8 0.035978  // $metal1_conn
7 *47:6 *47:8 45  // $metal1_conn

*END

*D_NET *57 3.98052e-16

*CONN
*P *57 I *C 5.1000 0.8550 
*I *38:g B *C 4.3975 0.4900 
*I *43:g B *C 5.1475 0.3075 
*I *45:g B *C 4.5275 1.1650 
*I *49:g B *C 5.1475 1.1975 
*N *57:2 *C 5.1100 0.8450 
*N *57:3 *C 4.5275 0.8725 
*N *57:7 *C 5.1050 0.8450 

*CAP
0 *49:g 3.49825e-17
1 *45:g 4.10685e-17
2 *43:g 3.49399e-17
3 *38:g 6.36342e-17
4 *57:7 7.88787e-17
5 *57:3 6.34539e-17
6 *57:2 5.47568e-17
7 *57 2.63373e-17

*RES
0 *49:g *57:2 53.334705  // $poly_conn
1 *57:2 *57:3 133.175766  // $poly_conn
2 *57:3 *38:g 84.714111  // $poly_conn
3 *57:2 *43:g 109.744965  // $poly_conn
4 *57:3 *45:g 23.465221  // $poly_conn
5 *57:7 *57 0.006219  // $metal1_conn
6 *57:2 *57:7 45  // $metal1_conn

*END

*D_NET *58 3.0992e-16

*CONN
*P *58 I *C 3.9000 0.8550 
*I *36:g B *C 4.2175 0.4900 
*I *40:g B *C 4.1875 1.1650 
*N *58:2 *C 4.1875 0.8500 
*N *58:3 *C 4.0750 0.8500 

*CAP
0 *40:g 8.59966e-17
1 *36:g 5.05637e-17
2 *58:2 3.76124e-17
3 *58:3 9.826e-17
4 *58 3.74872e-17

*RES
0 *36:g *58:2 56.843361  // $poly_conn
1 *58:2 *58:3 50.493343  // $poly_conn
2 *58:2 *40:g 27.458193  // $poly_conn
3 *58 *58:3 0.07548  // $metal1_conn

*END

*D_NET *56 2.0164e-16

*CONN
*P *56 O *C 0.5000 0.8550 
*I *1:d B *C 0.5600 0.5250 
*I *10:d B *C 0.5600 0.5250 
*I *12:d B *C 0.9700 0.5250 
*I *14:d B *C 0.9700 0.5250 
*I *26:d B *C 0.6000 1.1550 
*I *27:d B *C 0.6000 1.1550 
*I *28:d B *C 1.0700 1.1550 
*I *30:d B *C 1.0700 1.1550 

*CAP
0 *28:d 1.62026e-16
1 *56 3.96147e-17

*RES
0 *28:d *56 0.024322  // $metal1_conn

*END

*D_NET *13 0

*CONN
*I *52:s B *C 5.9950 0.3650 
*I *67:d B *C 5.9950 0.3650 


*RES
0 *67:d *52:s 0.001  // $mwires

*END

*D_NET *11 1.86927e-18

*CONN
*I *46:d B *C 5.6850 0.3650 
*I *50:s B *C 5.6850 0.3650 

*CAP
0 *46:d 1.86927e-18

*RES
0 *50:s *46:d 0.001  // $mwires

*END

*D_NET *9 0

*CONN
*I *36:d B *C 4.3075 0.4900 
*I *38:s B *C 4.3075 0.4900 


*RES
0 *38:s *36:d 0.001  // $mwires

*END

*D_NET *8 5.97186e-19

*CONN
*I *75:d B *C 3.0800 0.4975 
*I *76:s B *C 3.0800 0.4975 

*CAP
0 *75:d 5.97186e-19

*RES
0 *76:s *75:d 0.001  // $mwires

*END

*D_NET *7 3.0692e-18

*CONN
*I *71:d B *C 1.8275 0.4975 
*I *72:s B *C 1.8275 0.4975 

*CAP
0 *71:d 3.0692e-18

*RES
0 *72:s *71:d 0.001  // $mwires

*END

*D_NET *6 3.8671e-18

*CONN
*I *54:s B *C 5.8525 1.2850 
*I *17:d B *C 5.8525 1.2850 

*CAP
0 *54:s 3.8671e-18

*RES
0 *17:d *54:s 0.001  // $mwires

*END

*D_NET *5 2.88056e-18

*CONN
*I *51:d B *C 5.4600 1.2850 
*I *53:s B *C 5.4600 1.2850 

*CAP
0 *51:d 2.88056e-18

*RES
0 *53:s *51:d 0.001  // $mwires

*END

*D_NET *4 1.8729e-18

*CONN
*I *40:d B *C 4.2400 1.1650 
*I *42:s B *C 4.2400 1.1650 

*CAP
0 *40:d 1.8729e-18

*RES
0 *42:s *40:d 0.001  // $mwires

*END

*D_NET *3 3.88933e-18

*CONN
*I *23:d B *C 3.1425 1.1150 
*I *24:s B *C 3.1425 1.1150 

*CAP
0 *23:d 3.88933e-18

*RES
0 *24:s *23:d 0.001  // $mwires

*END

*D_NET *2 5.37362e-18

*CONN
*I *19:d B *C 1.9925 1.1150 
*I *20:s B *C 1.9925 1.1150 

*CAP
0 *19:d 5.37362e-18

*RES
0 *20:s *19:d 0.001  // $mwires

*END

*D_NET *70 1.16769e-15

*CONN
*I *33:g B *C 3.4325 0.4975 
*I *34:g B *C 4.0125 0.4375 
*I *72:g B *C 1.9075 0.4975 
*I *77:d B *C 0.1550 0.5825 
*I *37:g B *C 3.9425 1.2525 
*I *21:g B *C 2.2825 1.1150 
*I *24:g B *C 3.2575 1.1150 
*I *25:d B *C 0.1400 1.0675 
*N *70:2 *C 1.8800 0.7200 
*N *70:4 *C 2.2300 0.8600 
*N *70:6 *C 3.9425 0.6975 
*N *70:7 *C 3.4325 0.6975 
*N *70:9 *C 3.2200 1.3700 
*N *70:12 *C 2.3400 1.1950 
*N *70:13 *C 1.8800 1.2100 
*N *70:15 *C 0.1300 1.1150 

*CAP
0 *25:d 1.60765e-16
1 *24:g 3.37862e-17
2 *21:g 2.75011e-17
3 *37:g 5.14921e-17
4 *77:d 5.17636e-17
5 *72:g 4.53528e-17
6 *34:g 3.27841e-17
7 *33:g 2.35682e-17
8 *70:13 2.04101e-16
9 *70:12 9.86935e-17
10 *70:7 5.81085e-17
11 *70:6 5.51003e-17
12 *70:2 1.23467e-16
13 *70:4 8.9681e-17
14 *70:9 1.11529e-16

*RES
0 *72:g *70:2 67.256058  // $poly_conn
1 *21:g *70:4 66.126205  // $poly_conn
2 *34:g *70:6 58.959621  // $poly_conn
3 *70:6 *70:7 128.465225  // $poly_conn
4 *70:7 *24:g 93.285439  // $poly_conn
5 *24:g *70:9 61.15522  // $poly_conn
6 *70:6 *37:g 110.044075  // $poly_conn
7 *70:7 *33:g 20.300484  // $poly_conn
8 *70:4 *70:12 0.300253  // $metal1_conn
9 *70:12 *70:13 0.364967  // $metal1_conn
10 *70:13 *70:15 1.332836  // $metal1_conn
11 *70:15 *77:d 75.370041  // $metal1_conn
12 *70:12 *70:9 0.734297  // $metal1_conn
13 *70:13 *70:2 0.355022  // $metal1_conn
14 *25:d *70:15 62  // $metal1_conn

*END

*D_NET *68 8.71234e-16

*CONN
*I *34:d B *C 3.9200 0.4375 
*I *73:g B *C 2.3725 0.4975 
*I *76:g B *C 3.1325 0.4975 
*I *35:g B *C 3.4925 1.1150 
*I *37:d B *C 3.8700 1.2525 
*I *20:g B *C 2.0775 1.1150 
*N *68:2 *C 2.4100 0.7000 
*N *68:5 *C 3.1600 0.7200 
*N *68:7 *C 3.5200 0.8400 
*N *68:9 *C 3.5200 0.3700 
*N *68:10 *C 3.1400 0.3700 

*CAP
0 *20:g 8.62137e-17
1 *37:d 7.59227e-17
2 *35:g 3.80561e-17
3 *76:g 5.87037e-17
4 *73:g 1.81285e-17
5 *34:d 4.87469e-17
6 *68:10 1.00098e-16
7 *68:9 7.09382e-17
8 *68:2 1.30661e-16
9 *68:5 9.13857e-17
10 *68:7 1.52379e-16

*RES
0 *73:g *68:2 16.15522  // $poly_conn
1 *68:2 *20:g 127.907867  // $poly_conn
2 *76:g *68:5 67.256058  // $poly_conn
3 *35:g *68:7 67.256058  // $poly_conn
4 *37:d *68:7 62.52515  // $metal1_conn
5 *68:7 *68:9 0.35685  // $metal1_conn
6 *68:9 *68:10 0.28254  // $metal1_conn
7 *68:10 *68:2 45.85424  // $metal1_conn
8 *68:9 *34:d 75.2696  // $metal1_conn
9 *68:10 *68:5 0.250323  // $metal1_conn

*END

*D_NET *66 4.97886e-16

*CONN
*I *41:d B *C 4.7675 0.4900 
*I *50:d B *C 5.8400 0.3650 
*I *52:d B *C 5.8400 0.3650 
*I *45:s B *C 4.6625 1.1650 
*I *53:d B *C 5.6500 1.2850 
*I *54:d B *C 5.6500 1.2850 
*N *66:2 *C 5.4700 1.0725 
*N *66:3 *C 4.8200 1.0850 

*CAP
0 *53:d 6.60694e-17
1 *45:s 3.8809e-17
2 *50:d 9.65729e-17
3 *41:d 7.18306e-17
4 *66:3 8.11815e-17
5 *66:2 1.43422e-16

*RES
0 *50:d *66:2 75.731445  // $metal1_conn
1 *66:2 *66:3 0.483917  // $metal1_conn
2 *66:3 *45:s 62.080292  // $metal1_conn
3 *66:2 *53:d 20.930099  // $metal1_conn
4 *66:3 *41:d 75.357613  // $metal1_conn

*END

*D_NET *65 5.85955e-16

*CONN
*I *41:g B *C 4.6325 0.4900 
*I *43:d B *C 5.0550 0.3075 
*I *42:g B *C 4.2925 1.1650 
*I *49:d B *C 5.0550 1.1975 
*N *65:1 *C 4.3950 0.8600 
*N *65:4 *C 4.6600 0.7300 
*N *65:6 *C 4.5550 0.8300 

*CAP
0 *49:d 1.11058e-16
1 *42:g 7.73517e-17
2 *43:d 7.3124e-17
3 *41:g 3.89779e-17
4 *65:6 7.67059e-17
5 *65:1 8.93632e-17
6 *65:4 1.19374e-16

*RES
0 *65:1 *42:g 71.266663  // $poly_conn
1 *41:g *65:4 64.691956  // $poly_conn
2 *49:d *65:6 62.697731  // $metal1_conn
3 *65:6 *65:1 0.110659  // $metal1_conn
4 *65:6 *65:4 0.147053  // $metal1_conn
5 *65:4 *43:d 75.588783  // $metal1_conn

*END

*D_NET *64 4.53398e-16

*CONN
*I *50:g B *C 5.7375 0.3650 
*I *69:d B *C 6.4950 0.4225 
*I *54:g B *C 5.7625 1.2850 
*I *18:d B *C 6.4250 1.1975 
*N *64:2 *C 5.8000 0.9900 
*N *64:6 *C 6.4350 1.2450 

*CAP
0 *18:d 9.74404e-17
1 *54:g 4.45479e-17
2 *69:d 5.11333e-17
3 *50:g 1.03725e-16
4 *64:2 1.56552e-16

*RES
0 *54:g *64:2 16.15522  // $poly_conn
1 *64:2 *50:g 128.802383  // $poly_conn
2 *69:d *64:6 75.600403  // $metal1_conn
3 *64:6 *64:2 45.60318  // $metal1_conn
4 *18:d *64:6 62  // $metal1_conn

*END

*D_NET *63 4.05999e-16

*CONN
*I *33:d B *C 3.6125 0.4975 
*I *38:d B *C 4.5150 0.4900 
*I *41:s B *C 4.5150 0.4900 
*I *35:s B *C 3.6775 1.0200 
*I *42:d B *C 4.4100 1.1650 
*I *45:d B *C 4.4100 1.1650 
*N *63:2 *C 4.2350 1.0500 
*N *63:4 *C 3.6800 1.0200 
*N *63:6 *C 4.3950 1.0800 

*CAP
0 *42:d 7.00686e-17
1 *35:s 1.03001e-16
2 *38:d 8.08398e-17
3 *33:d 6.64812e-17
4 *63:2 8.56086e-17

*RES
0 *38:d *63:2 75.525291  // $metal1_conn
1 *63:2 *63:4 0.41415  // $metal1_conn
2 *63:2 *63:6 0.107176  // $metal1_conn
3 *63:6 *42:d 62.162655  // $metal1_conn
4 *63:4 *33:d 75.315735  // $metal1_conn
5 *35:s *63:4 62  // $metal1_conn
6 *42:d *63:6 62  // $metal1_conn

*END

*D_NET *62 3.65831e-16

*CONN
*I *33:s B *C 3.2825 0.4975 
*I *74:g B *C 2.7625 0.4975 
*I *76:d B *C 3.2825 0.4975 
*I *35:d B *C 3.3750 1.1150 
*I *22:g B *C 2.7625 1.1150 
*I *24:d B *C 3.3750 1.1150 
*N *62:2 *C 2.7900 0.8500 
*N *62:5 *C 3.3600 0.9100 

*CAP
0 *22:g 3.84217e-17
1 *35:d 5.32419e-17
2 *74:g 4.22951e-17
3 *33:s 6.43629e-17
4 *62:5 6.41283e-17
5 *62:2 1.03381e-16

*RES
0 *22:g *62:2 19.691952  // $poly_conn
1 *62:2 *74:g 55.58939  // $poly_conn
2 *35:d *62:5 31.149019  // $metal1_conn
3 *62:5 *62:2 45.394283  // $metal1_conn
4 *62:5 *33:s 75.30394  // $metal1_conn

*END

*D_NET *61 4.35738e-16

*CONN
*I *72:d B *C 2.1400 0.4975 
*I *73:s B *C 2.1400 0.4975 
*I *15:g B *C 1.2775 0.4975 
*I *16:g B *C 1.4825 0.4975 
*I *20:d B *C 2.1800 1.1150 
*I *21:d B *C 2.1800 1.1150 
*I *31:g B *C 1.4375 1.1150 
*I *32:g B *C 1.6425 1.1150 
*N *61:8 *C 1.5400 0.7000 
*N *61:10 *C 2.0400 0.5000 

*CAP
0 *32:g 9.43045e-17
1 *20:d 9.05386e-17
2 *15:g 7.13337e-17
3 *72:d 7.99531e-17
4 *61:8 9.96083e-17

*RES
0 *15:g *61:8 48.253387  // $poly_conn
1 *32:g *15:g 29.674955  // $poly_conn
2 *61:10 *61:8 0.470437  // $metal1_conn
3 *72:d *61:10 75  // $metal1_conn
4 *61:10 *20:d 62.4786  // $metal1_conn

*END

*D_NET *60 6.57407e-16

*CONN
*I *71:g B *C 1.7475 0.4975 
*I *1:g B *C 0.4575 0.5250 
*I *10:g B *C 0.6625 0.5250 
*I *12:g B *C 0.8675 0.5250 
*I *14:g B *C 1.0725 0.5250 
*I *15:d B *C 1.3800 0.4975 
*I *16:d B *C 1.3800 0.4975 
*I *19:g B *C 1.9075 1.1150 
*I *26:g B *C 0.4975 1.1550 
*I *27:g B *C 0.7025 1.1550 
*I *28:g B *C 0.9675 1.1550 
*I *30:g B *C 1.1725 1.1550 
*I *31:d B *C 1.5400 1.1150 
*I *32:d B *C 1.5400 1.1150 
*N *60:16 *C 1.7200 0.7200 
*N *60:18 *C 1.3800 0.8625 

*CAP
0 *31:d 4.64134e-17
1 *30:g 2.88196e-16
2 *19:g 7.50225e-17
3 *15:d 4.08457e-17
4 *71:g 4.44522e-17
5 *60:18 4.14866e-17
6 *60:16 1.20991e-16

*RES
0 *19:g *60:16 82.222893  // $poly_conn
1 *60:16 *71:g 22.256054  // $poly_conn
2 *60:16 *60:18 45.387783  // $metal1_conn
3 *60:18 *30:g 45.194973  // $metal1_conn
4 *60:18 *15:d 75.246796  // $metal1_conn
5 *60:18 *31:d 62.266048  // $metal1_conn

*END

*D_NET *59 3.68248e-16

*CONN
*I *73:d B *C 2.5675 0.4975 
*I *74:d B *C 2.5675 0.4975 
*I *75:g B *C 3.0275 0.4975 
*I *21:s B *C 2.5225 1.1150 
*I *22:d B *C 2.5225 1.1150 
*I *23:g B *C 3.0275 1.1150 
*N *59:2 *C 2.9800 0.7100 
*N *59:5 *C 2.6000 0.6800 

*CAP
0 *23:g 5.98855e-17
1 *21:s 6.01036e-17
2 *75:g 5.80143e-17
3 *73:d 4.44125e-17
4 *59:5 4.79144e-17
5 *59:2 9.7918e-17

*RES
0 *23:g *59:2 53.296108  // $poly_conn
1 *59:2 *75:g 17.398676  // $poly_conn
2 *21:s *59:5 62.247353  // $metal1_conn
3 *59:5 *73:d 75.161797  // $metal1_conn
4 *59:5 *59:2 45.249157  // $metal1_conn

*END

