*SPEF "IEEE 1481-1999"
*DESIGN  "SMDFFHQX2"
*DATE "Mon Sep 27 11:18:32 2010"
*VENDOR "Cadence Design Systems"
*PROGRAM "Assura RCX"
*VERSION "3.2 Red Hat Linux release 7.2 (Enigma) - (09/09/2009-10:39)"
*DESIGN_FLOW "Physical Verification"
*DIVIDER /
*DELIMITER :
*BUS_DELIMITER []
*T_UNIT 1 PS
*C_UNIT 1e15 FF
*R_UNIT 1 OHM
*L_UNIT 1 MH
// DeviceFingerDelim "@"
// MATCHED
// caps2d version: 10

*NAME_MAP
*1 VSS
*2 D0
*3 D1
*4 mp25
*5 mp21
*6 mp12
*7 mp13
*8 mp11
*9 mp10
*10 mp1
*11 mp2
*12 mp4
*13 CK
*14 mp3
*15 mn21
*16 mp0
*17 mn12
*18 mp55
*19 mn13
*20 mp55\@1
*21 mn11
*22 mp20
*23 mn10
*24 mp45
*25 mn1
*26 mout
*27 mp50
*28 mn2
*29 n30
*30 mp51
*31 mn4
*32 n20
*33 mp40
*34 mn3
*35 S0b
*36 mp30
*37 dbp
*38 SEb
*39 qbint
*40 db
*41 S0
*42 CKbb
*43 CKb
*44 mp35
*45 mp36
*46 VDD
*47 net409
*48 net393
*49 net417
*50 net425
*51 Q
*52 net429
*53 net482
*54 net474
*55 net490
*56 net498
*57 mn0
*58 net510
*59 mn25
*60 mn55
*61 SE
*62 mn55\@1
*63 mn20
*64 mn45
*65 mn50
*66 SI
*67 mn51
*68 mn40
*69 mn30
*70 mn35
*71 mn36

*GROUND_NETS VSS

*PORTS
*46 I
*1 I
*13 I
*2 I
*3 I
*41 I
*61 I
*66 I
*51 O

*D_NET *46 8.6039e-16

*CONN
*P *46 I *C 0.1000 1.7100 
*I *5:s B *C 3.8800 1.1500 
*I *6:s B *C 3.8800 1.1500 
*I *9:s B *C 5.2100 1.2100 
*I *10:s B *C 5.2100 1.2100 
*I *14:s B *C 6.0000 1.1225 
*I *16:s B *C 6.0000 1.1225 
*I *18:s B *C 0.1300 1.1150 
*I *20:s B *C 0.6150 1.0275 
*I *22:s B *C 0.6150 1.0275 
*I *24:s B *C 1.4750 1.1800 
*I *27:s B *C 1.4750 1.1800 
*I *36:s B *C 2.7550 1.1800 
*I *44:s B *C 2.7550 1.1800 
*N *46:2 *C 5.5000 1.7100 
*N *46:3 *C 5.5000 1.7100 
*N *46:4 *C 5.1800 1.7100 
*N *46:5 *C 3.8500 1.7100 
*N *46:6 *C 3.3000 1.7100 
*N *46:7 *C 2.6400 1.7100 
*N *46:8 *C 1.3600 1.7100 
*N *46:9 *C 1.1000 1.7100 

*CAP
0 *36:s 3.17637e-17
1 *24:s 3.66515e-17
2 *14:s 4.81685e-17
3 *9:s 4.39302e-17
4 *5:s 4.30087e-17
5 *46:8 2.2749e-17
6 *46:7 3.14505e-17
7 *46:5 3.44689e-17
8 *46:4 3.19819e-17
9 *46:2 3.82485e-16
10 *46 1.53732e-16

*RES
0 *46:2 *46:3 6.818182  // $metal1_conn
1 *46:2 *46:6 6.818182  // $metal1_conn
2 *46:2 *46:9 6.818182  // $metal1_conn
3 *14:s *46:3 62.478592  // $metal1_conn
4 *46:4 *9:s 62.2822  // $metal1_conn
5 *46:5 *5:s 62.266651  // $metal1_conn
6 *46:7 *36:s 62.160805  // $metal1_conn
7 *46:8 *24:s 62.264091  // $metal1_conn
8 *46:3 *46:4 0.160252  // $metal1_conn
9 *46:4 *46:5 0.666469  // $metal1_conn
10 *46:5 *46:6 0.275574  // $metal1_conn
11 *46:6 *46:7 0.330727  // $metal1_conn
12 *46:7 *46:8 0.641399  // $metal1_conn
13 *46:8 *46:9 0.130168  // $metal1_conn
14 *46:9 *46 0.285602  // $metal1_conn

*END

*D_NET *1 0

*CONN
*P *1 I *C 0.1000 0.0000 
*I *15:s B *C 3.9500 0.4750 
*I *17:s B *C 3.9500 0.4750 
*I *23:s B *C 5.2100 0.4450 
*I *25:s B *C 5.2100 0.4450 
*I *34:s B *C 6.1500 0.4775 
*I *57:s B *C 6.1500 0.4775 
*I *60:s B *C 0.1150 0.5300 
*I *62:s B *C 0.6075 0.5875 
*I *63:s B *C 0.6075 0.5875 
*I *64:s B *C 1.4650 0.5025 
*I *65:s B *C 1.4650 0.5025 
*I *69:s B *C 2.8250 0.5025 
*I *70:s B *C 2.8250 0.5025 
*N *1:2 *C 5.5000 0.0000 
*N *1:3 *C 5.5000 0.0000 
*N *1:4 *C 5.1800 0.0000 
*N *1:5 *C 3.9200 0.0000 
*N *1:6 *C 3.3000 0.0000 
*N *1:7 *C 2.7650 0.0000 
*N *1:8 *C 1.4400 0.0000 
*N *1:9 *C 1.1000 0.0000 


*RES
0 *1:2 *1:3 5.636364  // $metal1_conn
1 *1:2 *1:6 5.636364  // $metal1_conn
2 *1:2 *1:9 5.636364  // $metal1_conn
3 *34:s *1:3 75.581718  // $metal1_conn
4 *1:4 *23:s 75.23111  // $metal1_conn
5 *1:5 *15:s 75.314034  // $metal1_conn
6 *1:7 *69:s 75.284081  // $metal1_conn
7 *1:8 *64:s 75.284081  // $metal1_conn
8 *1:3 *1:4 0.160252  // $metal1_conn
9 *1:4 *1:5 0.631371  // $metal1_conn
10 *1:5 *1:6 0.310671  // $metal1_conn
11 *1:6 *1:7 0.268053  // $metal1_conn
12 *1:7 *1:8 0.663962  // $metal1_conn
13 *1:8 *1:9 0.17028  // $metal1_conn
14 *1:9 *1 0.308164  // $metal1_conn

*END

*D_NET *13 2.22314e-16

*CONN
*P *13 I *C 0.7000 0.8550 
*I *63:g B *C 0.6625 0.5875 
*I *22:g B *C 0.6625 1.0275 
*N *13:2 *C 0.6900 0.8100 
*N *13:4 *C 0.6900 0.8100 

*CAP
0 *22:g 3.29011e-17
1 *63:g 3.42104e-17
2 *13:4 3.11725e-17
3 *13:2 2.85241e-17
4 *13 9.55057e-17

*RES
0 *22:g *13:2 19.691952  // $poly_conn
1 *13:2 *63:g 29.94836  // $poly_conn
2 *13:4 *13 0.027998  // $metal1_conn
3 *13:2 *13:4 45  // $metal1_conn

*END

*D_NET *2 3.12546e-16

*CONN
*P *2 I *C 5.1000 0.6650 
*I *25:g B *C 5.2825 0.4450 
*I *10:g B *C 5.2825 1.2100 
*N *2:2 *C 5.2825 0.8525 
*N *2:3 *C 5.0800 0.8800 

*CAP
0 *10:g 9.1232e-17
1 *25:g 4.5649e-17
2 *2:2 3.00455e-17
3 *2:3 8.84562e-17
4 *2 5.71638e-17

*RES
0 *10:g *2:2 40.514664  // $poly_conn
1 *2:2 *2:3 83.710388  // $poly_conn
2 *2:2 *25:g 70.001846  // $poly_conn
3 *2 *2:3 0.128972  // $metal1_conn

*END

*D_NET *3 3.19405e-16

*CONN
*P *3 I *C 5.9000 0.8550 
*I *34:g B *C 5.8875 0.4450 
*I *14:g B *C 5.8125 1.2100 
*N *3:2 *C 5.8500 0.9150 

*CAP
0 *14:g 5.18156e-17
1 *34:g 8.19798e-17
2 *3:2 1.29247e-16
3 *3 5.63632e-17

*RES
0 *34:g *3:2 79.963989  // $poly_conn
1 *3:2 *14:g 18.425531  // $poly_conn
2 *3 *3:2 45.011616  // $metal1_conn

*END

*D_NET *41 5.4808e-16

*CONN
*P *41 I *C 6.1000 0.6650 
*I *31:g B *C 5.7825 0.4450 
*I *57:g B *C 6.3125 0.4775 
*I *11:g B *C 5.3875 1.2100 
*I *16:g B *C 6.0475 1.1225 
*N *41:1 *C 5.4600 0.9150 
*N *41:4 *C 5.7450 0.6750 
*N *41:6 *C 6.2850 0.6850 

*CAP
0 *16:g 5.76339e-17
1 *11:g 7.15329e-17
2 *57:g 2.14478e-17
3 *31:g 6.93927e-17
4 *41:1 1.05239e-16
5 *41:4 1.39182e-16
6 *41:6 6.257e-17
7 *41 2.10818e-17

*RES
0 *41:1 *11:g 67.232071  // $poly_conn
1 *31:g *41:4 61.15522  // $poly_conn
2 *57:g *41:6 22.940296  // $poly_conn
3 *41:6 *16:g 120.497612  // $poly_conn
4 *41:1 *41:4 0.310333  // $metal1_conn
5 *41:4 *41 0.248905  // $metal1_conn
6 *41 *41:6 45.111954  // $metal1_conn

*END

*D_NET *61 4.39923e-16

*CONN
*P *61 I *C 4.9000 0.6650 
*I *19:g B *C 4.1825 0.4750 
*I *23:g B *C 4.9675 0.3925 
*I *8:g B *C 4.3425 1.1500 
*I *9:g B *C 5.0775 1.2175 
*N *61:2 *C 4.8150 0.8300 
*N *61:3 *C 4.3425 0.8575 

*CAP
0 *9:g 6.32829e-17
1 *8:g 3.27312e-17
2 *23:g 3.6059e-17
3 *19:g 6.90247e-17
4 *61:3 6.63305e-17
5 *61:2 1.04437e-16
6 *61 6.8057e-17

*RES
0 *9:g *61:2 108.173347  // $poly_conn
1 *61:2 *61:3 104.970634  // $poly_conn
2 *61:3 *19:g 92.406418  // $poly_conn
3 *61:2 *23:g 101.763092  // $poly_conn
4 *61:3 *8:g 23.465221  // $poly_conn
5 *61:2 *61 45.12392  // $metal1_conn

*END

*D_NET *66 3.11583e-16

*CONN
*P *66 I *C 3.7000 0.8550 
*I *17:g B *C 4.0225 0.4750 
*I *6:g B *C 3.9525 1.1500 
*N *66:2 *C 3.9525 0.8350 
*N *66:3 *C 3.8900 0.8350 

*CAP
0 *6:g 8.98859e-17
1 *17:g 5.36234e-17
2 *66:2 4.41327e-17
3 *66:3 8.63735e-17
4 *66 3.75674e-17

*RES
0 *17:g *66:2 62.340359  // $poly_conn
1 *66:2 *66:3 46.294373  // $poly_conn
2 *66:2 *6:g 28.014544  // $poly_conn
3 *66:3 *66 0.102733  // $metal1_conn

*END

*D_NET *51 1.33453e-16

*CONN
*P *51 O *C 0.3000 0.8550 
*I *60:d B *C 0.3100 0.5300 
*I *62:d B *C 0.3100 0.5300 
*I *18:d B *C 0.3250 1.1150 
*I *20:d B *C 0.3250 1.1150 

*CAP
0 *18:d 6.69437e-17
1 *60:d 2.75789e-17
2 *51 3.89302e-17

*RES
0 *18:d *51 20.874336  // $metal1_conn
1 *51 *60:d 75.188301  // $metal1_conn

*END

*D_NET *58 0

*CONN
*I *31:s B *C 5.8350 0.4450 
*I *34:d B *C 5.8350 0.4450 


*RES
0 *34:d *31:s 0.001  // $mwires

*END

*D_NET *56 7.31209e-18

*CONN
*I *25:d B *C 5.4300 0.4450 
*I *28:s B *C 5.4300 0.4450 

*CAP
0 *25:d 7.31209e-18

*RES
0 *28:s *25:d 0.001  // $mwires

*END

*D_NET *55 3.31135e-18

*CONN
*I *17:d B *C 4.1025 0.4750 
*I *19:s B *C 4.1025 0.4750 

*CAP
0 *17:d 3.31135e-18

*RES
0 *19:s *17:d 0.001  // $mwires

*END

*D_NET *54 2.84767e-19

*CONN
*I *70:d B *C 2.9250 0.5025 
*I *71:s B *C 2.9250 0.5025 

*CAP
0 *70:d 2.84767e-19

*RES
0 *71:s *70:d 0.001  // $mwires

*END

*D_NET *53 0

*CONN
*I *65:d B *C 1.6225 0.5025 
*I *67:s B *C 1.6225 0.5025 


*RES
0 *67:s *65:d 0.001  // $mwires

*END

*D_NET *52 4.6185e-18

*CONN
*I *12:s B *C 5.7125 1.2100 
*I *14:d B *C 5.7125 1.2100 

*CAP
0 *12:s 4.6185e-18

*RES
0 *14:d *12:s 0.001  // $mwires

*END

*D_NET *50 2.0982e-18

*CONN
*I *10:d B *C 5.3350 1.2100 
*I *11:s B *C 5.3350 1.2100 

*CAP
0 *10:d 2.0982e-18

*RES
0 *11:s *10:d 0.001  // $mwires

*END

*D_NET *49 2.35357e-18

*CONN
*I *6:d B *C 4.0050 1.1500 
*I *7:s B *C 4.0050 1.1500 

*CAP
0 *6:d 2.35357e-18

*RES
0 *7:s *6:d 0.001  // $mwires

*END

*D_NET *48 5.54628e-18

*CONN
*I *44:d B *C 2.9325 1.1800 
*I *45:s B *C 2.9325 1.1800 

*CAP
0 *44:d 5.54628e-18

*RES
0 *45:s *44:d 0.001  // $mwires

*END

*D_NET *47 9.8138e-18

*CONN
*I *27:d B *C 1.6475 1.1800 
*I *30:s B *C 1.6475 1.1800 

*CAP
0 *27:d 9.8138e-18

*RES
0 *30:s *27:d 0.001  // $mwires

*END

*D_NET *43 9.92108e-16

*CONN
*I *15:g B *C 3.8175 0.4975 
*I *59:g B *C 3.2375 0.5025 
*I *63:d B *C 0.8225 0.5875 
*I *67:g B *C 1.7225 0.5025 
*I *5:g B *C 3.7475 1.2375 
*I *22:d B *C 0.8075 1.0275 
*I *33:g B *C 2.0625 1.1800 
*I *45:g B *C 3.0625 1.1800 
*N *43:2 *C 1.6850 0.7950 
*N *43:4 *C 2.0350 0.9150 
*N *43:6 *C 3.7475 0.7025 
*N *43:7 *C 3.2375 0.7025 
*N *43:9 *C 3.0250 1.4350 
*N *43:12 *C 2.0350 1.2750 
*N *43:13 *C 1.7150 1.1200 
*N *43:15 *C 0.8700 1.0750 

*CAP
0 *45:g 4.20932e-17
1 *33:g 2.56576e-17
2 *22:d 1.09419e-16
3 *5:g 5.15959e-17
4 *67:g 3.81467e-17
5 *63:d 6.30373e-17
6 *59:g 2.49808e-17
7 *15:g 2.84497e-17
8 *43:13 1.09563e-16
9 *43:12 9.7194e-17
10 *43:7 5.18453e-17
11 *43:6 5.69821e-17
12 *43:2 8.90783e-17
13 *43:4 8.16364e-17
14 *43:9 1.22429e-16

*RES
0 *67:g *43:2 84.232147  // $poly_conn
1 *33:g *43:4 64.691956  // $poly_conn
2 *15:g *43:6 44.857056  // $poly_conn
3 *43:6 *43:7 128.465225  // $poly_conn
4 *43:7 *45:g 108.670059  // $poly_conn
5 *45:g *43:9 61.15522  // $poly_conn
6 *43:6 *5:g 104.915863  // $poly_conn
7 *43:7 *59:g 20.300484  // $poly_conn
8 *43:4 *43:12 0.244261  // $metal1_conn
9 *43:12 *43:13 0.337215  // $metal1_conn
10 *43:13 *43:15 0.589919  // $metal1_conn
11 *43:12 *43:9 0.765896  // $metal1_conn
12 *43:13 *43:2 0.255786  // $metal1_conn
13 *43:15 *63:d 75.312851  // $metal1_conn
14 *22:d *43:15 62  // $metal1_conn

*END

*D_NET *42 9.28222e-16

*CONN
*I *15:d B *C 3.7250 0.4975 
*I *68:g B *C 2.1675 0.5025 
*I *71:g B *C 2.9775 0.5025 
*I *4:g B *C 3.2975 1.1800 
*I *5:d B *C 3.6750 1.2375 
*I *30:g B *C 1.7725 1.1800 
*N *42:2 *C 2.1950 0.7150 
*N *42:5 *C 3.0050 0.7350 
*N *42:7 *C 3.3250 0.9000 
*N *42:9 *C 3.3250 0.3850 
*N *42:10 *C 2.9450 0.6050 

*CAP
0 *30:g 7.17316e-17
1 *5:d 7.21903e-17
2 *4:g 3.77839e-17
3 *71:g 6.17468e-17
4 *68:g 1.90303e-17
5 *15:d 4.90526e-17
6 *42:10 1.49156e-16
7 *42:9 9.27382e-17
8 *42:2 1.3948e-16
9 *42:5 8.37288e-17
10 *42:7 1.51583e-16

*RES
0 *68:g *42:2 16.530041  // $poly_conn
1 *42:2 *30:g 150.977264  // $poly_conn
2 *71:g *42:5 69.82016  // $poly_conn
3 *4:g *42:7 68.538101  // $poly_conn
4 *15:d *42:9 75.34861  // $metal1_conn
5 *42:9 *42:10 0.436388  // $metal1_conn
6 *42:10 *42:2 45.922596  // $metal1_conn
7 *42:9 *42:7 0.393379  // $metal1_conn
8 *42:7 *5:d 62.536053  // $metal1_conn
9 *42:10 *42:5 0.119259  // $metal1_conn

*END

*D_NET *40 5.2103e-16

*CONN
*I *21:d B *C 4.5975 0.4750 
*I *28:d B *C 5.6800 0.4450 
*I *31:d B *C 5.6800 0.4450 
*I *8:s B *C 4.4525 1.1500 
*I *11:d B *C 5.5000 1.2100 
*I *12:d B *C 5.5000 1.2100 
*N *40:2 *C 5.2700 1.0750 
*N *40:3 *C 4.6350 1.0750 

*CAP
0 *11:d 6.45659e-17
1 *8:s 4.13403e-17
2 *28:d 9.87576e-17
3 *21:d 8.86426e-17
4 *40:3 9.25332e-17
5 *40:2 1.35191e-16

*RES
0 *28:d *40:2 75.655914  // $metal1_conn
1 *40:2 *40:3 0.494709  // $metal1_conn
2 *40:3 *8:s 62.10944  // $metal1_conn
3 *40:2 *11:d 20.92795  // $metal1_conn
4 *40:3 *21:d 75.423584  // $metal1_conn

*END

*D_NET *39 5.92282e-16

*CONN
*I *60:g B *C 0.2075 0.5300 
*I *62:g B *C 0.4125 0.5300 
*I *64:d B *C 1.2000 0.5300 
*I *65:g B *C 1.5225 0.5025 
*I *18:g B *C 0.2225 1.1150 
*I *20:g B *C 0.4275 1.1150 
*I *24:d B *C 1.1600 1.0950 
*I *27:g B *C 1.5225 1.1800 
*N *39:6 *C 0.5000 0.7600 
*N *39:9 *C 1.4950 0.9150 
*N *39:12 *C 1.1450 0.9600 
*N *39:14 *C 1.1750 0.4700 

*CAP
0 *27:g 4.31304e-17
1 *24:d 7.38094e-17
2 *20:g 1.33822e-16
3 *65:g 5.60478e-17
4 *64:d 7.67494e-17
5 *39:6 1.16879e-16
6 *39:9 9.18437e-17

*RES
0 *27:g *39:9 19.691952  // $poly_conn
1 *39:9 *65:g 70.973999  // $poly_conn
2 *20:g *39:6 50.42651  // $poly_conn
3 *39:9 *39:12 45.269817  // $metal1_conn
4 *39:14 *39:6 0.639845  // $metal1_conn
5 *24:d *39:12 62  // $metal1_conn
6 *64:d *39:14 75  // $metal1_conn
7 *39:12 *39:14 0.342221  // $metal1_conn

*END

*D_NET *38 5.89526e-16

*CONN
*I *21:g B *C 4.4475 0.4750 
*I *23:d B *C 4.8750 0.3925 
*I *7:g B *C 4.0575 1.1500 
*I *9:d B *C 4.9850 1.2175 
*N *38:1 *C 4.2100 0.8450 
*N *38:4 *C 4.4750 0.7150 
*N *38:6 *C 4.3200 0.8750 

*CAP
0 *9:d 9.92694e-17
1 *7:g 9.11063e-17
2 *23:d 7.45612e-17
3 *21:g 3.83328e-17
4 *38:6 1.08714e-16
5 *38:1 6.14711e-17
6 *38:4 1.1607e-16

*RES
0 *38:1 *7:g 79.079163  // $poly_conn
1 *21:g *38:4 64.691956  // $poly_conn
2 *9:d *38:6 62.763153  // $metal1_conn
3 *38:6 *38:1 0.077854  // $metal1_conn
4 *38:6 *38:4 0.225004  // $metal1_conn
5 *38:4 *23:d 75.532394  // $metal1_conn

*END

*D_NET *37 3.90638e-16

*CONN
*I *19:d B *C 4.3150 0.4750 
*I *21:s B *C 4.3150 0.4750 
*I *59:d B *C 3.4175 0.5025 
*I *4:s B *C 3.4825 1.0850 
*I *7:d B *C 4.2000 1.1500 
*I *8:d B *C 4.2000 1.1500 
*N *37:2 *C 4.0350 1.0500 
*N *37:4 *C 3.4850 1.0850 

*CAP
0 *7:d 6.66107e-17
1 *4:s 1.01109e-16
2 *59:d 7.21108e-17
3 *19:d 6.53537e-17
4 *37:2 8.54533e-17

*RES
0 *19:d *37:2 75.559639  // $metal1_conn
1 *37:2 *37:4 0.413189  // $metal1_conn
2 *37:2 *7:d 31.199646  // $metal1_conn
3 *37:4 *59:d 75.401512  // $metal1_conn
4 *4:s *37:4 62  // $metal1_conn

*END

*D_NET *35 4.15921e-16

*CONN
*I *28:g B *C 5.5775 0.4450 
*I *57:d B *C 6.4200 0.4775 
*I *12:g B *C 5.6125 1.2100 
*I *16:d B *C 6.1400 1.1225 
*N *35:2 *C 5.6500 0.9150 
*N *35:6 *C 6.1500 1.1700 

*CAP
0 *16:d 1.14974e-16
1 *12:g 4.23849e-17
2 *57:d 5.80108e-17
3 *28:g 6.64714e-17
4 *35:2 1.3408e-16

*RES
0 *12:g *35:2 16.950476  // $poly_conn
1 *35:2 *28:g 81.03363  // $poly_conn
2 *57:d *35:6 75.632172  // $metal1_conn
3 *35:6 *35:2 45.521854  // $metal1_conn
4 *16:d *35:6 62  // $metal1_conn

*END

*D_NET *32 3.81109e-16

*CONN
*I *59:s B *C 3.1075 0.5025 
*I *69:g B *C 2.5375 0.5025 
*I *71:d B *C 3.1075 0.5025 
*I *4:d B *C 3.1800 1.1800 
*I *36:g B *C 2.5375 1.1800 
*I *45:d B *C 3.1800 1.1800 
*N *32:2 *C 2.5750 0.9250 
*N *32:5 *C 3.1650 0.9250 

*CAP
0 *36:g 3.97462e-17
1 *4:d 6.0433e-17
2 *69:g 4.22193e-17
3 *59:s 6.48899e-17
4 *32:5 7.54494e-17
5 *32:2 9.83709e-17

*RES
0 *36:g *32:2 16.15522  // $poly_conn
1 *32:2 *69:g 72.565475  // $poly_conn
2 *4:d *32:5 31.186251  // $metal1_conn
3 *32:5 *32:2 45.405872  // $metal1_conn
4 *32:5 *59:s 75.304375  // $metal1_conn

*END

*D_NET *29 3.50836e-16

*CONN
*I *64:g B *C 1.3075 0.5300 
*I *67:d B *C 1.9450 0.5025 
*I *68:s B *C 1.9450 0.5025 
*I *24:g B *C 1.2575 1.0950 
*I *30:d B *C 1.9175 1.1800 
*I *33:d B *C 1.9175 1.1800 
*N *29:2 *C 1.3350 0.7700 
*N *29:5 *C 1.8750 0.6350 

*CAP
0 *30:d 8.42596e-17
1 *24:g 4.58585e-17
2 *67:d 1.90209e-17
3 *64:g 3.27044e-17
4 *29:5 6.70079e-17
5 *29:2 1.01985e-16

*RES
0 *64:g *29:2 16.530041  // $poly_conn
1 *29:2 *24:g 27.886711  // $poly_conn
2 *30:d *29:5 62.355618  // $metal1_conn
3 *29:5 *29:2 45.457542  // $metal1_conn
4 *29:5 *67:d 75.070747  // $metal1_conn

*END

*D_NET *26 3.86683e-16

*CONN
*I *68:d B *C 2.3525 0.5025 
*I *69:d B *C 2.3525 0.5025 
*I *70:g B *C 2.8725 0.5025 
*I *33:s B *C 2.3000 1.1800 
*I *36:d B *C 2.3000 1.1800 
*I *44:g B *C 2.8025 1.1800 
*N *26:2 *C 2.7550 0.7650 
*N *26:4 *C 2.3850 0.7650 

*CAP
0 *44:g 5.77048e-17
1 *33:s 5.493e-17
2 *70:g 5.89333e-17
3 *68:d 4.84542e-17
4 *26:4 5.16404e-17
5 *26:2 1.1502e-16

*RES
0 *70:g *26:2 43.087227  // $poly_conn
1 *26:2 *44:g 55.860214  // $poly_conn
2 *26:2 *26:4 45.273876  // $metal1_conn
3 *26:4 *68:d 75.163002  // $metal1_conn
4 *26:4 *33:s 62.222233  // $metal1_conn

*END

