*SPEF "IEEE 1481-1999"
*DESIGN  "SMDFFHQX8"
*DATE "Mon Sep 27 11:19:18 2010"
*VENDOR "Cadence Design Systems"
*PROGRAM "Assura RCX"
*VERSION "3.2 Red Hat Linux release 7.2 (Enigma) - (09/09/2009-10:39)"
*DESIGN_FLOW "Physical Verification"
*DIVIDER /
*DELIMITER :
*BUS_DELIMITER []
*T_UNIT 1 PS
*C_UNIT 1e15 FF
*R_UNIT 1 OHM
*L_UNIT 1 MH
// DeviceFingerDelim "@"
// MATCHED
// caps2d version: 10

*NAME_MAP
*1 mn11
*2 mn36
*3 mn10
*4 mn25
*5 mn1
*6 mn21
*7 mn2
*8 mn12
*9 mn4
*10 mn13
*11 mn3
*12 mn45
*13 mn0
*14 mn20
*15 mn30
*16 mn50
*17 mn35
*18 mn51
*19 mn40
*20 mn45\@1
*21 mn55
*22 mn55\@1
*23 mn55\@2
*24 mn55\@3
*25 mp36
*26 mn55\@4
*27 mp25
*28 mn55\@5
*29 mp21
*30 mn55\@6
*31 mp12
*32 mn45\@2
*33 mp13
*34 mp45
*35 mp20
*36 mp50
*37 mp51
*38 VSS
*39 mp40
*40 VDD
*41 mp55
*42 mp55\@1
*43 mp55\@2
*44 mp55\@3
*45 mp55\@4
*46 mp55\@5
*47 mp55\@6
*48 mp45\@1
*49 mp45\@2
*50 Q
*51 S0
*52 mout
*53 n20
*54 S0b
*55 dbp
*56 db
*57 SEb
*58 n30
*59 qbint
*60 CKbb
*61 CKb
*62 D0
*63 D1
*64 SE
*65 mp10
*66 mp1
*67 mp2
*68 mp4
*69 net409
*70 SI
*71 mp3
*72 net393
*73 mp0
*74 net417
*75 mp11
*76 net425
*77 mp30
*78 net429
*79 CK
*80 mp35
*81 net482
*82 net474
*83 net490
*84 net498
*85 net510

*GROUND_NETS VSS

*PORTS
*40 I
*38 I
*79 I
*62 I
*63 I
*51 I
*64 I
*70 I
*50 O

*D_NET *40 1.21496e-15

*CONN
*P *40 I *C 0.1000 1.7100 
*I *65:s B *C 6.6100 1.2100 
*I *66:s B *C 6.6100 1.2100 
*I *71:s B *C 7.5425 1.1225 
*I *73:s B *C 7.5425 1.1225 
*I *77:s B *C 4.2900 1.0800 
*I *80:s B *C 4.2900 1.0800 
*I *29:s B *C 5.4800 1.1950 
*I *31:s B *C 5.4800 1.1950 
*I *34:s B *C 1.9550 1.1500 
*I *35:s B *C 3.0950 1.0800 
*I *36:s B *C 3.0950 1.0800 
*I *41:s B *C 0.3150 1.1225 
*I *42:s B *C 0.3150 1.1225 
*I *43:s B *C 0.7250 1.1225 
*I *44:s B *C 0.7250 1.1225 
*I *45:s B *C 1.1350 1.1225 
*I *46:s B *C 1.1350 1.1225 
*I *47:s B *C 1.5950 1.1500 
*I *48:s B *C 1.5950 1.1500 
*I *49:s B *C 1.9550 1.1500 
*N *40:2 *C 7.0000 1.7100 
*N *40:3 *C 7.0000 1.7100 
*N *40:4 *C 6.5800 1.7100 
*N *40:5 *C 5.4500 1.7100 
*N *40:6 *C 5.0000 1.7100 
*N *40:7 *C 4.1500 1.7100 
*N *40:8 *C 3.0000 1.7100 

*CAP
0 *35:s 2.71017e-17
1 *34:s 4.74977e-16
2 *29:s 3.97949e-17
3 *77:s 3.33459e-17
4 *71:s 4.87922e-17
5 *65:s 3.95649e-17
6 *40:7 3.41488e-17
7 *40:5 3.33169e-17
8 *40:4 3.11313e-17
9 *40:2 4.45805e-16
10 *40 6.98141e-18

*RES
0 *34:s *40 0.107552  // $metal1_conn
1 *40:2 *40:3 7.5  // $metal1_conn
2 *40:2 *40:6 7.5  // $metal1_conn
3 *40:2 *40:8 7.5  // $metal1_conn
4 *40:2 *34:s 7.5  // $metal1_conn
5 *71:s *40:3 62.463089  // $metal1_conn
6 *40:4 *65:s 62.228058  // $metal1_conn
7 *40:5 *29:s 62.237339  // $metal1_conn
8 *40:7 *77:s 62.187992  // $metal1_conn
9 *40:8 *35:s 62.221245  // $metal1_conn
10 *40:3 *40:4 0.210462  // $metal1_conn
11 *40:4 *40:5 0.566378  // $metal1_conn
12 *40:5 *40:6 0.225509  // $metal1_conn
13 *40:6 *40:7 0.426136  // $metal1_conn
14 *40:7 *40:8 0.577015  // $metal1_conn
15 *40:8 *34:s 0.524146  // $metal1_conn

*END

*D_NET *38 0

*CONN
*P *38 I *C 0.1000 0.0000 
*I *3:s B *C 6.6250 0.4450 
*I *5:s B *C 6.6250 0.4450 
*I *11:s B *C 7.5500 0.4975 
*I *13:s B *C 7.5500 0.4975 
*I *15:s B *C 4.3150 0.4925 
*I *17:s B *C 4.3150 0.4925 
*I *6:s B *C 5.4800 0.4750 
*I *8:s B *C 5.4800 0.4750 
*I *12:s B *C 1.9700 0.4950 
*I *14:s B *C 3.0400 0.4925 
*I *16:s B *C 3.0400 0.4925 
*I *20:s B *C 1.9700 0.4950 
*I *21:s B *C 0.3150 0.5125 
*I *22:s B *C 0.3150 0.5125 
*I *23:s B *C 0.7250 0.5125 
*I *24:s B *C 0.7250 0.5125 
*I *26:s B *C 1.1350 0.5125 
*I *28:s B *C 1.1350 0.5125 
*I *30:s B *C 1.5950 0.4950 
*I *32:s B *C 1.5950 0.4950 
*N *38:2 *C 7.0000 0.0000 
*N *38:3 *C 7.0000 0.0000 
*N *38:4 *C 6.5950 0.0000 
*N *38:5 *C 5.4500 0.0000 
*N *38:6 *C 5.0000 0.0000 
*N *38:7 *C 4.2600 0.0000 
*N *38:8 *C 3.0000 0.0000 


*RES
0 *12:s *38 0.107552  // $metal1_conn
1 *38:2 *38:3 6.2  // $metal1_conn
2 *38:2 *38:6 6.2  // $metal1_conn
3 *38:2 *38:8 6.2  // $metal1_conn
4 *38:2 *12:s 6.2  // $metal1_conn
5 *11:s *38:3 75.543282  // $metal1_conn
6 *38:4 *3:s 75.232513  // $metal1_conn
7 *38:5 *6:s 75.256271  // $metal1_conn
8 *38:7 *15:s 75.202843  // $metal1_conn
9 *38:8 *14:s 75.111198  // $metal1_conn
10 *38:3 *38:4 0.202938  // $metal1_conn
11 *38:4 *38:5 0.573902  // $metal1_conn
12 *38:5 *38:6 0.225509  // $metal1_conn
13 *38:6 *38:7 0.370963  // $metal1_conn
14 *38:7 *38:8 0.631778  // $metal1_conn
15 *38:8 *12:s 0.523941  // $metal1_conn

*END

*D_NET *79 2.0761e-16

*CONN
*P *79 I *C 2.7000 0.8550 
*I *14:g B *C 2.8225 0.5225 
*I *35:g B *C 2.8775 1.0325 
*N *79:2 *C 2.8500 0.7050 

*CAP
0 *35:g 3.01232e-17
1 *14:g 3.61745e-17
2 *79:2 6.35256e-17
3 *79 7.77862e-17

*RES
0 *35:g *79:2 47.897079  // $poly_conn
1 *79:2 *14:g 19.691952  // $poly_conn
2 *79:2 *79 45.161453  // $metal1_conn

*END

*D_NET *62 3.49595e-16

*CONN
*P *62 I *C 6.5000 0.6650 
*I *5:g B *C 6.6975 0.4450 
*I *66:g B *C 6.6825 1.2100 
*N *62:2 *C 6.6825 0.8875 
*N *62:3 *C 6.4800 0.9150 

*CAP
0 *66:g 9.26448e-17
1 *5:g 5.39358e-17
2 *62:2 3.7461e-17
3 *62:3 1.01752e-16
4 *62 6.38009e-17

*RES
0 *5:g *62:2 76.953506  // $poly_conn
1 *62:2 *62:3 83.710388  // $poly_conn
2 *62:2 *66:g 31.540302  // $poly_conn
3 *62 *62:3 0.146811  // $metal1_conn

*END

*D_NET *63 2.85787e-16

*CONN
*P *63 I *C 7.3000 0.8550 
*I *11:g B *C 7.2875 0.4450 
*I *71:g B *C 7.2875 1.2100 
*N *63:2 *C 7.3150 0.8350 

*CAP
0 *71:g 4.66079e-17
1 *11:g 7.24185e-17
2 *63:2 4.11802e-17
3 *63 1.2558e-16

*RES
0 *71:g *63:2 37.640671  // $poly_conn
1 *63:2 *11:g 58.153492  // $poly_conn
2 *63:2 *63 45.004475  // $metal1_conn

*END

*D_NET *51 5.24905e-16

*CONN
*P *51 I *C 7.1000 0.6650 
*I *9:g B *C 7.1825 0.4450 
*I *13:g B *C 7.7125 0.4975 
*I *67:g B *C 6.7875 1.2100 
*I *73:g B *C 7.6575 1.1225 
*N *51:1 *C 6.8600 0.9150 
*N *51:4 *C 7.1450 0.6750 
*N *51:6 *C 7.6850 0.7050 

*CAP
0 *73:g 3.63646e-17
1 *67:g 7.13002e-17
2 *13:g 2.06781e-17
3 *9:g 6.98326e-17
4 *51:1 1.13846e-16
5 *51:4 9.39505e-17
6 *51:6 8.70676e-17
7 *51 3.18648e-17

*RES
0 *51:1 *67:g 67.232071  // $poly_conn
1 *9:g *51:4 61.15522  // $poly_conn
2 *13:g *51:6 26.102209  // $poly_conn
3 *51:6 *73:g 70.973999  // $poly_conn
4 *51:1 *51 0.282923  // $metal1_conn
5 *51 *51:4 0.026721  // $metal1_conn
6 *51:4 *51:6 45.393059  // $metal1_conn

*END

*D_NET *64 4.93346e-16

*CONN
*P *64 I *C 6.3000 0.6650 
*I *3:g B *C 6.4625 0.4075 
*I *10:g B *C 5.6575 0.4750 
*I *65:g B *C 6.4775 1.2975 
*I *75:g B *C 5.8625 1.1950 
*N *64:2 *C 6.2900 0.8750 
*N *64:3 *C 5.8625 0.9025 

*CAP
0 *75:g 3.13703e-17
1 *65:g 5.53853e-17
2 *10:g 9.6783e-17
3 *3:g 4.0052e-17
4 *64:3 6.811e-17
5 *64:2 1.33109e-16
6 *64 6.85365e-17

*RES
0 *65:g *64:2 97.916931  // $poly_conn
1 *64:2 *64:3 96.788292  // $poly_conn
2 *64:3 *10:g 109.95211  // $poly_conn
3 *64:2 *3:g 114.583603  // $poly_conn
4 *64:3 *75:g 20.300484  // $poly_conn
5 *64 *64:2 45.129128  // $metal1_conn

*END

*D_NET *70 3.44135e-16

*CONN
*P *70 I *C 5.3000 0.6650 
*I *8:g B *C 5.5525 0.4750 
*I *31:g B *C 5.5525 1.1950 
*N *70:2 *C 5.5525 0.8525 
*N *70:3 *C 5.3350 0.8900 

*CAP
0 *31:g 9.22989e-17
1 *8:g 8.15583e-17
2 *70:2 3.72997e-17
3 *70:3 9.46578e-17
4 *70 3.83207e-17

*RES
0 *31:g *70:2 36.668507  // $poly_conn
1 *70:2 *70:3 86.583908  // $poly_conn
2 *70:2 *8:g 62.309536  // $poly_conn
3 *70 *70:3 0.140177  // $metal1_conn

*END

*D_NET *50 4.81938e-16

*CONN
*P *50 O *C 0.1000 0.6650 
*I *21:d B *C 0.1200 0.5125 
*I *22:d B *C 0.5200 0.5125 
*I *23:d B *C 0.5200 0.5125 
*I *24:d B *C 0.9300 0.5125 
*I *26:d B *C 0.9300 0.5125 
*I *28:d B *C 1.3400 0.5125 
*I *30:d B *C 1.3400 0.5125 
*I *41:d B *C 0.1200 1.1225 
*I *42:d B *C 0.5200 1.1225 
*I *43:d B *C 0.5200 1.1225 
*I *44:d B *C 0.9300 1.1225 
*I *45:d B *C 0.9300 1.1225 
*I *46:d B *C 1.3400 1.1225 
*I *47:d B *C 1.3400 1.1225 

*CAP
0 *50 4.81938e-16


*END

*D_NET *85 0

*CONN
*I *9:s B *C 7.2350 0.4450 
*I *11:d B *C 7.2350 0.4450 


*RES
0 *11:d *9:s 0.001  // $mwires

*END

*D_NET *84 5.9618e-18

*CONN
*I *5:d B *C 6.8375 0.4450 
*I *7:s B *C 6.8375 0.4450 

*CAP
0 *5:d 5.9618e-18

*RES
0 *7:s *5:d 0.001  // $mwires

*END

*D_NET *83 2.07039e-18

*CONN
*I *8:d B *C 5.6050 0.4750 
*I *10:s B *C 5.6050 0.4750 

*CAP
0 *8:d 2.07039e-18

*RES
0 *10:s *8:d 0.001  // $mwires

*END

*D_NET *82 1.38453e-18

*CONN
*I *17:d B *C 4.4150 0.4925 
*I *2:s B *C 4.4150 0.4925 

*CAP
0 *17:d 1.38453e-18

*RES
0 *2:s *17:d 0.001  // $mwires

*END

*D_NET *81 2.65359e-18

*CONN
*I *16:d B *C 3.1775 0.4925 
*I *18:s B *C 3.1775 0.4925 

*CAP
0 *16:d 2.65359e-18

*RES
0 *18:s *16:d 0.001  // $mwires

*END

*D_NET *78 6.80312e-18

*CONN
*I *68:s B *C 7.1500 1.2100 
*I *71:d B *C 7.1500 1.2100 

*CAP
0 *68:s 6.80312e-18

*RES
0 *71:d *68:s 0.001  // $mwires

*END

*D_NET *76 2.05099e-18

*CONN
*I *66:d B *C 6.7350 1.2100 
*I *67:s B *C 6.7350 1.2100 

*CAP
0 *66:d 2.05099e-18

*RES
0 *67:s *66:d 0.001  // $mwires

*END

*D_NET *74 2.23037e-18

*CONN
*I *31:d B *C 5.6050 1.1950 
*I *33:s B *C 5.6050 1.1950 

*CAP
0 *31:d 2.23037e-18

*RES
0 *33:s *31:d 0.001  // $mwires

*END

*D_NET *72 2.33668e-18

*CONN
*I *80:d B *C 4.4675 1.0800 
*I *25:s B *C 4.4675 1.0800 

*CAP
0 *80:d 2.33668e-18

*RES
0 *25:s *80:d 0.001  // $mwires

*END

*D_NET *69 2.72983e-18

*CONN
*I *36:d B *C 3.2225 1.0800 
*I *37:s B *C 3.2225 1.0800 

*CAP
0 *36:d 2.72983e-18

*RES
0 *37:s *36:d 0.001  // $mwires

*END

*D_NET *61 1.16102e-15

*CONN
*I *4:g B *C 4.7675 0.4925 
*I *6:g B *C 5.3475 0.4175 
*I *14:d B *C 2.6575 0.5225 
*I *18:g B *C 3.2675 0.4925 
*I *25:g B *C 4.5725 1.0800 
*I *29:g B *C 5.3475 1.2825 
*I *35:d B *C 2.7850 1.0325 
*I *39:g B *C 3.5875 1.0800 
*N *61:2 *C 3.2300 0.6950 
*N *61:4 *C 3.5500 0.8250 
*N *61:6 *C 5.2025 0.6925 
*N *61:7 *C 4.7675 0.6925 
*N *61:9 *C 4.5350 1.3350 
*N *61:12 *C 3.5575 1.2350 
*N *61:14 *C 2.5750 0.5100 

*CAP
0 *39:g 2.32905e-17
1 *35:d 1.09299e-16
2 *29:g 7.04816e-17
3 *25:g 4.65376e-17
4 *18:g 4.26222e-17
5 *14:d 1.53615e-16
6 *6:g 3.63214e-17
7 *4:g 2.4213e-17
8 *61:12 1.20672e-16
9 *61:7 4.80902e-17
10 *61:6 6.38366e-17
11 *61:2 1.93736e-16
12 *61:4 9.75906e-17
13 *61:9 1.3071e-16

*RES
0 *18:g *61:2 61.15522  // $poly_conn
1 *39:g *61:4 61.15522  // $poly_conn
2 *29:g *61:6 144.561279  // $poly_conn
3 *61:6 *61:7 108.851677  // $poly_conn
4 *61:7 *25:g 90.721336  // $poly_conn
5 *25:g *61:9 61.15522  // $poly_conn
6 *61:6 *6:g 81.65377  // $poly_conn
7 *61:7 *4:g 20.300484  // $poly_conn
8 *61:9 *61:12 0.741513  // $metal1_conn
9 *61:12 *61:2 0.663549  // $metal1_conn
10 *61:2 *61:14 0.626703  // $metal1_conn
11 *61:12 *61:4 0.29581  // $metal1_conn
12 *61:14 *35:d 62.688171  // $metal1_conn
13 *14:d *61:14 75  // $metal1_conn

*END

*D_NET *60 9.86027e-16

*CONN
*I *2:g B *C 4.4675 0.4925 
*I *6:d B *C 5.2550 0.4175 
*I *19:g B *C 3.4925 0.4925 
*I *27:g B *C 4.8175 1.0800 
*I *29:d B *C 5.2550 1.2825 
*I *37:g B *C 3.3025 1.0800 
*N *60:2 *C 3.4925 0.6725 
*N *60:4 *C 3.7200 0.7100 
*N *60:6 *C 4.5050 0.6950 
*N *60:8 *C 4.8550 0.8250 
*N *60:9 *C 4.4750 0.4950 
*N *60:10 *C 4.8550 0.3750 

*CAP
0 *37:g 7.20694e-17
1 *29:d 9.12653e-17
2 *27:g 3.77828e-17
3 *19:g 2.19671e-17
4 *6:d 4.93963e-17
5 *2:g 5.8297e-17
6 *60:10 7.52442e-17
7 *60:9 1.38297e-16
8 *60:2 3.61594e-17
9 *60:4 1.43998e-16
10 *60:6 8.2241e-17
11 *60:8 1.79309e-16

*RES
0 *19:g *60:2 15.363667  // $poly_conn
1 *60:2 *37:g 94.184715  // $poly_conn
2 *60:2 *60:4 92.312744  // $poly_conn
3 *2:g *60:6 61.15522  // $poly_conn
4 *27:g *60:8 61.15522  // $poly_conn
5 *60:4 *60:9 1.007087  // $metal1_conn
6 *60:9 *60:6 0.148614  // $metal1_conn
7 *60:9 *60:10 0.359337  // $metal1_conn
8 *60:10 *60:8 0.310503  // $metal1_conn
9 *60:8 *29:d 62.675632  // $metal1_conn
10 *60:10 *6:d 75.276657  // $metal1_conn

*END

*D_NET *59 9.86406e-16

*CONN
*I *12:d B *C 2.2225 0.4950 
*I *16:g B *C 3.0875 0.4925 
*I *20:d B *C 1.7500 0.4950 
*I *21:g B *C 0.2125 0.5125 
*I *22:g B *C 0.4175 0.5125 
*I *23:g B *C 0.6225 0.5125 
*I *24:g B *C 0.8275 0.5125 
*I *26:g B *C 1.0325 0.5125 
*I *28:g B *C 1.2375 0.5125 
*I *30:g B *C 1.4425 0.5125 
*I *32:d B *C 1.7500 0.4950 
*I *34:d B *C 2.1500 1.1500 
*I *36:g B *C 3.1425 1.0800 
*I *41:g B *C 0.2125 1.1225 
*I *42:g B *C 0.4175 1.1225 
*I *43:g B *C 0.6225 1.1225 
*I *44:g B *C 0.8275 1.1225 
*I *45:g B *C 1.0325 1.1225 
*I *46:g B *C 1.2375 1.1225 
*I *47:g B *C 1.4425 1.1225 
*I *48:d B *C 1.7500 1.1500 
*I *49:d B *C 1.7500 1.1500 
*N *59:23 *C 3.0600 0.7900 

*CAP
0 *47:g 3.56712e-16
1 *36:g 4.49055e-17
2 *34:d 3.7138e-16
3 *16:g 5.26657e-17
4 *59:23 1.60743e-16

*RES
0 *36:g *59:23 30.754025  // $poly_conn
1 *59:23 *16:g 38.324913  // $poly_conn
2 *59:23 *34:d 45.926285  // $metal1_conn
3 *34:d *47:g 45.167572  // $metal1_conn

*END

*D_NET *58 6.57443e-16

*CONN
*I *12:g B *C 2.0875 0.4950 
*I *18:d B *C 3.3800 0.4925 
*I *19:s B *C 3.3800 0.4925 
*I *20:g B *C 1.8525 0.4950 
*I *32:g B *C 1.6475 0.4950 
*I *34:g B *C 2.0575 1.1500 
*I *37:d B *C 3.4450 1.0800 
*I *39:d B *C 3.4450 1.0800 
*I *48:g B *C 1.6475 1.1500 
*I *49:g B *C 1.8525 1.1500 
*N *58:12 *C 3.3900 0.4500 

*CAP
0 *37:d 1.05611e-16
1 *34:g 3.50247e-16
2 *18:d 2.01586e-16

*RES
0 *34:g *58:12 46.289452  // $metal1_conn
1 *58:12 *37:d 62.459854  // $metal1_conn
2 *18:d *58:12 75  // $metal1_conn

*END

*D_NET *57 5.92737e-16

*CONN
*I *1:g B *C 5.9225 0.4750 
*I *3:d B *C 6.3700 0.4075 
*I *65:d B *C 6.4050 1.2975 
*I *33:g B *C 5.6575 1.1950 
*N *57:2 *C 5.6850 0.8900 
*N *57:4 *C 5.9500 0.7600 
*N *57:6 *C 5.9050 0.8600 

*CAP
0 *33:g 7.36104e-17
1 *3:d 1.04054e-16
2 *1:g 3.50661e-17
3 *57:6 1.78714e-16
4 *57:2 8.52187e-17
5 *57:4 1.16074e-16

*RES
0 *33:g *57:2 64.691956  // $poly_conn
1 *1:g *57:4 76.230415  // $poly_conn
2 *65:d *57:6 62.704796  // $metal1_conn
3 *57:6 *57:2 0.161607  // $metal1_conn
4 *57:6 *57:4 0.11761  // $metal1_conn
5 *57:4 *3:d 75.797951  // $metal1_conn

*END

*D_NET *56 5.23403e-16

*CONN
*I *1:d B *C 6.0725 0.4750 
*I *7:d B *C 7.0800 0.4450 
*I *9:d B *C 7.0800 0.4450 
*I *67:d B *C 6.9000 1.2100 
*I *68:d B *C 6.9000 1.2100 
*I *75:s B *C 6.0625 1.0600 
*N *56:2 *C 6.6700 1.1350 
*N *56:4 *C 6.0800 1.0600 

*CAP
0 *75:s 1.4414e-16
1 *67:d 5.16641e-17
2 *7:d 1.05358e-16
3 *1:d 9.65038e-17
4 *56:2 1.25737e-16

*RES
0 *7:d *56:2 75.737183  // $metal1_conn
1 *56:2 *56:4 0.469543  // $metal1_conn
2 *56:2 *67:d 31.237526  // $metal1_conn
3 *56:4 *1:d 75.513649  // $metal1_conn
4 *75:s *56:4 62  // $metal1_conn

*END

*D_NET *55 3.98447e-16

*CONN
*I *1:s B *C 5.7900 0.4750 
*I *4:d B *C 4.9475 0.4925 
*I *10:d B *C 5.7900 0.4750 
*I *75:d B *C 5.7600 1.1950 
*I *27:s B *C 4.9575 1.0800 
*I *33:d B *C 5.7600 1.1950 
*N *55:2 *C 5.5250 1.1400 
*N *55:4 *C 5.0150 1.1700 

*CAP
0 *27:s 9.72175e-17
1 *75:d 5.25435e-17
2 *4:d 8.09545e-17
3 *1:s 6.89838e-17
4 *55:2 9.87481e-17

*RES
0 *75:d *55:2 31.248993  // $metal1_conn
1 *55:2 *55:4 0.382556  // $metal1_conn
2 *55:2 *1:s 75.531639  // $metal1_conn
3 *55:4 *4:d 75.461128  // $metal1_conn
4 *27:s *55:4 62  // $metal1_conn

*END

*D_NET *54 3.90022e-16

*CONN
*I *7:g B *C 6.9775 0.4450 
*I *13:d B *C 7.8200 0.4975 
*I *68:g B *C 7.0125 1.2100 
*I *73:d B *C 7.7500 1.1225 
*N *54:2 *C 7.0500 0.9150 
*N *54:6 *C 7.7600 1.1700 

*CAP
0 *73:d 9.20912e-17
1 *68:g 3.68263e-17
2 *13:d 4.6146e-17
3 *7:g 6.6022e-17
4 *54:2 1.48937e-16

*RES
0 *68:g *54:2 16.950476  // $poly_conn
1 *54:2 *7:g 81.03363  // $poly_conn
2 *13:d *54:6 75.48027  // $metal1_conn
3 *54:6 *54:2 45.652073  // $metal1_conn
4 *73:d *54:6 62  // $metal1_conn

*END

*D_NET *53 3.74298e-16

*CONN
*I *15:g B *C 4.0475 0.4925 
*I *2:d B *C 4.6175 0.4925 
*I *4:s B *C 4.6175 0.4925 
*I *77:g B *C 4.0475 1.0800 
*I *25:d B *C 4.6950 1.0800 
*I *27:d B *C 4.6950 1.0800 
*N *53:2 *C 4.0750 0.8150 
*N *53:5 *C 4.6950 0.8650 

*CAP
0 *25:d 6.06774e-17
1 *77:g 3.76115e-17
2 *2:d 6.28208e-17
3 *15:g 3.82838e-17
4 *53:5 6.63546e-17
5 *53:2 1.0855e-16

*RES
0 *77:g *53:2 19.691952  // $poly_conn
1 *53:2 *15:g 47.897079  // $poly_conn
2 *25:d *53:5 31.15682  // $metal1_conn
3 *53:5 *53:2 45.458557  // $metal1_conn
4 *53:5 *2:d 75.264244  // $metal1_conn

*END

*D_NET *52 3.76793e-16

*CONN
*I *15:d B *C 3.7700 0.4925 
*I *17:g B *C 4.3625 0.4925 
*I *19:d B *C 3.7700 0.4925 
*I *77:d B *C 3.8175 1.0800 
*I *80:g B *C 4.3625 1.0800 
*I *39:s B *C 3.8175 1.0800 
*N *52:2 *C 4.3625 0.6950 
*N *52:3 *C 4.2850 0.6950 
*N *52:6 *C 3.8800 0.6450 

*CAP
0 *80:g 5.96866e-17
1 *77:d 4.06244e-17
2 *17:g 5.45351e-17
3 *15:d 4.67341e-17
4 *52:6 5.76345e-17
5 *52:2 2.97463e-17
6 *52:3 8.7832e-17

*RES
0 *80:g *52:2 56.219673  // $poly_conn
1 *52:2 *52:3 47.826286  // $poly_conn
2 *52:2 *17:g 22.886339  // $poly_conn
3 *77:d *52:6 62.2537  // $metal1_conn
4 *52:6 *15:d 75.12635  // $metal1_conn
5 *52:6 *52:3 0.325278  // $metal1_conn

*END

