*SPEF "IEEE 1481-1999"
*DESIGN  "TBUFX6"
*DATE "Mon Sep 27 11:22:21 2010"
*VENDOR "Cadence Design Systems"
*PROGRAM "Assura RCX"
*VERSION "3.2 Red Hat Linux release 7.2 (Enigma) - (09/09/2009-10:39)"
*DESIGN_FLOW "Physical Verification"
*DIVIDER /
*DELIMITER :
*BUS_DELIMITER []
*T_UNIT 1 PS
*C_UNIT 1e15 FF
*R_UNIT 1 OHM
*L_UNIT 1 MH
// DeviceFingerDelim "@"
// MATCHED
// caps2d version: 10

*NAME_MAP
*1 Y
*2 VDD
*3 VSS
*4 OEb
*5 non
*6 pon
*7 net127\@2
*8 mn1
*9 mn2
*10 mn2\@1
*11 mp5\@5
*12 mn1\@1
*13 mp4
*14 mn5
*15 mp3
*16 mp1
*17 mn5\@1
*18 mp3\@1
*19 mp2
*20 mn5\@2
*21 mp4\@1
*22 mp2\@1
*23 mn5\@5
*24 mn5\@3
*25 mp4\@2
*26 mp1\@1
*27 mn4
*28 mn5\@4
*29 mp3\@2
*30 mp5
*31 mn3
*32 mp0
*33 mp5\@1
*34 mn3\@1
*35 mp2\@2
*36 mp5\@2
*37 mn4\@1
*38 mp1\@2
*39 mp5\@3
*40 mn4\@2
*41 mp5\@4
*42 mn3\@2
*43 mn0
*44 mn2\@2
*45 mn1\@2
*46 A
*47 net127
*48 net127\@1
*49 net144
*50 net144\@1
*51 OE
*52 net144\@2

*GROUND_NETS VSS

*PORTS
*2 I
*3 I
*46 I
*51 I
*1 O

*D_NET *2 6.5392e-16

*CONN
*P *2 I *C 0.1000 1.7100 
*I *16:s B *C 2.2250 1.1600 
*I *26:s B *C 3.1050 1.0950 
*I *30:s B *C 3.1050 1.0950 
*I *33:s B *C 3.4850 1.0950 
*I *36:s B *C 3.4850 1.0950 
*I *39:s B *C 3.8950 1.0950 
*I *41:s B *C 3.8950 1.0950 
*I *11:s B *C 4.2950 1.0950 
*I *13:s B *C 0.1600 1.1700 
*I *15:s B *C 0.5750 1.1700 
*I *18:s B *C 0.5750 1.1700 
*I *21:s B *C 0.9850 1.1700 
*I *25:s B *C 0.9850 1.1700 
*I *29:s B *C 1.5100 1.1475 
*I *32:s B *C 1.5100 1.1475 
*I *38:s B *C 2.2250 1.1600 
*N *2:3 *C 3.5000 1.7100 
*N *2:6 *C 2.2300 1.7100 

*CAP
0 *29:s 1.29188e-16
1 *11:s 2.41517e-16
2 *16:s 4.8544e-17
3 *2:6 2.40932e-17
4 *2:3 2.08509e-16
5 *2 2.06867e-18

*RES
0 *29:s *2 0.024627  // $metal1_conn
1 *2:3 *11:s 6.818182  // $metal1_conn
2 *2:3 *29:s 6.25  // $metal1_conn
3 *2:6 *16:s 62.300484  // $metal1_conn
4 *11:s *2:6 0.423432  // $metal1_conn
5 *2:6 *29:s 0.402419  // $metal1_conn

*END

*D_NET *3 0

*CONN
*P *3 I *C 0.1000 0.0000 
*I *8:s B *C 2.2725 0.4850 
*I *9:s B *C 2.7550 0.4825 
*I *10:s B *C 2.7550 0.4825 
*I *12:s B *C 3.1550 0.4400 
*I *14:s B *C 3.1550 0.4400 
*I *17:s B *C 3.5350 0.4400 
*I *20:s B *C 3.5350 0.4400 
*I *24:s B *C 3.9450 0.4400 
*I *28:s B *C 3.9450 0.4400 
*I *23:s B *C 4.3450 0.4400 
*I *31:s B *C 0.5750 0.5050 
*I *34:s B *C 0.5750 0.5050 
*I *42:s B *C 1.2700 0.5225 
*I *43:s B *C 1.2700 0.5225 
*I *44:s B *C 1.7650 0.4850 
*I *45:s B *C 2.2725 0.4850 
*N *3:3 *C 3.5000 0.0000 
*N *3:9 *C 1.2000 0.0000 
*N *3:10 *C 0.4600 0.0000 


*RES
0 *3:10 *3 0.180117  // $metal1_conn
1 *3:3 *23:s 5.636364  // $metal1_conn
2 *3:3 *3:9 5.166667  // $metal1_conn
3 *3:9 *42:s 75.327103  // $metal1_conn
4 *3:10 *31:s 75.221405  // $metal1_conn
5 *23:s *3:9 0.239606  // $metal1_conn
6 *3:9 *3:10 0.370963  // $metal1_conn

*END

*D_NET *46 1.36791e-15

*CONN
*P *46 I *C 0.7000 0.8550 
*I *8:g B *C 2.3325 0.4850 
*I *12:g B *C 3.0075 0.4825 
*I *31:g B *C 0.3575 0.5050 
*I *34:g B *C 0.6225 0.5050 
*I *42:g B *C 1.0575 0.5075 
*I *45:g B *C 2.0425 0.4850 
*I *16:g B *C 2.3625 1.1600 
*I *26:g B *C 2.9425 1.1600 
*I *15:g B *C 0.4725 1.1700 
*I *18:g B *C 0.6775 1.1700 
*I *29:g B *C 1.2925 1.1700 
*I *38:g B *C 2.0875 1.1600 
*N *46:3 *C 0.6225 0.6875 

*CAP
0 *38:g 7.25677e-17
1 *29:g 4.35391e-16
2 *26:g 7.82366e-17
3 *16:g 4.31864e-17
4 *42:g 8.60237e-17
5 *34:g 3.46541e-17
6 *31:g 6.21257e-17
7 *8:g 5.0787e-16
8 *46:3 2.35767e-17
9 *46 2.42753e-17

*RES
0 *8:g *26:g 122.787354  // $poly_conn
1 *16:g *8:g 128.148087  // $poly_conn
2 *38:g *8:g 117.659149  // $poly_conn
3 *29:g *42:g 104.061646  // $poly_conn
4 *46:3 *34:g 23.847994  // $poly_conn
5 *46:3 *31:g 82.335182  // $poly_conn
6 *29:g *46:3 39.095982  // $poly_conn
7 *46 *29:g 0.013203  // $metal1_conn
8 *29:g *8:g 0.900369  // $metal1_conn

*END

*D_NET *51 7.57354e-16

*CONN
*P *51 I *C 0.3000 0.8550 
*I *27:g B *C 0.2525 0.5050 
*I *37:g B *C 0.7475 0.5050 
*I *40:g B *C 0.9525 0.5075 
*I *43:g B *C 1.3425 0.5225 
*I *13:g B *C 0.2525 1.1700 
*I *21:g B *C 0.8825 1.1700 
*I *25:g B *C 1.0875 1.1700 
*I *32:g B *C 1.5575 1.1475 
*N *51:11 *C 1.3425 0.6925 
*N *51:12 *C 1.2000 0.7000 

*CAP
0 *32:g 6.28447e-17
1 *43:g 3.32203e-17
2 *40:g 4.00294e-17
3 *37:g 4.82485e-17
4 *27:g 5.94731e-17
5 *51:11 2.52556e-17
6 *51:12 8.33225e-17
7 *51 4.0496e-16

*RES
0 *32:g *51:11 137.164749  // $poly_conn
1 *51:11 *43:g 20.300484  // $poly_conn
2 *51 *40:g 24.986431  // $poly_conn
3 *51 *37:g 56.105236  // $poly_conn
4 *51 *27:g 68.409897  // $poly_conn
5 *51:11 *51:12 69.580002  // $poly_conn
6 *51 *51:12 0.194587  // $metal1_conn

*END

*D_NET *1 3.69276e-16

*CONN
*P *1 O *C 3.5000 0.8550 
*I *14:d B *C 3.3300 0.4400 
*I *17:d B *C 3.3300 0.4400 
*I *20:d B *C 3.7400 0.4400 
*I *24:d B *C 3.7400 0.4400 
*I *28:d B *C 4.1500 0.4400 
*I *23:d B *C 4.1500 0.4400 
*I *30:d B *C 3.2800 1.0950 
*I *33:d B *C 3.2800 1.0950 
*I *36:d B *C 3.6900 1.0950 
*I *39:d B *C 3.6900 1.0950 
*I *41:d B *C 4.1000 1.0950 
*I *11:d B *C 4.1000 1.0950 

*CAP
0 *1 3.69276e-16


*END

*D_NET *52 0

*CONN
*I *40:s B *C 1.0050 0.5075 
*I *42:d B *C 1.0050 0.5075 


*RES
0 *42:d *40:s 0.001  // $mwires

*END

*D_NET *50 2.34057e-18

*CONN
*I *34:d B *C 0.6850 0.5050 
*I *37:s B *C 0.6850 0.5050 

*CAP
0 *34:d 2.34057e-18

*RES
0 *37:s *34:d 0.001  // $mwires

*END

*D_NET *49 1.62221e-18

*CONN
*I *27:s B *C 0.3050 0.5050 
*I *31:d B *C 0.3050 0.5050 

*CAP
0 *27:s 1.62221e-18

*RES
0 *31:d *27:s 0.001  // $mwires

*END

*D_NET *48 2.90695e-18

*CONN
*I *22:s B *C 2.8725 1.1600 
*I *26:d B *C 2.8725 1.1600 

*CAP
0 *22:s 2.90695e-18

*RES
0 *26:d *22:s 0.001  // $mwires

*END

*D_NET *47 6.87232e-18

*CONN
*I *16:d B *C 2.4775 1.1600 
*I *19:s B *C 2.4775 1.1600 

*CAP
0 *16:d 6.87232e-18

*RES
0 *19:s *16:d 0.001  // $mwires

*END

*D_NET *7 1.59876e-18

*CONN
*I *35:s B *C 2.0350 1.1600 
*I *38:d B *C 2.0350 1.1600 

*CAP
0 *35:s 1.59876e-18

*RES
0 *38:d *35:s 0.001  // $mwires

*END

*D_NET *6 1.15896e-15

*CONN
*I *27:d B *C 0.1600 0.5050 
*I *37:d B *C 0.8800 0.5075 
*I *40:d B *C 0.8800 0.5075 
*I *30:g B *C 3.1775 1.0950 
*I *33:g B *C 3.3825 1.0950 
*I *36:g B *C 3.5875 1.0950 
*I *39:g B *C 3.7925 1.0950 
*I *41:g B *C 3.9975 1.0950 
*I *11:g B *C 4.2025 1.0950 
*I *13:d B *C 0.3625 1.1700 
*I *15:d B *C 0.3625 1.1700 
*I *18:d B *C 0.7800 1.1700 
*I *21:d B *C 0.7800 1.1700 
*I *25:d B *C 1.1900 1.1700 
*I *29:d B *C 1.1900 1.1700 
*N *6:19 *C 0.1500 0.4950 

*CAP
0 *25:d 4.35276e-16
1 *11:g 5.22488e-16
2 *37:d 9.04112e-17
3 *27:d 1.10789e-16

*RES
0 *11:g *25:d 47.19746  // $metal1_conn
1 *6:19 *37:d 75.519043  // $metal1_conn
2 *27:d *6:19 75  // $metal1_conn
3 *25:d *6:19 0.58472  // $metal1_conn

*END

*D_NET *5 7.82654e-16

*CONN
*I *8:d B *C 2.4350 0.4850 
*I *9:d B *C 2.4350 0.4850 
*I *10:d B *C 2.9050 0.4825 
*I *12:d B *C 2.9050 0.4825 
*I *14:g B *C 3.2275 0.4400 
*I *17:g B *C 3.4325 0.4400 
*I *20:g B *C 3.6375 0.4400 
*I *24:g B *C 3.8425 0.4400 
*I *28:g B *C 4.0475 0.4400 
*I *23:g B *C 4.2525 0.4400 
*I *44:d B *C 1.9275 0.4850 
*I *45:d B *C 1.9275 0.4850 
*I *19:d B *C 2.6975 1.1600 
*I *22:d B *C 2.6975 1.1600 
*I *35:d B *C 1.8900 1.1600 
*N *5:7 *C 3.1500 0.6700 
*N *5:14 *C 2.7550 0.9100 
*N *5:16 *C 2.8450 0.5925 

*CAP
0 *35:d 1.22119e-16
1 *19:d 4.49973e-17
2 *23:g 2.03532e-16
3 *10:d 1.34003e-16
4 *5:16 7.92049e-17
5 *5:14 9.71197e-17
6 *5:7 1.01677e-16

*RES
0 *23:g *5:7 52.434616  // $poly_conn
1 *5:16 *5:7 0.161624  // $metal1_conn
2 *19:d *5:14 62.133701  // $metal1_conn
3 *5:14 *35:d 62.778896  // $metal1_conn
4 *5:14 *5:16 0.253406  // $metal1_conn
5 *5:16 *10:d 0.025397  // $metal1_conn

*END

*D_NET *4 6.45724e-16

*CONN
*I *9:g B *C 2.5375 0.4850 
*I *10:g B *C 2.8025 0.4825 
*I *43:d B *C 1.4875 0.5225 
*I *44:g B *C 1.8125 0.4850 
*I *19:g B *C 2.5925 1.1600 
*I *22:g B *C 2.8025 1.1600 
*I *32:d B *C 1.6500 1.1475 
*I *35:g B *C 1.9825 1.1600 
*N *4:11 *C 1.6900 0.7050 

*CAP
0 *35:g 8.94067e-17
1 *32:d 5.6996e-17
2 *22:g 4.81439e-17
3 *19:g 3.23156e-17
4 *43:d 3.84668e-17
5 *10:g 3.53623e-16
6 *4:11 2.67721e-17

*RES
0 *22:g *10:g 91.796715  // $poly_conn
1 *10:g *19:g 71.658241  // $poly_conn
2 *35:g *10:g 88.648788  // $poly_conn
3 *4:11 *43:d 75.216927  // $metal1_conn
4 *4:11 *32:d 62.282635  // $metal1_conn
5 *10:g *4:11 0.087817  // $metal1_conn

*END

