*SPEF "IEEE 1481-1999"
*DESIGN  "TBUFX1"
*DATE "Mon Sep 27 11:19:41 2010"
*VENDOR "Cadence Design Systems"
*PROGRAM "Assura RCX"
*VERSION "3.2 Red Hat Linux release 7.2 (Enigma) - (09/09/2009-10:39)"
*DESIGN_FLOW "Physical Verification"
*DIVIDER /
*DELIMITER :
*BUS_DELIMITER []
*T_UNIT 1 PS
*C_UNIT 1e15 FF
*R_UNIT 1 OHM
*L_UNIT 1 MH
// DeviceFingerDelim "@"
// MATCHED
// caps2d version: 10

*NAME_MAP
*1 net144
*2 mp4
*3 mp3
*4 A
*5 mp0
*6 mp2
*7 mp1
*8 mp5
*9 VDD
*10 non
*11 OEb
*12 pon
*13 OE
*14 mn4
*15 net127
*16 mn3
*17 mn0
*18 mn2
*19 mn1
*20 mn5
*21 Y
*22 VSS

*GROUND_NETS VSS

*PORTS
*9 I
*22 I
*4 I
*13 I
*21 O

*D_NET *9 3.66015e-16

*CONN
*P *9 I *C 0.1000 1.7100 
*I *2:s B *C 0.1550 1.2525 
*I *3:s B *C 0.6750 1.2525 
*I *5:s B *C 0.6750 1.2525 
*I *7:s B *C 1.6950 1.1050 
*I *8:s B *C 1.6950 1.1050 
*N *9:2 *C 1.0000 1.7100 
*N *9:3 *C 1.0000 1.7100 
*N *9:4 *C 0.5900 1.7100 
*N *9:5 *C 0.1400 1.7100 

*CAP
0 *7:s 1.05702e-16
1 *3:s 1.80328e-17
2 *2:s 3.32138e-17
3 *9:5 6.69503e-18
4 *9:4 1.57701e-17
5 *9:2 1.86602e-16

*RES
0 *7:s *9:3 31.779856  // $metal1_conn
1 *9:3 *9:4 0.204565  // $metal1_conn
2 *9:4 *9:5 0.224438  // $metal1_conn
3 *9:5 *9 0.019619  // $metal1_conn
4 *9:4 *3:s 62.045841  // $metal1_conn
5 *9:5 *2:s 62.263706  // $metal1_conn
6 *9:2 *9:3 7.5  // $metal1_conn

*END

*D_NET *22 0

*CONN
*P *22 I *C 0.1000 0.0000 
*I *16:s B *C 0.6750 0.5475 
*I *17:s B *C 0.6750 0.5475 
*I *18:s B *C 1.1550 0.4875 
*I *19:s B *C 1.5700 0.4300 
*I *20:s B *C 1.5700 0.4300 
*N *22:2 *C 1.0000 0.0000 
*N *22:3 *C 1.0000 0.0000 
*N *22:4 *C 0.5900 0.0000 


*RES
0 *19:s *22:3 75.548935  // $metal1_conn
1 *22:3 *22:4 0.205515  // $metal1_conn
2 *22:4 *22 0.245403  // $metal1_conn
3 *22:3 *18:s 75.059944  // $metal1_conn
4 *22:4 *16:s 75.285675  // $metal1_conn
5 *22:2 *22:3 6.2  // $metal1_conn

*END

*D_NET *4 6.38414e-16

*CONN
*P *4 I *C 0.7000 1.0450 
*I *16:g B *C 0.4575 0.5475 
*I *19:g B *C 1.4075 0.4875 
*I *3:g B *C 0.4575 1.2525 
*I *7:g B *C 1.4075 1.0175 
*N *4:2 *C 0.4900 1.0350 
*N *4:6 *C 1.3700 0.3150 

*CAP
0 *7:g 7.66482e-17
1 *3:g 3.83491e-17
2 *19:g 5.51129e-17
3 *16:g 5.85264e-17
4 *4:2 8.74247e-17
5 *4:6 1.46714e-16
6 *4 1.75639e-16

*RES
0 *3:g *4:2 17.398676  // $poly_conn
1 *4:2 *16:g 95.603798  // $poly_conn
2 *7:g *19:g 89.743584  // $poly_conn
3 *19:g *4:6 61.15522  // $poly_conn
4 *4:2 *4 45.145966  // $metal1_conn
5 *4 *4:6 1.148811  // $metal1_conn

*END

*D_NET *13 3.64175e-16

*CONN
*P *13 I *C 0.5000 0.6650 
*I *14:g B *C 0.3075 0.5475 
*I *17:g B *C 0.7225 0.5475 
*I *2:g B *C 0.2525 1.2525 
*I *5:g B *C 0.7225 1.2525 
*N *13:2 *C 0.2800 0.8850 
*N *13:5 *C 0.7225 0.8550 
*N *13:6 *C 0.6600 0.8550 
*N *13:8 *C 0.5000 0.8650 

*CAP
0 *5:g 4.5996e-17
1 *2:g 3.46992e-17
2 *17:g 3.93107e-17
3 *14:g 3.94112e-17
4 *13:8 3.57854e-17
5 *13:5 2.40223e-17
6 *13:2 6.83993e-17
7 *13:6 4.72904e-17
8 *13 2.92602e-17

*RES
0 *14:g *13:2 59.435539  // $poly_conn
1 *13:2 *2:g 58.153492  // $poly_conn
2 *5:g *13:5 71.604286  // $poly_conn
3 *13:5 *13:6 46.294373  // $poly_conn
4 *13:5 *17:g 57.501724  // $poly_conn
5 *13:6 *13:8 0.103286  // $metal1_conn
6 *13:8 *13:2 45.130463  // $metal1_conn
7 *13:8 *13 0.101666  // $metal1_conn

*END

*D_NET *21 1.25177e-16

*CONN
*P *21 O *C 1.9000 0.4750 
*I *20:d B *C 1.7550 0.4300 
*I *8:d B *C 1.8850 1.1050 

*CAP
0 *8:d 7.6507e-17
1 *20:d 2.29059e-17
2 *21 2.57638e-17

*RES
0 *21 *20:d 75.067986  // $metal1_conn
1 *21 *8:d 21.086432  // $metal1_conn

*END

*D_NET *1 0

*CONN
*I *14:s B *C 0.3825 0.5475 
*I *16:d B *C 0.3825 0.5475 


*RES
0 *16:d *14:s 0.001  // $mwires

*END

*D_NET *15 0

*CONN
*I *6:s B *C 1.3550 1.0175 
*I *7:d B *C 1.3550 1.0175 


*RES
0 *7:d *6:s 0.001  // $mwires

*END

*D_NET *12 5.00624e-16

*CONN
*I *14:d B *C 0.2150 0.5475 
*I *2:d B *C 0.3550 1.2525 
*I *3:d B *C 0.3550 1.2525 
*I *8:g B *C 1.7875 1.1050 
*N *12:2 *C 1.7400 0.8000 
*N *12:4 *C 0.3550 1.2250 

*CAP
0 *8:g 2.96523e-17
1 *2:d 2.18001e-16
2 *14:d 5.76356e-17
3 *12:2 1.95336e-16

*RES
0 *8:g *12:2 62.398674  // $poly_conn
1 *12:2 *12:4 1.443193  // $metal1_conn
2 *12:4 *14:d 75.603783  // $metal1_conn
3 *2:d *12:4 62  // $metal1_conn

*END

*D_NET *11 3.39707e-16

*CONN
*I *17:d B *C 0.8725 0.5475 
*I *18:g B *C 1.2025 0.4875 
*I *5:d B *C 0.8150 1.2525 
*I *6:g B *C 1.3025 1.0175 
*N *11:2 *C 1.1750 0.6700 
*N *11:4 *C 1.0100 0.6700 

*CAP
0 *6:g 5.98736e-17
1 *5:d 7.8562e-17
2 *18:g 2.79228e-17
3 *17:d 3.28924e-17
4 *11:4 7.58742e-17
5 *11:2 6.4582e-17

*RES
0 *6:g *11:2 69.215561  // $poly_conn
1 *11:2 *18:g 16.530039  // $poly_conn
2 *11:2 *11:4 45.09116  // $metal1_conn
3 *11:4 *5:d 62.557182  // $metal1_conn
4 *11:4 *17:d 75.145866  // $metal1_conn

*END

*D_NET *10 2.19485e-16

*CONN
*I *18:d B *C 1.3050 0.4875 
*I *19:d B *C 1.3050 0.4875 
*I *20:g B *C 1.6625 0.4300 
*I *6:d B *C 1.2100 1.0175 
*N *10:2 *C 1.5500 0.6850 
*N *10:3 *C 1.3650 0.6850 

*CAP
0 *6:d 4.94614e-17
1 *20:g 3.81905e-17
2 *18:d 3.14092e-17
3 *10:3 3.96555e-17
4 *10:2 6.07682e-17

*RES
0 *20:g *10:2 84.418961  // $poly_conn
1 *10:2 *10:3 0.115346  // $metal1_conn
2 *10:3 *6:d 62.286476  // $metal1_conn
3 *10:3 *18:d 75.179375  // $metal1_conn

*END

