*SPEF "IEEE 1481-1999"
*DESIGN  "TBUFXL"
*DATE "Mon Sep 27 11:23:06 2010"
*VENDOR "Cadence Design Systems"
*PROGRAM "Assura RCX"
*VERSION "3.2 Red Hat Linux release 7.2 (Enigma) - (09/09/2009-10:39)"
*DESIGN_FLOW "Physical Verification"
*DIVIDER /
*DELIMITER :
*BUS_DELIMITER []
*T_UNIT 1 PS
*C_UNIT 1e15 FF
*R_UNIT 1 OHM
*L_UNIT 1 MH
// DeviceFingerDelim "@"
// MATCHED
// caps2d version: 10

*NAME_MAP
*1 net144
*2 mp4
*3 mp3
*4 A
*5 mp0
*6 mp2
*7 mp1
*8 mp5
*9 VDD
*10 non
*11 OEb
*12 pon
*13 OE
*14 mn4
*15 net127
*16 mn3
*17 mn0
*18 mn2
*19 mn1
*20 mn5
*21 Y
*22 VSS

*GROUND_NETS VSS

*PORTS
*9 I
*22 I
*4 I
*13 I
*21 O

*D_NET *9 3.10324e-16

*CONN
*P *9 I *C 0.1000 1.7100 
*I *2:s B *C 0.1100 1.2975 
*I *3:s B *C 0.6250 1.2975 
*I *5:s B *C 0.6250 1.2975 
*I *7:s B *C 1.5650 1.0475 
*I *8:s B *C 1.5650 1.0475 
*N *9:2 *C 1.0000 1.7100 
*N *9:3 *C 1.0000 1.7100 
*N *9:4 *C 0.5400 1.7100 

*CAP
0 *7:s 3.42871e-17
1 *3:s 2.28099e-17
2 *2:s 2.98498e-17
3 *9:4 1.93313e-17
4 *9:2 1.94514e-16
5 *9 9.53099e-18

*RES
0 *7:s *9:3 62.354759  // $metal1_conn
1 *9:3 *9:4 0.22946  // $metal1_conn
2 *9:4 *9 0.219485  // $metal1_conn
3 *9 *2:s 62.240688  // $metal1_conn
4 *9:4 *3:s 62.045803  // $metal1_conn
5 *9:2 *9:3 7.5  // $metal1_conn

*END

*D_NET *22 0

*CONN
*P *22 I *C 0.1000 0.0000 
*I *16:s B *C 0.5975 0.5075 
*I *17:s B *C 0.5975 0.5075 
*I *18:s B *C 1.1300 0.5325 
*I *19:s B *C 1.4925 0.5325 
*I *20:s B *C 1.4925 0.5325 
*N *22:2 *C 1.0000 0.0000 
*N *22:3 *C 1.0000 0.0000 
*N *22:4 *C 0.4950 0.0000 


*RES
0 *18:s *22:3 75.061836  // $metal1_conn
1 *22:3 *22:4 0.253122  // $metal1_conn
2 *22:4 *22 0.197573  // $metal1_conn
3 *22:3 *19:s 75.673515  // $metal1_conn
4 *22:4 *16:s 75.284019  // $metal1_conn
5 *22:2 *22:3 6.2  // $metal1_conn

*END

*D_NET *4 6.91168e-16

*CONN
*P *4 I *C 0.5000 1.0450 
*I *16:g B *C 0.3625 0.5075 
*I *19:g B *C 1.3825 0.5325 
*I *3:g B *C 0.4075 1.2975 
*I *7:g B *C 1.3475 1.0475 
*N *4:2 *C 0.4450 0.9950 
*N *4:6 *C 1.3550 0.3350 
*N *4:7 *C 0.4450 0.9950 

*CAP
0 *7:g 8.38279e-17
1 *3:g 4.52244e-17
2 *19:g 5.7241e-17
3 *16:g 6.48157e-17
4 *4:2 2.40157e-16
5 *4:6 1.82601e-16
6 *4 1.73002e-17

*RES
0 *3:g *4:2 40.514191  // $poly_conn
1 *4:2 *16:g 103.548897  // $poly_conn
2 *7:g *19:g 89.838783  // $poly_conn
3 *19:g *4:6 68.538101  // $poly_conn
4 *4:6 *4:7 1.357761  // $metal1_conn
5 *4:7 *4 0.020162  // $metal1_conn
6 *4:2 *4:7 45  // $metal1_conn

*END

*D_NET *13 3.94364e-16

*CONN
*P *13 I *C 0.3000 0.6650 
*I *14:g B *C 0.2575 0.5075 
*I *17:g B *C 0.6625 0.5075 
*I *2:g B *C 0.2025 1.2975 
*I *5:g B *C 0.6725 1.2975 
*N *13:2 *C 0.2300 0.8050 
*N *13:5 *C 0.6250 0.8150 
*N *13:7 *C 0.3000 0.8050 

*CAP
0 *5:g 4.74883e-17
1 *2:g 4.12544e-17
2 *17:g 4.23728e-17
3 *14:g 4.82554e-17
4 *13:7 5.32839e-17
5 *13:2 5.12191e-17
6 *13:5 9.2497e-17
7 *13 1.79932e-17

*RES
0 *14:g *13:2 49.179131  // $poly_conn
1 *13:2 *2:g 90.204765  // $poly_conn
2 *5:g *13:5 87.346725  // $poly_conn
3 *13:5 *17:g 50.770603  // $poly_conn
4 *13:5 *13:7 45.19849  // $metal1_conn
5 *13:7 *13:2 45.036999  // $metal1_conn
6 *13:7 *13 0.059125  // $metal1_conn

*END

*D_NET *21 7.47668e-17

*CONN
*P *21 O *C 1.7000 1.0450 
*I *20:d B *C 1.6950 0.5325 
*I *8:d B *C 1.7050 1.0475 
*N *21:2 *C 1.7150 1.0400 

*CAP
0 *8:d 3.37832e-17
1 *20:d 4.09836e-17

*RES
0 *21 *21:2 0.002966  // $metal1_conn
1 *21:2 *20:d 75.345482  // $metal1_conn
2 *8:d *21:2 62  // $metal1_conn

*END

*D_NET *1 0

*CONN
*I *14:s B *C 0.3100 0.5075 
*I *16:d B *C 0.3100 0.5075 


*RES
0 *16:d *14:s 0.001  // $mwires

*END

*D_NET *15 0

*CONN
*I *6:s B *C 1.2950 1.0475 
*I *7:d B *C 1.2950 1.0475 


*RES
0 *7:d *6:s 0.001  // $mwires

*END

*D_NET *12 4.36235e-16

*CONN
*I *14:d B *C 0.1525 0.5075 
*I *2:d B *C 0.3050 1.2975 
*I *3:d B *C 0.3050 1.2975 
*I *8:g B *C 1.6125 1.0475 
*N *12:2 *C 1.6400 1.3750 
*N *12:5 *C 0.3050 1.2500 

*CAP
0 *8:g 4.87103e-17
1 *2:d 1.79257e-16
2 *14:d 7.11822e-17
3 *12:2 1.37086e-16

*RES
0 *8:g *12:2 92.897079  // $poly_conn
1 *14:d *12:5 75.671989  // $metal1_conn
2 *12:5 *12:2 1.067914  // $metal1_conn
3 *2:d *12:5 62  // $metal1_conn

*END

*D_NET *11 3.71611e-16

*CONN
*I *17:d B *C 0.7950 0.5075 
*I *18:g B *C 1.1775 0.5325 
*I *5:d B *C 0.7650 1.2975 
*I *6:g B *C 1.2425 1.0475 
*N *11:2 *C 1.1400 0.7050 
*N *11:4 *C 0.9750 0.7050 

*CAP
0 *6:g 5.88607e-17
1 *5:d 7.94878e-17
2 *18:g 2.9354e-17
3 *17:d 5.35193e-17
4 *11:4 8.38635e-17
5 *11:2 6.65254e-17

*RES
0 *6:g *11:2 62.523258  // $poly_conn
1 *11:2 *18:g 16.15522  // $poly_conn
2 *11:2 *11:4 45.093044  // $metal1_conn
3 *11:4 *5:d 62.555359  // $metal1_conn
4 *11:4 *17:d 75.246498  // $metal1_conn

*END

*D_NET *10 2.39563e-16

*CONN
*I *18:d B *C 1.2800 0.5325 
*I *19:d B *C 1.2800 0.5325 
*I *20:g B *C 1.6025 0.5325 
*I *6:d B *C 1.1500 1.0475 
*N *10:2 *C 1.5250 0.7100 
*N *10:3 *C 1.3300 0.7100 

*CAP
0 *6:d 5.93805e-17
1 *20:g 4.40189e-17
2 *18:d 3.09902e-17
3 *10:3 3.8054e-17
4 *10:2 6.71192e-17

*RES
0 *20:g *10:2 68.470558  // $poly_conn
1 *10:2 *10:3 0.121182  // $metal1_conn
2 *10:3 *6:d 62.3321  // $metal1_conn
3 *10:3 *18:d 75.112144  // $metal1_conn

*END

