*SPEF "IEEE 1481-1999"
*DESIGN  "TBUFX16"
*DATE "Mon Sep 27 11:20:27 2010"
*VENDOR "Cadence Design Systems"
*PROGRAM "Assura RCX"
*VERSION "3.2 Red Hat Linux release 7.2 (Enigma) - (09/09/2009-10:39)"
*DESIGN_FLOW "Physical Verification"
*DIVIDER /
*DELIMITER :
*BUS_DELIMITER []
*T_UNIT 1 PS
*C_UNIT 1e15 FF
*R_UNIT 1 OHM
*L_UNIT 1 MH
// DeviceFingerDelim "@"
// MATCHED
// caps2d version: 10

*NAME_MAP
*1 VSS
*2 A
*3 Y
*4 mn5\@9
*5 mn1
*6 non
*7 mn2
*8 OEb
*9 mn2\@1
*10 pon
*11 mn1\@1
*12 net127\@2
*13 mn5\@10
*14 mn5\@11
*15 mn5\@12
*16 mp5
*17 mn5\@13
*18 mp5\@1
*19 mn5\@14
*20 mp5\@2
*21 mp5\@3
*22 mp5\@4
*23 mp5\@5
*24 mp5\@6
*25 mp5\@7
*26 mp5\@8
*27 mn5\@15
*28 mn0
*29 mn2\@2
*30 mn1\@2
*31 mn1\@3
*32 mn2\@3
*33 mn2\@4
*34 mn1\@4
*35 mn4
*36 mn3
*37 mp5\@9
*38 mp1
*39 mp2
*40 VDD
*41 mp2\@1
*42 mp1\@1
*43 mp5\@10
*44 mp5\@11
*45 mp5\@12
*46 mn3\@1
*47 mp5\@13
*48 mn4\@1
*49 mp5\@14
*50 mn4\@2
*51 mn3\@2
*52 mn3\@3
*53 mn5
*54 mn4\@3
*55 mn5\@1
*56 mn4\@4
*57 mn5\@2
*58 mn3\@4
*59 mn5\@3
*60 mn5\@4
*61 mn5\@5
*62 mp5\@15
*63 mn5\@6
*64 mp3
*65 mn5\@7
*66 mp0
*67 mn5\@8
*68 mp2\@2
*69 mp1\@2
*70 mp1\@3
*71 mp2\@3
*72 mp2\@4
*73 mp1\@4
*74 net127\@3
*75 mp4
*76 net127\@4
*77 net127
*78 net127\@1
*79 net144
*80 net144\@1
*81 net144\@2
*82 net144\@3
*83 net144\@4
*84 mp3\@1
*85 mp3\@2
*86 mp4\@1
*87 mp4\@2
*88 mp3\@3
*89 OE
*90 mp3\@4
*91 mp4\@3
*92 mp4\@4

*GROUND_NETS VSS

*PORTS
*40 I
*1 I
*2 I
*89 I
*3 O

*D_NET *40 1.4622e-15

*CONN
*P *40 I *C 0.1000 1.7100 
*I *16:s B *C 6.6700 1.2250 
*I *18:s B *C 7.0800 1.2250 
*I *20:s B *C 7.0800 1.2250 
*I *21:s B *C 7.4900 1.2250 
*I *22:s B *C 7.4900 1.2250 
*I *23:s B *C 7.9000 1.2250 
*I *24:s B *C 7.9000 1.2250 
*I *25:s B *C 8.3100 1.2250 
*I *26:s B *C 8.3100 1.2250 
*I *37:s B *C 8.7100 1.2250 
*I *38:s B *C 4.5050 1.1850 
*I *42:s B *C 5.4200 1.2250 
*I *43:s B *C 5.4200 1.2250 
*I *44:s B *C 5.8500 1.2250 
*I *45:s B *C 5.8500 1.2250 
*I *47:s B *C 6.2600 1.2250 
*I *49:s B *C 6.2600 1.2250 
*I *62:s B *C 6.6700 1.2250 
*I *64:s B *C 2.6100 1.0950 
*I *66:s B *C 2.6100 1.0950 
*I *69:s B *C 3.8250 1.1850 
*I *70:s B *C 3.8250 1.1850 
*I *73:s B *C 4.5050 1.1850 
*I *75:s B *C 0.2900 1.2200 
*I *84:s B *C 0.8050 1.2200 
*I *85:s B *C 0.8050 1.2200 
*I *86:s B *C 1.2900 1.2200 
*I *87:s B *C 1.2900 1.2200 
*I *88:s B *C 1.8150 1.2200 
*I *90:s B *C 1.8150 1.2200 
*I *91:s B *C 2.1700 1.2200 
*I *92:s B *C 2.1700 1.2200 
*N *40:3 *C 7.9000 1.7100 
*N *40:12 *C 4.4950 1.7100 
*N *40:13 *C 3.7950 1.7100 
*N *40:14 *C 3.5000 1.7100 

*CAP
0 *69:s 4.64704e-17
1 *64:s 2.46129e-16
2 *38:s 4.34604e-17
3 *37:s 5.91293e-16
4 *40:13 1.5518e-17
5 *40:12 2.36585e-17
6 *40:3 4.91221e-16
7 *40 4.4538e-18

*RES
0 *64:s *40 0.089805  // $metal1_conn
1 *40:3 *37:s 6.818182  // $metal1_conn
2 *40:3 *37:s 6.818182  // $metal1_conn
3 *40:3 *40:14 6.818182  // $metal1_conn
4 *40:3 *64:s 6.25  // $metal1_conn
5 *40:12 *38:s 62.264091  // $metal1_conn
6 *40:13 *69:s 62.264091  // $metal1_conn
7 *37:s *40:12 0.350587  // $metal1_conn
8 *40:12 *40:13 0.350587  // $metal1_conn
9 *40:13 *40:14 0.147717  // $metal1_conn
10 *40:14 *64:s 0.446049  // $metal1_conn

*END

*D_NET *1 0

*CONN
*P *1 I *C 0.1000 0.0000 
*I *53:s B *C 6.5550 0.3600 
*I *55:s B *C 6.9650 0.3600 
*I *57:s B *C 6.9650 0.3600 
*I *59:s B *C 7.3750 0.3600 
*I *60:s B *C 7.3750 0.3600 
*I *61:s B *C 7.7850 0.3600 
*I *63:s B *C 7.7850 0.3600 
*I *65:s B *C 8.1950 0.3600 
*I *67:s B *C 8.1950 0.3600 
*I *4:s B *C 8.5950 0.3600 
*I *5:s B *C 4.4800 0.3325 
*I *7:s B *C 4.8900 0.3325 
*I *9:s B *C 4.8900 0.3325 
*I *11:s B *C 5.3550 0.3600 
*I *13:s B *C 5.3550 0.3600 
*I *14:s B *C 5.7350 0.3600 
*I *15:s B *C 5.7350 0.3600 
*I *17:s B *C 6.1450 0.3600 
*I *19:s B *C 6.1450 0.3600 
*I *27:s B *C 6.5550 0.3600 
*I *28:s B *C 2.6100 0.5300 
*I *29:s B *C 3.2200 0.3325 
*I *30:s B *C 3.6200 0.3325 
*I *31:s B *C 3.6200 0.3325 
*I *32:s B *C 4.0300 0.3325 
*I *33:s B *C 4.0300 0.3325 
*I *34:s B *C 4.4800 0.3325 
*I *36:s B *C 0.6550 0.5575 
*I *46:s B *C 0.6550 0.5575 
*I *51:s B *C 1.6625 0.5575 
*I *52:s B *C 1.6625 0.5575 
*I *58:s B *C 2.6100 0.5300 
*N *1:3 *C 7.9000 0.0000 
*N *1:18 *C 2.4350 0.0000 
*N *1:19 *C 1.6150 0.0000 
*N *1:20 *C 1.2000 0.0000 
*N *1:21 *C 0.6500 0.0000 


*RES
0 *1:21 *1 0.275323  // $metal1_conn
1 *1:3 *4:s 5.636364  // $metal1_conn
2 *1:3 *4:s 5.636364  // $metal1_conn
3 *1:3 *4:s 5.636364  // $metal1_conn
4 *1:3 *1:20 5.166667  // $metal1_conn
5 *1:18 *28:s 75.341896  // $metal1_conn
6 *1:19 *51:s 75.333221  // $metal1_conn
7 *1:21 *36:s 75.324402  // $metal1_conn
8 *4:s *1:18 0.388192  // $metal1_conn
9 *1:18 *1:19 0.410755  // $metal1_conn
10 *1:19 *1:20 0.207885  // $metal1_conn
11 *1:20 *1:21 0.275574  // $metal1_conn

*END

*D_NET *2 2.34585e-15

*CONN
*P *2 I *C 1.1000 0.8550 
*I *5:g B *C 4.5825 0.3325 
*I *11:g B *C 5.1975 0.3325 
*I *30:g B *C 3.5175 0.3325 
*I *31:g B *C 3.7225 0.3325 
*I *34:g B *C 4.3775 0.3325 
*I *36:g B *C 0.5475 0.5575 
*I *46:g B *C 0.7625 0.5575 
*I *51:g B *C 1.5425 0.5575 
*I *52:g B *C 1.7825 0.5575 
*I *58:g B *C 2.3325 0.5575 
*I *38:g B *C 4.6275 1.1850 
*I *42:g B *C 5.0825 1.1850 
*I *64:g B *C 2.4775 1.1350 
*I *69:g B *C 3.7225 1.1850 
*I *70:g B *C 3.9275 1.1850 
*I *73:g B *C 4.3825 1.1850 
*I *84:g B *C 0.5875 1.2200 
*I *85:g B *C 0.8525 1.2200 
*I *88:g B *C 1.5975 1.2200 
*I *90:g B *C 1.8625 1.2200 
*N *2:17 *C 3.7225 0.9325 

*CAP
0 *73:g 7.04727e-17
1 *70:g 5.3986e-17
2 *69:g 3.75103e-17
3 *64:g 9.80328e-16
4 *42:g 8.42615e-17
5 *38:g 6.97365e-17
6 *58:g 2.65417e-17
7 *52:g 4.02617e-17
8 *51:g 2.41605e-17
9 *46:g 3.064e-17
10 *36:g 3.18125e-17
11 *5:g 8.51633e-16
12 *2:17 3.00105e-17
13 *2 1.44961e-17

*RES
0 *5:g *42:g 86.374245  // $poly_conn
1 *38:g *5:g 98.923531  // $poly_conn
2 *5:g *73:g 90.514198  // $poly_conn
3 *70:g *2:17 67.14196  // $poly_conn
4 *2:17 *69:g 23.465221  // $poly_conn
5 *64:g *58:g 24.835787  // $poly_conn
6 *64:g *52:g 36.668507  // $poly_conn
7 *64:g *51:g 23.247713  // $poly_conn
8 *64:g *46:g 57.555679  // $poly_conn
9 *64:g *36:g 50.73201  // $poly_conn
10 *2:17 *5:g 64.952042  // $poly_conn
11 *64:g *2 0.003422  // $metal1_conn
12 *64:g *5:g 1.418228  // $metal1_conn

*END

*D_NET *89 9.36961e-16

*CONN
*P *89 I *C 0.3000 0.8550 
*I *28:g B *C 2.6825 0.5300 
*I *35:g B *C 0.3825 0.5575 
*I *48:g B *C 1.0475 0.5575 
*I *50:g B *C 1.3925 0.5575 
*I *54:g B *C 1.8875 0.5575 
*I *56:g B *C 2.1275 0.5575 
*I *66:g B *C 2.6825 1.0950 
*I *75:g B *C 0.3825 1.2200 
*I *86:g B *C 1.1875 1.2200 
*I *87:g B *C 1.3925 1.2200 
*I *91:g B *C 2.0675 1.2200 
*I *92:g B *C 2.2725 1.2200 

*CAP
0 *92:g 6.39802e-16
1 *66:g 7.10383e-17
2 *56:g 2.69415e-17
3 *54:g 4.41769e-17
4 *50:g 3.07516e-17
5 *48:g 2.32459e-17
6 *35:g 3.23273e-17
7 *28:g 3.61447e-17
8 *89 3.25324e-17

*RES
0 *66:g *92:g 175.35144  // $poly_conn
1 *66:g *28:g 61.538464  // $poly_conn
2 *92:g *56:g 48.656731  // $poly_conn
3 *92:g *54:g 35.385986  // $poly_conn
4 *92:g *50:g 20.001841  // $poly_conn
5 *92:g *48:g 16.45433  // $poly_conn
6 *92:g *35:g 19.691952  // $poly_conn
7 *89 *92:g 0.03133  // $metal1_conn

*END

*D_NET *3 9.90137e-16

*CONN
*P *3 O *C 5.7000 0.8550 
*I *53:d B *C 6.7600 0.3600 
*I *55:d B *C 6.7600 0.3600 
*I *57:d B *C 7.1700 0.3600 
*I *59:d B *C 7.1700 0.3600 
*I *60:d B *C 7.5800 0.3600 
*I *61:d B *C 7.5800 0.3600 
*I *63:d B *C 7.9900 0.3600 
*I *65:d B *C 7.9900 0.3600 
*I *67:d B *C 8.4000 0.3600 
*I *4:d B *C 8.4000 0.3600 
*I *13:d B *C 5.5300 0.3600 
*I *14:d B *C 5.5300 0.3600 
*I *15:d B *C 5.9400 0.3600 
*I *17:d B *C 5.9400 0.3600 
*I *19:d B *C 6.3500 0.3600 
*I *27:d B *C 6.3500 0.3600 
*I *16:d B *C 6.8750 1.2250 
*I *18:d B *C 6.8750 1.2250 
*I *20:d B *C 7.2850 1.2250 
*I *21:d B *C 7.2850 1.2250 
*I *22:d B *C 7.6950 1.2250 
*I *23:d B *C 7.6950 1.2250 
*I *24:d B *C 8.1050 1.2250 
*I *25:d B *C 8.1050 1.2250 
*I *26:d B *C 8.5150 1.2250 
*I *37:d B *C 8.5150 1.2250 
*I *43:d B *C 5.6200 1.2250 
*I *44:d B *C 5.6200 1.2250 
*I *45:d B *C 6.0550 1.2250 
*I *47:d B *C 6.0550 1.2250 
*I *49:d B *C 6.4650 1.2250 
*I *62:d B *C 6.4650 1.2250 

*CAP
0 *3 9.90137e-16


*END

*D_NET *83 2.38079e-18

*CONN
*I *56:s B *C 2.2300 0.5575 
*I *58:d B *C 2.2300 0.5575 

*CAP
0 *56:s 2.38079e-18

*RES
0 *58:d *56:s 0.001  // $mwires

*END

*D_NET *82 1.34316e-18

*CONN
*I *52:d B *C 1.8350 0.5575 
*I *54:s B *C 1.8350 0.5575 

*CAP
0 *52:d 1.34316e-18

*RES
0 *54:s *52:d 0.001  // $mwires

*END

*D_NET *81 1.86268e-18

*CONN
*I *50:s B *C 1.4675 0.5575 
*I *51:d B *C 1.4675 0.5575 

*CAP
0 *50:s 1.86268e-18

*RES
0 *51:d *50:s 0.001  // $mwires

*END

*D_NET *80 0

*CONN
*I *46:d B *C 0.9050 0.5575 
*I *48:s B *C 0.9050 0.5575 


*RES
0 *48:s *46:d 0.001  // $mwires

*END

*D_NET *79 0

*CONN
*I *35:s B *C 0.4650 0.5575 
*I *36:d B *C 0.4650 0.5575 


*RES
0 *36:d *35:s 0.001  // $mwires

*END

*D_NET *78 1.85047e-18

*CONN
*I *41:s B *C 5.0300 1.1850 
*I *42:d B *C 5.0300 1.1850 

*CAP
0 *41:s 1.85047e-18

*RES
0 *42:d *41:s 0.001  // $mwires

*END

*D_NET *77 1.92628e-18

*CONN
*I *38:d B *C 4.6800 1.1850 
*I *39:s B *C 4.6800 1.1850 

*CAP
0 *38:d 1.92628e-18

*RES
0 *39:s *38:d 0.001  // $mwires

*END

*D_NET *76 1.9149e-18

*CONN
*I *72:s B *C 4.3300 1.1850 
*I *73:d B *C 4.3300 1.1850 

*CAP
0 *72:s 1.9149e-18

*RES
0 *73:d *72:s 0.001  // $mwires

*END

*D_NET *74 3.32996e-18

*CONN
*I *70:d B *C 4.0000 1.1850 
*I *71:s B *C 4.0000 1.1850 

*CAP
0 *70:d 3.32996e-18

*RES
0 *71:s *70:d 0.001  // $mwires

*END

*D_NET *12 3.42339e-18

*CONN
*I *68:s B *C 3.6500 1.1850 
*I *69:d B *C 3.6500 1.1850 

*CAP
0 *68:s 3.42339e-18

*RES
0 *69:d *68:s 0.001  // $mwires

*END

*D_NET *10 1.80893e-15

*CONN
*I *35:d B *C 0.2900 0.5575 
*I *48:d B *C 1.2200 0.5575 
*I *50:d B *C 1.2200 0.5575 
*I *54:d B *C 2.0075 0.5575 
*I *56:d B *C 2.0075 0.5575 
*I *16:g B *C 6.7725 1.2250 
*I *18:g B *C 6.9775 1.2250 
*I *20:g B *C 7.1825 1.2250 
*I *21:g B *C 7.3875 1.2250 
*I *22:g B *C 7.5925 1.2250 
*I *23:g B *C 7.7975 1.2250 
*I *24:g B *C 8.0025 1.2250 
*I *25:g B *C 8.2075 1.2250 
*I *26:g B *C 8.4125 1.2250 
*I *37:g B *C 8.6175 1.2250 
*I *43:g B *C 5.4925 1.2250 
*I *44:g B *C 5.7475 1.2250 
*I *45:g B *C 5.9525 1.2250 
*I *47:g B *C 6.1575 1.2250 
*I *49:g B *C 6.3625 1.2250 
*I *62:g B *C 6.5675 1.2250 
*I *64:d B *C 2.4250 1.1350 
*I *75:d B *C 0.4850 1.2200 
*I *84:d B *C 0.4850 1.2200 
*I *85:d B *C 1.0200 1.2200 
*I *86:d B *C 1.0200 1.2200 
*I *87:d B *C 1.4950 1.2200 
*I *88:d B *C 1.4950 1.2200 
*I *90:d B *C 1.9650 1.2200 
*I *91:d B *C 1.9650 1.2200 
*I *92:d B *C 2.4250 1.1350 
*N *10:36 *C 5.5300 0.9050 

*CAP
0 *64:d 7.17892e-16
1 *37:g 8.64332e-16
2 *54:d 7.28156e-17
3 *48:d 7.34005e-17
4 *35:d 8.04892e-17

*RES
0 *37:g *10:36 45  // $metal1_conn
1 *54:d *64:d 75.416985  // $metal1_conn
2 *64:d *48:d 75.36586  // $metal1_conn
3 *64:d *35:d 75.726326  // $metal1_conn
4 *64:d *10:36 3.066337  // $metal1_conn

*END

*D_NET *8 1.1946e-15

*CONN
*I *7:g B *C 4.7875 0.3325 
*I *9:g B *C 4.9925 0.3325 
*I *28:d B *C 2.7750 0.5300 
*I *29:g B *C 3.3125 0.3325 
*I *32:g B *C 3.9275 0.3325 
*I *33:g B *C 4.1325 0.3325 
*I *39:g B *C 4.7325 1.1850 
*I *41:g B *C 4.9775 1.1850 
*I *66:d B *C 2.8625 1.0950 
*I *68:g B *C 3.5775 1.1850 
*I *71:g B *C 4.0725 1.1850 
*I *72:g B *C 4.2775 1.1850 
*N *8:17 *C 2.9600 0.8000 

*CAP
0 *72:g 6.48482e-17
1 *71:g 4.17117e-17
2 *68:g 5.11223e-17
3 *66:d 3.11235e-17
4 *41:g 5.8525e-17
5 *39:g 5.81587e-17
6 *28:d 6.50059e-17
7 *9:g 7.75362e-16
8 *8:17 4.87378e-17

*RES
0 *9:g *41:g 49.676579  // $poly_conn
1 *9:g *39:g 47.92445  // $poly_conn
2 *72:g *9:g 79.016716  // $poly_conn
3 *9:g *71:g 48.167908  // $poly_conn
4 *68:g *9:g 47.299271  // $poly_conn
5 *8:17 *66:d 62.082214  // $metal1_conn
6 *8:17 *28:d 75.200066  // $metal1_conn
7 *9:g *8:17 0.416821  // $metal1_conn

*END

*D_NET *6 1.43529e-15

*CONN
*I *53:g B *C 6.6575 0.3600 
*I *55:g B *C 6.8625 0.3600 
*I *57:g B *C 7.0675 0.3600 
*I *59:g B *C 7.2725 0.3600 
*I *60:g B *C 7.4775 0.3600 
*I *61:g B *C 7.6825 0.3600 
*I *63:g B *C 7.8875 0.3600 
*I *65:g B *C 8.0925 0.3600 
*I *67:g B *C 8.2975 0.3600 
*I *4:g B *C 8.5025 0.3600 
*I *5:d B *C 4.6850 0.3325 
*I *7:d B *C 4.6850 0.3325 
*I *9:d B *C 5.0950 0.3325 
*I *11:d B *C 5.0950 0.3325 
*I *13:g B *C 5.4275 0.3600 
*I *14:g B *C 5.6325 0.3600 
*I *15:g B *C 5.8375 0.3600 
*I *17:g B *C 6.0425 0.3600 
*I *19:g B *C 6.2475 0.3600 
*I *27:g B *C 6.4525 0.3600 
*I *29:d B *C 3.4150 0.3325 
*I *30:d B *C 3.4150 0.3325 
*I *31:d B *C 3.8250 0.3325 
*I *32:d B *C 3.8250 0.3325 
*I *33:d B *C 4.2550 0.3325 
*I *34:d B *C 4.2550 0.3325 
*I *39:d B *C 4.8550 1.1850 
*I *41:d B *C 4.8550 1.1850 
*I *68:d B *C 3.4850 1.1850 
*I *71:d B *C 4.1750 1.1850 
*I *72:d B *C 4.1750 1.1850 
*N *6:17 *C 5.3400 0.6650 
*N *6:39 *C 4.8750 0.9600 
*N *6:40 *C 4.1750 0.9600 

*CAP
0 *71:d 2.85248e-17
1 *68:d 1.0879e-16
2 *39:d 3.06486e-17
3 *9:d 4.18868e-16
4 *4:g 4.53392e-16
5 *6:40 1.5136e-16
6 *6:39 1.20446e-16
7 *6:17 1.2326e-16

*RES
0 *4:g *6:17 61.14048  // $poly_conn
1 *9:d *6:17 0.27316  // $metal1_conn
2 *6:17 *6:39 0.517451  // $metal1_conn
3 *6:39 *39:d 62.068867  // $metal1_conn
4 *6:40 *71:d 62.068867  // $metal1_conn
5 *6:40 *68:d 62.649212  // $metal1_conn
6 *6:39 *6:40 0.574261  // $metal1_conn

*END

