*SPEF "IEEE 1481-1999"
*DESIGN  "TBUFX2"
*DATE "Mon Sep 27 11:20:49 2010"
*VENDOR "Cadence Design Systems"
*PROGRAM "Assura RCX"
*VERSION "3.2 Red Hat Linux release 7.2 (Enigma) - (09/09/2009-10:39)"
*DESIGN_FLOW "Physical Verification"
*DIVIDER /
*DELIMITER :
*BUS_DELIMITER []
*T_UNIT 1 PS
*C_UNIT 1e15 FF
*R_UNIT 1 OHM
*L_UNIT 1 MH
// DeviceFingerDelim "@"
// MATCHED
// caps2d version: 10

*NAME_MAP
*1 pon
*2 mp4
*3 net127
*4 mp3
*5 mp0
*6 mn4
*7 net144
*8 mp2
*9 mn3
*10 VSS
*11 mp1
*12 mn0
*13 mp5
*14 mn2
*15 OE
*16 mp5\@1
*17 mn1
*18 mn5
*19 mn5\@1
*20 Y
*21 A
*22 VDD
*23 OEb
*24 non

*GROUND_NETS VSS

*PORTS
*22 I
*10 I
*21 I
*15 I
*20 O

*D_NET *22 3.5564e-16

*CONN
*P *22 I *C 0.1000 1.7100 
*I *2:s B *C 0.2000 1.0575 
*I *4:s B *C 0.7100 1.0575 
*I *5:s B *C 0.7100 1.0575 
*I *11:s B *C 1.7450 1.0950 
*I *13:s B *C 1.7450 1.0950 
*I *16:s B *C 2.0900 1.0950 
*N *22:3 *C 1.1000 1.7100 
*N *22:4 *C 1.1000 1.7100 
*N *22:5 *C 0.6250 1.7100 
*N *22:6 *C 0.1900 1.7100 

*CAP
0 *16:s 1.08254e-16
1 *4:s 2.25077e-17
2 *2:s 4.22888e-17
3 *22:6 9.71069e-18
4 *22:5 1.81022e-17
5 *22:3 1.52527e-16
6 *22 2.24911e-18

*RES
0 *22:6 *22 0.044671  // $metal1_conn
1 *22:3 *22:4 6.818182  // $metal1_conn
2 *22:5 *4:s 62.045811  // $metal1_conn
3 *22:6 *2:s 62.40918  // $metal1_conn
4 *16:s *22:4 0.279638  // $metal1_conn
5 *22:4 *22:5 0.237019  // $metal1_conn
6 *22:5 *22:6 0.216767  // $metal1_conn

*END

*D_NET *10 0

*CONN
*P *10 I *C 0.1000 0.0000 
*I *9:s B *C 0.6550 0.4775 
*I *12:s B *C 0.6550 0.4775 
*I *14:s B *C 1.2000 0.3825 
*I *17:s B *C 1.6900 0.3600 
*I *18:s B *C 1.6900 0.3600 
*I *19:s B *C 2.0600 0.3600 
*N *10:3 *C 1.1900 0.0000 
*N *10:4 *C 1.1000 0.0000 
*N *10:5 *C 1.1000 0.0000 
*N *10:6 *C 0.6550 0.0000 


*RES
0 *10:6 *10 0.27783  // $metal1_conn
1 *10:4 *10:5 5.636364  // $metal1_conn
2 *10:3 *14:s 75.23037  // $metal1_conn
3 *10:6 *9:s 75.291931  // $metal1_conn
4 *19:s *10:3 0.19014  // $metal1_conn
5 *10:3 *10:5 0.044922  // $metal1_conn
6 *10:5 *10:6 0.222927  // $metal1_conn

*END

*D_NET *21 5.48552e-16

*CONN
*P *21 I *C 0.7000 0.8550 
*I *9:g B *C 0.5525 0.4775 
*I *17:g B *C 1.4975 0.3825 
*I *4:g B *C 0.5625 1.0575 
*I *11:g B *C 1.4975 1.0575 
*N *21:2 *C 0.5575 0.8350 
*N *21:4 *C 0.6150 0.8350 
*N *21:6 *C 1.4600 0.7200 

*CAP
0 *11:g 5.03513e-17
1 *4:g 3.52571e-17
2 *17:g 4.51408e-17
3 *9:g 4.80037e-17
4 *21:2 4.98725e-17
5 *21:4 2.31427e-17
6 *21:6 1.76058e-16
7 *21 1.20726e-16

*RES
0 *4:g *21:2 27.640099  // $poly_conn
1 *21:2 *9:g 71.229843  // $poly_conn
2 *21:2 *21:4 48.305988  // $poly_conn
3 *11:g *21:6 49.488552  // $poly_conn
4 *21:6 *17:g 58.462914  // $poly_conn
5 *21:6 *21 46.044998  // $metal1_conn
6 *21 *21:4 0.051107  // $metal1_conn

*END

*D_NET *15 3.06327e-16

*CONN
*P *15 I *C 0.3000 0.6650 
*I *6:g B *C 0.3475 0.4775 
*I *12:g B *C 0.7575 0.4775 
*I *2:g B *C 0.2925 1.0575 
*I *5:g B *C 0.7575 1.0575 
*N *15:2 *C 0.3200 0.6850 
*N *15:5 *C 0.7575 0.6550 
*N *15:6 *C 0.7050 0.6550 
*N *15:8 *C 0.3200 0.6850 

*CAP
0 *5:g 5.71335e-17
1 *2:g 2.65566e-17
2 *12:g 2.07491e-17
3 *6:g 2.64405e-17
4 *15:2 7.84589e-17
5 *15:6 9.69882e-17

*RES
0 *6:g *15:2 26.102209  // $poly_conn
1 *15:2 *2:g 59.435539  // $poly_conn
2 *5:g *15:5 72.886337  // $poly_conn
3 *15:5 *15:6 45.294373  // $poly_conn
4 *15:5 *12:g 24.16839  // $poly_conn
5 *15:6 *15:8 0.227927  // $metal1_conn
6 *15:8 *15 0.009546  // $metal1_conn
7 *15:2 *15:8 45  // $metal1_conn

*END

*D_NET *20 1.28543e-16

*CONN
*P *20 O *C 1.9000 0.8550 
*I *18:d B *C 1.8650 0.3600 
*I *19:d B *C 1.8650 0.3600 
*I *13:d B *C 1.8950 1.0950 
*I *16:d B *C 1.8950 1.0950 

*CAP
0 *13:d 6.79688e-17
1 *18:d 4.16816e-17
2 *20 1.88923e-17

*RES
0 *20 *13:d 20.807598  // $metal1_conn
1 *20 *18:d 75.251312  // $metal1_conn

*END

*D_NET *7 0

*CONN
*I *6:s B *C 0.4500 0.4775 
*I *9:d B *C 0.4500 0.4775 


*RES
0 *9:d *6:s 0.001  // $mwires

*END

*D_NET *3 1.93634e-18

*CONN
*I *8:s B *C 1.4200 1.0575 
*I *11:d B *C 1.4200 1.0575 

*CAP
0 *8:s 1.93634e-18

*RES
0 *11:d *8:s 0.001  // $mwires

*END

*D_NET *1 4.9265e-16

*CONN
*I *6:d B *C 0.2550 0.4775 
*I *2:d B *C 0.4275 1.0575 
*I *4:d B *C 0.4275 1.0575 
*I *13:g B *C 1.7925 1.0950 
*I *16:g B *C 1.9975 1.0950 
*N *1:6 *C 0.3950 1.0100 

*CAP
0 *16:g 2.39223e-16
1 *2:d 1.90469e-16
2 *6:d 6.29577e-17

*RES
0 *1:6 *16:g 46.32058  // $metal1_conn
1 *2:d *1:6 62  // $metal1_conn
2 *6:d *1:6 75.637993  // $metal1_conn

*END

*D_NET *24 2.91393e-16

*CONN
*I *14:d B *C 1.3950 0.3825 
*I *17:d B *C 1.3950 0.3825 
*I *18:g B *C 1.7625 0.3600 
*I *19:g B *C 1.9675 0.3600 
*I *8:d B *C 1.2500 1.0575 
*N *24:3 *C 1.6500 0.5900 
*N *24:6 *C 1.3950 0.5600 

*CAP
0 *8:d 6.83881e-17
1 *19:g 7.21696e-17
2 *14:d 3.35162e-17
3 *24:6 5.80822e-17
4 *24:3 5.92367e-17

*RES
0 *19:g *24:3 57.488323  // $poly_conn
1 *24:6 *24:3 0.187433  // $metal1_conn
2 *24:6 *8:d 62.406433  // $metal1_conn
3 *14:d *24:6 75.100349  // $metal1_conn

*END

*D_NET *23 2.64369e-16

*CONN
*I *12:d B *C 0.8675 0.4775 
*I *14:g B *C 1.2925 0.3825 
*I *5:d B *C 0.8825 1.0575 
*I *8:g B *C 1.3425 1.0575 
*N *23:2 *C 1.2925 0.6500 
*N *23:3 *C 1.0800 0.6500 
*N *23:5 *C 0.8950 0.6500 

*CAP
0 *8:g 5.73144e-17
1 *5:d 5.51232e-17
2 *14:g 2.95902e-17
3 *12:d 2.05534e-17
4 *23:5 3.59922e-17
5 *23:2 3.53659e-17
6 *23:3 3.04298e-17

*RES
0 *8:g *23:2 75.160873  // $poly_conn
1 *23:2 *23:3 62.187988  // $poly_conn
2 *23:2 *14:g 47.245312  // $poly_conn
3 *23:3 *23:5 0.104235  // $metal1_conn
4 *23:5 *12:d 75.107231  // $metal1_conn
5 *23:5 *5:d 62.244442  // $metal1_conn

*END

