*SPEF "IEEE 1481-1999"
*DESIGN  "TBUFX3"
*DATE "Mon Sep 27 11:21:34 2010"
*VENDOR "Cadence Design Systems"
*PROGRAM "Assura RCX"
*VERSION "3.2 Red Hat Linux release 7.2 (Enigma) - (09/09/2009-10:39)"
*DESIGN_FLOW "Physical Verification"
*DIVIDER /
*DELIMITER :
*BUS_DELIMITER []
*T_UNIT 1 PS
*C_UNIT 1e15 FF
*R_UNIT 1 OHM
*L_UNIT 1 MH
// DeviceFingerDelim "@"
// MATCHED
// caps2d version: 10

*NAME_MAP
*1 mp3
*2 mn5\@2
*3 mp0
*4 mp2
*5 VDD
*6 mp1
*7 net144
*8 mp5
*9 mp5\@1
*10 mp5\@2
*11 Y
*12 OEb
*13 non
*14 pon
*15 net127
*16 OE
*17 A
*18 VSS
*19 mn4
*20 mn3
*21 mn0
*22 mn2
*23 mn1
*24 mn5
*25 mp4
*26 mn5\@1

*GROUND_NETS VSS

*PORTS
*5 I
*18 I
*17 I
*16 I
*11 O

*D_NET *5 2.96502e-16

*CONN
*P *5 I *C 0.1000 1.7100 
*I *25:s B *C 0.1900 1.1650 
*I *1:s B *C 0.7050 1.0775 
*I *3:s B *C 0.7050 1.0775 
*I *6:s B *C 1.7875 1.0950 
*I *8:s B *C 1.7875 1.0950 
*I *9:s B *C 2.3200 1.0950 
*I *10:s B *C 2.3200 1.0950 
*N *5:2 *C 2.0000 1.7100 
*N *5:5 *C 0.7000 1.7100 
*N *5:6 *C 0.5900 1.7100 
*N *5:7 *C 0.1800 1.7100 

*CAP
0 *9:s 7.90443e-17
1 *1:s 3.37597e-17
2 *25:s 2.68407e-17
3 *5:7 6.22977e-18
4 *5:6 6.78317e-18
5 *5:2 1.42134e-16
6 *5 1.71012e-18

*RES
0 *5:7 *5 0.039651  // $metal1_conn
1 *5:2 *9:s 12.5  // $metal1_conn
2 *5:2 *5:5 10.714286  // $metal1_conn
3 *5:6 *1:s 62.217136  // $metal1_conn
4 *5:7 *25:s 62.258511  // $metal1_conn
5 *9:s *5:5 0.548744  // $metal1_conn
6 *5:5 *5:6 0.054949  // $metal1_conn
7 *5:6 *5:7 0.205147  // $metal1_conn

*END

*D_NET *18 0

*CONN
*P *18 I *C 0.1000 0.0000 
*I *20:s B *C 0.6825 0.5275 
*I *21:s B *C 0.6825 0.5275 
*I *22:s B *C 1.3650 0.3900 
*I *23:s B *C 1.8225 0.3900 
*I *24:s B *C 1.8225 0.3900 
*I *26:s B *C 2.2750 0.3900 
*I *2:s B *C 2.2750 0.3900 
*N *18:2 *C 2.0000 0.0000 
*N *18:5 *C 1.2800 0.0000 
*N *18:6 *C 0.7000 0.0000 
*N *18:7 *C 0.5750 0.0000 


*RES
0 *18:7 *18 0.237678  // $metal1_conn
1 *18:2 *26:s 10.333333  // $metal1_conn
2 *18:2 *18:6 8.857142  // $metal1_conn
3 *18:5 *22:s 75.045799  // $metal1_conn
4 *18:7 *20:s 75.247421  // $metal1_conn
5 *26:s *18:5 0.291928  // $metal1_conn
6 *18:5 *18:6 0.289618  // $metal1_conn
7 *18:6 *18:7 0.062468  // $metal1_conn

*END

*D_NET *17 6.89822e-16

*CONN
*P *17 I *C 0.9000 0.8550 
*I *20:g B *C 0.4725 0.4700 
*I *23:g B *C 1.6775 0.3900 
*I *1:g B *C 0.4875 1.1650 
*I *6:g B *C 1.6775 1.0950 
*N *17:2 *C 0.5000 0.8600 
*N *17:5 *C 1.7050 0.6300 
*N *17:7 *C 0.8650 0.8550 

*CAP
0 *6:g 8.87928e-17
1 *1:g 4.35258e-17
2 *23:g 2.5703e-17
3 *20:g 6.16506e-17
4 *17:7 1.48273e-16
5 *17:2 9.5908e-17
6 *17:5 2.01535e-16
7 *17 2.44332e-17

*RES
0 *1:g *17:2 17.398676  // $poly_conn
1 *17:2 *20:g 55.860214  // $poly_conn
2 *6:g *17:5 60.71759  // $poly_conn
3 *17:5 *23:g 19.691952  // $poly_conn
4 *17:5 *17:7 46.186459  // $metal1_conn
5 *17:7 *17:2 45.269264  // $metal1_conn
6 *17:7 *17 0.025722  // $metal1_conn

*END

*D_NET *16 3.24161e-16

*CONN
*P *16 I *C 0.3000 0.6650 
*I *19:g B *C 0.3375 0.4700 
*I *21:g B *C 0.7525 0.5275 
*I *25:g B *C 0.2825 1.1650 
*I *3:g B *C 0.7525 1.0775 
*N *16:2 *C 0.3100 0.7100 
*N *16:5 *C 0.7525 0.7000 
*N *16:6 *C 0.6750 0.7000 
*N *16:8 *C 0.3100 0.7100 

*CAP
0 *3:g 3.70996e-17
1 *25:g 4.2172e-17
2 *21:g 2.3054e-17
3 *19:g 4.07485e-17
4 *16:5 1.43374e-17
5 *16:2 3.43663e-17
6 *16:6 7.32606e-17
7 *16 5.91225e-17

*RES
0 *19:g *16:2 19.691952  // $poly_conn
1 *16:2 *25:g 58.153492  // $poly_conn
2 *3:g *16:5 66.476082  // $poly_conn
3 *16:5 *16:6 47.826286  // $poly_conn
4 *16:5 *21:g 22.886339  // $poly_conn
5 *16:6 *16:8 0.214578  // $metal1_conn
6 *16:8 *16 0.003111  // $metal1_conn
7 *16:2 *16:8 45  // $metal1_conn

*END

*D_NET *11 1.93211e-16

*CONN
*P *11 O *C 2.3000 0.8550 
*I *24:d B *C 2.0700 0.3900 
*I *26:d B *C 2.0700 0.3900 
*I *2:d B *C 2.4700 0.3900 
*I *8:d B *C 2.0000 1.0950 
*I *9:d B *C 2.0000 1.0950 
*I *10:d B *C 2.4600 1.0950 

*CAP
0 *10:d 9.70857e-17
1 *24:d 7.33327e-17
2 *11 2.27927e-17

*RES
0 *24:d *11 0.226247  // $metal1_conn
1 *11 *10:d 0.049878  // $metal1_conn

*END

*D_NET *7 0

*CONN
*I *19:s B *C 0.4050 0.4700 
*I *20:d B *C 0.4050 0.4700 


*RES
0 *20:d *19:s 0.001  // $mwires

*END

*D_NET *15 2.18504e-18

*CONN
*I *4:s B *C 1.6250 1.0950 
*I *6:d B *C 1.6250 1.0950 

*CAP
0 *4:s 2.18504e-18

*RES
0 *6:d *4:s 0.001  // $mwires

*END

*D_NET *14 6.14392e-16

*CONN
*I *19:d B *C 0.2450 0.4700 
*I *25:d B *C 0.3850 1.1650 
*I *1:d B *C 0.3850 1.1650 
*I *8:g B *C 1.8975 1.0950 
*I *9:g B *C 2.1025 1.0950 
*I *10:g B *C 2.3675 1.0950 
*N *14:6 *C 0.3850 1.1750 

*CAP
0 *10:g 3.23911e-16
1 *25:d 2.15306e-16
2 *19:d 7.51748e-17

*RES
0 *10:g *14:6 46.480206  // $metal1_conn
1 *14:6 *19:d 75.711823  // $metal1_conn
2 *25:d *14:6 20.666666  // $metal1_conn

*END

*D_NET *13 3.51226e-16

*CONN
*I *22:d B *C 1.5450 0.3900 
*I *23:d B *C 1.5450 0.3900 
*I *24:g B *C 1.9675 0.3900 
*I *26:g B *C 2.1725 0.3900 
*I *2:g B *C 2.3775 0.3900 
*I *4:d B *C 1.4800 1.0950 
*N *13:4 *C 1.9100 0.6200 
*N *13:7 *C 1.4700 0.8200 

*CAP
0 *4:d 3.11896e-17
1 *2:g 1.07293e-16
2 *22:d 5.99693e-17
3 *13:7 5.99919e-17
4 *13:4 9.27826e-17

*RES
0 *2:g *13:4 47.135361  // $poly_conn
1 *13:4 *13:7 0.448353  // $metal1_conn
2 *13:7 *4:d 62.092693  // $metal1_conn
3 *13:7 *22:d 75.254562  // $metal1_conn

*END

*D_NET *12 3.48016e-16

*CONN
*I *21:d B *C 0.9450 0.5275 
*I *22:g B *C 1.4125 0.3900 
*I *3:d B *C 0.8450 1.0775 
*I *4:g B *C 1.5725 1.0950 
*N *12:2 *C 1.4125 0.6200 
*N *12:3 *C 1.2850 0.6200 
*N *12:5 *C 1.0950 0.6200 

*CAP
0 *4:g 8.89437e-17
1 *3:d 9.16342e-17
2 *22:g 2.52427e-17
3 *21:d 2.82236e-17
4 *12:5 5.15529e-17
5 *12:2 2.96886e-17
6 *12:3 3.2731e-17

*RES
0 *4:g *12:2 100.205574  // $poly_conn
1 *12:2 *12:3 55.751797  // $poly_conn
2 *12:2 *22:g 15.826773  // $poly_conn
3 *12:3 *12:5 0.107572  // $metal1_conn
4 *12:5 *3:d 62.471943  // $metal1_conn
5 *12:5 *21:d 75.057846  // $metal1_conn

*END

