*SPEF "IEEE 1481-1999"
*DESIGN  "TIEHI"
*DATE "Mon Sep 27 11:23:29 2010"
*VENDOR "Cadence Design Systems"
*PROGRAM "Assura RCX"
*VERSION "3.2 Red Hat Linux release 7.2 (Enigma) - (09/09/2009-10:39)"
*DESIGN_FLOW "Physical Verification"
*DIVIDER /
*DELIMITER :
*BUS_DELIMITER []
*T_UNIT 1 PS
*C_UNIT 1e15 FF
*R_UNIT 1 OHM
*L_UNIT 1 MH
// DeviceFingerDelim "@"
// MATCHED
// caps2d version: 10

*NAME_MAP
*1 mn0
*2 net25
*3 VSS
*4 mp0
*5 VDD
*6 Y

*GROUND_NETS VSS

*PORTS
*5 I
*3 I
*6 O

*D_NET *5 7.9806e-17

*CONN
*P *5 I *C 0.1000 1.7100 
*I *4:s B *C 0.2950 1.0950 
*N *5:2 *C 0.3000 1.7100 
*N *5:3 *C 0.3000 1.7100 

*CAP
0 *4:s 5.07087e-17
1 *5:2 1.92161e-17
2 *5 9.88122e-18

*RES
0 *4:s *5:3 21.063423  // $metal1_conn
1 *5:3 *5 0.099521  // $metal1_conn
2 *5:2 *5:3 25  // $metal1_conn

*END

*D_NET *3 0

*CONN
*P *3 I *C 0.1000 0.0000 
*I *1:s B *C 0.2950 0.5000 
*N *3:2 *C 0.3000 0.0000 
*N *3:3 *C 0.3000 0.0000 


*RES
0 *1:s *3:3 75.258804  // $metal1_conn
1 *3:3 *3 0.099521  // $metal1_conn
2 *3:2 *3:3 20.666666  // $metal1_conn

*END

*D_NET *6 8.01945e-17

*CONN
*P *6 O *C 0.1000 1.0450 
*I *4:d B *C 0.1100 1.0950 

*CAP
0 *6 8.01945e-17

*RES
0 *6 *4:d 20.697418  // $metal1_conn

*END

*D_NET *2 1.1935e-16

*CONN
*I *1:d B *C 0.1100 0.5000 
*I *1:g B *C 0.2025 0.5000 
*I *4:g B *C 0.2025 1.0950 
*N *2:2 *C 0.1750 0.7400 

*CAP
0 *4:g 2.59059e-17
1 *1:g 1.77248e-17
2 *1:d 3.23155e-17
3 *2:2 4.34034e-17

*RES
0 *4:g *2:2 32.512466  // $poly_conn
1 *2:2 *1:g 19.691952  // $poly_conn
2 *2:2 *1:d 120.182999  // $metal1_conn

*END

