*SPEF "IEEE 1481-1999"
*DESIGN  "TIELO"
*DATE "Mon Sep 27 11:23:51 2010"
*VENDOR "Cadence Design Systems"
*PROGRAM "Assura RCX"
*VERSION "3.2 Red Hat Linux release 7.2 (Enigma) - (09/09/2009-10:39)"
*DESIGN_FLOW "Physical Verification"
*DIVIDER /
*DELIMITER :
*BUS_DELIMITER []
*T_UNIT 1 PS
*C_UNIT 1e15 FF
*R_UNIT 1 OHM
*L_UNIT 1 MH
// DeviceFingerDelim "@"
// MATCHED
// caps2d version: 10

*NAME_MAP
*1 mn0
*2 net25
*3 VSS
*4 mp0
*5 VDD
*6 Y

*GROUND_NETS VSS

*PORTS
*5 I
*3 I
*6 O

*D_NET *5 7.10063e-17

*CONN
*P *5 I *C 0.1000 1.7100 
*I *4:s B *C 0.2950 1.0950 
*N *5:2 *C 0.3050 1.2300 
*N *5:3 *C 0.3000 1.7100 
*N *5:4 *C 0.3000 1.7100 

*CAP
0 *4:s 4.41753e-17
1 *5:3 2.02455e-17
2 *5 6.5854e-18

*RES
0 *5:2 *5:4 0.291282  // $metal1_conn
1 *5:4 *5 0.099686  // $metal1_conn
2 *5:2 *4:s 62.160606  // $metal1_conn
3 *4:s *5:2 62  // $metal1_conn
4 *5:3 *5:4 25  // $metal1_conn

*END

*D_NET *3 0

*CONN
*P *3 I *C 0.1000 0.0000 
*I *1:s B *C 0.2950 0.5300 
*N *3:2 *C 0.3000 0.0000 
*N *3:3 *C 0.3000 0.0000 


*RES
0 *1:s *3:3 75.295662  // $metal1_conn
1 *3:3 *3 0.099686  // $metal1_conn
2 *3:2 *3:3 20.666666  // $metal1_conn

*END

*D_NET *6 8.22921e-17

*CONN
*P *6 O *C 0.1000 0.4750 
*I *1:d B *C 0.1100 0.5300 
*N *6:2 *C 0.1000 0.4700 

*CAP
0 *6 8.22921e-17

*RES
0 *6:2 *6 0.003082  // $metal1_conn
1 *1:d *6:2 75  // $metal1_conn

*END

*D_NET *2 1.19255e-16

*CONN
*I *1:g B *C 0.2025 0.5300 
*I *4:d B *C 0.1100 1.0950 
*I *4:g B *C 0.2025 1.0950 
*N *2:2 *C 0.1650 0.8000 

*CAP
0 *4:g 2.08526e-17
1 *4:d 3.52695e-17
2 *1:g 1.78821e-17
3 *2:2 4.52509e-17

*RES
0 *4:g *2:2 16.15522  // $poly_conn
1 *2:2 *1:g 26.411629  // $poly_conn
2 *4:d *2:2 65.83812  // $metal1_conn

*END

