*SPEF "IEEE 1481-1999"
*DESIGN  "TLATSRXL"
*DATE "Mon Sep 27 11:34:25 2010"
*VENDOR "Cadence Design Systems"
*PROGRAM "Assura RCX"
*VERSION "3.2 Red Hat Linux release 7.2 (Enigma) - (09/09/2009-10:39)"
*DESIGN_FLOW "Physical Verification"
*DIVIDER /
*DELIMITER :
*BUS_DELIMITER []
*T_UNIT 1 PS
*C_UNIT 1e15 FF
*R_UNIT 1 OHM
*L_UNIT 1 MH
// DeviceFingerDelim "@"
// MATCHED
// caps2d version: 10

*NAME_MAP
*1 D
*2 G
*3 mn20
*4 mn22
*5 mn10
*6 Q
*7 mp22
*8 mn11
*9 SN
*10 VDD
*11 mp10
*12 mp11
*13 VSS
*14 mp1
*15 net103
*16 Gbb
*17 Qint
*18 n5
*19 Gb
*20 net142
*21 net183
*22 net159
*23 net167
*24 net171
*25 net191
*26 mn1
*27 mn0
*28 mn15
*29 mn16
*30 mn17
*31 Qbint
*32 mn6
*33 mn5
*34 QN
*35 mn2
*36 mn21
*37 mp0
*38 mp15
*39 mp16
*40 mp17
*41 mp6
*42 mp5
*43 mp2
*44 mp21
*45 mp20
*46 RN

*GROUND_NETS VSS

*PORTS
*10 I
*13 I
*1 I
*2 I
*46 I
*9 I
*6 O
*34 O

*D_NET *10 4.44875e-16

*CONN
*P *10 I *C 0.1000 1.7100 
*I *37:s B *C 2.4450 1.5700 
*I *38:s B *C 2.4450 1.5700 
*I *39:s B *C 2.8450 1.4650 
*I *42:s B *C 3.7500 1.1275 
*I *43:s B *C 3.7500 1.1275 
*I *44:s B *C 0.5800 1.3450 
*I *45:s B *C 0.5800 1.3450 
*I *7:s B *C 1.2650 1.5700 
*I *11:s B *C 1.2650 1.5700 
*I *12:s B *C 1.7850 1.5700 
*I *14:s B *C 1.7850 1.5700 
*N *10:2 *C 3.0000 1.7100 
*N *10:3 *C 3.0000 1.7100 
*N *10:4 *C 2.8200 1.7100 
*N *10:5 *C 2.4200 1.7100 
*N *10:6 *C 1.7600 1.7100 
*N *10:7 *C 1.2400 1.7100 
*N *10:8 *C 1.0000 1.7100 
*N *10:9 *C 0.5550 1.7100 

*CAP
0 *12:s 1.38342e-17
1 *7:s 4.61426e-18
2 *44:s 8.6667e-18
3 *42:s 4.05221e-17
4 *39:s 2.64429e-17
5 *37:s 6.74516e-18
6 *10:9 7.46617e-18
7 *10:7 8.86002e-18
8 *10:6 2.42745e-17
9 *10:5 1.9529e-17
10 *10:4 7.26773e-18
11 *10:2 2.70375e-16
12 *10 6.27814e-18

*RES
0 *42:s *10:3 62.393208  // $metal1_conn
1 *10:3 *10:4 0.090011  // $metal1_conn
2 *10:4 *10:5 0.200067  // $metal1_conn
3 *10:5 *10:6 0.330366  // $metal1_conn
4 *10:6 *10:7 0.260205  // $metal1_conn
5 *10:7 *10:8 0.12008  // $metal1_conn
6 *10:8 *10:9 0.222815  // $metal1_conn
7 *10:9 *10 0.227576  // $metal1_conn
8 *10:4 *39:s 62.143871  // $metal1_conn
9 *10:5 *37:s 62.074203  // $metal1_conn
10 *10:6 *12:s 62.074203  // $metal1_conn
11 *10:7 *7:s 62.074203  // $metal1_conn
12 *10:9 *44:s 62.223495  // $metal1_conn
13 *10:2 *10:3 7.5  // $metal1_conn
14 *10:2 *10:8 7.5  // $metal1_conn

*END

*D_NET *13 0

*CONN
*P *13 I *C 0.1000 0.0000 
*I *27:s B *C 2.7000 0.5075 
*I *28:s B *C 2.7000 0.5075 
*I *33:s B *C 3.6950 0.5075 
*I *35:s B *C 3.6950 0.5075 
*I *36:s B *C 0.5250 0.5875 
*I *3:s B *C 0.5250 0.5875 
*I *4:s B *C 1.2300 0.5375 
*I *5:s B *C 1.2300 0.5375 
*N *13:2 *C 3.0000 0.0000 
*N *13:3 *C 3.0000 0.0000 
*N *13:4 *C 2.6450 0.0000 
*N *13:5 *C 1.1800 0.0000 
*N *13:6 *C 1.0000 0.0000 
*N *13:7 *C 0.5250 0.0000 


*RES
0 *33:s *13:3 75.698044  // $metal1_conn
1 *13:3 *13:4 0.177712  // $metal1_conn
2 *13:4 *13:5 0.73379  // $metal1_conn
3 *13:5 *13:6 0.090011  // $metal1_conn
4 *13:6 *13:7 0.237849  // $metal1_conn
5 *13:7 *13 0.212541  // $metal1_conn
6 *13:4 *27:s 75.220207  // $metal1_conn
7 *13:5 *4:s 75.338173  // $metal1_conn
8 *13:7 *36:s 75.367592  // $metal1_conn
9 *13:2 *13:3 6.2  // $metal1_conn
10 *13:2 *13:6 6.2  // $metal1_conn

*END

*D_NET *1 2.46242e-16

*CONN
*P *1 I *C 3.5000 1.0450 
*I *33:g B *C 3.5925 0.5075 
*I *42:g B *C 3.5325 1.1275 
*N *1:2 *C 3.6200 0.8750 

*CAP
0 *42:g 5.37917e-17
1 *33:g 5.31153e-17
2 *1:2 7.99908e-17
3 *1 5.93445e-17

*RES
0 *33:g *1:2 63.965935  // $poly_conn
1 *1:2 *42:g 34.600178  // $poly_conn
2 *1:2 *1 45.14677  // $metal1_conn

*END

*D_NET *2 2.47622e-16

*CONN
*P *2 I *C 1.9000 1.0450 
*I *26:g B *C 2.2025 0.5075 
*I *14:g B *C 1.9475 1.2075 
*N *2:2 *C 1.9100 0.7100 

*CAP
0 *14:g 4.11355e-17
1 *26:g 4.18261e-17
2 *2:2 1.08444e-16
3 *2 5.62164e-17

*RES
0 *26:g *2:2 85.728424  // $poly_conn
1 *2:2 *14:g 93.466911  // $poly_conn
2 *2 *2:2 45.20052  // $metal1_conn

*END

*D_NET *46 3.13481e-16

*CONN
*P *46 I *C 2.5000 0.8550 
*I *27:g B *C 2.4825 0.5075 
*I *28:g B *C 2.7475 0.5075 
*I *37:g B *C 2.2875 1.2075 
*I *38:g B *C 2.4825 1.2075 
*N *46:2 *C 2.5100 0.8450 

*CAP
0 *38:g 2.98618e-17
1 *37:g 2.58237e-17
2 *28:g 4.36902e-17
3 *27:g 2.45112e-17
4 *46:2 1.89595e-16

*RES
0 *28:g *46:2 102.610458  // $poly_conn
1 *46:2 *37:g 97.830811  // $poly_conn
2 *46:2 *27:g 57.142265  // $poly_conn
3 *46:2 *38:g 54.578163  // $poly_conn
4 *46 *46:2 45.006783  // $metal1_conn

*END

*D_NET *9 2.23596e-16

*CONN
*P *9 I *C 1.5000 0.8550 
*I *5:g B *C 1.3525 0.5375 
*I *11:g B *C 1.3525 1.2075 
*N *9:2 *C 1.3250 0.9900 

*CAP
0 *11:g 3.60755e-17
1 *5:g 4.46589e-17
2 *9:2 9.37247e-17
3 *9 4.91369e-17

*RES
0 *11:g *9:2 19.691952  // $poly_conn
1 *9:2 *5:g 88.922722  // $poly_conn
2 *9 *9:2 45.133484  // $metal1_conn

*END

*D_NET *6 7.78745e-17

*CONN
*P *6 O *C 0.1000 0.6650 
*I *36:d B *C 0.3175 0.5875 
*I *44:d B *C 0.3175 1.0075 
*N *6:3 *C 0.2950 0.6000 

*CAP
0 *44:d 1.49516e-17
1 *36:d 3.99554e-17
2 *6 2.29675e-17

*RES
0 *44:d *6:3 62.224129  // $metal1_conn
1 *6:3 *6 0.092795  // $metal1_conn
2 *36:d *6:3 75  // $metal1_conn

*END

*D_NET *34 1.42488e-16

*CONN
*P *34 O *C 0.9000 0.6650 
*I *4:d B *C 1.0000 0.5375 
*I *7:d B *C 1.0000 1.2075 
*N *34:2 *C 0.9650 0.6650 

*CAP
0 *7:d 3.76211e-17
1 *4:d 1.9176e-17
2 *34:2 5.41794e-17
3 *34 3.15117e-17

*RES
0 *7:d *34:2 62.301647  // $metal1_conn
1 *34:2 *34 0.011853  // $metal1_conn
2 *34:2 *4:d 75.074196  // $metal1_conn

*END

*D_NET *25 0

*CONN
*I *32:s B *C 3.5100 0.5075 
*I *33:d B *C 3.5100 0.5075 


*RES
0 *33:d *32:s 0.001  // $mwires

*END

*D_NET *24 5.66339e-18

*CONN
*I *29:d B *C 3.0250 0.5075 
*I *30:s B *C 3.0250 0.5075 

*CAP
0 *29:d 5.66339e-18

*RES
0 *30:s *29:d 0.001  // $mwires

*END

*D_NET *23 3.19897e-18

*CONN
*I *28:d B *C 2.8250 0.5075 
*I *29:s B *C 2.8250 0.5075 

*CAP
0 *28:d 3.19897e-18

*RES
0 *29:s *28:d 0.001  // $mwires

*END

*D_NET *22 1.67005e-18

*CONN
*I *26:s B *C 2.3425 0.5075 
*I *27:d B *C 2.3425 0.5075 

*CAP
0 *26:s 1.67005e-18

*RES
0 *27:d *26:s 0.001  // $mwires

*END

*D_NET *21 1.24422e-19

*CONN
*I *5:d B *C 1.4900 0.5375 
*I *8:s B *C 1.4900 0.5375 

*CAP
0 *5:d 1.24422e-19

*RES
0 *8:s *5:d 0.001  // $mwires

*END

*D_NET *20 5.37863e-19

*CONN
*I *41:s B *C 3.4675 1.1275 
*I *42:d B *C 3.4675 1.1275 

*CAP
0 *41:s 5.37863e-19

*RES
0 *42:d *41:s 0.001  // $mwires

*END

*D_NET *19 8.32076e-16

*CONN
*I *26:d B *C 2.1100 0.5075 
*I *30:g B *C 3.1475 0.5075 
*I *35:g B *C 3.7975 0.5075 
*I *37:d B *C 2.1175 1.2075 
*I *41:g B *C 3.4025 1.1275 
*I *43:g B *C 3.7975 1.1275 
*I *14:d B *C 2.1175 1.2075 
*N *19:2 *C 3.1100 0.6850 
*N *19:4 *C 3.3650 1.4450 
*N *19:7 *C 3.8850 1.3350 
*N *19:8 *C 3.3650 1.3350 
*N *19:9 *C 2.0700 0.6850 

*CAP
0 *43:g 3.997e-17
1 *41:g 5.75105e-17
2 *37:d 7.02916e-17
3 *35:g 4.49974e-17
4 *30:g 4.63547e-17
5 *26:d 3.00133e-17
6 *19:9 1.48822e-16
7 *19:8 9.93648e-17
8 *19:2 1.90583e-16
9 *19:4 4.2202e-17
10 *19:7 6.19667e-17

*RES
0 *30:g *19:2 62.437271  // $poly_conn
1 *41:g *19:4 89.360352  // $poly_conn
2 *43:g *35:g 112.820511  // $poly_conn
3 *43:g *19:7 68.795837  // $poly_conn
4 *19:7 *19:8 0.376856  // $metal1_conn
5 *19:8 *19:2 0.629896  // $metal1_conn
6 *19:2 *19:9 0.677469  // $metal1_conn
7 *19:9 *37:d 62.336269  // $metal1_conn
8 *19:8 *19:4 0.040092  // $metal1_conn
9 *19:9 *26:d 75.106972  // $metal1_conn

*END

*D_NET *18 5.28162e-16

*CONN
*I *30:d B *C 3.2875 0.5075 
*I *32:d B *C 3.2875 0.5075 
*I *8:g B *C 1.6275 0.5375 
*I *40:d B *C 3.3000 1.1275 
*I *41:d B *C 3.3000 1.1275 
*I *12:g B *C 1.6275 1.2075 
*N *18:3 *C 1.6650 0.3600 
*N *18:6 *C 3.3000 0.4950 

*CAP
0 *12:g 5.26341e-17
1 *40:d 7.26004e-17
2 *8:g 3.68309e-17
3 *30:d 1.97778e-16
4 *18:3 1.68318e-16

*RES
0 *12:g *8:g 125.641022  // $poly_conn
1 *8:g *18:3 62.437271  // $poly_conn
2 *40:d *18:6 62.449265  // $metal1_conn
3 *18:6 *18:3 1.262975  // $metal1_conn
4 *30:d *18:6 75  // $metal1_conn

*END

*D_NET *17 8.4624e-16

*CONN
*I *29:g B *C 2.9025 0.5075 
*I *3:g B *C 0.6275 0.5875 
*I *4:g B *C 1.1075 0.5375 
*I *8:d B *C 1.7200 0.5375 
*I *39:g B *C 2.6875 1.2075 
*I *45:g B *C 0.6275 1.0075 
*I *7:g B *C 1.1075 1.2075 
*I *11:d B *C 1.4900 1.2075 
*I *12:d B *C 1.4900 1.2075 
*N *17:2 *C 1.1075 0.8225 
*N *17:3 *C 0.6275 0.8225 
*N *17:5 *C 1.1350 0.7200 
*N *17:9 *C 2.7600 0.9750 
*N *17:12 *C 1.5250 1.2200 
*N *17:13 *C 1.7300 0.6850 

*CAP
0 *11:d 1.45531e-16
1 *7:g 3.58341e-17
2 *45:g 2.96923e-17
3 *39:g 2.88849e-17
4 *8:d 2.9112e-17
5 *4:g 1.91958e-17
6 *3:g 2.72132e-17
7 *29:g 6.49034e-17
8 *17:13 1.09832e-16
9 *17:3 2.85131e-17
10 *17:2 2.52341e-17
11 *17:5 8.01931e-17
12 *17:9 2.22102e-16

*RES
0 *7:g *17:2 70.001846  // $poly_conn
1 *17:2 *17:3 113.869278  // $poly_conn
2 *17:3 *3:g 40.131889  // $poly_conn
3 *17:2 *17:5 16.616871  // $poly_conn
4 *17:5 *4:g 19.691952  // $poly_conn
5 *17:3 *45:g 18.337015  // $poly_conn
6 *29:g *17:9 116.342041  // $poly_conn
7 *17:9 *39:g 28.642324  // $poly_conn
8 *17:9 *17:12 46.216381  // $metal1_conn
9 *17:12 *17:13 0.545637  // $metal1_conn
10 *17:13 *17:5 45.396725  // $metal1_conn
11 *17:13 *8:d 75.095825  // $metal1_conn
12 *11:d *17:12 62  // $metal1_conn

*END

*D_NET *16 2.85281e-16

*CONN
*I *32:g B *C 3.4275 0.5075 
*I *35:d B *C 3.8900 0.5075 
*I *40:g B *C 3.1975 1.1275 
*I *43:d B *C 3.8900 1.1275 
*N *16:2 *C 3.4600 0.6900 
*N *16:5 *C 3.9000 0.6850 

*CAP
0 *43:d 3.48916e-17
1 *40:g 5.27741e-17
2 *35:d 1.86256e-17
3 *32:g 3.15026e-17
4 *16:5 3.7434e-17
5 *16:2 1.10053e-16

*RES
0 *32:g *16:2 17.398676  // $poly_conn
1 *16:2 *40:g 120.955261  // $poly_conn
2 *43:d *16:5 62.272827  // $metal1_conn
3 *16:5 *16:2 45.284512  // $metal1_conn
4 *16:5 *35:d 75.115211  // $metal1_conn

*END

*D_NET *15 1.51435e-16

*CONN
*I *38:d B *C 2.5850 1.2075 
*I *39:d B *C 2.5850 1.2075 
*I *40:s B *C 3.1250 1.1275 

*CAP
0 *40:s 8.56799e-17
1 *38:d 6.57551e-17

*RES
0 *38:d *40:s 124.297302  // $metal1_conn

*END

*D_NET *31 2.20127e-16

*CONN
*I *36:g B *C 0.4225 0.5875 
*I *3:d B *C 0.7200 0.5875 
*I *44:g B *C 0.4225 1.0075 
*I *45:d B *C 0.7200 1.0075 
*N *31:1 *C 0.4850 0.7650 
*N *31:2 *C 0.4225 0.7650 
*N *31:6 *C 0.7200 0.7750 

*CAP
0 *45:d 2.35165e-17
1 *44:g 3.57863e-17
2 *3:d 4.1862e-17
3 *36:g 2.46823e-17
4 *31:6 3.40085e-17
5 *31:2 2.95452e-17
6 *31:1 3.07266e-17

*RES
0 *31:1 *31:2 46.294373  // $poly_conn
1 *31:2 *36:g 21.845535  // $poly_conn
2 *31:2 *44:g 29.537844  // $poly_conn
3 *3:d *31:6 75.112785  // $metal1_conn
4 *31:6 *31:1 0.122162  // $metal1_conn
5 *31:6 *45:d 62.119507  // $metal1_conn

*END

