*SPEF "IEEE 1481-1999"
*DESIGN  "TLATNSRXL"
*DATE "Mon Sep 27 11:28:22 2010"
*VENDOR "Cadence Design Systems"
*PROGRAM "Assura RCX"
*VERSION "3.2 Red Hat Linux release 7.2 (Enigma) - (09/09/2009-10:39)"
*DESIGN_FLOW "Physical Verification"
*DIVIDER /
*DELIMITER :
*BUS_DELIMITER []
*T_UNIT 1 PS
*C_UNIT 1e15 FF
*R_UNIT 1 OHM
*L_UNIT 1 MH
// DeviceFingerDelim "@"
// MATCHED
// caps2d version: 10

*NAME_MAP
*1 GN
*2 VSS
*3 mn17
*4 mn6
*5 mn22
*6 mn5
*7 Q
*8 mn10
*9 mn3
*10 mn11
*11 mn2
*12 mn15
*13 mn1
*14 mn16
*15 mn0
*16 mn21
*17 mn20
*18 qbint
*19 VDD
*20 mp22
*21 mp10
*22 QN
*23 mp11
*24 mp15
*25 mp16
*26 net270
*27 GNbb
*28 GNbp
*29 qint
*30 GNb
*31 n5
*32 net313
*33 net342
*34 mp17
*35 net350
*36 mp6
*37 net354
*38 mp5
*39 mp3
*40 mp2
*41 mp1
*42 RN
*43 mp0
*44 mp21
*45 mp20
*46 net366
*47 net326
*48 D
*49 SN

*GROUND_NETS VSS

*PORTS
*19 I
*2 I
*48 I
*1 I
*42 I
*49 I
*7 O
*22 O

*D_NET *19 4.91906e-16

*CONN
*P *19 I *C 0.1000 1.7100 
*I *38:s B *C 3.0500 1.1225 
*I *39:s B *C 3.0500 1.1225 
*I *40:s B *C 3.7900 1.3725 
*I *41:s B *C 4.2400 1.3725 
*I *43:s B *C 4.2400 1.3725 
*I *44:s B *C 0.5800 1.3450 
*I *45:s B *C 0.5800 1.3450 
*I *20:s B *C 1.2850 1.5700 
*I *21:s B *C 1.2850 1.5700 
*I *23:s B *C 1.8000 1.5700 
*I *24:s B *C 1.8000 1.5700 
*I *25:s B *C 2.2000 1.3250 
*N *19:2 *C 3.7500 1.7100 
*N *19:3 *C 3.5000 1.7100 
*N *19:4 *C 3.5000 1.7100 
*N *19:5 *C 3.0200 1.7100 
*N *19:6 *C 2.1750 1.7100 
*N *19:7 *C 1.7750 1.7100 
*N *19:8 *C 1.2600 1.7100 
*N *19:9 *C 1.2000 1.7100 
*N *19:10 *C 0.5550 1.7100 

*CAP
0 *25:s 2.83817e-17
1 *23:s 4.02775e-18
2 *20:s 9.23762e-18
3 *44:s 7.7339e-18
4 *41:s 4.26123e-17
5 *40:s 1.71902e-17
6 *38:s 3.10992e-17
7 *19:10 9.17728e-18
8 *19:7 1.08927e-17
9 *19:6 1.75097e-17
10 *19:5 1.61247e-17
11 *19:2 1.78555e-17
12 *19:3 2.7378e-16
13 *19 6.28432e-18

*RES
0 *41:s *19:2 62.447884  // $metal1_conn
1 *19:2 *19:4 0.124924  // $metal1_conn
2 *19:4 *19:5 0.240035  // $metal1_conn
3 *19:5 *19:6 0.422514  // $metal1_conn
4 *19:6 *19:7 0.199801  // $metal1_conn
5 *19:7 *19:8 0.257356  // $metal1_conn
6 *19:8 *19:9 0.029826  // $metal1_conn
7 *19:9 *19:10 0.322614  // $metal1_conn
8 *19:10 *19 0.227272  // $metal1_conn
9 *19:2 *40:s 62.173241  // $metal1_conn
10 *19:5 *38:s 62.338657  // $metal1_conn
11 *19:6 *25:s 62.236099  // $metal1_conn
12 *19:7 *23:s 62.073994  // $metal1_conn
13 *19:8 *20:s 62.073994  // $metal1_conn
14 *19:10 *44:s 62.222866  // $metal1_conn
15 *19:3 *19:4 6.818182  // $metal1_conn
16 *19:3 *19:9 6.25  // $metal1_conn

*END

*D_NET *2 0

*CONN
*P *2 I *C 0.1000 0.0000 
*I *6:s B *C 3.1350 0.5825 
*I *9:s B *C 3.1350 0.5825 
*I *13:s B *C 4.2400 0.5225 
*I *15:s B *C 4.2400 0.5225 
*I *16:s B *C 0.5250 0.5875 
*I *17:s B *C 0.5250 0.5875 
*I *5:s B *C 1.2350 0.5725 
*I *8:s B *C 1.2350 0.5725 
*I *12:s B *C 1.8450 0.5825 
*N *2:2 *C 3.5000 0.0000 
*N *2:3 *C 3.5000 0.0000 
*N *2:4 *C 3.0500 0.0000 
*N *2:5 *C 1.7100 0.0000 
*N *2:6 *C 1.2000 0.0000 
*N *2:7 *C 0.5250 0.0000 


*RES
0 *13:s *2:3 75.72599  // $metal1_conn
1 *2:3 *2:4 0.22502  // $metal1_conn
2 *2:4 *2:5 0.670252  // $metal1_conn
3 *2:5 *2:6 0.255662  // $metal1_conn
4 *2:6 *2:7 0.337628  // $metal1_conn
5 *2:7 *2 0.212258  // $metal1_conn
6 *2:4 *6:s 75.07399  // $metal1_conn
7 *2:5 *12:s 75.475975  // $metal1_conn
8 *2:6 *5:s 75.367279  // $metal1_conn
9 *2:7 *16:s 75.366554  // $metal1_conn
10 *2:2 *2:3 5.636364  // $metal1_conn
11 *2:2 *2:6 5.166667  // $metal1_conn

*END

*D_NET *48 2.564e-16

*CONN
*P *48 I *C 3.1000 0.8550 
*I *6:g B *C 2.9175 0.5825 
*I *38:g B *C 2.9175 1.1225 
*N *48:1 *C 2.9750 0.7550 
*N *48:2 *C 2.9175 0.7550 

*CAP
0 *38:g 7.21898e-17
1 *6:g 4.19459e-17
2 *48:2 4.12173e-17
3 *48:1 5.08098e-17
4 *48 5.0237e-17

*RES
0 *48:1 *48:2 45.794373  // $poly_conn
1 *48:2 *6:g 20.563484  // $poly_conn
2 *48:2 *38:g 61.589127  // $poly_conn
3 *48 *48:1 0.028965  // $metal1_conn

*END

*D_NET *1 2.20045e-16

*CONN
*P *1 I *C 4.3000 1.0450 
*I *15:g B *C 4.3425 0.5225 
*I *43:g B *C 4.3425 1.3725 
*N *1:2 *C 4.3150 0.8900 

*CAP
0 *43:g 3.82644e-17
1 *15:g 3.49102e-17
2 *1:2 9.94447e-17
3 *1 4.74258e-17

*RES
0 *43:g *1:2 87.640671  // $poly_conn
1 *1:2 *15:g 67.127846  // $poly_conn
2 *1 *1:2 45.062241  // $metal1_conn

*END

*D_NET *42 7.74418e-16

*CONN
*P *42 I *C 3.7000 0.8550 
*I *13:g B *C 4.1375 0.5225 
*I *12:g B *C 1.9375 0.5825 
*I *41:g B *C 4.1375 1.3725 
*I *24:g B *C 1.8375 1.1625 
*N *42:1 *C 1.9000 0.3750 
*N *42:5 *C 4.1000 0.8900 

*CAP
0 *24:g 7.26966e-17
1 *41:g 4.93296e-17
2 *12:g 6.20162e-17
3 *13:g 4.29019e-17
4 *42:1 2.16762e-16
5 *42:5 1.04705e-16
6 *42 2.26007e-16

*RES
0 *42:1 *12:g 70.129578  // $poly_conn
1 *12:g *24:g 116.377098  // $poly_conn
2 *41:g *42:5 86.668037  // $poly_conn
3 *42:5 *13:g 66.15522  // $poly_conn
4 *42:5 *42 45.267002  // $metal1_conn
5 *42 *42:1 1.631508  // $metal1_conn

*END

*D_NET *49 2.37487e-16

*CONN
*P *49 I *C 1.3000 1.2350 
*I *8:g B *C 1.3425 0.5725 
*I *21:g B *C 1.3425 1.1625 
*N *49:2 *C 1.3150 0.9450 

*CAP
0 *21:g 3.32147e-17
1 *8:g 6.39817e-17
2 *49:2 9.16261e-17
3 *49 4.86647e-17

*RES
0 *21:g *49:2 19.691952  // $poly_conn
1 *49:2 *8:g 68.409897  // $poly_conn
2 *49:2 *49 45.162037  // $metal1_conn

*END

*D_NET *7 7.78968e-17

*CONN
*P *7 O *C 0.1000 0.6650 
*I *16:d B *C 0.3175 0.5875 
*I *44:d B *C 0.3175 1.0075 
*N *7:3 *C 0.2950 0.6000 

*CAP
0 *44:d 1.49576e-17
1 *16:d 3.99648e-17
2 *7 2.29744e-17

*RES
0 *44:d *7:3 62.223843  // $metal1_conn
1 *7:3 *7 0.092702  // $metal1_conn
2 *16:d *7:3 75  // $metal1_conn

*END

*D_NET *22 1.46703e-16

*CONN
*P *22 O *C 0.9000 1.0450 
*I *5:d B *C 1.0350 0.5725 
*I *20:d B *C 1.0350 1.1625 

*CAP
0 *20:d 1.94838e-17
1 *5:d 7.63404e-17
2 *22 5.0879e-17

*RES
0 *5:d *22 75.330795  // $metal1_conn
1 *22 *20:d 62.07373  // $metal1_conn

*END

*D_NET *47 0

*CONN
*I *11:s B *C 4.0250 0.5225 
*I *13:d B *C 4.0250 0.5225 


*RES
0 *13:d *11:s 0.001  // $mwires

*END

*D_NET *46 1.67535e-18

*CONN
*I *4:s B *C 2.8375 0.5825 
*I *6:d B *C 2.8375 0.5825 

*CAP
0 *4:s 1.67535e-18

*RES
0 *6:d *4:s 0.001  // $mwires

*END

*D_NET *37 5.7167e-18

*CONN
*I *3:s B *C 2.2975 0.5825 
*I *14:d B *C 2.2975 0.5825 

*CAP
0 *3:s 5.7167e-18

*RES
0 *14:d *3:s 0.001  // $mwires

*END

*D_NET *35 0

*CONN
*I *12:d B *C 1.9900 0.5825 
*I *14:s B *C 1.9900 0.5825 


*RES
0 *14:s *12:d 0.001  // $mwires

*END

*D_NET *33 0

*CONN
*I *8:d B *C 1.3950 0.5725 
*I *10:s B *C 1.3950 0.5725 


*RES
0 *10:s *8:d 0.001  // $mwires

*END

*D_NET *32 0

*CONN
*I *36:s B *C 2.8650 1.1225 
*I *38:d B *C 2.8650 1.1225 


*RES
0 *38:d *36:s 0.001  // $mwires

*END

*D_NET *31 4.86591e-16

*CONN
*I *3:d B *C 2.6550 0.5825 
*I *4:d B *C 2.6550 0.5825 
*I *10:g B *C 1.4475 0.5725 
*I *34:d B *C 2.6300 1.1225 
*I *36:d B *C 2.6300 1.1225 
*I *23:g B *C 1.6425 1.1625 
*N *31:2 *C 1.6850 0.9550 
*N *31:5 *C 2.2300 0.9550 

*CAP
0 *23:g 3.71141e-17
1 *34:d 4.81948e-17
2 *10:g 7.03023e-17
3 *3:d 8.57476e-17
4 *31:5 1.34055e-16
5 *31:2 1.11177e-16

*RES
0 *23:g *31:2 16.15522  // $poly_conn
1 *31:2 *10:g 115.587357  // $poly_conn
2 *3:d *31:5 75.505234  // $metal1_conn
3 *31:5 *31:2 45.426853  // $metal1_conn
4 *31:5 *34:d 62.319817  // $metal1_conn

*END

*D_NET *30 5.11896e-16

*CONN
*I *4:g B *C 2.7575 0.5825 
*I *9:d B *C 3.3175 0.5825 
*I *34:g B *C 2.4475 1.1225 
*I *39:d B *C 3.2875 1.1225 
*N *30:2 *C 2.4200 0.7950 
*N *30:4 *C 2.7200 0.7850 
*N *30:6 *C 3.3100 0.5675 

*CAP
0 *39:d 5.14678e-17
1 *34:g 3.69444e-17
2 *4:g 5.36452e-17
3 *30:6 1.41637e-16
4 *30:2 9.71422e-17
5 *30:4 1.31059e-16

*RES
0 *34:g *30:2 92.897079  // $poly_conn
1 *4:g *30:4 68.847527  // $poly_conn
2 *39:d *30:6 62.345287  // $metal1_conn
3 *30:6 *30:4 0.644646  // $metal1_conn
4 *30:4 *30:2 0.234717  // $metal1_conn
5 *30:6 *9:d 75.031433  // $metal1_conn

*END

*D_NET *29 5.58707e-16

*CONN
*I *17:g B *C 0.6275 0.5875 
*I *5:g B *C 1.1275 0.5725 
*I *10:d B *C 1.5400 0.5725 
*I *14:g B *C 2.0425 0.5825 
*I *45:g B *C 0.6275 1.0075 
*I *20:g B *C 1.1275 1.1625 
*I *21:d B *C 1.4925 1.1625 
*I *23:d B *C 1.4925 1.1625 
*I *25:g B *C 2.0425 1.1625 
*N *29:2 *C 1.1550 0.7550 
*N *29:3 *C 0.6275 0.7375 
*N *29:8 *C 2.0700 0.7650 
*N *29:11 *C 1.4925 0.7550 
*N *29:12 *C 1.5500 0.7550 

*CAP
0 *25:g 4.42869e-17
1 *21:d 5.00605e-17
2 *20:g 3.68705e-17
3 *45:g 3.40805e-17
4 *14:g 4.47159e-17
5 *10:d 2.86259e-17
6 *5:g 2.0728e-17
7 *17:g 2.09175e-17
8 *29:11 6.68398e-17
9 *29:3 3.14019e-17
10 *29:2 7.60725e-17
11 *29:8 1.04107e-16

*RES
0 *20:g *29:2 65.247986  // $poly_conn
1 *29:2 *29:3 121.262482  // $poly_conn
2 *29:3 *17:g 18.337015  // $poly_conn
3 *29:2 *5:g 16.945192  // $poly_conn
4 *29:3 *45:g 40.131889  // $poly_conn
5 *25:g *29:8 65.845795  // $poly_conn
6 *29:8 *14:g 19.691952  // $poly_conn
7 *21:d *29:11 62.248631  // $metal1_conn
8 *29:11 *29:2 45.243423  // $metal1_conn
9 *29:11 *29:12 0.061101  // $metal1_conn
10 *29:12 *10:d 75.092697  // $metal1_conn
11 *29:12 *29:8 45.403595  // $metal1_conn

*END

*D_NET *28 3.4104e-16

*CONN
*I *11:g B *C 3.9125 0.5225 
*I *15:d B *C 4.4625 0.5225 
*I *40:g B *C 3.9125 1.3725 
*I *43:d B *C 4.4475 1.3725 
*N *28:2 *C 3.9500 0.7000 
*N *28:4 *C 4.5200 0.7000 

*CAP
0 *43:d 6.43325e-17
1 *40:g 4.88112e-17
2 *15:d 2.10996e-17
3 *11:g 2.18899e-17
4 *28:4 8.03638e-17
5 *28:2 1.04543e-16

*RES
0 *40:g *28:2 135.385986  // $poly_conn
1 *28:2 *11:g 17.437269  // $poly_conn
2 *28:2 *28:4 45.389698  // $metal1_conn
3 *28:4 *43:d 62.472801  // $metal1_conn
4 *28:4 *15:d 75.092804  // $metal1_conn

*END

*D_NET *27 5.29576e-16

*CONN
*I *3:g B *C 2.5525 0.5825 
*I *9:g B *C 3.1825 0.5825 
*I *11:d B *C 3.7000 0.5225 
*I *36:g B *C 2.8125 1.1225 
*I *39:g B *C 3.1825 1.1225 
*I *40:d B *C 4.0250 1.3725 
*I *41:d B *C 4.0250 1.3725 
*N *27:1 *C 3.5000 0.7600 
*N *27:2 *C 3.1825 0.7600 

*CAP
0 *40:d 8.27464e-17
1 *39:g 4.04114e-17
2 *36:g 1.04672e-16
3 *11:d 5.6579e-17
4 *9:g 2.90819e-17
5 *3:g 8.41863e-17
6 *27:2 2.66511e-17
7 *27:1 1.05248e-16

*RES
0 *27:1 *27:2 73.3582  // $poly_conn
1 *27:2 *39:g 60.307072  // $poly_conn
2 *39:g *36:g 186.889923  // $poly_conn
3 *36:g *3:g 144.337616  // $poly_conn
4 *27:2 *9:g 21.845535  // $poly_conn
5 *40:d *27:1 62.699604  // $metal1_conn
6 *27:1 *11:d 75.154434  // $metal1_conn

*END

*D_NET *26 1.2273e-16

*CONN
*I *34:s B *C 2.3750 1.1225 
*I *24:d B *C 1.9400 1.1625 
*I *25:d B *C 1.9400 1.1625 

*CAP
0 *24:d 5.55581e-17
1 *34:s 6.71723e-17

*RES
0 *34:s *24:d 124.242111  // $metal1_conn

*END

*D_NET *18 2.24059e-16

*CONN
*I *16:g B *C 0.4225 0.5875 
*I *17:d B *C 0.7200 0.5875 
*I *44:g B *C 0.4225 1.0075 
*I *45:d B *C 0.7200 1.0075 
*N *18:1 *C 0.4850 0.7650 
*N *18:2 *C 0.4225 0.7650 
*N *18:6 *C 0.7200 0.7750 

*CAP
0 *45:d 3.17418e-17
1 *44:g 3.61864e-17
2 *17:d 3.85878e-17
3 *16:g 2.4711e-17
4 *18:6 3.20128e-17
5 *18:2 3.00883e-17
6 *18:1 3.07311e-17

*RES
0 *18:1 *18:2 46.294373  // $poly_conn
1 *18:2 *16:g 21.845535  // $poly_conn
2 *18:2 *44:g 29.537844  // $poly_conn
3 *17:d *18:6 75.112579  // $metal1_conn
4 *18:6 *18:1 0.122006  // $metal1_conn
5 *18:6 *45:d 62.119328  // $metal1_conn

*END

