*SPEF "IEEE 1481-1999"
*DESIGN  "TLATNTSCAX12"
*DATE "Mon Sep 27 11:28:45 2010"
*VENDOR "Cadence Design Systems"
*PROGRAM "Assura RCX"
*VERSION "3.2 Red Hat Linux release 7.2 (Enigma) - (09/09/2009-10:39)"
*DESIGN_FLOW "Physical Verification"
*DIVIDER /
*DELIMITER :
*BUS_DELIMITER []
*T_UNIT 1 PS
*C_UNIT 1e15 FF
*R_UNIT 1 OHM
*L_UNIT 1 MH
// DeviceFingerDelim "@"
// MATCHED
// caps2d version: 10

*NAME_MAP
*1 mn16
*2 mn15
*3 mn3
*4 mn10
*5 mn20\@2
*6 mn21\@2
*7 mp21
*8 mp22\@7
*9 mp22\@8
*10 mp22\@9
*11 mp21\@1
*12 mp1
*13 mp0
*14 mp2
*15 mp5
*16 mp16
*17 mp15
*18 mp3
*19 VDD
*20 mp10
*21 mp20\@2
*22 mp21\@2
*23 Eb
*24 CKb
*25 ECKb
*26 mn22
*27 mn22\@1
*28 mp22
*29 mn22\@2
*30 mp22\@1
*31 mn22\@3
*32 VSS
*33 mp22\@2
*34 mn22\@4
*35 mp22\@3
*36 mn22\@5
*37 mp22\@4
*38 mn22\@6
*39 mp22\@5
*40 mn22\@7
*41 mp22\@6
*42 mn21
*43 mp20
*44 mp20\@1
*45 E
*46 CK
*47 ECK
*48 SE
*49 n5
*50 Eint
*51 CKbb
*52 net246
*53 net234
*54 net263
*55 net271\@2
*56 net271
*57 mn20
*58 net271\@1
*59 mn20\@1
*60 mn21\@1
*61 mn22\@8
*62 mn22\@9
*63 mn1
*64 mn0
*65 mn2
*66 mn5

*GROUND_NETS VSS

*PORTS
*19 I
*32 I
*46 I
*45 I
*48 I
*47 O

*D_NET *19 1.20382e-15

*CONN
*P *19 I *C 0.1000 1.7100 
*I *28:s B *C 4.8800 1.1850 
*I *30:s B *C 4.8800 1.1850 
*I *33:s B *C 5.2900 1.1850 
*I *35:s B *C 5.2900 1.1850 
*I *37:s B *C 5.7000 1.1850 
*I *39:s B *C 5.7000 1.1850 
*I *41:s B *C 6.1000 1.1850 
*I *43:s B *C 3.5175 1.2250 
*I *44:s B *C 3.5175 1.2250 
*I *7:s B *C 4.0900 1.1850 
*I *8:s B *C 4.0900 1.1850 
*I *9:s B *C 4.4700 1.1850 
*I *10:s B *C 4.4700 1.1850 
*I *11:s B *C 3.0750 1.2250 
*I *13:s B *C 0.5575 1.2225 
*I *14:s B *C 0.5575 1.2225 
*I *17:s B *C 1.9225 1.2875 
*I *18:s B *C 1.9225 1.2875 
*I *20:s B *C 2.5950 1.1750 
*I *21:s B *C 2.5950 1.1750 
*I *22:s B *C 3.0750 1.2250 
*N *19:3 *C 5.3000 1.7100 
*N *19:12 *C 1.7950 1.7100 
*N *19:13 *C 1.1000 1.7100 
*N *19:14 *C 0.5550 1.7100 

*CAP
0 *17:s 2.42132e-17
1 *13:s 4.06319e-17
2 *41:s 7.13692e-16
3 *19:14 1.67651e-17
4 *19:12 3.31973e-17
5 *19:3 3.6418e-16
6 *19 1.11406e-17

*RES
0 *19:14 *19 0.227842  // $metal1_conn
1 *19:3 *41:s 6.818182  // $metal1_conn
2 *19:3 *41:s 7.5  // $metal1_conn
3 *19:3 *19:13 6.818182  // $metal1_conn
4 *19:12 *17:s 62.09745  // $metal1_conn
5 *19:14 *13:s 62.285301  // $metal1_conn
6 *41:s *19:12 0.400995  // $metal1_conn
7 *19:12 *19:13 0.348509  // $metal1_conn
8 *19:13 *19:14 0.273249  // $metal1_conn

*END

*D_NET *32 0

*CONN
*P *32 I *C 0.1000 0.0000 
*I *26:s B *C 4.8800 0.5050 
*I *27:s B *C 4.8800 0.5050 
*I *29:s B *C 5.2900 0.5050 
*I *31:s B *C 5.2900 0.5050 
*I *34:s B *C 5.7000 0.5050 
*I *36:s B *C 5.7000 0.5050 
*I *38:s B *C 6.1000 0.5050 
*I *40:s B *C 4.4700 0.5050 
*I *57:s B *C 3.4675 0.5100 
*I *59:s B *C 3.4675 0.5100 
*I *61:s B *C 4.0700 0.5050 
*I *62:s B *C 4.4700 0.5050 
*I *63:s B *C 0.1350 0.3025 
*I *64:s B *C 0.5850 0.3025 
*I *65:s B *C 0.5850 0.3025 
*I *2:s B *C 1.8475 0.5875 
*I *3:s B *C 1.8475 0.5875 
*I *4:s B *C 2.7850 0.5100 
*I *5:s B *C 2.7850 0.5100 
*N *32:3 *C 5.3000 0.0000 
*N *32:8 *C 3.3550 0.0000 
*N *32:9 *C 3.2000 0.0000 
*N *32:10 *C 2.7000 0.0000 
*N *32:11 *C 1.6750 0.0000 
*N *32:12 *C 1.1000 0.0000 
*N *32:13 *C 0.5550 0.0000 


*RES
0 *32 *63:s 75.181412  // $metal1_conn
1 *32:13 *32 0.2284  // $metal1_conn
2 *32:3 *38:s 5.636364  // $metal1_conn
3 *32:3 *32:9 6.2  // $metal1_conn
4 *32:3 *32:12 5.636364  // $metal1_conn
5 *32:8 *57:s 75.272301  // $metal1_conn
6 *32:10 *4:s 75.229828  // $metal1_conn
7 *32:11 *2:s 75.165077  // $metal1_conn
8 *32:13 *64:s 75.17765  // $metal1_conn
9 *38:s *32:8 0.35333  // $metal1_conn
10 *32:8 *32:9 0.077573  // $metal1_conn
11 *32:9 *32:10 0.250671  // $metal1_conn
12 *32:10 *32:11 0.513885  // $metal1_conn
13 *32:11 *32:12 0.288301  // $metal1_conn
14 *32:12 *32:13 0.273249  // $metal1_conn

*END

*D_NET *46 2.53442e-16

*CONN
*P *46 I *C 0.7000 0.6650 
*I *65:g B *C 0.7175 0.3025 
*I *14:g B *C 0.6625 1.2225 
*N *46:2 *C 0.6900 0.5100 

*CAP
0 *14:g 5.24184e-17
1 *65:g 2.37374e-17
2 *46:2 9.13225e-17
3 *46 8.59635e-17

*RES
0 *65:g *46:2 26.102209  // $poly_conn
1 *46:2 *14:g 146.615036  // $poly_conn
2 *46:2 *46 45.099728  // $metal1_conn

*END

*D_NET *45 2.80961e-16

*CONN
*P *45 I *C 0.1000 0.8550 
*I *63:g B *C 0.2275 0.3025 
*I *12:g B *C 0.3475 1.2225 
*N *45:2 *C 0.2275 0.5100 
*N *45:3 *C 0.1400 0.5100 
*N *45:5 *C 0.1200 0.5100 
*N *45:6 *C 0.1200 0.8550 

*CAP
0 *12:g 9.34496e-17
1 *63:g 2.46465e-17
2 *45:6 5.02356e-17
3 *45:5 4.4774e-17
4 *45:2 5.66144e-17
5 *45:3 1.12411e-17

*RES
0 *12:g *45:2 173.282516  // $poly_conn
1 *45:2 *45:3 51.496479  // $poly_conn
2 *45:2 *63:g 24.801132  // $poly_conn
3 *45:5 *45:3 0.003108  // $metal1_conn
4 *45 *45:6 0.00303  // $metal1_conn
5 *45:5 *45:6 0.12051  // $metal1_conn

*END

*D_NET *48 3.30872e-16

*CONN
*P *48 I *C 0.5000 0.6650 
*I *64:g B *C 0.4525 0.3025 
*I *13:g B *C 0.4525 1.2225 
*N *48:2 *C 0.4900 0.6600 
*N *48:4 *C 0.4900 0.6600 

*CAP
0 *13:g 8.50445e-17
1 *64:g 3.76241e-17
2 *48:2 8.48268e-17
3 *48 1.23376e-16

*RES
0 *13:g *48:2 107.180855  // $poly_conn
1 *48:2 *64:g 63.591114  // $poly_conn
2 *48:4 *48 0.003117  // $metal1_conn
3 *48:2 *48:4 45  // $metal1_conn

*END

*D_NET *47 9.05596e-16

*CONN
*P *47 O *C 4.3000 0.8550 
*I *26:d B *C 4.6750 0.5050 
*I *27:d B *C 5.0850 0.5050 
*I *29:d B *C 5.0850 0.5050 
*I *31:d B *C 5.4950 0.5050 
*I *34:d B *C 5.4950 0.5050 
*I *36:d B *C 5.9050 0.5050 
*I *38:d B *C 5.9050 0.5050 
*I *40:d B *C 4.6750 0.5050 
*I *61:d B *C 4.2650 0.5050 
*I *62:d B *C 4.2650 0.5050 
*I *28:d B *C 4.6750 1.1850 
*I *30:d B *C 5.0850 1.1850 
*I *33:d B *C 5.0850 1.1850 
*I *35:d B *C 5.4950 1.1850 
*I *37:d B *C 5.4950 1.1850 
*I *39:d B *C 5.9050 1.1850 
*I *41:d B *C 5.9050 1.1850 
*I *8:d B *C 4.2650 1.1850 
*I *9:d B *C 4.2650 1.1850 
*I *10:d B *C 4.6750 1.1850 

*CAP
0 *47 9.05596e-16


*END

*D_NET *58 1.79933e-18

*CONN
*I *59:d B *C 3.7050 0.5100 
*I *60:s B *C 3.7050 0.5100 

*CAP
0 *59:d 1.79933e-18

*RES
0 *60:s *59:d 0.001  // $mwires

*END

*D_NET *56 1.81972e-18

*CONN
*I *42:s B *C 3.2300 0.5100 
*I *57:d B *C 3.2300 0.5100 

*CAP
0 *42:s 1.81972e-18

*RES
0 *57:d *42:s 0.001  // $mwires

*END

*D_NET *55 2.26434e-18

*CONN
*I *5:d B *C 2.9025 0.5100 
*I *6:s B *C 2.9025 0.5100 

*CAP
0 *5:d 2.26434e-18

*RES
0 *6:s *5:d 0.001  // $mwires

*END

*D_NET *54 9.54971e-20

*CONN
*I *1:s B *C 1.5200 0.5875 
*I *2:d B *C 1.5200 0.5875 

*CAP
0 *1:s 9.54971e-20

*RES
0 *2:d *1:s 0.001  // $mwires

*END

*D_NET *53 1.64735e-18

*CONN
*I *16:s B *C 1.5800 1.2875 
*I *17:d B *C 1.5800 1.2875 

*CAP
0 *16:s 1.64735e-18

*RES
0 *17:d *16:s 0.001  // $mwires

*END

*D_NET *52 0

*CONN
*I *12:s B *C 0.4000 1.2225 
*I *13:d B *C 0.4000 1.2225 


*RES
0 *13:d *12:s 0.001  // $mwires

*END

*D_NET *51 1.24423e-15

*CONN
*I *42:g B *C 3.1775 0.5100 
*I *60:g B *C 3.7575 0.5100 
*I *1:g B *C 1.4675 0.5875 
*I *3:d B *C 2.0450 0.5875 
*I *6:g B *C 2.9725 0.5100 
*I *7:g B *C 3.8575 1.2250 
*I *11:g B *C 3.1775 1.2250 
*I *15:g B *C 1.3225 1.2875 
*I *18:d B *C 2.1350 1.2875 
*I *22:g B *C 2.9725 1.2250 
*N *51:2 *C 1.4675 0.8625 
*N *51:4 *C 1.6800 0.8900 
*N *51:16 *C 2.0550 0.5950 

*CAP
0 *18:d 1.08741e-16
1 *15:g 6.54423e-17
2 *7:g 5.40588e-16
3 *6:g 3.19908e-17
4 *3:d 1.47991e-16
5 *1:g 5.1282e-17
6 *60:g 5.52527e-17
7 *42:g 4.46394e-17
8 *51:2 3.71955e-17
9 *51:4 1.61109e-16

*RES
0 *51:2 *15:g 111.140953  // $poly_conn
1 *7:g *60:g 21.283424  // $poly_conn
2 *7:g *42:g 22.565945  // $poly_conn
3 *7:g *6:g 21.283424  // $poly_conn
4 *1:g *51:2 47.414948  // $poly_conn
5 *51:2 *51:4 89.439224  // $poly_conn
6 *51:4 *18:d 62.552021  // $metal1_conn
7 *51:16 *51:4 0.445961  // $metal1_conn
8 *3:d *51:16 75  // $metal1_conn
9 *7:g *51:16 1.040545  // $metal1_conn

*END

*D_NET *50 1.08151e-15

*CONN
*I *57:g B *C 3.2825 0.5100 
*I *59:g B *C 3.6525 0.5100 
*I *2:g B *C 1.5725 0.5875 
*I *4:d B *C 2.4325 0.5100 
*I *5:g B *C 2.8325 0.5100 
*I *43:g B *C 3.3825 1.2250 
*I *44:g B *C 3.6525 1.2250 
*I *17:g B *C 1.6325 1.2875 
*I *20:d B *C 2.4200 1.1750 
*I *21:g B *C 2.6975 1.1750 
*N *50:2 *C 1.8475 0.9875 
*N *50:4 *C 1.9000 0.9850 
*N *50:19 *C 2.3800 0.7200 
*N *50:21 *C 2.2750 1.0400 

*CAP
0 *20:d 7.65501e-17
1 *17:g 8.93234e-17
2 *44:g 4.54743e-16
3 *5:g 5.36881e-17
4 *4:d 3.17723e-17
5 *2:g 8.58875e-17
6 *59:g 4.51258e-17
7 *57:g 4.55663e-17
8 *50:19 5.209e-17
9 *50:4 1.46763e-16

*RES
0 *17:g *50:2 90.609314  // $poly_conn
1 *44:g *59:g 18.71979  // $poly_conn
2 *44:g *57:g 16.623686  // $poly_conn
3 *5:g *44:g 37.16428  // $poly_conn
4 *50:2 *2:g 131.163132  // $poly_conn
5 *50:2 *50:4 47.529076  // $poly_conn
6 *50:21 *50:4 0.280118  // $metal1_conn
7 *20:d *50:21 62  // $metal1_conn
8 *50:19 *4:d 75.072273  // $metal1_conn
9 *44:g *50:19 0.267575  // $metal1_conn
10 *50:19 *50:21 0.310485  // $metal1_conn

*END

*D_NET *49 5.97451e-16

*CONN
*I *66:s B *C 1.3250 0.5875 
*I *1:d B *C 1.3250 0.5875 
*I *4:g B *C 2.5675 0.5100 
*I *15:d B *C 1.4250 1.2875 
*I *16:d B *C 1.4250 1.2875 
*I *20:g B *C 2.4925 1.1750 
*N *49:2 *C 2.5300 0.8800 
*N *49:5 *C 1.4250 1.3350 

*CAP
0 *20:g 3.60374e-17
1 *15:d 2.13088e-16
2 *4:g 5.07382e-17
3 *66:s 9.97017e-17
4 *49:2 1.97886e-16

*RES
0 *4:g *49:2 54.322964  // $poly_conn
1 *49:2 *20:g 18.425531  // $poly_conn
2 *49:2 *49:5 46.226353  // $metal1_conn
3 *49:5 *66:s 75.563957  // $metal1_conn
4 *15:d *49:5 62  // $metal1_conn

*END

*D_NET *25 9.36116e-16

*CONN
*I *26:g B *C 4.7775 0.5050 
*I *27:g B *C 4.9825 0.5050 
*I *29:g B *C 5.1875 0.5050 
*I *31:g B *C 5.3925 0.5050 
*I *34:g B *C 5.5975 0.5050 
*I *36:g B *C 5.8025 0.5050 
*I *38:g B *C 6.0075 0.5050 
*I *40:g B *C 4.5725 0.5050 
*I *42:d B *C 3.0750 0.5100 
*I *60:d B *C 3.8500 0.5100 
*I *61:g B *C 4.1625 0.5050 
*I *62:g B *C 4.3675 0.5050 
*I *6:d B *C 3.0750 0.5100 
*I *28:g B *C 4.7775 1.1850 
*I *30:g B *C 4.9825 1.1850 
*I *33:g B *C 5.1875 1.1850 
*I *35:g B *C 5.3925 1.1850 
*I *37:g B *C 5.5975 1.1850 
*I *39:g B *C 5.8025 1.1850 
*I *41:g B *C 6.0075 1.1850 
*I *43:d B *C 3.2800 1.2250 
*I *44:d B *C 3.7550 1.2250 
*I *7:d B *C 3.7550 1.2250 
*I *8:g B *C 4.1625 1.1850 
*I *9:g B *C 4.3675 1.1850 
*I *10:g B *C 4.5725 1.1850 
*I *11:d B *C 3.2800 1.2250 
*I *21:d B *C 2.9000 1.2250 
*I *22:d B *C 2.9000 1.2250 
*N *25:12 *C 4.1000 0.7650 
*N *25:32 *C 3.9850 0.7650 
*N *25:37 *C 3.8600 0.5700 

*CAP
0 *44:d 2.51072e-16
1 *41:g 4.4349e-16
2 *60:d 7.607e-17
3 *42:d 1.008e-16
4 *25:32 3.74251e-17
5 *25:12 2.72599e-17

*RES
0 *41:g *25:12 48.756718  // $poly_conn
1 *25:12 *25:32 0.064339  // $metal1_conn
2 *60:d *25:37 75  // $metal1_conn
3 *25:37 *42:d 75.596497  // $metal1_conn
4 *25:32 *44:d 0.381586  // $metal1_conn
5 *25:32 *25:37 0.201747  // $metal1_conn

*END

*D_NET *24 7.47346e-16

*CONN
*I *65:d B *C 0.8250 0.3025 
*I *66:g B *C 1.1825 0.5875 
*I *3:g B *C 1.9525 0.5875 
*I *14:d B *C 0.8100 1.2225 
*I *16:g B *C 1.5275 1.2875 
*I *18:g B *C 2.0425 1.2875 
*N *24:2 *C 1.2200 0.2850 
*N *24:4 *C 1.4900 1.0800 
*N *24:7 *C 1.9250 0.4050 
*N *24:8 *C 1.4900 0.4400 
*N *24:10 *C 0.8500 0.3150 

*CAP
0 *18:g 5.63105e-17
1 *16:g 6.37163e-17
2 *14:d 1.03407e-16
3 *3:g 5.50222e-17
4 *66:g 2.43484e-17
5 *65:d 1.04587e-16
6 *24:8 6.85358e-17
7 *24:2 6.28079e-17
8 *24:4 1.32694e-16
9 *24:7 7.5916e-17

*RES
0 *66:g *24:2 94.488556  // $poly_conn
1 *16:g *24:4 61.15522  // $poly_conn
2 *18:g *3:g 144.58223  // $poly_conn
3 *3:g *24:7 64.691956  // $poly_conn
4 *24:4 *24:8 0.48068  // $metal1_conn
5 *24:8 *24:2 0.274352  // $metal1_conn
6 *24:2 *24:10 0.241818  // $metal1_conn
7 *24:8 *24:7 0.33386  // $metal1_conn
8 *24:10 *14:d 62.6516  // $metal1_conn
9 *65:d *24:10 75  // $metal1_conn

*END

*D_NET *23 4.64995e-16

*CONN
*I *63:d B *C 0.3400 0.3025 
*I *64:d B *C 0.3400 0.3025 
*I *66:d B *C 1.0900 0.5875 
*I *12:d B *C 0.2550 1.2225 
*I *15:s B *C 1.2050 1.2875 
*N *23:2 *C 1.1100 1.3350 
*N *23:3 *C 0.3300 1.0800 

*CAP
0 *12:d 9.82712e-18
1 *66:d 7.72804e-17
2 *63:d 8.95208e-17
3 *23:3 1.54764e-16
4 *23:2 1.33603e-16

*RES
0 *66:d *23:2 75.51445  // $metal1_conn
1 *23:2 *23:3 0.769626  // $metal1_conn
2 *23:3 *12:d 62.1287  // $metal1_conn
3 *23:2 *15:s 62.032146  // $metal1_conn
4 *23:3 *63:d 75.579475  // $metal1_conn

*END

