*SPEF "IEEE 1481-1999"
*DESIGN  "TLATNCAX12"
*DATE "Mon Sep 27 11:24:14 2010"
*VENDOR "Cadence Design Systems"
*PROGRAM "Assura RCX"
*VERSION "3.2 Red Hat Linux release 7.2 (Enigma) - (09/09/2009-10:39)"
*DESIGN_FLOW "Physical Verification"
*DIVIDER /
*DELIMITER :
*BUS_DELIMITER []
*T_UNIT 1 PS
*C_UNIT 1e15 FF
*R_UNIT 1 OHM
*L_UNIT 1 MH
// DeviceFingerDelim "@"
// MATCHED
// caps2d version: 10

*NAME_MAP
*1 mn22\@9
*2 VSS
*3 mp21
*4 mp20
*5 mp20\@1
*6 mp21\@1
*7 mp21\@2
*8 mp20\@2
*9 mp15
*10 mp16
*11 mp6
*12 CK
*13 mp5
*14 mn21
*15 mp10
*16 mn20
*17 mp22
*18 mn20\@1
*19 mp22\@1
*20 mn21\@1
*21 mp22\@2
*22 mn21\@2
*23 mp22\@3
*24 mn20\@2
*25 CKb
*26 mp22\@4
*27 mn15
*28 net205
*29 mp1
*30 mn16
*31 net217
*32 mp0
*33 mn6
*34 net238
*35 mp22\@5
*36 net238\@1
*37 net238\@2
*38 net230
*39 net254
*40 E
*41 mp22\@6
*42 mp22\@7
*43 mp22\@8
*44 n0
*45 mp22\@9
*46 ECKb
*47 ECK
*48 Eint
*49 VDD
*50 CKbb
*51 mn5
*52 mn10
*53 mn22
*54 mn22\@1
*55 mn22\@2
*56 mn22\@3
*57 mn22\@4
*58 mn1
*59 mn0
*60 mn22\@5
*61 mn22\@6
*62 mn22\@7
*63 mn22\@8

*GROUND_NETS VSS

*PORTS
*49 I
*2 I
*12 I
*40 I
*47 O

*D_NET *49 7.84331e-16

*CONN
*P *49 I *C 0.1000 1.7100 
*I *3:s B *C 2.9850 1.2450 
*I *4:s B *C 3.4550 1.2450 
*I *5:s B *C 3.4550 1.2450 
*I *6:s B *C 3.9250 1.2450 
*I *7:s B *C 3.9250 1.2450 
*I *8:s B *C 4.3350 1.5700 
*I *9:s B *C 4.3350 1.5700 
*I *13:s B *C 5.2750 1.2450 
*I *15:s B *C 5.2750 1.2450 
*I *17:s B *C 1.6650 1.1350 
*I *19:s B *C 1.6650 1.1350 
*I *21:s B *C 2.0750 1.1350 
*I *23:s B *C 2.0750 1.1350 
*I *26:s B *C 2.5400 1.4400 
*I *29:s B *C 2.5400 1.4400 
*I *32:s B *C 0.4900 1.1350 
*I *35:s B *C 0.4900 1.1350 
*I *41:s B *C 0.8450 1.1350 
*I *42:s B *C 0.8450 1.1350 
*I *43:s B *C 1.2550 1.1350 
*I *45:s B *C 1.2550 1.1350 
*N *49:2 *C 4.7000 1.7100 
*N *49:3 *C 4.7000 1.7100 

*CAP
0 *26:s 2.45166e-16
1 *13:s 5.09725e-17
2 *8:s 1.59273e-16
3 *49:2 3.20425e-16
4 *49 8.49382e-18

*RES
0 *26:s *49 0.152531  // $metal1_conn
1 *49:2 *49:3 8.333333  // $metal1_conn
2 *49:2 *8:s 8.333333  // $metal1_conn
3 *49:2 *26:s 7.5  // $metal1_conn
4 *13:s *49:3 62.520123  // $metal1_conn
5 *49:3 *8:s 0.195415  // $metal1_conn
6 *8:s *26:s 0.207954  // $metal1_conn

*END

*D_NET *2 0

*CONN
*P *2 I *C 0.1000 0.0000 
*I *16:s B *C 3.3425 0.5300 
*I *18:s B *C 3.3425 0.5300 
*I *24:s B *C 4.3675 0.5275 
*I *27:s B *C 4.3675 0.5275 
*I *51:s B *C 5.2750 0.4700 
*I *52:s B *C 5.2750 0.4700 
*I *53:s B *C 1.6650 0.4150 
*I *54:s B *C 1.6650 0.4150 
*I *55:s B *C 2.0750 0.4150 
*I *56:s B *C 2.0750 0.4150 
*I *57:s B *C 2.5700 0.4975 
*I *58:s B *C 2.5700 0.4975 
*I *59:s B *C 0.4450 0.4150 
*I *60:s B *C 0.4450 0.4150 
*I *61:s B *C 0.8450 0.4150 
*I *62:s B *C 0.8450 0.4150 
*I *63:s B *C 1.2550 0.4150 
*I *1:s B *C 1.2550 0.4150 
*N *2:2 *C 4.7000 0.0000 
*N *2:3 *C 4.7000 0.0000 
*N *2:4 *C 4.2550 0.0000 
*N *2:5 *C 3.3100 0.0000 
*N *2:6 *C 2.9000 0.0000 


*RES
0 *57:s *2 0.167578  // $metal1_conn
1 *2:2 *2:3 6.888889  // $metal1_conn
2 *2:2 *2:6 6.888889  // $metal1_conn
3 *2:2 *57:s 6.2  // $metal1_conn
4 *51:s *2:3 75.576447  // $metal1_conn
5 *2:4 *24:s 75.296738  // $metal1_conn
6 *2:5 *16:s 75.284889  // $metal1_conn
7 *2:3 *2:4 0.223001  // $metal1_conn
8 *2:4 *2:5 0.473588  // $metal1_conn
9 *2:5 *2:6 0.205446  // $metal1_conn
10 *2:6 *57:s 0.207954  // $metal1_conn

*END

*D_NET *12 1.62296e-16

*CONN
*P *12 I *C 0.3000 0.8550 
*I *59:g B *C 0.2275 0.4975 
*I *32:g B *C 0.2275 1.0075 
*N *12:2 *C 0.2650 0.6700 

*CAP
0 *32:g 3.51396e-17
1 *59:g 2.24095e-17
2 *12:2 5.30401e-17
3 *12 5.17068e-17

*RES
0 *32:g *12:2 49.488552  // $poly_conn
1 *12:2 *59:g 16.15522  // $poly_conn
2 *12 *12:2 45.089561  // $metal1_conn

*END

*D_NET *40 2.19457e-16

*CONN
*P *40 I *C 5.3000 1.0450 
*I *51:g B *C 5.1325 0.5275 
*I *13:g B *C 5.1325 1.1575 
*N *40:2 *C 5.1600 0.9400 

*CAP
0 *13:g 3.81674e-17
1 *51:g 4.22023e-17
2 *40:2 8.69863e-17
3 *40 5.21007e-17

*RES
0 *13:g *40:2 19.691952  // $poly_conn
1 *40:2 *51:g 78.666313  // $poly_conn
2 *40:2 *40 45.107281  // $metal1_conn

*END

*D_NET *47 5.50838e-16

*CONN
*P *47 O *C 1.1000 0.8550 
*I *53:d B *C 1.4600 0.4150 
*I *54:d B *C 1.8700 0.4150 
*I *55:d B *C 1.8700 0.4150 
*I *56:d B *C 2.2800 0.4150 
*I *57:d B *C 2.2800 0.4150 
*I *60:d B *C 0.6400 0.4150 
*I *61:d B *C 0.6400 0.4150 
*I *62:d B *C 1.0500 0.4150 
*I *63:d B *C 1.0500 0.4150 
*I *1:d B *C 1.4600 0.4150 
*I *17:d B *C 1.4600 1.1350 
*I *19:d B *C 1.8700 1.1350 
*I *21:d B *C 1.8700 1.1350 
*I *23:d B *C 2.2800 1.1350 
*I *26:d B *C 2.2800 1.1350 
*I *35:d B *C 0.6400 1.1350 
*I *41:d B *C 0.6400 1.1350 
*I *42:d B *C 1.0500 1.1350 
*I *43:d B *C 1.0500 1.1350 
*I *45:d B *C 1.4600 1.1350 

*CAP
0 *23:d 2.48114e-16
1 *53:d 2.83735e-16
2 *47 1.89884e-17

*RES
0 *23:d *47 0.04211  // $metal1_conn
1 *47 *53:d 0.224171  // $metal1_conn

*END

*D_NET *39 5.25999e-18

*CONN
*I *33:s B *C 4.9425 0.5275 
*I *51:d B *C 4.9425 0.5275 

*CAP
0 *33:s 5.25999e-18

*RES
0 *51:d *33:s 0.001  // $mwires

*END

*D_NET *38 0

*CONN
*I *27:d B *C 4.4950 0.5275 
*I *30:s B *C 4.4950 0.5275 


*RES
0 *30:s *27:d 0.001  // $mwires

*END

*D_NET *37 5.17594e-19

*CONN
*I *22:s B *C 3.9825 0.5300 
*I *24:d B *C 3.9825 0.5300 

*CAP
0 *22:s 5.17594e-19

*RES
0 *24:d *22:s 0.001  // $mwires

*END

*D_NET *36 3.84156e-18

*CONN
*I *18:d B *C 3.5275 0.5300 
*I *20:s B *C 3.5275 0.5300 

*CAP
0 *18:d 3.84156e-18

*RES
0 *20:s *18:d 0.001  // $mwires

*END

*D_NET *34 2.21455e-18

*CONN
*I *14:s B *C 3.1850 0.5300 
*I *16:d B *C 3.1850 0.5300 

*CAP
0 *14:s 2.21455e-18

*RES
0 *16:d *14:s 0.001  // $mwires

*END

*D_NET *31 2.48539e-18

*CONN
*I *11:s B *C 5.0425 1.1575 
*I *13:d B *C 5.0425 1.1575 

*CAP
0 *11:s 2.48539e-18

*RES
0 *13:d *11:s 0.001  // $mwires

*END

*D_NET *28 2.77717e-18

*CONN
*I *9:d B *C 4.5750 1.1575 
*I *10:s B *C 4.5750 1.1575 

*CAP
0 *9:d 2.77717e-18

*RES
0 *10:s *9:d 0.001  // $mwires

*END

*D_NET *25 1.18711e-15

*CONN
*I *33:g B *C 4.7525 0.5275 
*I *58:g B *C 2.6175 0.4975 
*I *59:d B *C 0.1225 0.4975 
*I *10:g B *C 4.7075 1.1575 
*I *29:g B *C 2.6175 1.0075 
*I *32:d B *C 0.1250 1.0075 
*N *25:3 *C 2.6750 1.2800 
*N *25:6 *C 4.6700 1.3650 
*N *25:8 *C 0.1050 0.9600 
*N *25:10 *C 0.1000 0.4850 

*CAP
0 *32:d 2.53556e-16
1 *29:g 3.9985e-17
2 *10:g 5.84124e-17
3 *59:d 3.62402e-17
4 *58:g 4.80761e-17
5 *33:g 5.59771e-17
6 *25:3 4.84027e-16
7 *25:6 2.10841e-16

*RES
0 *29:g *58:g 84.615387  // $poly_conn
1 *29:g *25:3 85.732117  // $poly_conn
2 *33:g *10:g 115.095047  // $poly_conn
3 *10:g *25:6 61.15522  // $poly_conn
4 *25:6 *25:3 1.528908  // $metal1_conn
5 *25:3 *25:8 2.115948  // $metal1_conn
6 *25:8 *25:10 0.323631  // $metal1_conn
7 *32:d *25:8 62  // $metal1_conn
8 *59:d *25:10 75  // $metal1_conn

*END

*D_NET *50 1.04767e-15

*CONN
*I *14:g B *C 3.1325 0.5300 
*I *20:g B *C 3.6075 0.5300 
*I *22:g B *C 3.8125 0.5300 
*I *30:g B *C 4.5475 0.5275 
*I *58:d B *C 2.7525 0.4975 
*I *3:g B *C 3.0325 1.2450 
*I *6:g B *C 3.7075 1.2450 
*I *7:g B *C 3.9725 1.2450 
*I *11:g B *C 4.9525 1.1575 
*I *29:d B *C 2.7100 1.0075 
*N *50:11 *C 4.5750 0.8900 
*N *50:13 *C 4.8400 0.9150 
*N *50:16 *C 2.8050 0.9600 

*CAP
0 *29:d 2.55439e-17
1 *11:g 4.14709e-17
2 *7:g 4.52272e-16
3 *58:d 6.74071e-17
4 *30:g 6.55999e-17
5 *22:g 2.45892e-17
6 *20:g 4.46747e-17
7 *14:g 6.6745e-17
8 *50:16 3.55826e-17
9 *50:11 1.4228e-16
10 *50:13 8.15017e-17

*RES
0 *11:g *50:13 83.446335  // $poly_conn
1 *30:g *50:11 110.845795  // $poly_conn
2 *7:g *22:g 57.479973  // $poly_conn
3 *7:g *20:g 79.47197  // $poly_conn
4 *14:g *7:g 84.318123  // $poly_conn
5 *50:13 *50:11 0.168253  // $metal1_conn
6 *50:11 *7:g 0.647883  // $metal1_conn
7 *50:16 *29:d 62.065319  // $metal1_conn
8 *50:16 *58:d 75.289742  // $metal1_conn
9 *7:g *50:16 0.154557  // $metal1_conn

*END

*D_NET *48 9.63907e-16

*CONN
*I *16:g B *C 3.2375 0.5300 
*I *18:g B *C 3.4475 0.5300 
*I *24:g B *C 4.1525 0.5300 
*I *27:g B *C 4.4425 0.5275 
*I *52:d B *C 5.4600 0.4700 
*I *4:g B *C 3.2375 1.2450 
*I *5:g B *C 3.5025 1.2450 
*I *8:g B *C 4.1775 1.2450 
*I *9:g B *C 4.4425 1.1575 
*I *15:d B *C 5.4750 1.2450 
*N *48:8 *C 4.4425 0.8125 
*N *48:15 *C 5.4700 0.5300 

*CAP
0 *15:d 6.19308e-17
1 *9:g 3.78013e-17
2 *8:g 5.09028e-16
3 *52:d 1.7682e-16
4 *27:g 4.2273e-17
5 *24:g 1.90518e-17
6 *18:g 3.01553e-17
7 *16:g 5.1449e-17
8 *48:8 3.5398e-17

*RES
0 *9:g *48:8 59.745434  // $poly_conn
1 *48:8 *27:g 53.335175  // $poly_conn
2 *8:g *24:g 35.681602  // $poly_conn
3 *8:g *18:g 19.094141  // $poly_conn
4 *8:g *16:g 38.849838  // $poly_conn
5 *48:8 *8:g 41.958729  // $poly_conn
6 *15:d *48:15 21.1712  // $metal1_conn
7 *52:d *48:15 75  // $metal1_conn
8 *48:15 *8:g 1.311962  // $metal1_conn

*END

*D_NET *46 1.22428e-15

*CONN
*I *14:d B *C 3.0400 0.5300 
*I *20:d B *C 3.7100 0.5300 
*I *22:d B *C 3.7100 0.5300 
*I *53:g B *C 1.5625 0.4150 
*I *54:g B *C 1.7675 0.4150 
*I *55:g B *C 1.9725 0.4150 
*I *56:g B *C 2.1775 0.4150 
*I *57:g B *C 2.3825 0.4150 
*I *60:g B *C 0.5375 0.4150 
*I *61:g B *C 0.7425 0.4150 
*I *62:g B *C 0.9475 0.4150 
*I *63:g B *C 1.1525 0.4150 
*I *1:g B *C 1.3575 0.4150 
*I *3:d B *C 3.1350 1.2450 
*I *4:d B *C 3.1350 1.2450 
*I *5:d B *C 3.6050 1.2450 
*I *6:d B *C 3.6050 1.2450 
*I *7:d B *C 4.0750 1.2450 
*I *8:d B *C 4.0750 1.2450 
*I *17:g B *C 1.5625 1.1350 
*I *19:g B *C 1.7675 1.1350 
*I *21:g B *C 1.9725 1.1350 
*I *23:g B *C 2.1775 1.1350 
*I *26:g B *C 2.3825 1.1350 
*I *35:g B *C 0.5375 1.1350 
*I *41:g B *C 0.7425 1.1350 
*I *42:g B *C 0.9475 1.1350 
*I *43:g B *C 1.1525 1.1350 
*I *45:g B *C 1.3575 1.1350 
*N *46:36 *C 2.5300 0.7000 
*N *46:38 *C 3.0300 0.4600 

*CAP
0 *26:g 5.05203e-16
1 *7:d 3.6139e-16
2 *20:d 8.63978e-17
3 *14:d 1.32478e-16
4 *46:36 1.38816e-16

*RES
0 *46:38 *20:d 75.560837  // $metal1_conn
1 *14:d *46:38 75  // $metal1_conn
2 *46:36 *26:g 45.229145  // $metal1_conn
3 *7:d *46:36 0.760747  // $metal1_conn
4 *46:36 *46:38 0.718193  // $metal1_conn

*END

*D_NET *44 3.87095e-16

*CONN
*I *30:d B *C 4.6500 0.5275 
*I *33:d B *C 4.6500 0.5275 
*I *52:g B *C 5.3675 0.4700 
*I *10:d B *C 4.8300 1.1575 
*I *11:d B *C 4.8300 1.1575 
*I *15:g B *C 5.3675 1.2450 
*N *44:2 *C 5.3400 0.7500 
*N *44:5 *C 5.0000 0.7200 

*CAP
0 *15:g 4.96778e-17
1 *10:d 5.29887e-17
2 *52:g 4.30147e-17
3 *30:d 5.61244e-17
4 *44:5 9.73016e-17
5 *44:2 8.79877e-17

*RES
0 *15:g *44:2 68.409897  // $poly_conn
1 *44:2 *52:g 29.94836  // $poly_conn
2 *10:d *44:5 62.373623  // $metal1_conn
3 *44:5 *30:d 75.375847  // $metal1_conn
4 *44:5 *44:2 45.258877  // $metal1_conn

*END

