*SPEF "IEEE 1481-1999"
*DESIGN  "TLATNTSCAX6"
*DATE "Mon Sep 27 11:31:01 2010"
*VENDOR "Cadence Design Systems"
*PROGRAM "Assura RCX"
*VERSION "3.2 Red Hat Linux release 7.2 (Enigma) - (09/09/2009-10:39)"
*DESIGN_FLOW "Physical Verification"
*DIVIDER /
*DELIMITER :
*BUS_DELIMITER []
*T_UNIT 1 PS
*C_UNIT 1e15 FF
*R_UNIT 1 OHM
*L_UNIT 1 MH
// DeviceFingerDelim "@"
// MATCHED
// caps2d version: 10

*NAME_MAP
*1 mp22\@4
*2 mp1
*3 mp0
*4 mp2
*5 mp5
*6 mp16
*7 mp15
*8 mp3
*9 VDD
*10 mn10
*11 mn20
*12 mn21
*13 mn21\@1
*14 mn20\@1
*15 VSS
*16 mn22
*17 mp10
*18 mn22\@1
*19 mp20
*20 mn22\@2
*21 mp21
*22 mn22\@3
*23 mp21\@1
*24 mp20\@1
*25 mp22
*26 n5
*27 mp22\@1
*28 CKbb
*29 mp22\@2
*30 Eint
*31 mp22\@3
*32 net246
*33 net234
*34 net263
*35 net271
*36 net271\@1
*37 CK
*38 SE
*39 E
*40 mn22\@4
*41 ECK
*42 mn1
*43 mn0
*44 mn2
*45 mn5
*46 mn16
*47 mn15
*48 ECKb
*49 mn3
*50 Eb
*51 CKb

*GROUND_NETS VSS

*PORTS
*9 I
*15 I
*37 I
*39 I
*38 I
*41 O

*D_NET *9 7.66057e-16

*CONN
*P *9 I *C 0.1000 1.7100 
*I *17:s B *C 2.8950 1.1750 
*I *19:s B *C 2.8950 1.1750 
*I *21:s B *C 3.2750 1.1750 
*I *23:s B *C 3.2750 1.1750 
*I *24:s B *C 3.7150 1.1350 
*I *25:s B *C 3.7150 1.1350 
*I *27:s B *C 4.0950 1.1350 
*I *29:s B *C 4.0950 1.1350 
*I *31:s B *C 4.5050 1.1350 
*I *1:s B *C 4.5050 1.1350 
*I *3:s B *C 0.5575 1.2225 
*I *4:s B *C 0.5575 1.2225 
*I *7:s B *C 2.1450 1.0875 
*I *8:s B *C 2.1450 1.0875 
*N *9:2 *C 4.2000 1.7100 
*N *9:8 *C 2.6000 1.7100 
*N *9:9 *C 2.0300 1.7100 
*N *9:10 *C 0.9000 1.7100 
*N *9:11 *C 0.5550 1.7100 

*CAP
0 *7:s 1.42588e-17
1 *3:s 3.78735e-17
2 *31:s 3.31522e-16
3 *21:s 3.85604e-17
4 *9:11 1.05976e-17
5 *9:9 2.52074e-17
6 *9:2 2.97833e-16
7 *9 1.02049e-17

*RES
0 *9:11 *9 0.227766  // $metal1_conn
1 *9:2 *31:s 9.375  // $metal1_conn
2 *9:2 *9:8 9.375  // $metal1_conn
3 *9:2 *9:10 8.333333  // $metal1_conn
4 *31:s *21:s 62.258499  // $metal1_conn
5 *9:9 *7:s 62.097355  // $metal1_conn
6 *9:11 *3:s 62.282261  // $metal1_conn
7 *31:s *9:8 0.132719  // $metal1_conn
8 *9:8 *9:9 0.285697  // $metal1_conn
9 *9:9 *9:10 0.566574  // $metal1_conn
10 *9:10 *9:11 0.172844  // $metal1_conn

*END

*D_NET *15 0

*CONN
*P *15 I *C 0.1000 0.0000 
*I *10:s B *C 3.0700 0.4800 
*I *11:s B *C 3.0700 0.4800 
*I *14:s B *C 3.7150 0.5050 
*I *16:s B *C 3.7150 0.5050 
*I *18:s B *C 4.0950 0.5050 
*I *20:s B *C 4.0950 0.5050 
*I *22:s B *C 4.5050 0.5050 
*I *40:s B *C 4.5050 0.5050 
*I *42:s B *C 0.1350 0.3025 
*I *43:s B *C 0.5575 0.3025 
*I *44:s B *C 0.5575 0.3025 
*I *47:s B *C 2.1450 0.5175 
*I *49:s B *C 2.1450 0.5175 
*N *15:2 *C 4.2000 0.0000 
*N *15:6 *C 2.9850 0.0000 
*N *15:7 *C 2.6000 0.0000 
*N *15:8 *C 2.0600 0.0000 
*N *15:9 *C 0.9000 0.0000 
*N *15:10 *C 0.5550 0.0000 


*RES
0 *15 *42:s 75.180893  // $metal1_conn
1 *15:10 *15 0.228324  // $metal1_conn
2 *15:2 *22:s 7.75  // $metal1_conn
3 *15:2 *15:7 7.75  // $metal1_conn
4 *15:2 *15:9 6.888889  // $metal1_conn
5 *15:6 *10:s 75.045822  // $metal1_conn
6 *15:8 *47:s 75.045822  // $metal1_conn
7 *15:10 *43:s 75.177139  // $metal1_conn
8 *22:s *15:6 0.349755  // $metal1_conn
9 *15:6 *15:7 0.191957  // $metal1_conn
10 *15:7 *15:8 0.2697  // $metal1_conn
11 *15:8 *15:9 0.580671  // $metal1_conn
12 *15:9 *15:10 0.172844  // $metal1_conn

*END

*D_NET *37 2.42752e-16

*CONN
*P *37 I *C 0.7000 0.6650 
*I *44:g B *C 0.6625 0.3025 
*I *4:g B *C 0.6625 1.2225 
*N *37:2 *C 0.6900 0.5100 

*CAP
0 *4:g 5.11576e-17
1 *44:g 2.52645e-17
2 *37:2 8.52665e-17
3 *37 8.10633e-17

*RES
0 *4:g *37:2 146.615021  // $poly_conn
1 *37:2 *44:g 26.102209  // $poly_conn
2 *37 *37:2 45.093075  // $metal1_conn

*END

*D_NET *39 2.72145e-16

*CONN
*P *39 I *C 0.1000 0.8550 
*I *42:g B *C 0.2275 0.3025 
*I *2:g B *C 0.3475 1.2225 
*N *39:2 *C 0.2275 0.5100 
*N *39:3 *C 0.1400 0.5100 

*CAP
0 *2:g 9.16285e-17
1 *42:g 2.41158e-17
2 *39:2 5.63582e-17
3 *39:3 5.16616e-17
4 *39 4.83807e-17

*RES
0 *2:g *39:2 173.282516  // $poly_conn
1 *39:2 *39:3 51.496479  // $poly_conn
2 *39:2 *42:g 24.801132  // $poly_conn
3 *39:3 *39 0.166833  // $metal1_conn

*END

*D_NET *38 3.35539e-16

*CONN
*P *38 I *C 0.5000 0.6650 
*I *43:g B *C 0.4525 0.3025 
*I *3:g B *C 0.4525 1.2225 
*N *38:2 *C 0.4900 0.5100 

*CAP
0 *3:g 9.7915e-17
1 *43:g 3.10373e-17
2 *38:2 1.24545e-16
3 *38 8.2042e-17

*RES
0 *3:g *38:2 145.642395  // $poly_conn
1 *38:2 *43:g 25.129578  // $poly_conn
2 *38 *38:2 45.093075  // $metal1_conn

*END

*D_NET *41 4.65377e-16

*CONN
*P *41 O *C 3.9000 0.8550 
*I *16:d B *C 3.8900 0.5050 
*I *18:d B *C 3.8900 0.5050 
*I *20:d B *C 4.3000 0.5050 
*I *22:d B *C 4.3000 0.5050 
*I *40:d B *C 4.7000 0.5050 
*I *25:d B *C 3.8900 1.1350 
*I *27:d B *C 3.8900 1.1350 
*I *29:d B *C 4.3000 1.1350 
*I *31:d B *C 4.3000 1.1350 
*I *1:d B *C 4.7000 1.1350 

*CAP
0 *41 4.65377e-16


*END

*D_NET *36 3.55937e-18

*CONN
*I *13:s B *C 3.5050 0.4800 
*I *14:d B *C 3.5050 0.4800 

*CAP
0 *13:s 3.55937e-18

*RES
0 *14:d *13:s 0.001  // $mwires

*END

*D_NET *35 1.96117e-18

*CONN
*I *11:d B *C 3.1700 0.4800 
*I *12:s B *C 3.1700 0.4800 

*CAP
0 *11:d 1.96117e-18

*RES
0 *12:s *11:d 0.001  // $mwires

*END

*D_NET *34 0

*CONN
*I *46:s B *C 1.8950 0.5175 
*I *47:d B *C 1.8950 0.5175 


*RES
0 *47:d *46:s 0.001  // $mwires

*END

*D_NET *33 2.06832e-18

*CONN
*I *6:s B *C 1.8325 1.0875 
*I *7:d B *C 1.8325 1.0875 

*CAP
0 *6:s 2.06832e-18

*RES
0 *7:d *6:s 0.001  // $mwires

*END

*D_NET *32 0

*CONN
*I *2:s B *C 0.4000 1.2225 
*I *3:d B *C 0.4000 1.2225 


*RES
0 *3:d *2:s 0.001  // $mwires

*END

*D_NET *30 9.0357e-16

*CONN
*I *10:d B *C 2.7600 0.5475 
*I *11:g B *C 3.1175 0.4800 
*I *14:g B *C 3.5825 0.4800 
*I *47:g B *C 1.9975 0.5175 
*I *17:d B *C 2.5975 1.1350 
*I *19:g B *C 2.9675 1.1750 
*I *24:g B *C 3.5825 1.1750 
*I *7:g B *C 1.9275 1.0875 
*N *30:2 *C 1.9975 0.8500 
*N *30:4 *C 2.0500 0.8500 
*N *30:11 *C 2.4850 0.8500 
*N *30:13 *C 2.7200 0.7200 

*CAP
0 *7:g 4.53585e-17
1 *24:g 3.79445e-16
2 *17:d 5.23219e-17
3 *47:g 5.31814e-17
4 *14:g 6.14661e-17
5 *11:g 6.87549e-17
6 *10:d 3.46559e-17
7 *30:13 3.88657e-17
8 *30:11 5.59215e-17
9 *30:4 1.13599e-16

*RES
0 *30:2 *7:g 38.581882  // $poly_conn
1 *24:g *14:g 55.860214  // $poly_conn
2 *11:g *24:g 42.292484  // $poly_conn
3 *47:g *30:2 56.895031  // $poly_conn
4 *30:2 *30:4 47.815495  // $poly_conn
5 *30:4 *30:11 0.326168  // $metal1_conn
6 *30:13 *10:d 75.083191  // $metal1_conn
7 *30:11 *17:d 62.14119  // $metal1_conn
8 *30:11 *30:13 0.261326  // $metal1_conn
9 *30:13 *24:g 0.218512  // $metal1_conn

*END

*D_NET *28 7.90077e-16

*CONN
*I *12:g B *C 3.2225 0.4800 
*I *13:g B *C 3.4275 0.4800 
*I *46:g B *C 1.7925 0.5175 
*I *49:d B *C 2.2850 0.5175 
*I *21:g B *C 3.1725 1.1750 
*I *23:g B *C 3.3775 1.1750 
*I *5:g B *C 1.5325 1.0875 
*I *8:d B *C 2.2850 1.0875 
*N *28:2 *C 1.8300 0.6900 
*N *28:11 *C 1.8300 0.6900 
*N *28:13 *C 2.2950 0.5250 

*CAP
0 *8:d 9.84779e-17
1 *5:g 5.65974e-17
2 *23:g 2.4776e-16
3 *49:d 1.36164e-16
4 *46:g 2.47662e-17
5 *13:g 3.16726e-17
6 *12:g 4.28996e-17
7 *28:2 1.51739e-16

*RES
0 *28:2 *5:g 126.625824  // $poly_conn
1 *13:g *23:g 36.380795  // $poly_conn
2 *23:g *12:g 16.530039  // $poly_conn
3 *46:g *28:2 16.15522  // $poly_conn
4 *28:13 *23:g 45.890827  // $metal1_conn
5 *28:2 *28:11 45  // $metal1_conn
6 *49:d *28:13 75  // $metal1_conn
7 *8:d *28:11 62.581318  // $metal1_conn
8 *28:11 *28:13 0.448687  // $metal1_conn

*END

*D_NET *26 5.2833e-16

*CONN
*I *10:g B *C 2.8525 0.5475 
*I *45:s B *C 1.5700 0.5175 
*I *46:d B *C 1.5700 0.5175 
*I *17:g B *C 2.7625 1.1350 
*I *5:d B *C 1.6350 1.0875 
*I *6:d B *C 1.6350 1.0875 
*N *26:2 *C 2.8000 0.8800 
*N *26:5 *C 1.6350 1.1000 

*CAP
0 *5:d 1.77517e-16
1 *17:g 4.27549e-17
2 *45:s 8.42649e-17
3 *10:g 4.83441e-17
4 *26:2 1.75449e-16

*RES
0 *10:g *26:2 60.737446  // $poly_conn
1 *26:2 *17:g 16.15522  // $poly_conn
2 *26:2 *26:5 46.122936  // $metal1_conn
3 *26:5 *45:s 75.499207  // $metal1_conn
4 *5:d *26:5 62  // $metal1_conn

*END

*D_NET *51 7.10318e-16

*CONN
*I *44:d B *C 0.8100 0.3025 
*I *45:g B *C 1.3475 0.5175 
*I *49:g B *C 2.1925 0.5175 
*I *4:d B *C 0.8250 1.2225 
*I *6:g B *C 1.7375 1.0875 
*I *8:g B *C 2.1925 1.0875 
*N *51:2 *C 1.3850 0.2850 
*N *51:4 *C 1.7000 0.8800 
*N *51:7 *C 2.2200 0.3350 
*N *51:8 *C 1.6400 0.3350 
*N *51:10 *C 0.8750 0.3150 

*CAP
0 *8:g 6.13259e-17
1 *6:g 5.02012e-17
2 *4:d 1.06253e-16
3 *49:g 3.50241e-17
4 *45:g 2.89355e-17
5 *44:d 9.21557e-17
6 *51:8 6.06294e-17
7 *51:2 7.36388e-17
8 *51:4 1.23492e-16
9 *51:7 7.86626e-17

*RES
0 *45:g *51:2 76.539833  // $poly_conn
1 *6:g *51:4 61.15522  // $poly_conn
2 *8:g *49:g 100  // $poly_conn
3 *49:g *51:7 64.691956  // $poly_conn
4 *51:7 *51:8 0.407306  // $metal1_conn
5 *51:8 *51:2 0.190724  // $metal1_conn
6 *51:8 *51:4 0.412098  // $metal1_conn
7 *51:2 *51:10 0.345266  // $metal1_conn
8 *51:10 *4:d 62.571018  // $metal1_conn
9 *44:d *51:10 75  // $metal1_conn

*END

*D_NET *50 4.83274e-16

*CONN
*I *42:d B *C 0.3400 0.3025 
*I *43:d B *C 0.3400 0.3025 
*I *45:d B *C 1.2550 0.5175 
*I *2:d B *C 0.2550 1.2225 
*I *5:s B *C 1.3850 1.0875 
*N *50:3 *C 1.3200 1.1350 
*N *50:4 *C 0.3325 1.0800 

*CAP
0 *5:s 1.38639e-16
1 *2:d 1.21074e-17
2 *45:d 6.2574e-17
3 *42:d 8.81786e-17
4 *50:4 1.81776e-16

*RES
0 *45:d *50:3 75.439568  // $metal1_conn
1 *50:3 *50:4 0.944452  // $metal1_conn
2 *50:4 *2:d 62.105465  // $metal1_conn
3 *50:4 *42:d 75.580025  // $metal1_conn
4 *5:s *50:3 62  // $metal1_conn

*END

*D_NET *48 6.04322e-16

*CONN
*I *12:d B *C 3.3250 0.4800 
*I *13:d B *C 3.3250 0.4800 
*I *16:g B *C 3.7875 0.5050 
*I *18:g B *C 3.9925 0.5050 
*I *20:g B *C 4.1975 0.5050 
*I *22:g B *C 4.4025 0.5050 
*I *40:g B *C 4.6075 0.5050 
*I *19:d B *C 3.0700 1.1750 
*I *21:d B *C 3.0700 1.1750 
*I *23:d B *C 3.4800 1.1750 
*I *24:d B *C 3.4800 1.1750 
*I *25:g B *C 3.7875 1.1350 
*I *27:g B *C 3.9925 1.1350 
*I *29:g B *C 4.1975 1.1350 
*I *31:g B *C 4.4025 1.1350 
*I *1:g B *C 4.6075 1.1350 
*N *48:7 *C 3.7300 0.7600 

*CAP
0 *1:g 2.58873e-16
1 *23:d 1.94057e-16
2 *12:d 4.68071e-17
3 *48:7 1.04584e-16

*RES
0 *1:g *48:7 48.256718  // $poly_conn
1 *48:7 *12:d 75.382462  // $metal1_conn
2 *23:d *48:7 0.416098  // $metal1_conn

*END

