*SPEF "IEEE 1481-1999"
*DESIGN  "TLATNTSCAX3"
*DATE "Mon Sep 27 11:30:17 2010"
*VENDOR "Cadence Design Systems"
*PROGRAM "Assura RCX"
*VERSION "3.2 Red Hat Linux release 7.2 (Enigma) - (09/09/2009-10:39)"
*DESIGN_FLOW "Physical Verification"
*DIVIDER /
*DELIMITER :
*BUS_DELIMITER []
*T_UNIT 1 PS
*C_UNIT 1e15 FF
*R_UNIT 1 OHM
*L_UNIT 1 MH
// DeviceFingerDelim "@"
// MATCHED
// caps2d version: 10

*NAME_MAP
*1 E
*2 SE
*3 CK
*4 mn2
*5 mn5
*6 mn16
*7 mp2
*8 mn15
*9 VDD
*10 mp5
*11 mp16
*12 VSS
*13 mp15
*14 n5
*15 CKbb
*16 CKb
*17 net246
*18 net234
*19 net263
*20 net271
*21 mn3
*22 mn10
*23 mn20
*24 ECKb
*25 mn21
*26 Eint
*27 mn22
*28 Eb
*29 mn22\@1
*30 mn22\@2
*31 mn1
*32 mn0
*33 ECK
*34 mp3
*35 mp10
*36 mp20
*37 mp21
*38 mp22
*39 mp22\@1
*40 mp22\@2
*41 mp1
*42 mp0

*GROUND_NETS VSS

*PORTS
*9 I
*12 I
*3 I
*1 I
*2 I
*33 O

*D_NET *9 6.50779e-16

*CONN
*P *9 I *C 0.1000 1.7100 
*I *34:s B *C 1.9725 1.3225 
*I *35:s B *C 2.7900 1.0950 
*I *36:s B *C 2.7900 1.0950 
*I *37:s B *C 3.1700 1.0950 
*I *38:s B *C 3.1700 1.0950 
*I *39:s B *C 3.6500 1.0950 
*I *40:s B *C 3.6500 1.0950 
*I *42:s B *C 0.5450 1.1975 
*I *7:s B *C 0.5450 1.1975 
*I *13:s B *C 1.9725 1.3225 
*N *9:3 *C 3.0000 1.7100 
*N *9:4 *C 3.0000 1.7100 
*N *9:5 *C 2.7600 1.7100 
*N *9:6 *C 1.7850 1.7100 
*N *9:7 *C 1.0000 1.7100 
*N *9:8 *C 0.5300 1.7100 

*CAP
0 *42:s 4.39959e-17
1 *39:s 1.20424e-16
2 *35:s 6.66763e-17
3 *34:s 3.29269e-17
4 *9:8 1.49756e-17
5 *9:6 4.46124e-17
6 *9:5 4.10038e-17
7 *9:3 2.75184e-16
8 *9 1.09812e-17

*RES
0 *9:8 *9 0.215335  // $metal1_conn
1 *9:3 *9:4 7.5  // $metal1_conn
2 *9:3 *9:7 7.5  // $metal1_conn
3 *9:5 *35:s 62.463837  // $metal1_conn
4 *9:6 *34:s 62.0975  // $metal1_conn
5 *9:8 *42:s 62.302486  // $metal1_conn
6 *39:s *9:4 0.085113  // $metal1_conn
7 *9:4 *9:5 0.12024  // $metal1_conn
8 *9:5 *9:6 0.48888  // $metal1_conn
9 *9:6 *9:7 0.393731  // $metal1_conn
10 *9:7 *9:8 0.235658  // $metal1_conn

*END

*D_NET *12 0

*CONN
*P *12 I *C 0.1000 0.0000 
*I *21:s B *C 1.9675 0.5725 
*I *22:s B *C 2.8150 0.5300 
*I *23:s B *C 2.8150 0.5300 
*I *27:s B *C 3.3400 0.5100 
*I *29:s B *C 3.6950 0.5100 
*I *30:s B *C 3.6950 0.5100 
*I *31:s B *C 0.1100 0.3025 
*I *32:s B *C 0.5450 0.3025 
*I *4:s B *C 0.5450 0.3025 
*I *8:s B *C 1.9675 0.5725 
*N *12:3 *C 3.0000 0.0000 
*N *12:4 *C 3.0000 0.0000 
*N *12:5 *C 2.7300 0.0000 
*N *12:6 *C 1.8750 0.0000 
*N *12:7 *C 1.0000 0.0000 
*N *12:8 *C 0.5300 0.0000 


*RES
0 *12 *31:s 75.187943  // $metal1_conn
1 *12:8 *12 0.215637  // $metal1_conn
2 *12:3 *12:4 6.2  // $metal1_conn
3 *12:3 *12:7 6.2  // $metal1_conn
4 *12:5 *22:s 75.045845  // $metal1_conn
5 *12:6 *21:s 75.436554  // $metal1_conn
6 *12:8 *32:s 75.180519  // $metal1_conn
7 *29:s *12:4 0.127767  // $metal1_conn
8 *12:4 *12:5 0.134344  // $metal1_conn
9 *12:5 *12:6 0.427712  // $metal1_conn
10 *12:6 *12:7 0.438895  // $metal1_conn
11 *12:7 *12:8 0.235658  // $metal1_conn

*END

*D_NET *3 2.52112e-16

*CONN
*P *3 I *C 0.7000 0.6650 
*I *4:g B *C 0.6625 0.3025 
*I *7:g B *C 0.6625 1.1975 
*N *3:2 *C 0.6900 0.8650 

*CAP
0 *7:g 3.7838e-17
1 *4:g 4.35573e-17
2 *3:2 9.53811e-17
3 *3 7.5335e-17

*RES
0 *7:g *3:2 49.179131  // $poly_conn
1 *3:2 *4:g 117.127853  // $poly_conn
2 *3 *3:2 45.10677  // $metal1_conn

*END

*D_NET *1 2.60941e-16

*CONN
*P *1 I *C 0.1000 0.8550 
*I *31:g B *C 0.2025 0.3025 
*I *41:g B *C 0.3225 1.1975 
*N *1:2 *C 0.2025 0.5550 
*N *1:3 *C 0.1150 0.5550 

*CAP
0 *41:g 8.76912e-17
1 *31:g 2.70954e-17
2 *1:2 5.37281e-17
3 *1:3 5.04012e-17
4 *1 4.20254e-17

*RES
0 *41:g *1:2 155.333786  // $poly_conn
1 *1:2 *1:3 51.496479  // $poly_conn
2 *1:2 *31:g 36.339592  // $poly_conn
3 *1 *1:3 0.129505  // $metal1_conn

*END

*D_NET *2 3.1157e-16

*CONN
*P *2 I *C 0.5000 0.6650 
*I *32:g B *C 0.4275 0.3025 
*I *42:g B *C 0.4275 1.1975 
*N *2:2 *C 0.4650 0.6600 

*CAP
0 *42:g 8.07789e-17
1 *32:g 3.66746e-17
2 *2:2 1.37063e-16
3 *2 5.70533e-17

*RES
0 *42:g *2:2 100.770599  // $poly_conn
1 *2:2 *32:g 63.591114  // $poly_conn
2 *2:2 *2 45.009689  // $metal1_conn

*END

*D_NET *33 1.77219e-16

*CONN
*P *33 O *C 3.5000 0.6650 
*I *27:d B *C 3.4900 0.5100 
*I *29:d B *C 3.4900 0.5100 
*I *30:d B *C 3.8900 0.5100 
*I *38:d B *C 3.4100 1.0950 
*I *39:d B *C 3.4100 1.0950 
*I *40:d B *C 3.8450 1.0950 

*CAP
0 *40:d 1.11057e-16
1 *27:d 5.20712e-17
2 *33 1.40912e-17

*RES
0 *27:d *33 0.05515  // $metal1_conn
1 *33 *40:d 0.151413  // $metal1_conn

*END

*D_NET *20 2.38794e-18

*CONN
*I *23:d B *C 2.9150 0.5300 
*I *25:s B *C 2.9150 0.5300 

*CAP
0 *23:d 2.38794e-18

*RES
0 *25:s *23:d 0.001  // $mwires

*END

*D_NET *19 1.06229e-18

*CONN
*I *6:s B *C 1.7525 0.5725 
*I *8:d B *C 1.7525 0.5725 

*CAP
0 *6:s 1.06229e-18

*RES
0 *8:d *6:s 0.001  // $mwires

*END

*D_NET *18 3.06077e-18

*CONN
*I *11:s B *C 1.6300 1.3225 
*I *13:d B *C 1.6300 1.3225 

*CAP
0 *11:s 3.06077e-18

*RES
0 *13:d *11:s 0.001  // $mwires

*END

*D_NET *17 0

*CONN
*I *41:s B *C 0.3750 1.1975 
*I *42:d B *C 0.3750 1.1975 


*RES
0 *42:d *41:s 0.001  // $mwires

*END

*D_NET *16 8.86229e-16

*CONN
*I *21:g B *C 2.0925 0.5725 
*I *4:d B *C 0.7550 0.3025 
*I *5:g B *C 1.2475 0.5725 
*I *34:g B *C 2.0925 1.3225 
*I *7:d B *C 0.7975 1.1975 
*I *11:g B *C 1.5775 1.3225 
*N *16:2 *C 1.2750 0.2600 
*N *16:4 *C 1.5400 1.0400 
*N *16:7 *C 2.0650 0.3900 
*N *16:8 *C 1.5100 0.2600 
*N *16:9 *C 0.9025 0.2900 

*CAP
0 *11:g 6.87614e-17
1 *7:d 1.09473e-16
2 *34:g 5.88042e-17
3 *5:g 1.8604e-17
4 *4:d 2.67871e-17
5 *21:g 3.62634e-17
6 *16:9 7.64607e-17
7 *16:8 1.15852e-16
8 *16:2 5.64942e-17
9 *16:4 1.4219e-16
10 *16:7 1.76539e-16

*RES
0 *5:g *16:2 98.025284  // $poly_conn
1 *11:g *16:4 80.385986  // $poly_conn
2 *34:g *21:g 146.153854  // $poly_conn
3 *21:g *16:7 64.691956  // $poly_conn
4 *16:7 *16:8 1.128996  // $metal1_conn
5 *16:8 *16:2 0.178923  // $metal1_conn
6 *16:2 *16:9 0.283701  // $metal1_conn
7 *16:9 *4:d 75.071281  // $metal1_conn
8 *16:8 *16:4 0.595323  // $metal1_conn
9 *16:9 *7:d 62.640305  // $metal1_conn

*END

*D_NET *15 8.49823e-16

*CONN
*I *21:d B *C 2.2350 0.5725 
*I *25:g B *C 2.9675 0.5300 
*I *6:g B *C 1.6625 0.5725 
*I *34:d B *C 2.1850 1.3225 
*I *37:g B *C 3.0675 1.0950 
*I *10:g B *C 1.3725 1.3225 
*N *15:2 *C 1.7000 0.8800 
*N *15:5 *C 2.9950 0.7700 
*N *15:7 *C 1.7000 0.8800 
*N *15:10 *C 2.2950 0.5850 

*CAP
0 *10:g 6.54374e-17
1 *37:g 4.74399e-17
2 *34:d 1.17379e-16
3 *6:g 3.09018e-17
4 *25:g 5.68571e-17
5 *21:d 1.70623e-16
6 *15:2 2.23158e-16
7 *15:5 1.38026e-16

*RES
0 *6:g *15:2 50.770603  // $poly_conn
1 *15:2 *10:g 145.856583  // $poly_conn
2 *37:g *15:5 26.63953  // $poly_conn
3 *15:5 *25:g 16.530039  // $poly_conn
4 *15:7 *34:d 62.598045  // $metal1_conn
5 *15:7 *15:10 0.706972  // $metal1_conn
6 *15:10 *15:5 45.798225  // $metal1_conn
7 *15:2 *15:7 45  // $metal1_conn
8 *21:d *15:10 75  // $metal1_conn

*END

*D_NET *14 5.59572e-16

*CONN
*I *22:g B *C 2.5975 0.5875 
*I *5:s B *C 1.4550 0.5725 
*I *6:d B *C 1.4550 0.5725 
*I *35:g B *C 2.6275 1.0075 
*I *10:d B *C 1.4750 1.3225 
*I *11:d B *C 1.4750 1.3225 
*N *14:3 *C 2.6000 1.2300 
*N *14:5 *C 1.4750 1.2750 

*CAP
0 *10:d 2.20364e-16
1 *35:g 3.54522e-17
2 *5:s 1.0256e-16
3 *22:g 5.53156e-17
4 *14:3 1.4588e-16

*RES
0 *22:g *35:g 68.698082  // $poly_conn
1 *35:g *14:3 65.973999  // $poly_conn
2 *14:3 *14:5 1.054376  // $metal1_conn
3 *14:5 *5:s 75.630257  // $metal1_conn
4 *10:d *14:5 62  // $metal1_conn

*END

*D_NET *28 4.94714e-16

*CONN
*I *31:d B *C 0.3150 0.3025 
*I *32:d B *C 0.3150 0.3025 
*I *5:d B *C 1.1550 0.5725 
*I *41:d B *C 0.2300 1.1975 
*I *10:s B *C 1.2400 1.3225 
*N *28:2 *C 0.3050 1.0550 
*N *28:5 *C 1.1900 1.3700 

*CAP
0 *10:s 1.50745e-16
1 *41:d 9.51302e-18
2 *5:d 9.73451e-17
3 *31:d 7.65546e-17
4 *28:2 1.60556e-16

*RES
0 *31:d *28:2 75.559128  // $metal1_conn
1 *28:2 *41:d 62.126316  // $metal1_conn
2 *28:2 *28:5 0.8184  // $metal1_conn
3 *28:5 *5:d 75.598541  // $metal1_conn
4 *10:s *28:5 62  // $metal1_conn

*END

*D_NET *26 6.00458e-16

*CONN
*I *22:d B *C 2.5050 0.5875 
*I *23:g B *C 2.8625 0.5300 
*I *8:g B *C 1.8425 0.5725 
*I *35:d B *C 2.5350 1.0075 
*I *36:g B *C 2.8625 1.0950 
*I *13:g B *C 1.6825 1.3225 
*N *26:2 *C 1.8425 1.0400 
*N *26:4 *C 1.9200 1.0400 
*N *26:6 *C 2.8625 0.7600 
*N *26:7 *C 2.7750 0.7600 
*N *26:9 *C 2.5250 0.7600 
*N *26:11 *C 2.5250 1.0400 

*CAP
0 *13:g 7.15051e-17
1 *36:g 5.00424e-17
2 *35:d 5.465e-17
3 *8:g 5.01923e-17
4 *23:g 6.39262e-17
5 *22:d 3.63736e-17
6 *26:9 3.05169e-17
7 *26:6 2.28615e-17
8 *26:2 5.35298e-17
9 *26:4 1.14915e-16
10 *26:7 5.19461e-17

*RES
0 *8:g *26:2 91.510422  // $poly_conn
1 *26:2 *13:g 73.197266  // $poly_conn
2 *26:2 *26:4 50.347412  // $poly_conn
3 *36:g *26:6 33.14275  // $poly_conn
4 *26:6 *26:7 48.890118  // $poly_conn
5 *26:6 *23:g 22.886339  // $poly_conn
6 *26:7 *26:9 0.155033  // $metal1_conn
7 *26:9 *26:11 0.202847  // $metal1_conn
8 *26:11 *26:4 0.46981  // $metal1_conn
9 *26:9 *22:d 75.108757  // $metal1_conn
10 *35:d *26:11 62  // $metal1_conn

*END

*D_NET *24 3.31714e-16

*CONN
*I *25:d B *C 3.1375 0.5750 
*I *27:g B *C 3.3875 0.5100 
*I *29:g B *C 3.5925 0.5100 
*I *30:g B *C 3.7975 0.5100 
*I *36:d B *C 2.9650 1.0950 
*I *37:d B *C 2.9650 1.0950 
*I *38:g B *C 3.2725 1.0950 
*I *39:g B *C 3.5475 1.0950 
*I *40:g B *C 3.7525 1.0950 
*N *24:12 *C 3.1550 0.7700 
*N *24:14 *C 3.1250 0.5500 

*CAP
0 *40:g 1.76671e-16
1 *36:d 7.2904e-17
2 *25:d 3.99369e-17
3 *24:12 4.22019e-17

*RES
0 *40:g *24:12 45.077068  // $metal1_conn
1 *25:d *24:14 75  // $metal1_conn
2 *24:12 *36:d 21.031073  // $metal1_conn
3 *24:12 *24:14 0.159491  // $metal1_conn

*END

