*SPEF "IEEE 1481-1999"
*DESIGN  "TLATNTSCAX20"
*DATE "Mon Sep 27 11:29:54 2010"
*VENDOR "Cadence Design Systems"
*PROGRAM "Assura RCX"
*VERSION "3.2 Red Hat Linux release 7.2 (Enigma) - (09/09/2009-10:39)"
*DESIGN_FLOW "Physical Verification"
*DIVIDER /
*DELIMITER :
*BUS_DELIMITER []
*T_UNIT 1 PS
*C_UNIT 1e15 FF
*R_UNIT 1 OHM
*L_UNIT 1 MH
// DeviceFingerDelim "@"
// MATCHED
// caps2d version: 10

*NAME_MAP
*1 n5
*2 Eb
*3 CKb
*4 mp22\@9
*5 mp20
*6 mp20\@1
*7 mp21
*8 mp22\@10
*9 mp22\@11
*10 mp22\@12
*11 mp22\@13
*12 mp22\@14
*13 VDD
*14 mp22\@15
*15 mp22\@16
*16 mp10
*17 mp10\@1
*18 mp20\@2
*19 mp21\@1
*20 mp21\@2
*21 mp20\@3
*22 mp20\@4
*23 mp21\@3
*24 mp21\@4
*25 CK
*26 mp1
*27 mp0
*28 mp2
*29 mp5
*30 mp16
*31 mp15
*32 mp3
*33 E
*34 mp22
*35 mp22\@1
*36 mp22\@2
*37 mp22\@3
*38 mp22\@4
*39 mn22
*40 mp22\@5
*41 mn22\@1
*42 mp22\@6
*43 mn22\@2
*44 mp22\@7
*45 mn22\@3
*46 mp22\@8
*47 mn22\@4
*48 mn22\@5
*49 mn22\@6
*50 mn22\@9
*51 mn22\@7
*52 mn20
*53 mn22\@8
*54 mn21
*55 mn22\@10
*56 mn22\@11
*57 mn22\@12
*58 mn22\@13
*59 mn22\@14
*60 mn22\@15
*61 mn22\@16
*62 mn10
*63 mn10\@1
*64 mn20\@1
*65 mn21\@1
*66 mn21\@2
*67 mn20\@2
*68 mn20\@3
*69 mn21\@3
*70 mn21\@4
*71 mn20\@4
*72 ECK
*73 mn1
*74 mn0
*75 mn2
*76 mn5
*77 mn16
*78 mn15
*79 mn3
*80 VSS
*81 SE
*82 ECKb
*83 Eint
*84 CKbb
*85 net246
*86 net234
*87 net263
*88 net271\@1
*89 net271\@2
*90 net271\@3
*91 net271\@4
*92 net271

*GROUND_NETS VSS

*PORTS
*13 I
*80 I
*25 I
*33 I
*81 I
*72 O

*D_NET *13 1.71772e-15

*CONN
*P *13 I *C 0.1000 1.7100 
*I *34:s B *C 6.7250 1.1300 
*I *35:s B *C 6.7250 1.1300 
*I *36:s B *C 7.1350 1.1300 
*I *37:s B *C 7.1350 1.1300 
*I *38:s B *C 7.5450 1.1300 
*I *40:s B *C 7.5450 1.1300 
*I *42:s B *C 7.9550 1.1300 
*I *44:s B *C 7.9550 1.1300 
*I *46:s B *C 8.4150 1.1275 
*I *4:s B *C 8.4150 1.1275 
*I *5:s B *C 4.6450 1.1650 
*I *6:s B *C 4.6450 1.1650 
*I *7:s B *C 5.1150 1.1300 
*I *8:s B *C 5.1150 1.1300 
*I *9:s B *C 5.4950 1.1300 
*I *10:s B *C 5.4950 1.1300 
*I *11:s B *C 5.9050 1.1300 
*I *12:s B *C 5.9050 1.1300 
*I *14:s B *C 6.3150 1.1300 
*I *15:s B *C 6.3150 1.1300 
*I *16:s B *C 2.5400 1.0950 
*I *17:s B *C 3.0150 1.1650 
*I *18:s B *C 3.0150 1.1650 
*I *19:s B *C 3.4150 1.1650 
*I *20:s B *C 3.4150 1.1650 
*I *21:s B *C 3.8250 1.1650 
*I *22:s B *C 3.8250 1.1650 
*I *23:s B *C 4.2350 1.1650 
*I *24:s B *C 4.2350 1.1650 
*I *27:s B *C 0.6550 1.0075 
*I *28:s B *C 0.6550 1.0075 
*I *31:s B *C 2.1350 1.0075 
*I *32:s B *C 2.1350 1.0075 
*N *13:3 *C 7.7000 1.7100 
*N *13:19 *C 2.0400 1.7100 
*N *13:20 *C 1.1000 1.7100 
*N *13:21 *C 0.6700 1.7100 

*CAP
0 *31:s 2.98931e-17
1 *27:s 4.68693e-17
2 *46:s 1.22606e-15
3 *13:21 1.23617e-17
4 *13:19 2.86169e-17
5 *13:3 3.63651e-16
6 *13 1.02683e-17

*RES
0 *13:21 *13 0.285637  // $metal1_conn
1 *13:3 *46:s 6.818182  // $metal1_conn
2 *13:3 *46:s 6.818182  // $metal1_conn
3 *13:3 *46:s 6.818182  // $metal1_conn
4 *13:3 *13:20 6.818182  // $metal1_conn
5 *13:19 *31:s 62.186668  // $metal1_conn
6 *13:21 *27:s 62.436966  // $metal1_conn
7 *46:s *13:19 0.19284  // $metal1_conn
8 *13:19 *13:20 0.471592  // $metal1_conn
9 *13:20 *13:21 0.215622  // $metal1_conn

*END

*D_NET *80 0

*CONN
*P *80 I *C 0.1000 0.0000 
*I *39:s B *C 6.7250 0.5075 
*I *41:s B *C 6.7250 0.5075 
*I *43:s B *C 7.1350 0.5075 
*I *45:s B *C 7.1350 0.5075 
*I *47:s B *C 7.5450 0.5075 
*I *48:s B *C 7.5450 0.5075 
*I *49:s B *C 7.9550 0.5075 
*I *51:s B *C 7.9550 0.5075 
*I *53:s B *C 8.3650 0.5075 
*I *50:s B *C 8.3650 0.5075 
*I *52:s B *C 4.4450 0.3800 
*I *55:s B *C 5.0950 0.5075 
*I *56:s B *C 5.4950 0.5075 
*I *57:s B *C 5.4950 0.5075 
*I *58:s B *C 5.9050 0.5075 
*I *59:s B *C 5.9050 0.5075 
*I *60:s B *C 6.3150 0.5075 
*I *61:s B *C 6.3150 0.5075 
*I *62:s B *C 2.7400 0.3800 
*I *63:s B *C 3.1400 0.3800 
*I *64:s B *C 3.1400 0.3800 
*I *67:s B *C 3.8250 0.3800 
*I *68:s B *C 3.8250 0.3800 
*I *71:s B *C 4.4450 0.3800 
*I *73:s B *C 0.1800 0.5525 
*I *74:s B *C 0.7675 0.5525 
*I *75:s B *C 0.7675 0.5525 
*I *78:s B *C 2.1200 0.5125 
*I *79:s B *C 2.1200 0.5125 
*N *80:3 *C 7.7000 0.0000 
*N *80:12 *C 4.4150 0.0000 
*N *80:13 *C 3.7950 0.0000 
*N *80:14 *C 3.3000 0.0000 
*N *80:17 *C 1.9700 0.0000 
*N *80:18 *C 1.1000 0.0000 
*N *80:19 *C 0.6700 0.0000 
*N *80:20 *C 0.1700 0.0000 


*RES
0 *80:20 *80 0.034681  // $metal1_conn
1 *80:3 *53:s 5.636364  // $metal1_conn
2 *80:3 *53:s 5.636364  // $metal1_conn
3 *80:3 *80:14 5.636364  // $metal1_conn
4 *80:3 *80:18 5.636364  // $metal1_conn
5 *80:12 *52:s 75.185707  // $metal1_conn
6 *80:13 *67:s 75.185707  // $metal1_conn
7 *80:17 *78:s 75.16555  // $metal1_conn
8 *80:19 *74:s 75.045853  // $metal1_conn
9 *80:20 *73:s 75.358185  // $metal1_conn
10 *53:s *80:12 0.335882  // $metal1_conn
11 *80:12 *80:13 0.310787  // $metal1_conn
12 *80:13 *80:14 0.248245  // $metal1_conn
13 *80:14 *63:s 0.080108  // $metal1_conn
14 *63:s *80:17 0.381053  // $metal1_conn
15 *80:17 *80:18 0.436459  // $metal1_conn
16 *80:18 *80:19 0.214671  // $metal1_conn
17 *80:19 *80:20 0.249608  // $metal1_conn

*END

*D_NET *25 1.93794e-16

*CONN
*P *25 I *C 0.9000 0.8550 
*I *75:g B *C 0.8275 0.5525 
*I *28:g B *C 0.7725 1.0075 
*N *25:2 *C 0.8000 0.7900 

*CAP
0 *28:g 2.1782e-17
1 *75:g 2.7195e-17
2 *25:2 8.45346e-17
3 *25 6.02822e-17

*RES
0 *75:g *25:2 33.794518  // $poly_conn
1 *25:2 *28:g 19.691952  // $poly_conn
2 *25:2 *25 45.0284  // $metal1_conn

*END

*D_NET *33 1.9904e-16

*CONN
*P *33 I *C 0.1000 1.0450 
*I *73:g B *C 0.2725 0.5525 
*I *26:g B *C 0.4325 1.0075 
*N *33:2 *C 0.2725 0.7325 
*N *33:3 *C 0.1700 0.7600 

*CAP
0 *26:g 5.73531e-17
1 *73:g 2.06486e-17
2 *33:2 2.14796e-17
3 *33:3 5.05597e-17
4 *33 4.89993e-17

*RES
0 *26:g *33:2 76.90834  // $poly_conn
1 *33:2 *33:3 61.616871  // $poly_conn
2 *33:2 *73:g 22.864588  // $poly_conn
3 *33:3 *33 0.177709  // $metal1_conn

*END

*D_NET *81 2.23713e-16

*CONN
*P *81 I *C 0.5000 0.8550 
*I *74:g B *C 0.5375 0.5525 
*I *27:g B *C 0.5375 1.0075 
*N *81:2 *C 0.5650 0.7350 

*CAP
0 *27:g 5.35678e-17
1 *74:g 2.97585e-17
2 *81:2 9.31543e-17
3 *81 4.72329e-17

*RES
0 *27:g *81:2 33.794518  // $poly_conn
1 *81:2 *74:g 19.691952  // $poly_conn
2 *81:2 *81 45.077126  // $metal1_conn

*END

*D_NET *72 1.49986e-15

*CONN
*P *72 O *C 5.3000 0.8550 
*I *39:d B *C 6.5200 0.5075 
*I *41:d B *C 6.9300 0.5075 
*I *43:d B *C 6.9300 0.5075 
*I *45:d B *C 7.3400 0.5075 
*I *47:d B *C 7.3400 0.5075 
*I *48:d B *C 7.7500 0.5075 
*I *49:d B *C 7.7500 0.5075 
*I *51:d B *C 8.1600 0.5075 
*I *53:d B *C 8.1600 0.5075 
*I *50:d B *C 8.5600 0.5075 
*I *55:d B *C 5.2900 0.5075 
*I *56:d B *C 5.2900 0.5075 
*I *57:d B *C 5.7000 0.5075 
*I *58:d B *C 5.7000 0.5075 
*I *59:d B *C 6.1100 0.5075 
*I *60:d B *C 6.1100 0.5075 
*I *61:d B *C 6.5200 0.5075 
*I *34:d B *C 6.5200 1.1300 
*I *35:d B *C 6.9300 1.1300 
*I *36:d B *C 6.9300 1.1300 
*I *37:d B *C 7.3400 1.1300 
*I *38:d B *C 7.3400 1.1300 
*I *40:d B *C 7.7500 1.1300 
*I *42:d B *C 7.7500 1.1300 
*I *44:d B *C 8.1600 1.1300 
*I *46:d B *C 8.1600 1.1300 
*I *4:d B *C 8.5600 1.1275 
*I *8:d B *C 5.2900 1.1300 
*I *9:d B *C 5.2900 1.1300 
*I *10:d B *C 5.7000 1.1300 
*I *11:d B *C 5.7000 1.1300 
*I *12:d B *C 6.1100 1.1300 
*I *14:d B *C 6.1100 1.1300 
*I *15:d B *C 6.5200 1.1300 

*CAP
0 *72 1.49986e-15


*END

*D_NET *92 2.10413e-18

*CONN
*I *52:d B *C 4.6000 0.3800 
*I *54:s B *C 4.6000 0.3800 

*CAP
0 *52:d 2.10413e-18

*RES
0 *54:s *52:d 0.001  // $mwires

*END

*D_NET *91 1.72384e-18

*CONN
*I *70:s B *C 4.2900 0.3800 
*I *71:d B *C 4.2900 0.3800 

*CAP
0 *70:s 1.72384e-18

*RES
0 *71:d *70:s 0.001  // $mwires

*END

*D_NET *90 1.72384e-18

*CONN
*I *68:d B *C 3.9800 0.3800 
*I *69:s B *C 3.9800 0.3800 

*CAP
0 *68:d 1.72384e-18

*RES
0 *69:s *68:d 0.001  // $mwires

*END

*D_NET *89 1.72384e-18

*CONN
*I *66:s B *C 3.6700 0.3800 
*I *67:d B *C 3.6700 0.3800 

*CAP
0 *66:s 1.72384e-18

*RES
0 *67:d *66:s 0.001  // $mwires

*END

*D_NET *88 0

*CONN
*I *64:d B *C 3.3275 0.3800 
*I *65:s B *C 3.3275 0.3800 


*RES
0 *65:s *64:d 0.001  // $mwires

*END

*D_NET *87 1.50435e-18

*CONN
*I *77:s B *C 1.8150 0.4225 
*I *78:d B *C 1.8150 0.4225 

*CAP
0 *77:s 1.50435e-18

*RES
0 *78:d *77:s 0.001  // $mwires

*END

*D_NET *86 1.20567e-18

*CONN
*I *30:s B *C 1.8500 1.0925 
*I *31:d B *C 1.8500 1.0925 

*CAP
0 *30:s 1.20567e-18

*RES
0 *31:d *30:s 0.001  // $mwires

*END

*D_NET *85 2.36136e-18

*CONN
*I *26:s B *C 0.4850 1.0075 
*I *27:d B *C 0.4850 1.0075 

*CAP
0 *26:s 2.36136e-18

*RES
0 *27:d *26:s 0.001  // $mwires

*END

*D_NET *84 1.69785e-15

*CONN
*I *54:g B *C 4.6525 0.3800 
*I *65:g B *C 3.4125 0.3800 
*I *66:g B *C 3.6175 0.3800 
*I *69:g B *C 4.0325 0.3800 
*I *70:g B *C 4.2375 0.3800 
*I *77:g B *C 1.7625 0.4225 
*I *79:d B *C 2.3275 0.5125 
*I *7:g B *C 4.9525 1.1650 
*I *19:g B *C 3.3125 1.1650 
*I *20:g B *C 3.5175 1.1650 
*I *23:g B *C 4.1325 1.1650 
*I *24:g B *C 4.3375 1.1650 
*I *29:g B *C 1.5875 1.0925 
*I *32:d B *C 2.3350 0.9700 
*N *84:2 *C 1.7625 0.7450 
*N *84:4 *C 1.8200 0.7450 
*N *84:23 *C 2.2950 0.9800 

*CAP
0 *32:d 1.84772e-16
1 *29:g 3.97065e-17
2 *7:g 8.15419e-16
3 *79:d 9.22959e-17
4 *77:g 5.97797e-17
5 *70:g 5.88613e-17
6 *69:g 6.09576e-17
7 *66:g 6.26414e-17
8 *65:g 3.8473e-17
9 *54:g 7.90572e-17
10 *84:2 3.58282e-17
11 *84:4 1.7006e-16

*RES
0 *84:2 *29:g 91.923889  // $poly_conn
1 *7:g *54:g 114.536003  // $poly_conn
2 *7:g *70:g 71.582535  // $poly_conn
3 *7:g *69:g 86.963654  // $poly_conn
4 *66:g *7:g 94.544861  // $poly_conn
5 *7:g *65:g 72.526878  // $poly_conn
6 *77:g *84:2 52.233803  // $poly_conn
7 *84:2 *84:4 47.969933  // $poly_conn
8 *84:4 *79:d 75.581902  // $metal1_conn
9 *84:23 *84:4 0.545718  // $metal1_conn
10 *32:d *84:23 62  // $metal1_conn
11 *7:g *84:23 1.160201  // $metal1_conn

*END

*D_NET *83 1.44988e-15

*CONN
*I *52:g B *C 4.5475 0.3800 
*I *62:d B *C 2.9350 0.3800 
*I *63:d B *C 2.9350 0.3800 
*I *64:g B *C 3.2425 0.3800 
*I *67:g B *C 3.7225 0.3800 
*I *68:g B *C 3.9275 0.3800 
*I *71:g B *C 4.3425 0.3800 
*I *78:g B *C 1.8675 0.4225 
*I *5:g B *C 4.5425 1.1650 
*I *6:g B *C 4.7475 1.1650 
*I *16:d B *C 2.6900 1.0950 
*I *17:d B *C 2.6900 1.0950 
*I *18:g B *C 3.1075 1.1650 
*I *21:g B *C 3.7225 1.1650 
*I *22:g B *C 3.9275 1.1650 
*I *31:g B *C 1.9075 1.0925 
*N *83:2 *C 1.9800 0.7900 
*N *83:21 *C 2.8900 0.6400 
*N *83:23 *C 2.9350 0.4500 
*N *83:24 *C 2.6600 0.8200 

*CAP
0 *31:g 5.97297e-17
1 *16:d 3.63097e-17
2 *6:g 7.13979e-16
3 *78:g 6.48742e-17
4 *71:g 6.28108e-17
5 *68:g 4.73245e-17
6 *67:g 4.6866e-17
7 *64:g 4.14028e-17
8 *62:d 2.49256e-17
9 *52:g 4.799e-17
10 *83:24 9.11097e-17
11 *83:21 5.37305e-17
12 *83:2 1.58824e-16

*RES
0 *31:g *83:2 41.197258  // $poly_conn
1 *6:g *52:g 23.847527  // $poly_conn
2 *6:g *71:g 51.641663  // $poly_conn
3 *6:g *68:g 25.130047  // $poly_conn
4 *6:g *67:g 23.847527  // $poly_conn
5 *64:g *6:g 24.820158  // $poly_conn
6 *83:2 *78:g 77.094696  // $poly_conn
7 *83:24 *83:2 45.548756  // $metal1_conn
8 *83:24 *16:d 62.083359  // $metal1_conn
9 *62:d *83:23 75  // $metal1_conn
10 *6:g *83:21 0.223584  // $metal1_conn
11 *83:21 *83:23 0.13426  // $metal1_conn
12 *83:21 *83:24 0.304269  // $metal1_conn

*END

*D_NET *82 1.6017e-15

*CONN
*I *39:g B *C 6.6225 0.5075 
*I *41:g B *C 6.8275 0.5075 
*I *43:g B *C 7.0325 0.5075 
*I *45:g B *C 7.2375 0.5075 
*I *47:g B *C 7.4425 0.5075 
*I *48:g B *C 7.6475 0.5075 
*I *49:g B *C 7.8525 0.5075 
*I *51:g B *C 8.0575 0.5075 
*I *53:g B *C 8.2625 0.5075 
*I *50:g B *C 8.4675 0.5075 
*I *54:d B *C 4.7450 0.3800 
*I *55:g B *C 5.1875 0.5075 
*I *56:g B *C 5.3925 0.5075 
*I *57:g B *C 5.5975 0.5075 
*I *58:g B *C 5.8025 0.5075 
*I *59:g B *C 6.0075 0.5075 
*I *60:g B *C 6.2125 0.5075 
*I *61:g B *C 6.4175 0.5075 
*I *65:d B *C 3.5150 0.3800 
*I *66:d B *C 3.5150 0.3800 
*I *69:d B *C 4.1350 0.3800 
*I *70:d B *C 4.1350 0.3800 
*I *34:g B *C 6.6225 1.1300 
*I *35:g B *C 6.8275 1.1300 
*I *36:g B *C 7.0325 1.1300 
*I *37:g B *C 7.2375 1.1300 
*I *38:g B *C 7.4425 1.1300 
*I *40:g B *C 7.6475 1.1300 
*I *42:g B *C 7.8525 1.1300 
*I *44:g B *C 8.0575 1.1300 
*I *46:g B *C 8.2625 1.1300 
*I *4:g B *C 8.4675 1.1275 
*I *5:d B *C 4.4400 1.1650 
*I *6:d B *C 4.8500 1.1650 
*I *7:d B *C 4.8500 1.1650 
*I *8:g B *C 5.1875 1.1300 
*I *9:g B *C 5.3925 1.1300 
*I *10:g B *C 5.5975 1.1300 
*I *11:g B *C 5.8025 1.1300 
*I *12:g B *C 6.0075 1.1300 
*I *14:g B *C 6.2125 1.1300 
*I *15:g B *C 6.4175 1.1300 
*I *18:d B *C 3.2100 1.1650 
*I *19:d B *C 3.2100 1.1650 
*I *20:d B *C 3.6200 1.1650 
*I *21:d B *C 3.6200 1.1650 
*I *22:d B *C 4.0300 1.1650 
*I *23:d B *C 4.0300 1.1650 
*I *24:d B *C 4.4400 1.1650 
*N *82:19 *C 5.1000 0.7600 
*N *82:60 *C 4.7550 0.4400 
*N *82:65 *C 4.1350 0.4500 

*CAP
0 *6:d 5.57833e-16
1 *4:g 6.88723e-16
2 *69:d 1.17082e-16
3 *65:d 7.54895e-17
4 *54:d 8.54737e-17
5 *82:19 7.7095e-17

*RES
0 *4:g *82:19 51.352463  // $poly_conn
1 *6:d *82:19 0.330021  // $metal1_conn
2 *82:19 *82:60 0.44254  // $metal1_conn
3 *54:d *82:60 75  // $metal1_conn
4 *69:d *82:65 75  // $metal1_conn
5 *82:65 *65:d 75.480934  // $metal1_conn
6 *82:60 *82:65 0.464504  // $metal1_conn

*END

*D_NET *3 8.20679e-16

*CONN
*I *75:d B *C 0.9200 0.5525 
*I *76:g B *C 1.5525 0.4225 
*I *79:g B *C 2.1925 0.5125 
*I *28:d B *C 0.8650 1.0075 
*I *30:g B *C 1.7925 1.0925 
*I *32:g B *C 2.1925 1.0075 
*N *3:2 *C 1.5000 0.6400 
*N *3:4 *C 1.7650 1.4200 
*N *3:7 *C 2.2300 1.2150 
*N *3:8 *C 1.7650 1.3000 
*N *3:9 *C 1.4825 1.2350 
*N *3:11 *C 0.8750 1.0550 

*CAP
0 *32:g 4.17831e-17
1 *30:g 6.39874e-17
2 *28:d 1.22427e-16
3 *79:g 4.94898e-17
4 *76:g 3.26448e-17
5 *75:d 1.17665e-16
6 *3:9 1.03859e-16
7 *3:8 6.08411e-17
8 *3:2 1.11658e-16
9 *3:4 5.84462e-17
10 *3:7 5.78783e-17

*RES
0 *76:g *3:2 74.236671  // $poly_conn
1 *30:g *3:4 92.897079  // $poly_conn
2 *32:g *79:g 80.769234  // $poly_conn
3 *32:g *3:7 61.15522  // $poly_conn
4 *3:7 *3:8 0.402292  // $metal1_conn
5 *3:8 *3:9 0.249967  // $metal1_conn
6 *3:9 *3:11 0.546409  // $metal1_conn
7 *3:8 *3:4 0.045171  // $metal1_conn
8 *3:9 *3:2 0.485416  // $metal1_conn
9 *3:11 *75:d 75.786613  // $metal1_conn
10 *28:d *3:11 62  // $metal1_conn

*END

*D_NET *2 4.54142e-16

*CONN
*I *73:d B *C 0.4050 0.5525 
*I *74:d B *C 0.4050 0.5525 
*I *76:d B *C 1.4600 0.4225 
*I *26:d B *C 0.3400 1.0075 
*I *29:s B *C 1.4225 1.0925 
*N *2:2 *C 1.3400 0.4100 
*N *2:4 *C 0.3755 0.5400 

*CAP
0 *29:s 9.84965e-17
1 *26:d 6.57858e-17
2 *76:d 2.12156e-17
3 *73:d 1.30518e-16
4 *2:2 1.38126e-16

*RES
0 *29:s *2:2 62.43898  // $metal1_conn
1 *2:2 *2:4 0.802505  // $metal1_conn
2 *2:4 *26:d 62.338406  // $metal1_conn
3 *2:2 *76:d 75.057205  // $metal1_conn
4 *73:d *2:4 75  // $metal1_conn

*END

*D_NET *1 6.24638e-16

*CONN
*I *62:g B *C 2.8325 0.3800 
*I *63:g B *C 3.0375 0.3800 
*I *76:s B *C 1.6575 0.4225 
*I *77:d B *C 1.6575 0.4225 
*I *16:g B *C 2.5875 1.0950 
*I *17:g B *C 2.7925 1.0950 
*I *29:d B *C 1.6900 1.0925 
*I *30:d B *C 1.6900 1.0925 
*N *1:10 *C 1.6600 0.4100 

*CAP
0 *29:d 9.53222e-17
1 *17:g 3.37112e-16
2 *76:s 1.92203e-16

*RES
0 *17:g *1:10 1.005835  // $metal1_conn
1 *1:10 *29:d 62.53706  // $metal1_conn
2 *76:s *1:10 75  // $metal1_conn

*END

