*SPEF "IEEE 1481-1999"
*DESIGN  "TLATNCAX16"
*DATE "Mon Sep 27 11:24:37 2010"
*VENDOR "Cadence Design Systems"
*PROGRAM "Assura RCX"
*VERSION "3.2 Red Hat Linux release 7.2 (Enigma) - (09/09/2009-10:39)"
*DESIGN_FLOW "Physical Verification"
*DIVIDER /
*DELIMITER :
*BUS_DELIMITER []
*T_UNIT 1 PS
*C_UNIT 1e15 FF
*R_UNIT 1 OHM
*L_UNIT 1 MH
// DeviceFingerDelim "@"
// MATCHED
// caps2d version: 10

*NAME_MAP
*1 VDD
*2 CK
*3 mn10
*4 mn15
*5 mn16
*6 mn6
*7 mn5
*8 mn1
*9 mn21
*10 mn20
*11 mn20\@1
*12 n0
*13 ECKb
*14 Eint
*15 mn21\@1
*16 CKbb
*17 mn21\@2
*18 mn20\@2
*19 mn10\@1
*20 mn21\@3
*21 mn22
*22 mn22\@1
*23 mn22\@2
*24 mn22\@3
*25 mn22\@4
*26 mp20
*27 mp20\@1
*28 mn22\@5
*29 mp21\@2
*30 mp10
*31 mn22\@6
*32 mp21\@3
*33 mp15
*34 mn20\@3
*35 mp20\@2
*36 mp16
*37 mn0
*38 CKb
*39 mp22
*40 mp6
*41 mn22\@7
*42 net205
*43 mp22\@1
*44 mp5
*45 mn22\@8
*46 net217
*47 mp22\@2
*48 mp1
*49 mn22\@9
*50 net238\@3
*51 mp22\@3
*52 mp10\@1
*53 mn22\@10
*54 net238
*55 mp22\@4
*56 mp21
*57 mn22\@11
*58 net238\@1
*59 E
*60 mp21\@1
*61 mn22\@12
*62 net238\@2
*63 net230
*64 net254
*65 mp22\@5
*66 mp22\@6
*67 mn22\@13
*68 mp20\@3
*69 mp0
*70 mp22\@7
*71 mp22\@8
*72 mp22\@9
*73 mp22\@10
*74 mp22\@11
*75 mp22\@12
*76 mp22\@13
*77 VSS
*78 ECK

*GROUND_NETS VSS

*PORTS
*1 I
*77 I
*2 I
*59 I
*78 O

*D_NET *1 9.74569e-16

*CONN
*P *1 I *C 0.1000 1.7100 
*I *30:s B *C 5.7425 1.1225 
*I *33:s B *C 5.7425 1.1225 
*I *44:s B *C 6.8150 1.1225 
*I *48:s B *C 6.8150 1.1225 
*I *52:s B *C 5.2150 1.5700 
*I *56:s B *C 3.8650 1.1750 
*I *60:s B *C 3.8650 1.1750 
*I *26:s B *C 4.3350 1.1750 
*I *27:s B *C 4.3350 1.1750 
*I *29:s B *C 4.8050 1.1750 
*I *32:s B *C 4.8050 1.1750 
*I *35:s B *C 5.2150 1.5700 
*I *39:s B *C 2.0750 1.2025 
*I *43:s B *C 2.0750 1.2025 
*I *47:s B *C 2.4850 1.2025 
*I *51:s B *C 2.4850 1.2025 
*I *55:s B *C 2.8950 1.2025 
*I *65:s B *C 2.8950 1.2025 
*I *66:s B *C 3.3925 1.1750 
*I *68:s B *C 3.3925 1.1750 
*I *69:s B *C 0.4450 1.2025 
*I *70:s B *C 0.4450 1.2025 
*I *71:s B *C 0.8450 1.2025 
*I *72:s B *C 0.8450 1.2025 
*I *73:s B *C 1.2550 1.2025 
*I *74:s B *C 1.2550 1.2025 
*I *75:s B *C 1.6650 1.2025 
*I *76:s B *C 1.6650 1.2025 
*N *1:2 *C 6.0000 1.7100 
*N *1:3 *C 6.0000 1.7100 

*CAP
0 *44:s 3.95422e-17
1 *30:s 5.57156e-16
2 *1:2 3.72921e-16
3 *1 4.94856e-18

*RES
0 *30:s *1 0.152455  // $metal1_conn
1 *1:2 *1:3 6.25  // $metal1_conn
2 *1:2 *30:s 6.25  // $metal1_conn
3 *1:2 *30:s 6.25  // $metal1_conn
4 *44:s *1:3 62.782112  // $metal1_conn
5 *1:3 *30:s 0.20785  // $metal1_conn

*END

*D_NET *77 0

*CONN
*P *77 I *C 0.1000 0.0000 
*I *3:s B *C 5.7850 0.5525 
*I *4:s B *C 5.7850 0.5525 
*I *7:s B *C 6.9100 0.5525 
*I *8:s B *C 6.9100 0.5525 
*I *10:s B *C 4.3350 0.4950 
*I *11:s B *C 4.3350 0.4950 
*I *18:s B *C 5.1875 0.5225 
*I *19:s B *C 5.1875 0.5225 
*I *21:s B *C 2.1300 0.5125 
*I *22:s B *C 2.1300 0.5125 
*I *23:s B *C 2.5400 0.5125 
*I *24:s B *C 2.5400 0.5125 
*I *25:s B *C 2.9500 0.5125 
*I *28:s B *C 2.9500 0.5125 
*I *31:s B *C 3.4625 0.4950 
*I *34:s B *C 3.4625 0.4950 
*I *37:s B *C 0.5000 0.5125 
*I *41:s B *C 0.5000 0.5125 
*I *45:s B *C 0.9000 0.5125 
*I *49:s B *C 0.9000 0.5125 
*I *53:s B *C 1.3100 0.5125 
*I *57:s B *C 1.3100 0.5125 
*I *61:s B *C 1.7200 0.5125 
*I *67:s B *C 1.7200 0.5125 
*N *77:2 *C 6.0000 0.0000 
*N *77:3 *C 6.0000 0.0000 
*N *77:6 *C 4.2200 0.0000 
*N *77:7 *C 3.6000 0.0000 


*RES
0 *31:s *77 0.195066  // $metal1_conn
1 *77:2 *77:3 5.166667  // $metal1_conn
2 *77:2 *77:7 5.166667  // $metal1_conn
3 *77:2 *31:s 5.166667  // $metal1_conn
4 *7:s *77:3 75.561302  // $metal1_conn
5 *77:6 *10:s 75.207153  // $metal1_conn
6 *77:3 *3:s 0.150199  // $metal1_conn
7 *3:s *77:6 0.420713  // $metal1_conn
8 *77:6 *77:7 0.31062  // $metal1_conn
9 *77:7 *31:s 0.107794  // $metal1_conn

*END

*D_NET *2 1.93243e-16

*CONN
*P *2 I *C 0.5000 0.6650 
*I *37:g B *C 0.3325 0.5875 
*I *69:g B *C 0.3025 1.0875 
*N *2:2 *C 0.3600 0.7700 

*CAP
0 *69:g 3.99623e-17
1 *37:g 2.48365e-17
2 *2:2 9.03064e-17
3 *2 3.81379e-17

*RES
0 *37:g *2:2 16.530041  // $poly_conn
1 *2:2 *69:g 49.554115  // $poly_conn
2 *2:2 *2 45.106098  // $metal1_conn

*END

*D_NET *59 1.97787e-16

*CONN
*P *59 I *C 6.7000 0.8550 
*I *7:g B *C 6.6925 0.5525 
*I *44:g B *C 6.6925 1.1225 
*N *59:2 *C 6.7200 0.7350 
*N *59:4 *C 6.7100 0.7350 
*N *59:5 *C 6.7200 0.7350 
*N *59:6 *C 6.7100 0.8550 

*CAP
0 *44:g 3.2351e-17
1 *7:g 3.86602e-17
2 *59:6 4.73779e-17
3 *59:4 4.0382e-17
4 *59:2 3.90159e-17

*RES
0 *44:g *59:2 63.281693  // $poly_conn
1 *59:2 *7:g 19.691952  // $poly_conn
2 *59:4 *59:5 0.00188  // $metal1_conn
3 *59 *59:6 0.001786  // $metal1_conn
4 *59:4 *59:6 0.060274  // $metal1_conn
5 *59:2 *59:5 45  // $metal1_conn

*END

*D_NET *78 6.15392e-16

*CONN
*P *78 O *C 2.3000 0.8550 
*I *21:d B *C 1.9250 0.5125 
*I *22:d B *C 2.3350 0.5125 
*I *23:d B *C 2.3350 0.5125 
*I *24:d B *C 2.7450 0.5125 
*I *25:d B *C 2.7450 0.5125 
*I *28:d B *C 3.1675 0.5125 
*I *31:d B *C 3.1675 0.5125 
*I *41:d B *C 0.6950 0.5125 
*I *45:d B *C 0.6950 0.5125 
*I *49:d B *C 1.1050 0.5125 
*I *53:d B *C 1.1050 0.5125 
*I *57:d B *C 1.5150 0.5125 
*I *61:d B *C 1.5150 0.5125 
*I *67:d B *C 1.9250 0.5125 
*I *39:d B *C 1.8700 1.2025 
*I *43:d B *C 2.2800 1.2025 
*I *47:d B *C 2.2800 1.2025 
*I *51:d B *C 2.6900 1.2025 
*I *55:d B *C 2.6900 1.2025 
*I *65:d B *C 3.1000 1.2025 
*I *66:d B *C 3.1000 1.2025 
*I *70:d B *C 0.6400 1.2025 
*I *71:d B *C 0.6400 1.2025 
*I *72:d B *C 1.0500 1.2025 
*I *73:d B *C 1.0500 1.2025 
*I *74:d B *C 1.4600 1.2025 
*I *75:d B *C 1.4600 1.2025 
*I *76:d B *C 1.8700 1.2025 

*CAP
0 *78 6.15392e-16


*END

*D_NET *64 5.20693e-18

*CONN
*I *6:s B *C 6.6150 0.5525 
*I *7:d B *C 6.6150 0.5525 

*CAP
0 *6:s 5.20693e-18

*RES
0 *7:d *6:s 0.001  // $mwires

*END

*D_NET *63 3.98513e-18

*CONN
*I *4:d B *C 6.0400 0.5525 
*I *5:s B *C 6.0400 0.5525 

*CAP
0 *4:d 3.98513e-18

*RES
0 *5:s *4:d 0.001  // $mwires

*END

*D_NET *62 0

*CONN
*I *17:s B *C 4.9050 0.4950 
*I *18:d B *C 4.9050 0.4950 


*RES
0 *18:d *17:s 0.001  // $mwires

*END

*D_NET *58 4.57981e-18

*CONN
*I *11:d B *C 4.4850 0.4950 
*I *15:s B *C 4.4850 0.4950 

*CAP
0 *11:d 4.57981e-18

*RES
0 *15:s *11:d 0.001  // $mwires

*END

*D_NET *54 4.5964e-18

*CONN
*I *9:s B *C 4.0150 0.4950 
*I *10:d B *C 4.0150 0.4950 

*CAP
0 *9:s 4.5964e-18

*RES
0 *10:d *9:s 0.001  // $mwires

*END

*D_NET *50 0

*CONN
*I *20:s B *C 3.5950 0.4950 
*I *34:d B *C 3.5950 0.4950 


*RES
0 *34:d *20:s 0.001  // $mwires

*END

*D_NET *46 5.11229e-18

*CONN
*I *40:s B *C 6.4700 1.1225 
*I *44:d B *C 6.4700 1.1225 

*CAP
0 *40:s 5.11229e-18

*RES
0 *44:d *40:s 0.001  // $mwires

*END

*D_NET *42 1.77948e-18

*CONN
*I *33:d B *C 5.9175 1.1225 
*I *36:s B *C 5.9175 1.1225 

*CAP
0 *33:d 1.77948e-18

*RES
0 *36:s *33:d 0.001  // $mwires

*END

*D_NET *38 1.74933e-15

*CONN
*I *6:g B *C 6.5375 0.5525 
*I *8:g B *C 6.9575 0.5525 
*I *37:d B *C 0.2250 0.5875 
*I *36:g B *C 6.0025 1.1225 
*I *48:g B *C 6.9375 1.1225 
*I *69:d B *C 0.2100 1.0875 
*N *38:1 *C 6.1150 0.8800 
*N *38:4 *C 6.5100 0.7350 
*N *38:6 *C 6.9100 0.7600 
*N *38:8 *C 6.5100 0.9100 
*N *38:10 *C 0.2000 1.0400 

*CAP
0 *69:d 6.74375e-16
1 *48:g 3.11241e-17
2 *36:g 3.75587e-17
3 *37:d 3.89263e-17
4 *8:g 2.56836e-17
5 *6:g 4.72829e-17
6 *38:8 5.89627e-16
7 *38:1 7.86907e-17
8 *38:4 1.01651e-16
9 *38:6 1.24406e-16

*RES
0 *38:1 *36:g 83.446335  // $poly_conn
1 *6:g *38:4 64.691956  // $poly_conn
2 *8:g *38:6 26.444298  // $poly_conn
3 *38:6 *48:g 53.709526  // $poly_conn
4 *38:6 *38:4 45.604286  // $metal1_conn
5 *38:4 *38:8 0.129644  // $metal1_conn
6 *38:8 *38:10 4.935571  // $metal1_conn
7 *38:10 *37:d 75.316444  // $metal1_conn
8 *38:8 *38:1 0.246737  // $metal1_conn
9 *69:d *38:10 62  // $metal1_conn

*END

*D_NET *16 1.24276e-15

*CONN
*I *5:g B *C 6.2475 0.5525 
*I *8:d B *C 7.0550 0.5525 
*I *9:g B *C 3.9125 0.4950 
*I *15:g B *C 4.5875 0.4950 
*I *17:g B *C 4.8525 0.4950 
*I *20:g B *C 3.6475 0.4950 
*I *40:g B *C 6.2475 1.1225 
*I *48:d B *C 7.0300 1.1225 
*I *56:g B *C 3.6475 1.1750 
*I *60:g B *C 3.9125 1.1750 
*I *29:g B *C 4.5875 1.1750 
*I *32:g B *C 4.8525 1.1750 
*N *16:15 *C 6.2100 0.3750 
*N *16:18 *C 7.0700 0.5400 

*CAP
0 *32:g 6.33734e-16
1 *48:d 4.23837e-17
2 *40:g 5.13842e-17
3 *20:g 4.64031e-17
4 *17:g 4.38538e-17
5 *15:g 2.35625e-17
6 *9:g 2.49121e-17
7 *8:d 1.26604e-16
8 *5:g 2.72562e-17
9 *16:15 2.22662e-16

*RES
0 *40:g *5:g 100  // $poly_conn
1 *5:g *16:15 62.437271  // $poly_conn
2 *32:g *17:g 18.71979  // $poly_conn
3 *32:g *15:g 16.15522  // $poly_conn
4 *32:g *9:g 15.063406  // $poly_conn
5 *32:g *20:g 18.337015  // $poly_conn
6 *32:g *16:15 1.406928  // $metal1_conn
7 *16:15 *16:18 0.740573  // $metal1_conn
8 *16:18 *48:d 62.38295  // $metal1_conn
9 *8:d *16:18 75  // $metal1_conn

*END

*D_NET *14 1.19375e-15

*CONN
*I *3:d B *C 5.3950 0.5225 
*I *4:g B *C 5.8325 0.5525 
*I *10:g B *C 4.1175 0.4950 
*I *11:g B *C 4.3825 0.4950 
*I *18:g B *C 4.9575 0.4950 
*I *19:d B *C 5.3950 0.5225 
*I *34:g B *C 3.5425 0.4950 
*I *30:d B *C 5.3800 1.1350 
*I *33:g B *C 5.8325 1.1225 
*I *52:d B *C 5.3800 1.1350 
*I *26:g B *C 4.1175 1.1750 
*I *27:g B *C 4.3825 1.1750 
*I *35:g B *C 5.0575 1.1750 
*I *68:g B *C 3.4425 1.1750 
*N *14:14 *C 5.7950 0.7250 
*N *14:17 *C 5.3800 0.8850 
*N *14:20 *C 5.3800 0.6800 

*CAP
0 *35:g 6.88092e-16
1 *33:g 5.48783e-17
2 *30:d 3.09362e-17
3 *34:g 7.32024e-17
4 *18:g 6.86529e-17
5 *11:g 3.64845e-17
6 *10:g 3.54799e-17
7 *4:g 3.00168e-17
8 *3:d 2.88764e-17
9 *14:20 3.3871e-17
10 *14:17 3.18678e-17
11 *14:14 8.13913e-17

*RES
0 *33:g *14:14 64.873169  // $poly_conn
1 *14:14 *4:g 16.15522  // $poly_conn
2 *35:g *18:g 62.604683  // $poly_conn
3 *35:g *11:g 48.20697  // $poly_conn
4 *35:g *10:g 47.92445  // $poly_conn
5 *34:g *35:g 49.488552  // $poly_conn
6 *14:20 *14:14 45.268883  // $metal1_conn
7 *14:20 *3:d 75.093567  // $metal1_conn
8 *30:d *14:17 62.108315  // $metal1_conn
9 *14:17 *35:g 0.236756  // $metal1_conn
10 *14:17 *14:20 0.161259  // $metal1_conn

*END

*D_NET *13 1.34583e-15

*CONN
*I *9:d B *C 3.7800 0.4950 
*I *15:d B *C 4.7200 0.4950 
*I *17:d B *C 4.7200 0.4950 
*I *20:d B *C 3.7800 0.4950 
*I *21:g B *C 2.0275 0.5125 
*I *22:g B *C 2.2325 0.5125 
*I *23:g B *C 2.4375 0.5125 
*I *24:g B *C 2.6425 0.5125 
*I *25:g B *C 2.8475 0.5125 
*I *28:g B *C 3.0525 0.5125 
*I *31:g B *C 3.2825 0.5125 
*I *41:g B *C 0.5925 0.5125 
*I *45:g B *C 0.7975 0.5125 
*I *49:g B *C 1.0025 0.5125 
*I *53:g B *C 1.2075 0.5125 
*I *57:g B *C 1.4125 0.5125 
*I *61:g B *C 1.6175 0.5125 
*I *67:g B *C 1.8225 0.5125 
*I *56:d B *C 3.5450 1.1750 
*I *60:d B *C 4.0150 1.1750 
*I *26:d B *C 4.0150 1.1750 
*I *27:d B *C 4.4850 1.1750 
*I *29:d B *C 4.4850 1.1750 
*I *32:d B *C 4.9550 1.1750 
*I *35:d B *C 4.9550 1.1750 
*I *39:g B *C 1.9725 1.2025 
*I *43:g B *C 2.1775 1.2025 
*I *47:g B *C 2.3825 1.2025 
*I *51:g B *C 2.5875 1.2025 
*I *55:g B *C 2.7925 1.2025 
*I *65:g B *C 2.9975 1.2025 
*I *66:g B *C 3.2025 1.2025 
*I *68:d B *C 3.5450 1.1750 
*I *70:g B *C 0.5375 1.2025 
*I *71:g B *C 0.7425 1.2025 
*I *72:g B *C 0.9475 1.2025 
*I *73:g B *C 1.1525 1.2025 
*I *74:g B *C 1.3575 1.2025 
*I *75:g B *C 1.5625 1.2025 
*I *76:g B *C 1.7675 1.2025 
*N *13:63 *C 3.3450 0.7850 
*N *13:65 *C 3.7500 0.5350 

*CAP
0 *66:g 6.28786e-16
1 *32:d 4.29171e-16
2 *15:d 1.13727e-16
3 *9:d 1.15847e-16
4 *13:63 5.83053e-17

*RES
0 *13:63 *66:g 45.12804  // $metal1_conn
1 *13:65 *15:d 75.695724  // $metal1_conn
2 *9:d *13:65 75  // $metal1_conn
3 *32:d *13:63 0.347931  // $metal1_conn
4 *13:63 *13:65 0.462186  // $metal1_conn

*END

*D_NET *12 4.42682e-16

*CONN
*I *3:g B *C 5.5125 0.5225 
*I *5:d B *C 6.3925 0.5525 
*I *6:d B *C 6.3925 0.5525 
*I *19:g B *C 5.2775 0.5225 
*I *30:g B *C 5.4825 1.1350 
*I *36:d B *C 6.1250 1.1225 
*I *40:d B *C 6.1250 1.1225 
*I *52:g B *C 5.2775 1.1350 
*N *12:9 *C 5.9550 0.9150 

*CAP
0 *36:d 5.85449e-17
1 *30:g 2.25932e-16
2 *5:d 7.52736e-17
3 *12:9 8.29318e-17

*RES
0 *12:9 *30:g 45.268883  // $metal1_conn
1 *12:9 *36:d 62.225014  // $metal1_conn
2 *5:d *12:9 75.509697  // $metal1_conn

*END

