*SPEF "IEEE 1481-1999"
*DESIGN  "TLATNXL"
*DATE "Mon Sep 27 11:32:56 2010"
*VENDOR "Cadence Design Systems"
*PROGRAM "Assura RCX"
*VERSION "3.2 Red Hat Linux release 7.2 (Enigma) - (09/09/2009-10:39)"
*DESIGN_FLOW "Physical Verification"
*DIVIDER /
*DELIMITER :
*BUS_DELIMITER []
*T_UNIT 1 PS
*C_UNIT 1e15 FF
*R_UNIT 1 OHM
*L_UNIT 1 MH
// DeviceFingerDelim "@"
// MATCHED
// caps2d version: 10

*NAME_MAP
*1 VDD
*2 mn1
*3 mn5
*4 mn6
*5 mn16
*6 mn15
*7 VSS
*8 mp21
*9 mn10
*10 mn0
*11 mn22
*12 mn20
*13 GN
*14 D
*15 QN
*16 Qint
*17 Q
*18 GNb
*19 net220
*20 net212
*21 net257
*22 net245
*23 Qbint
*24 n0
*25 mp1
*26 GNbb
*27 mp5
*28 mp6
*29 mp16
*30 mp15
*31 mp10
*32 mp0
*33 mp22
*34 mp20
*35 mn21

*GROUND_NETS VSS

*PORTS
*1 I
*7 I
*14 I
*13 I
*17 O
*15 O

*D_NET *1 4.00592e-16

*CONN
*P *1 I *C 0.1000 1.7100 
*I *25:s B *C 0.4000 1.5700 
*I *27:s B *C 0.4000 1.5700 
*I *30:s B *C 1.4150 1.2325 
*I *31:s B *C 1.4150 1.2325 
*I *32:s B *C 2.1200 1.3725 
*I *33:s B *C 2.1200 1.3725 
*I *34:s B *C 2.8600 1.0075 
*I *8:s B *C 2.8600 1.0075 
*N *1:2 *C 2.4000 1.7100 
*N *1:3 *C 2.4000 1.7100 
*N *1:4 *C 2.1200 1.7100 
*N *1:5 *C 1.3300 1.7100 
*N *1:6 *C 0.8000 1.7100 
*N *1:7 *C 0.3750 1.7100 

*CAP
0 *34:s 4.16286e-17
1 *32:s 3.48952e-17
2 *30:s 1.64486e-17
3 *25:s 1.00196e-17
4 *1:7 8.03884e-18
5 *1:5 3.09349e-17
6 *1:4 2.3845e-17
7 *1:2 2.2588e-16
8 *1 8.90072e-18

*RES
0 *34:s *1:3 62.678192  // $metal1_conn
1 *1:3 *1:4 0.140219  // $metal1_conn
2 *1:4 *1:5 0.395779  // $metal1_conn
3 *1:5 *1:6 0.26559  // $metal1_conn
4 *1:6 *1:7 0.212934  // $metal1_conn
5 *1:7 *1 0.137461  // $metal1_conn
6 *1:4 *32:s 62.179169  // $metal1_conn
7 *1:5 *30:s 62.074623  // $metal1_conn
8 *1:7 *25:s 62.074623  // $metal1_conn
9 *1:2 *1:3 9.375  // $metal1_conn
10 *1:2 *1:6 9.375  // $metal1_conn

*END

*D_NET *7 0

*CONN
*P *7 I *C 0.1000 0.0000 
*I *2:s B *C 0.3450 0.4475 
*I *3:s B *C 0.3450 0.4475 
*I *6:s B *C 1.2000 0.4475 
*I *9:s B *C 1.2000 0.4475 
*I *10:s B *C 2.0275 0.4525 
*I *11:s B *C 2.0275 0.4525 
*I *12:s B *C 2.8600 0.4525 
*I *35:s B *C 2.8600 0.4525 
*N *7:2 *C 2.4000 0.0000 
*N *7:3 *C 2.4000 0.0000 
*N *7:4 *C 1.9700 0.0000 
*N *7:5 *C 1.2000 0.0000 
*N *7:6 *C 0.8000 0.0000 
*N *7:7 *C 0.3450 0.0000 


*RES
0 *12:s *7:3 75.547791  // $metal1_conn
1 *7:3 *7:4 0.215442  // $metal1_conn
2 *7:4 *7:5 0.38575  // $metal1_conn
3 *7:5 *7:6 0.200397  // $metal1_conn
4 *7:6 *7:7 0.227979  // $metal1_conn
5 *7:7 *7 0.122417  // $metal1_conn
6 *7:4 *10:s 75.307716  // $metal1_conn
7 *7:5 *6:s 75.285568  // $metal1_conn
8 *7:7 *2:s 75.272835  // $metal1_conn
9 *7:2 *7:3 7.75  // $metal1_conn
10 *7:2 *7:6 7.75  // $metal1_conn

*END

*D_NET *14 2.78976e-16

*CONN
*P *14 I *C 0.3000 1.0450 
*I *3:g B *C 0.4475 0.4475 
*I *27:g B *C 0.4475 1.2325 
*N *14:2 *C 0.4200 1.0150 

*CAP
0 *27:g 3.60413e-17
1 *3:g 8.82308e-17
2 *14:2 1.18784e-16
3 *14 3.59202e-17

*RES
0 *27:g *14:2 19.691952  // $poly_conn
1 *14:2 *3:g 118.409897  // $poly_conn
2 *14:2 *14 45.043781  // $metal1_conn

*END

*D_NET *13 2.29294e-16

*CONN
*P *13 I *C 2.1000 1.0450 
*I *10:g B *C 1.8675 0.4525 
*I *32:g B *C 2.0175 1.3725 
*N *13:1 *C 2.0900 1.0400 
*N *13:2 *C 2.0175 1.0400 

*CAP
0 *32:g 3.17313e-17
1 *10:g 3.98854e-17
2 *13:2 3.02028e-17
3 *13:1 2.69214e-17
4 *13 1.00554e-16

*RES
0 *13:1 *13:2 48.831287  // $poly_conn
1 *13:2 *10:g 135.39537  // $poly_conn
2 *13:2 *32:g 46.523903  // $poly_conn
3 *13:1 *13 0.003112  // $metal1_conn

*END

*D_NET *17 7.5236e-17

*CONN
*P *17 O *C 3.1000 0.6650 
*I *35:d B *C 3.0675 0.4525 
*I *8:d B *C 3.0675 1.0075 

*CAP
0 *8:d 2.31978e-17
1 *35:d 2.18066e-17
2 *17 3.02316e-17

*RES
0 *17 *35:d 75.120018  // $metal1_conn
1 *17 *8:d 62.177029  // $metal1_conn

*END

*D_NET *15 1.68981e-16

*CONN
*P *15 O *C 2.3000 0.4750 
*I *11:d B *C 2.2800 0.4525 
*I *33:d B *C 2.3150 1.3725 
*N *15:2 *C 2.2900 0.4650 

*CAP
0 *33:d 8.76324e-17
1 *11:d 8.13485e-17

*RES
0 *15:2 *15 0.006225  // $metal1_conn
1 *15 *33:d 62.508865  // $metal1_conn
2 *11:d *15:2 75  // $metal1_conn

*END

*D_NET *22 7.1746e-18

*CONN
*I *5:s B *C 0.9400 0.4475 
*I *6:d B *C 0.9400 0.4475 

*CAP
0 *5:s 7.1746e-18

*RES
0 *6:d *5:s 0.001  // $mwires

*END

*D_NET *21 0

*CONN
*I *3:d B *C 0.5000 0.4475 
*I *4:s B *C 0.5000 0.4475 


*RES
0 *4:s *3:d 0.001  // $mwires

*END

*D_NET *20 7.7467e-19

*CONN
*I *29:s B *C 1.1450 1.2325 
*I *30:d B *C 1.1450 1.2325 

*CAP
0 *29:s 7.7467e-19

*RES
0 *30:d *29:s 0.001  // $mwires

*END

*D_NET *19 6.3136e-18

*CONN
*I *27:d B *C 0.6150 1.2325 
*I *28:s B *C 0.6150 1.2325 

*CAP
0 *27:d 6.3136e-18

*RES
0 *28:s *27:d 0.001  // $mwires

*END

*D_NET *18 8.96799e-16

*CONN
*I *2:g B *C 0.2425 0.4475 
*I *4:g B *C 0.5525 0.4475 
*I *10:d B *C 1.7175 0.4525 
*I *25:g B *C 0.2425 1.2325 
*I *29:g B *C 1.0925 1.2325 
*I *32:d B *C 1.9450 1.3725 
*N *18:2 *C 0.2700 0.6550 
*N *18:5 *C 0.5800 0.6300 
*N *18:7 *C 0.9900 0.9700 
*N *18:9 *C 1.7350 1.3850 
*N *18:10 *C 0.8300 1.0000 

*CAP
0 *32:d 2.53557e-17
1 *29:g 5.03814e-17
2 *25:g 5.72908e-17
3 *10:d 1.17997e-16
4 *4:g 6.15629e-17
5 *2:g 2.6946e-17
6 *18:10 1.26553e-16
7 *18:9 1.56786e-16
8 *18:2 9.01372e-17
9 *18:5 1.18086e-16
10 *18:7 6.57029e-17

*RES
0 *25:g *18:2 111.999641  // $poly_conn
1 *18:2 *2:g 26.102209  // $poly_conn
2 *4:g *18:5 64.691956  // $poly_conn
3 *29:g *18:7 86.010437  // $poly_conn
4 *10:d *18:9 75.744858  // $metal1_conn
5 *18:9 *18:10 0.933342  // $metal1_conn
6 *18:10 *18:5 0.441416  // $metal1_conn
7 *18:5 *18:2 45.213242  // $metal1_conn
8 *18:9 *32:d 62.120857  // $metal1_conn
9 *18:10 *18:7 0.083152  // $metal1_conn

*END

*D_NET *16 8.62218e-16

*CONN
*I *6:g B *C 1.0975 0.4475 
*I *9:d B *C 1.3950 0.4475 
*I *11:g B *C 2.1875 0.4525 
*I *12:g B *C 2.7575 0.4525 
*I *30:g B *C 1.1975 1.2325 
*I *31:d B *C 1.6050 1.1850 
*I *33:g B *C 2.2225 1.3725 
*I *34:g B *C 2.7575 1.0075 
*N *16:1 *C 1.3100 0.8750 
*N *16:2 *C 1.1975 0.8750 
*N *16:6 *C 2.7575 0.7625 
*N *16:7 *C 2.2275 0.7625 
*N *16:9 *C 2.1600 0.2700 
*N *16:12 *C 1.4900 0.3700 
*N *16:13 *C 1.4900 0.8450 

*CAP
0 *34:g 2.2945e-17
1 *33:g 5.08013e-17
2 *31:d 5.67201e-17
3 *30:g 7.04018e-17
4 *12:g 3.56753e-17
5 *11:g 9.97779e-18
6 *9:d 2.87977e-17
7 *6:g 5.11406e-17
8 *16:13 5.91596e-17
9 *16:12 1.62218e-16
10 *16:7 3.94659e-17
11 *16:6 3.47814e-17
12 *16:2 4.24764e-17
13 *16:1 6.24999e-17
14 *16:9 1.35157e-16

*RES
0 *16:1 *16:2 51.54969  // $poly_conn
1 *16:2 *6:g 99.761101  // $poly_conn
2 *16:2 *30:g 59.025024  // $poly_conn
3 *34:g *16:6 34.104404  // $poly_conn
4 *16:6 *16:7 130.335281  // $poly_conn
5 *16:7 *11:g 67.929428  // $poly_conn
6 *11:g *16:9 62.398674  // $poly_conn
7 *16:6 *12:g 59.745434  // $poly_conn
8 *16:7 *33:g 125.321663  // $poly_conn
9 *16:9 *16:12 1.004923  // $metal1_conn
10 *16:12 *16:13 0.309829  // $metal1_conn
11 *16:13 *16:1 0.097666  // $metal1_conn
12 *16:12 *9:d 75.023811  // $metal1_conn
13 *16:13 *31:d 62.27721  // $metal1_conn

*END

*D_NET *26 3.60359e-16

*CONN
*I *2:d B *C 0.1350 0.4475 
*I *5:g B *C 0.7825 0.4475 
*I *25:d B *C 0.1500 1.2325 
*I *28:g B *C 0.7825 1.2325 
*N *26:2 *C 0.7825 1.0275 
*N *26:3 *C 0.6400 1.0250 
*N *26:7 *C 0.1400 1.2800 

*CAP
0 *28:g 2.7012e-17
1 *25:d 8.45194e-17
2 *5:g 5.64128e-17
3 *2:d 6.04892e-17
4 *26:2 3.41296e-17
5 *26:3 9.7796e-17

*RES
0 *28:g *26:2 23.847994  // $poly_conn
1 *26:2 *26:3 66.569153  // $poly_conn
2 *26:2 *5:g 128.976212  // $poly_conn
3 *2:d *26:7 75.574127  // $metal1_conn
4 *26:7 *26:3 0.486987  // $metal1_conn
5 *25:d *26:7 62  // $metal1_conn

*END

*D_NET *24 4.02962e-16

*CONN
*I *4:d B *C 0.6675 0.4475 
*I *5:d B *C 0.6675 0.4475 
*I *9:g B *C 1.3025 0.4475 
*I *28:d B *C 0.9375 1.2325 
*I *29:d B *C 0.9375 1.2325 
*I *31:g B *C 1.4625 1.2325 
*N *24:2 *C 1.3300 0.6550 
*N *24:4 *C 1.1500 0.6850 

*CAP
0 *31:g 6.09274e-17
1 *28:d 7.39952e-17
2 *9:g 2.17482e-17
3 *4:d 6.27056e-17
4 *24:4 9.02311e-17
5 *24:2 9.33545e-17

*RES
0 *31:g *24:2 129.47197  // $poly_conn
1 *24:2 *9:g 22.940296  // $poly_conn
2 *24:2 *24:4 45.124393  // $metal1_conn
3 *24:4 *4:d 75.474281  // $metal1_conn
4 *24:4 *28:d 62.429028  // $metal1_conn

*END

*D_NET *23 2.22077e-16

*CONN
*I *12:d B *C 2.6650 0.4525 
*I *35:g B *C 2.9625 0.4525 
*I *34:d B *C 2.6650 1.0075 
*I *8:g B *C 2.9625 1.0075 
*N *23:2 *C 2.9625 0.6300 
*N *23:3 *C 2.9000 0.6300 
*N *23:5 *C 2.6650 0.6400 

*CAP
0 *8:g 3.38172e-17
1 *34:d 3.35262e-17
2 *35:g 2.49485e-17
3 *12:d 2.71644e-17
4 *23:5 2.78774e-17
5 *23:2 1.86222e-17
6 *23:3 5.61209e-17

*RES
0 *8:g *23:2 66.476082  // $poly_conn
1 *23:2 *23:3 46.294373  // $poly_conn
2 *23:2 *35:g 24.16839  // $poly_conn
3 *23:3 *23:5 0.123623  // $metal1_conn
4 *23:5 *12:d 75.110588  // $metal1_conn
5 *23:5 *34:d 62.193439  // $metal1_conn

*END

