*SPEF "IEEE 1481-1999"
*DESIGN  "TLATNCAX8"
*DATE "Mon Sep 27 11:26:52 2010"
*VENDOR "Cadence Design Systems"
*PROGRAM "Assura RCX"
*VERSION "3.2 Red Hat Linux release 7.2 (Enigma) - (09/09/2009-10:39)"
*DESIGN_FLOW "Physical Verification"
*DIVIDER /
*DELIMITER :
*BUS_DELIMITER []
*T_UNIT 1 PS
*C_UNIT 1e15 FF
*R_UNIT 1 OHM
*L_UNIT 1 MH
// DeviceFingerDelim "@"
// MATCHED
// caps2d version: 10

*NAME_MAP
*1 VDD
*2 VSS
*3 ECKb
*4 n0
*5 CKbb
*6 Eint
*7 mn20
*8 mn21
*9 mn21\@1
*10 mp22\@6
*11 mn20\@1
*12 mp0
*13 mn22
*14 mp5
*15 mp21
*16 mn22\@1
*17 mp6
*18 mp21\@1
*19 mn22\@2
*20 mp16
*21 mp20
*22 mn22\@5
*23 mn22\@3
*24 mp15
*25 mp22
*26 mn22\@6
*27 mn22\@4
*28 mp1
*29 mp22\@1
*30 mn0
*31 mp10
*32 mp22\@2
*33 mn5
*34 mp20\@1
*35 mp22\@3
*36 mn6
*37 mp22\@4
*38 mn16
*39 mp22\@5
*40 mn15
*41 mn1
*42 mn10
*43 CK
*44 ECK
*45 E
*46 CKb
*47 net217
*48 net205
*49 net254
*50 net230
*51 net238
*52 net238\@1

*GROUND_NETS VSS

*PORTS
*1 I
*2 I
*43 I
*45 I
*44 O

*D_NET *1 7.44066e-16

*CONN
*P *1 I *C 0.1000 1.7100 
*I *15:s B *C 2.6550 1.2000 
*I *18:s B *C 2.6550 1.2000 
*I *21:s B *C 3.0950 1.1725 
*I *25:s B *C 3.0950 1.1725 
*I *29:s B *C 3.4750 1.1725 
*I *32:s B *C 3.4750 1.1725 
*I *35:s B *C 3.8850 1.1725 
*I *37:s B *C 3.8850 1.1725 
*I *39:s B *C 4.2950 1.1725 
*I *10:s B *C 4.2950 1.1725 
*I *12:s B *C 0.5350 1.2625 
*I *14:s B *C 0.5350 1.2625 
*I *24:s B *C 1.5600 1.2625 
*I *28:s B *C 1.5600 1.2625 
*I *31:s B *C 2.3000 1.2000 
*I *34:s B *C 2.3000 1.2000 
*N *1:3 *C 3.5000 1.7100 
*N *1:8 *C 1.4750 1.7100 
*N *1:9 *C 1.2000 1.7100 
*N *1:10 *C 0.5350 1.7100 

*CAP
0 *24:s 2.17862e-17
1 *12:s 4.11083e-17
2 *39:s 3.24433e-16
3 *15:s 3.95294e-17
4 *1:10 1.47176e-17
5 *1:8 1.9294e-17
6 *1:3 2.70749e-16
7 *1 1.24488e-17

*RES
0 *1:10 *1 0.217735  // $metal1_conn
1 *1:3 *39:s 6.818182  // $metal1_conn
2 *1:3 *1:9 6.25  // $metal1_conn
3 *39:s *15:s 62.241795  // $metal1_conn
4 *1:8 *24:s 62.045826  // $metal1_conn
5 *1:10 *12:s 62.248478  // $metal1_conn
6 *39:s *1:8 0.369817  // $metal1_conn
7 *1:8 *1:9 0.136785  // $metal1_conn
8 *1:9 *1:10 0.333346  // $metal1_conn

*END

*D_NET *2 0

*CONN
*P *2 I *C 0.1000 0.0000 
*I *7:s B *C 2.4050 0.4950 
*I *11:s B *C 3.0750 0.5125 
*I *13:s B *C 3.0750 0.5125 
*I *16:s B *C 3.4750 0.5125 
*I *19:s B *C 3.4750 0.5125 
*I *23:s B *C 3.8850 0.5125 
*I *27:s B *C 3.8850 0.5125 
*I *22:s B *C 4.2950 0.5125 
*I *26:s B *C 4.2950 0.5125 
*I *30:s B *C 0.4800 0.4425 
*I *33:s B *C 0.4800 0.4425 
*I *40:s B *C 1.5600 0.4425 
*I *41:s B *C 1.5600 0.4425 
*I *42:s B *C 2.4050 0.4950 
*N *2:3 *C 3.5000 0.0000 
*N *2:6 *C 2.4250 0.0000 
*N *2:7 *C 1.4450 0.0000 
*N *2:8 *C 1.2000 0.0000 
*N *2:9 *C 0.4800 0.0000 


*RES
0 *2:9 *2 0.190148  // $metal1_conn
1 *2:3 *22:s 5.636364  // $metal1_conn
2 *2:3 *2:8 5.166667  // $metal1_conn
3 *2:6 *7:s 75.262985  // $metal1_conn
4 *2:7 *40:s 75.07473  // $metal1_conn
5 *2:9 *30:s 75.279037  // $metal1_conn
6 *22:s *2:6 0.295532  // $metal1_conn
7 *2:6 *2:7 0.491143  // $metal1_conn
8 *2:7 *2:8 0.122688  // $metal1_conn
9 *2:8 *2:9 0.360932  // $metal1_conn

*END

*D_NET *43 2.28321e-16

*CONN
*P *43 I *C 0.3000 1.0450 
*I *30:g B *C 0.3775 0.4425 
*I *12:g B *C 0.4325 1.2625 
*N *43:2 *C 0.4050 0.8100 

*CAP
0 *12:g 3.92388e-17
1 *30:g 3.47085e-17
2 *43:2 8.21546e-17
3 *43 7.2219e-17

*RES
0 *12:g *43:2 79.948364  // $poly_conn
1 *43:2 *30:g 67.127846  // $poly_conn
2 *43:2 *43 45.183369  // $metal1_conn

*END

*D_NET *45 2.76537e-16

*CONN
*P *45 I *C 0.7000 1.0450 
*I *33:g B *C 0.5825 0.4425 
*I *14:g B *C 0.6375 1.2625 
*N *45:2 *C 0.6100 0.8700 

*CAP
0 *14:g 4.10912e-17
1 *33:g 7.15892e-17
2 *45:2 9.06935e-17
3 *45 7.31626e-17

*RES
0 *14:g *45:2 64.563744  // $poly_conn
1 *45:2 *33:g 82.512466  // $poly_conn
2 *45:2 *45 45.134182  // $metal1_conn

*END

*D_NET *44 4.52058e-16

*CONN
*P *44 O *C 3.3000 0.6650 
*I *13:d B *C 3.2600 0.5125 
*I *16:d B *C 3.2600 0.5125 
*I *19:d B *C 3.6800 0.5125 
*I *23:d B *C 3.6800 0.5125 
*I *27:d B *C 4.0900 0.5125 
*I *22:d B *C 4.0900 0.5125 
*I *26:d B *C 4.4900 0.5125 
*I *25:d B *C 3.2700 1.1725 
*I *29:d B *C 3.2700 1.1725 
*I *32:d B *C 3.6800 1.1725 
*I *35:d B *C 3.6800 1.1725 
*I *37:d B *C 4.0900 1.1725 
*I *39:d B *C 4.0900 1.1725 
*I *10:d B *C 4.4900 1.1725 

*CAP
0 *44 4.52058e-16


*END

*D_NET *52 3.40144e-18

*CONN
*I *9:s B *C 2.8600 0.4950 
*I *11:d B *C 2.8600 0.4950 

*CAP
0 *9:s 3.40144e-18

*RES
0 *11:d *9:s 0.001  // $mwires

*END

*D_NET *51 1.86308e-18

*CONN
*I *7:d B *C 2.5500 0.4950 
*I *8:s B *C 2.5500 0.4950 

*CAP
0 *7:d 1.86308e-18

*RES
0 *8:s *7:d 0.001  // $mwires

*END

*D_NET *50 0

*CONN
*I *38:s B *C 1.3200 0.4425 
*I *40:d B *C 1.3200 0.4425 


*RES
0 *40:d *38:s 0.001  // $mwires

*END

*D_NET *49 0

*CONN
*I *33:d B *C 0.6350 0.4425 
*I *36:s B *C 0.6350 0.4425 


*RES
0 *36:s *33:d 0.001  // $mwires

*END

*D_NET *48 4.75914e-18

*CONN
*I *20:s B *C 1.2175 1.2625 
*I *24:d B *C 1.2175 1.2625 

*CAP
0 *20:s 4.75914e-18

*RES
0 *24:d *20:s 0.001  // $mwires

*END

*D_NET *47 0

*CONN
*I *14:d B *C 0.7625 1.2625 
*I *17:s B *C 0.7625 1.2625 


*RES
0 *17:s *14:d 0.001  // $mwires

*END

*D_NET *46 8.43128e-16

*CONN
*I *30:d B *C 0.2850 0.4425 
*I *36:g B *C 0.6875 0.4425 
*I *41:g B *C 1.6075 0.4425 
*I *12:d B *C 0.3400 1.2625 
*I *20:g B *C 1.0925 1.2625 
*I *28:g B *C 1.6075 1.2625 
*N *46:2 *C 0.7150 0.6500 
*N *46:4 *C 1.0650 0.9350 
*N *46:7 *C 1.6350 0.2600 
*N *46:8 *C 1.0650 0.2650 
*N *46:9 *C 0.2750 0.6200 

*CAP
0 *28:g 6.37047e-17
1 *20:g 3.62943e-17
2 *12:d 9.24472e-17
3 *41:g 5.75721e-17
4 *36:g 4.99208e-17
5 *30:d 1.82213e-17
6 *46:9 7.9505e-17
7 *46:8 1.33115e-16
8 *46:2 1.11534e-16
9 *46:4 1.19574e-16
10 *46:7 8.12393e-17

*RES
0 *36:g *46:2 71.102211  // $poly_conn
1 *20:g *46:4 92.897079  // $poly_conn
2 *28:g *41:g 164.10257  // $poly_conn
3 *41:g *46:7 64.691956  // $poly_conn
4 *46:4 *46:8 0.511517  // $metal1_conn
5 *46:8 *46:2 0.53592  // $metal1_conn
6 *46:2 *46:9 0.317493  // $metal1_conn
7 *46:9 *30:d 75.092316  // $metal1_conn
8 *46:8 *46:7 0.458416  // $metal1_conn
9 *46:9 *12:d 62.737434  // $metal1_conn

*END

*D_NET *6 9.03325e-16

*CONN
*I *7:g B *C 2.4975 0.4950 
*I *11:g B *C 2.9125 0.4950 
*I *40:g B *C 1.4125 0.4425 
*I *42:d B *C 2.0800 0.5225 
*I *21:g B *C 2.9625 1.2000 
*I *24:g B *C 1.3425 1.2625 
*I *31:d B *C 2.0350 1.1600 
*I *34:g B *C 2.3475 1.2000 
*N *6:2 *C 1.4125 0.7850 
*N *6:4 *C 1.4750 0.7850 
*N *6:12 *C 1.9925 0.7350 
*N *6:13 *C 1.9925 0.7950 

*CAP
0 *31:d 3.53919e-17
1 *24:g 5.21571e-17
2 *21:g 3.92844e-16
3 *42:d 3.77307e-17
4 *40:g 5.23199e-17
5 *11:g 7.91672e-17
6 *7:g 6.93303e-17
7 *6:13 5.76739e-17
8 *6:2 3.98926e-17
9 *6:4 8.68173e-17

*RES
0 *6:2 *24:g 98.334145  // $poly_conn
1 *21:g *11:g 58.424316  // $poly_conn
2 *7:g *21:g 42.667309  // $poly_conn
3 *40:g *6:2 57.362011  // $poly_conn
4 *6:2 *6:4 48.3866  // $poly_conn
5 *6:13 *6:4 0.365811  // $metal1_conn
6 *6:13 *31:d 62.202042  // $metal1_conn
7 *6:12 *42:d 75.122887  // $metal1_conn
8 *21:g *6:12 0.282107  // $metal1_conn
9 *6:12 *6:13 0.055932  // $metal1_conn

*END

*D_NET *5 8.44319e-16

*CONN
*I *8:g B *C 2.6025 0.4950 
*I *9:g B *C 2.8075 0.4950 
*I *38:g B *C 1.2275 0.4425 
*I *41:d B *C 1.7275 0.4425 
*I *15:g B *C 2.5525 1.2000 
*I *18:g B *C 2.7575 1.2000 
*I *17:g B *C 0.8875 1.2625 
*I *28:d B *C 1.7000 1.2625 
*N *5:2 *C 1.2550 0.6250 
*N *5:11 *C 1.2550 0.6250 
*N *5:13 *C 1.7650 0.4500 

*CAP
0 *28:d 9.65539e-17
1 *17:g 8.13431e-17
2 *18:g 2.50833e-16
3 *41:d 1.3016e-16
4 *38:g 2.62591e-17
5 *9:g 5.00913e-17
6 *8:g 4.31689e-17
7 *5:2 1.6591e-16

*RES
0 *5:2 *17:g 193.284958  // $poly_conn
1 *9:g *18:g 43.575005  // $poly_conn
2 *18:g *8:g 16.530039  // $poly_conn
3 *38:g *5:2 16.530041  // $poly_conn
4 *5:13 *18:g 45.812401  // $metal1_conn
5 *5:2 *5:11 45  // $metal1_conn
6 *28:d *5:11 62.705967  // $metal1_conn
7 *41:d *5:13 75  // $metal1_conn
8 *5:11 *5:13 0.493237  // $metal1_conn

*END

*D_NET *4 5.73717e-16

*CONN
*I *36:d B *C 0.9575 0.4425 
*I *38:d B *C 0.9575 0.4425 
*I *42:g B *C 2.2275 0.5225 
*I *17:d B *C 0.9900 1.2625 
*I *20:d B *C 0.9900 1.2625 
*I *31:g B *C 2.1525 1.1600 
*N *4:2 *C 2.1900 0.9050 
*N *4:6 *C 0.9900 1.2150 

*CAP
0 *31:g 4.57232e-17
1 *17:d 1.97683e-16
2 *42:g 4.88377e-17
3 *36:d 1.01383e-16
4 *4:2 1.80091e-16

*RES
0 *42:g *4:2 64.579376  // $poly_conn
1 *4:2 *31:g 18.425531  // $poly_conn
2 *36:d *4:6 75.58197  // $metal1_conn
3 *4:6 *4:2 46.253181  // $metal1_conn
4 *17:d *4:6 62  // $metal1_conn

*END

*D_NET *3 6.5671e-16

*CONN
*I *8:d B *C 2.7050 0.4950 
*I *9:d B *C 2.7050 0.4950 
*I *13:g B *C 3.1475 0.5125 
*I *16:g B *C 3.3725 0.5125 
*I *19:g B *C 3.5775 0.5125 
*I *23:g B *C 3.7825 0.5125 
*I *27:g B *C 3.9875 0.5125 
*I *22:g B *C 4.1925 0.5125 
*I *26:g B *C 4.3975 0.5125 
*I *15:d B *C 2.4500 1.2000 
*I *18:d B *C 2.8600 1.2000 
*I *21:d B *C 2.8600 1.2000 
*I *25:g B *C 3.1675 1.1725 
*I *29:g B *C 3.3725 1.1725 
*I *32:g B *C 3.5775 1.1725 
*I *35:g B *C 3.7825 1.1725 
*I *37:g B *C 3.9875 1.1725 
*I *39:g B *C 4.1925 1.1725 
*I *10:g B *C 4.3975 1.1725 
*I *34:d B *C 2.4500 1.2000 
*N *3:10 *C 3.1100 0.7600 

*CAP
0 *10:g 3.11296e-16
1 *18:d 1.82746e-16
2 *8:d 5.54125e-17
3 *3:10 1.07255e-16

*RES
0 *10:g *3:10 47.215244  // $poly_conn
1 *3:10 *8:d 75.371552  // $metal1_conn
2 *18:d *3:10 0.423813  // $metal1_conn

*END

