*SPEF "IEEE 1481-1999"
*DESIGN  "TLATXL"
*DATE "Mon Sep 27 11:35:55 2010"
*VENDOR "Cadence Design Systems"
*PROGRAM "Assura RCX"
*VERSION "3.2 Red Hat Linux release 7.2 (Enigma) - (09/09/2009-10:39)"
*DESIGN_FLOW "Physical Verification"
*DIVIDER /
*DELIMITER :
*BUS_DELIMITER []
*T_UNIT 1 PS
*C_UNIT 1e15 FF
*R_UNIT 1 OHM
*L_UNIT 1 MH
// DeviceFingerDelim "@"
// MATCHED
// caps2d version: 10

*NAME_MAP
*1 VDD
*2 mn1
*3 mn5
*4 mn6
*5 mn16
*6 mn15
*7 VSS
*8 mp21
*9 mn10
*10 mn0
*11 mn22
*12 mn20
*13 D
*14 G
*15 QN
*16 Qint
*17 Q
*18 Gb
*19 net220
*20 net212
*21 net257
*22 net245
*23 Qbint
*24 n0
*25 mp1
*26 Gbb
*27 mp5
*28 mp6
*29 mp16
*30 mp15
*31 mp10
*32 mp0
*33 mp22
*34 mp20
*35 mn21

*GROUND_NETS VSS

*PORTS
*1 I
*7 I
*13 I
*14 I
*17 O
*15 O

*D_NET *1 4.36576e-16

*CONN
*P *1 I *C 0.1000 1.7100 
*I *25:s B *C 0.4100 1.2975 
*I *27:s B *C 0.4100 1.2975 
*I *30:s B *C 1.3875 1.2975 
*I *31:s B *C 1.3875 1.2975 
*I *32:s B *C 1.9775 1.3725 
*I *33:s B *C 1.9775 1.3725 
*I *34:s B *C 2.8150 1.0325 
*I *8:s B *C 2.8150 1.0325 
*N *1:2 *C 2.4000 1.7100 
*N *1:3 *C 2.4000 1.7100 
*N *1:4 *C 1.9750 1.7100 
*N *1:5 *C 1.3000 1.7100 
*N *1:6 *C 0.8000 1.7100 
*N *1:7 *C 0.4050 1.7100 

*CAP
0 *34:s 3.82677e-17
1 *32:s 2.92939e-17
2 *30:s 2.42892e-17
3 *25:s 3.33516e-17
4 *1:7 1.10373e-17
5 *1:5 2.93827e-17
6 *1:4 2.1742e-17
7 *1:2 2.43859e-16
8 *1 5.35215e-18

*RES
0 *34:s *1:3 62.636696  // $metal1_conn
1 *1:3 *1:4 0.212792  // $metal1_conn
2 *1:4 *1:5 0.336934  // $metal1_conn
3 *1:5 *1:6 0.249429  // $metal1_conn
4 *1:6 *1:7 0.197758  // $metal1_conn
5 *1:7 *1 0.152404  // $metal1_conn
6 *1:4 *32:s 62.179852  // $metal1_conn
7 *1:5 *30:s 62.045788  // $metal1_conn
8 *1:7 *25:s 62.223495  // $metal1_conn
9 *1:2 *1:3 9.375  // $metal1_conn
10 *1:2 *1:6 9.375  // $metal1_conn

*END

*D_NET *7 0

*CONN
*P *7 I *C 0.1000 0.0000 
*I *2:s B *C 0.4600 0.4775 
*I *3:s B *C 0.4600 0.4775 
*I *6:s B *C 1.4750 0.4775 
*I *9:s B *C 1.4750 0.4775 
*I *10:s B *C 2.0800 0.4525 
*I *11:s B *C 2.0800 0.4525 
*I *12:s B *C 2.8775 0.5225 
*I *35:s B *C 2.8775 0.5225 
*N *7:2 *C 2.4000 0.0000 
*N *7:3 *C 2.4000 0.0000 
*N *7:4 *C 2.0800 0.0000 
*N *7:5 *C 1.3550 0.0000 
*N *7:6 *C 0.8000 0.0000 
*N *7:7 *C 0.4350 0.0000 


*RES
0 *12:s *7:3 75.586395  // $metal1_conn
1 *7:3 *7:4 0.160171  // $metal1_conn
2 *7:4 *7:5 0.362941  // $metal1_conn
3 *7:5 *7:6 0.277941  // $metal1_conn
4 *7:6 *7:7 0.182723  // $metal1_conn
5 *7:7 *7 0.167438  // $metal1_conn
6 *7:4 *10:s 75.289017  // $metal1_conn
7 *7:5 *6:s 75.074203  // $metal1_conn
8 *7:7 *2:s 75.074203  // $metal1_conn
9 *7:2 *7:3 7.75  // $metal1_conn
10 *7:2 *7:6 7.75  // $metal1_conn

*END

*D_NET *13 2.45471e-16

*CONN
*P *13 I *C 0.5000 0.8550 
*I *3:g B *C 0.5175 0.4775 
*I *27:g B *C 0.5175 1.2975 
*N *13:2 *C 0.4900 0.8500 
*N *13:4 *C 0.4900 0.8500 

*CAP
0 *27:g 5.02946e-17
1 *3:g 4.09216e-17
2 *13:2 4.59195e-17
3 *13 1.08335e-16

*RES
0 *27:g *13:2 78.666313  // $poly_conn
1 *13:2 *3:g 68.409897  // $poly_conn
2 *13:4 *13 0.001692  // $metal1_conn
3 *13:2 *13:4 45  // $metal1_conn

*END

*D_NET *14 2.4604e-16

*CONN
*P *14 I *C 1.9000 0.8550 
*I *10:g B *C 1.9775 0.4525 
*I *32:g B *C 1.8725 1.3725 
*N *14:2 *C 1.9100 1.1650 

*CAP
0 *32:g 3.07196e-17
1 *10:g 7.02153e-17
2 *14:2 9.93104e-17
3 *14 4.57951e-17

*RES
0 *10:g *14:2 159.618134  // $poly_conn
1 *14:2 *32:g 16.15522  // $poly_conn
2 *14 *14:2 45.185555  // $metal1_conn

*END

*D_NET *17 5.75442e-17

*CONN
*P *17 O *C 3.1000 0.8550 
*I *35:d B *C 3.0900 0.5225 
*I *8:d B *C 3.0450 1.0325 

*CAP
0 *8:d 1.13771e-17
1 *35:d 2.44932e-17
2 *17 2.16739e-17

*RES
0 *17 *8:d 62.08073  // $metal1_conn
1 *17 *35:d 75.191544  // $metal1_conn

*END

*D_NET *15 1.63076e-16

*CONN
*P *15 O *C 2.3000 1.4250 
*I *11:d B *C 2.2825 0.4525 
*I *33:d B *C 2.1750 1.3725 

*CAP
0 *33:d 2.13996e-17
1 *11:d 7.66011e-17
2 *15 6.50753e-17

*RES
0 *11:d *15 75.578949  // $metal1_conn
1 *15 *33:d 62.055889  // $metal1_conn

*END

*D_NET *22 0

*CONN
*I *5:s B *C 1.2750 0.4775 
*I *6:d B *C 1.2750 0.4775 


*RES
0 *6:d *5:s 0.001  // $mwires

*END

*D_NET *21 1.11156e-17

*CONN
*I *3:d B *C 0.7675 0.4775 
*I *4:s B *C 0.7675 0.4775 

*CAP
0 *3:d 1.11156e-17

*RES
0 *4:s *3:d 0.001  // $mwires

*END

*D_NET *20 1.25352e-18

*CONN
*I *29:s B *C 1.1000 1.2975 
*I *30:d B *C 1.1000 1.2975 

*CAP
0 *29:s 1.25352e-18

*RES
0 *30:d *29:s 0.001  // $mwires

*END

*D_NET *19 0

*CONN
*I *27:d B *C 0.6250 1.2975 
*I *28:s B *C 0.6250 1.2975 


*RES
0 *28:s *27:d 0.001  // $mwires

*END

*D_NET *18 9.29183e-16

*CONN
*I *2:g B *C 0.3025 0.4775 
*I *5:g B *C 1.2225 0.4775 
*I *10:d B *C 1.8850 0.4525 
*I *25:g B *C 0.3025 1.2975 
*I *28:g B *C 0.7325 1.2975 
*I *32:d B *C 1.7650 1.3725 
*N *18:2 *C 0.3300 1.0800 
*N *18:5 *C 0.7700 0.9800 
*N *18:7 *C 1.1650 0.2950 
*N *18:9 *C 0.7700 1.1550 

*CAP
0 *32:d 1.10449e-16
1 *28:g 3.12236e-17
2 *25:g 2.56752e-17
3 *10:d 7.80124e-17
4 *5:g 7.56262e-17
5 *2:g 4.70593e-17
6 *18:9 1.25534e-16
7 *18:2 1.07977e-16
8 *18:5 1.31959e-16
9 *18:7 1.95669e-16

*RES
0 *25:g *18:2 19.691952  // $poly_conn
1 *18:2 *2:g 127.384254  // $poly_conn
2 *28:g *18:5 89.360352  // $poly_conn
3 *5:g *18:7 65.678978  // $poly_conn
4 *10:d *18:7 75.679352  // $metal1_conn
5 *18:7 *18:5 0.703893  // $metal1_conn
6 *18:5 *18:9 0.122633  // $metal1_conn
7 *18:9 *18:2 45.346119  // $metal1_conn
8 *18:9 *32:d 62.939125  // $metal1_conn

*END

*D_NET *16 7.16584e-16

*CONN
*I *6:g B *C 1.3275 0.4775 
*I *9:d B *C 1.6400 0.4775 
*I *11:g B *C 2.1825 0.4525 
*I *12:g B *C 2.7575 0.5225 
*I *30:g B *C 1.1675 1.2975 
*I *31:d B *C 1.5300 1.2975 
*I *33:g B *C 2.0825 1.3725 
*I *34:g B *C 2.7125 1.0325 
*N *16:2 *C 1.3000 0.9400 
*N *16:5 *C 2.7125 0.6925 
*N *16:6 *C 2.1825 0.6550 
*N *16:7 *C 2.1100 0.6550 
*N *16:12 *C 1.6750 0.6300 
*N *16:13 *C 1.5700 0.9400 

*CAP
0 *34:g 3.66163e-17
1 *33:g 6.28572e-17
2 *31:d 4.13828e-17
3 *30:g 6.32563e-17
4 *12:g 1.92168e-17
5 *11:g 2.38972e-17
6 *9:d 2.58903e-17
7 *6:g 8.90908e-17
8 *16:13 4.84198e-17
9 *16:12 4.16032e-17
10 *16:6 1.43505e-17
11 *16:5 2.96546e-17
12 *16:2 1.05363e-16
13 *16:7 1.14985e-16

*RES
0 *6:g *16:2 88.324913  // $poly_conn
1 *16:2 *30:g 73.061714  // $poly_conn
2 *12:g *16:5 29.472441  // $poly_conn
3 *16:5 *16:6 135.845337  // $poly_conn
4 *16:6 *16:7 4.285572  // $poly_conn
5 *16:7 *33:g 145.603806  // $poly_conn
6 *16:5 *34:g 54.915871  // $poly_conn
7 *16:6 *11:g 21.436142  // $poly_conn
8 *9:d *16:12 75.094147  // $metal1_conn
9 *16:12 *16:13 0.30736  // $metal1_conn
10 *16:13 *16:2 45.189884  // $metal1_conn
11 *16:12 *16:7 45.28801  // $metal1_conn
12 *16:13 *31:d 62.188164  // $metal1_conn

*END

*D_NET *26 3.73282e-16

*CONN
*I *2:d B *C 0.2100 0.4775 
*I *4:g B *C 1.0175 0.4775 
*I *25:d B *C 0.1950 1.2975 
*I *29:g B *C 1.0325 1.2975 
*N *26:2 *C 1.0250 0.6775 
*N *26:3 *C 0.7700 0.6500 
*N *26:6 *C 0.2000 0.4650 

*CAP
0 *29:g 7.14576e-17
1 *25:d 5.96373e-17
2 *4:g 3.23724e-17
3 *2:d 6.2724e-17
4 *26:2 3.62308e-17
5 *26:3 1.1086e-16

*RES
0 *29:g *26:2 130.814346  // $poly_conn
1 *26:2 *26:3 98.682816  // $poly_conn
2 *26:2 *4:g 33.566013  // $poly_conn
3 *26:3 *26:6 0.492084  // $metal1_conn
4 *26:6 *25:d 62.533039  // $metal1_conn
5 *2:d *26:6 75  // $metal1_conn

*END

*D_NET *24 3.81102e-16

*CONN
*I *4:d B *C 1.1200 0.4775 
*I *5:d B *C 1.1200 0.4775 
*I *9:g B *C 1.5225 0.4775 
*I *28:d B *C 0.8825 1.2975 
*I *29:d B *C 0.8825 1.2975 
*I *31:g B *C 1.4375 1.2975 
*N *24:2 *C 1.4650 0.6600 
*N *24:4 *C 1.0900 0.6600 

*CAP
0 *31:g 6.21628e-17
1 *28:d 7.61249e-17
2 *9:g 3.33927e-17
3 *4:d 3.91389e-17
4 *24:4 7.46263e-17
5 *24:2 9.56562e-17

*RES
0 *9:g *24:2 20.67898  // $poly_conn
1 *24:2 *31:g 125.090981  // $poly_conn
2 *24:2 *24:4 45.240643  // $metal1_conn
3 *24:4 *28:d 62.513821  // $metal1_conn
4 *24:4 *4:d 75.117943  // $metal1_conn

*END

*D_NET *23 1.98308e-16

*CONN
*I *12:d B *C 2.6650 0.5225 
*I *35:g B *C 2.9975 0.5225 
*I *34:d B *C 2.6200 1.0325 
*I *8:g B *C 2.9175 1.0325 
*N *23:2 *C 2.9175 0.8250 
*N *23:3 *C 2.8550 0.8250 
*N *23:5 *C 2.6550 0.8250 
*N *23:7 *C 2.6100 0.9850 

*CAP
0 *8:g 2.6813e-17
1 *34:d 2.49589e-17
2 *35:g 2.8798e-17
3 *12:d 3.43161e-17
4 *23:5 2.21565e-17
5 *23:2 1.32385e-17
6 *23:3 4.80273e-17

*RES
0 *35:g *23:2 66.872246  // $poly_conn
1 *23:2 *23:3 48.900734  // $poly_conn
2 *23:2 *8:g 15.826773  // $poly_conn
3 *23:3 *23:5 0.123801  // $metal1_conn
4 *23:5 *23:7 0.100153  // $metal1_conn
5 *23:5 *12:d 75.203194  // $metal1_conn
6 *34:d *23:7 62  // $metal1_conn

*END

