*SPEF "IEEE 1481-1999"
*DESIGN  "TLATSRX4"
*DATE "Mon Sep 27 11:34:03 2010"
*VENDOR "Cadence Design Systems"
*PROGRAM "Assura RCX"
*VERSION "3.2 Red Hat Linux release 7.2 (Enigma) - (09/09/2009-10:39)"
*DESIGN_FLOW "Physical Verification"
*DIVIDER /
*DELIMITER :
*BUS_DELIMITER []
*T_UNIT 1 PS
*C_UNIT 1e15 FF
*R_UNIT 1 OHM
*L_UNIT 1 MH
// DeviceFingerDelim "@"
// MATCHED
// caps2d version: 10

*NAME_MAP
*1 mn21\@3
*2 mn16
*3 RN
*4 mn17
*5 mn6
*6 mn5
*7 mp16
*8 mn2
*9 mp17
*10 mn22
*11 mp6
*12 mn22\@1
*13 mp5
*14 mn10
*15 mp2
*16 mn11
*17 mp22
*18 mp22\@1
*19 mp10
*20 mp11
*21 VSS
*22 SN
*23 mp11\@1
*24 mp10\@1
*25 mp15
*26 mp20
*27 mp20\@1
*28 mp20\@2
*29 mp20\@3
*30 mp22\@2
*31 mp22\@3
*32 mp1
*33 Gbb
*34 mp0
*35 Qbint
*36 mp21
*37 n5
*38 mp21\@1
*39 Qint
*40 mp21\@2
*41 Gb
*42 mp21\@3
*43 net142
*44 D
*45 net159
*46 net183
*47 net183\@1
*48 G
*49 net167
*50 net171
*51 net191
*52 Q
*53 net103
*54 VDD
*55 mn11\@1
*56 mn10\@1
*57 mn15
*58 mn20
*59 mn20\@1
*60 mn20\@2
*61 mn20\@3
*62 mn22\@2
*63 QN
*64 mn22\@3
*65 mn1
*66 mn0
*67 mn21
*68 mn21\@1
*69 mn21\@2

*GROUND_NETS VSS

*PORTS
*54 I
*21 I
*44 I
*48 I
*3 I
*22 I
*52 O
*63 O

*D_NET *54 9.29153e-16

*CONN
*P *54 I *C 0.1000 1.7100 
*I *7:s B *C 6.0050 1.5700 
*I *13:s B *C 7.0600 1.1925 
*I *15:s B *C 7.0600 1.1925 
*I *17:s B *C 4.0100 1.1600 
*I *18:s B *C 4.6850 1.1200 
*I *19:s B *C 4.6850 1.1200 
*I *20:s B *C 5.1450 1.5700 
*I *23:s B *C 5.1450 1.5700 
*I *24:s B *C 5.5800 1.5700 
*I *25:s B *C 5.5800 1.5700 
*I *26:s B *C 2.2000 1.1600 
*I *27:s B *C 2.8000 1.1600 
*I *28:s B *C 2.8000 1.1600 
*I *29:s B *C 3.4400 1.1600 
*I *30:s B *C 3.4400 1.1600 
*I *31:s B *C 4.0100 1.1600 
*I *32:s B *C 0.3350 1.0725 
*I *34:s B *C 0.9800 1.1600 
*I *36:s B *C 0.9800 1.1600 
*I *38:s B *C 1.5200 1.1600 
*I *40:s B *C 1.5200 1.1600 
*I *42:s B *C 2.2000 1.1600 
*N *54:2 *C 6.6000 1.7100 
*N *54:3 *C 6.6000 1.7100 
*N *54:4 *C 5.9800 1.7100 
*N *54:17 *C 0.3250 1.7100 

*CAP
0 *32:s 3.21735e-17
1 *24:s 3.67719e-16
2 *20:s 1.62946e-17
3 *13:s 3.59262e-17
4 *7:s 1.69136e-17
5 *54:17 1.10396e-17
6 *54:4 1.9331e-17
7 *54:2 4.25201e-16
8 *54 4.55474e-18

*RES
0 *54:17 *54 0.112349  // $metal1_conn
1 *54:2 *54:3 7.5  // $metal1_conn
2 *54:2 *24:s 8.333333  // $metal1_conn
3 *54:2 *24:s 8.333333  // $metal1_conn
4 *54:2 *24:s 7.5  // $metal1_conn
5 *13:s *54:3 62.505424  // $metal1_conn
6 *54:4 *7:s 62.045803  // $metal1_conn
7 *24:s *20:s 62.074413  // $metal1_conn
8 *54:17 *32:s 62.380871  // $metal1_conn
9 *54:3 *54:4 0.30967  // $metal1_conn
10 *54:4 *24:s 0.211718  // $metal1_conn
11 *24:s *54:17 0.285358  // $metal1_conn

*END

*D_NET *21 0

*CONN
*P *21 I *C 0.1000 0.0000 
*I *6:s B *C 7.1175 0.5125 
*I *8:s B *C 7.1175 0.5125 
*I *10:s B *C 4.0400 0.4550 
*I *12:s B *C 4.8250 0.4825 
*I *14:s B *C 4.8250 0.4825 
*I *56:s B *C 5.6400 0.5125 
*I *57:s B *C 5.6400 0.5125 
*I *58:s B *C 2.1150 0.4550 
*I *59:s B *C 2.7300 0.4550 
*I *60:s B *C 2.7300 0.4550 
*I *61:s B *C 3.3700 0.4550 
*I *62:s B *C 3.3700 0.4550 
*I *64:s B *C 4.0400 0.4550 
*I *66:s B *C 0.8775 0.4550 
*I *67:s B *C 0.8775 0.4550 
*I *68:s B *C 1.4350 0.4550 
*I *69:s B *C 1.4350 0.4550 
*I *1:s B *C 2.1150 0.4550 
*N *21:2 *C 5.5850 0.0000 
*N *21:4 *C 4.7000 0.0000 
*N *21:14 *C 6.6000 0.0000 


*RES
0 *12:s *21 0.355487  // $metal1_conn
1 *21:4 *12:s 6.888889  // $metal1_conn
2 *21:4 *12:s 6.888889  // $metal1_conn
3 *21:4 *12:s 6.2  // $metal1_conn
4 *21:4 *21:14 6.2  // $metal1_conn
5 *21:14 *6:s 75.429214  // $metal1_conn
6 *56:s *21:2 75.117409  // $metal1_conn
7 *21:2 *12:s 0.407769  // $metal1_conn
8 *21:2 *21:14 0.508228  // $metal1_conn

*END

*D_NET *44 2.36961e-16

*CONN
*P *44 I *C 7.1000 0.8550 
*I *6:g B *C 6.8225 0.5125 
*I *13:g B *C 6.8225 1.1925 
*N *44:2 *C 6.8500 0.8500 

*CAP
0 *13:g 4.65461e-17
1 *6:g 3.56832e-17
2 *44:2 1.09165e-16
3 *44 4.55672e-17

*RES
0 *13:g *44:2 51.743229  // $poly_conn
1 *44:2 *6:g 59.435539  // $poly_conn
2 *44 *44:2 45.112267  // $metal1_conn

*END

*D_NET *48 1.90206e-16

*CONN
*P *48 I *C 0.3000 0.8550 
*I *65:g B *C 0.5725 0.5125 
*I *32:g B *C 0.4275 1.0725 
*N *48:2 *C 0.4275 0.7200 
*N *48:3 *C 0.3400 0.7200 

*CAP
0 *32:g 3.04102e-17
1 *65:g 6.07469e-17
2 *48:2 1.61349e-17
3 *48:3 3.07044e-17
4 *48 5.22099e-17

*RES
0 *65:g *48:2 57.365364  // $poly_conn
1 *48:2 *48:3 50.548729  // $poly_conn
2 *48:2 *32:g 50.923321  // $poly_conn
3 *48:3 *48 0.056118  // $metal1_conn

*END

*D_NET *3 1.50287e-15

*CONN
*P *3 I *C 0.7000 0.6650 
*I *57:g B *C 5.6875 0.5125 
*I *66:g B *C 0.6775 0.5125 
*I *25:g B *C 5.6425 1.1375 
*I *34:g B *C 0.6775 1.0725 
*N *3:2 *C 0.7050 0.7200 
*N *3:4 *C 5.7750 0.3400 
*N *3:7 *C 0.7050 0.7200 

*CAP
0 *34:g 4.17948e-17
1 *25:g 7.63815e-17
2 *66:g 3.809e-17
3 *57:g 4.74201e-17
4 *3:2 5.9528e-17
5 *3:4 6.23281e-16
6 *3 6.16374e-16

*RES
0 *34:g *3:2 54.307335  // $poly_conn
1 *3:2 *66:g 26.102209  // $poly_conn
2 *3:4 *57:g 68.827812  // $poly_conn
3 *57:g *25:g 113.813004  // $poly_conn
4 *3:4 *3 5.736292  // $metal1_conn
5 *3 *3:7 0.034203  // $metal1_conn
6 *3:2 *3:7 45  // $metal1_conn

*END

*D_NET *22 4.92046e-16

*CONN
*P *22 I *C 4.9000 0.8550 
*I *14:g B *C 4.8725 0.4825 
*I *56:g B *C 5.4225 0.4825 
*I *19:g B *C 4.7825 1.1200 
*I *24:g B *C 5.4225 1.1200 

*CAP
0 *56:g 5.19837e-17
1 *14:g 5.68589e-17
2 *22 3.83203e-16

*RES
0 *22 *56:g 57.180859  // $poly_conn
1 *14:g *22 57.180859  // $poly_conn

*END

*D_NET *52 2.77688e-16

*CONN
*P *52 O *C 1.3000 0.8550 
*I *67:d B *C 1.1300 0.4550 
*I *68:d B *C 1.1300 0.4550 
*I *69:d B *C 1.7800 0.4550 
*I *1:d B *C 1.7800 0.4550 
*I *36:d B *C 1.1300 1.1600 
*I *38:d B *C 1.1300 1.1600 
*I *40:d B *C 1.7800 1.1600 
*I *42:d B *C 1.7800 1.1600 

*CAP
0 *52 2.77688e-16


*END

*D_NET *63 2.72763e-16

*CONN
*P *63 O *C 3.7000 0.8550 
*I *10:d B *C 4.3900 0.4550 
*I *12:d B *C 4.3900 0.4550 
*I *62:d B *C 3.6900 0.4550 
*I *64:d B *C 3.6900 0.4550 
*I *17:d B *C 4.2375 1.1600 
*I *18:d B *C 4.2375 1.1600 
*I *30:d B *C 3.6750 1.1600 
*I *31:d B *C 3.6750 1.1600 

*CAP
0 *63 2.72763e-16


*END

*D_NET *51 1.09665e-17

*CONN
*I *5:s B *C 6.6250 0.5125 
*I *6:d B *C 6.6250 0.5125 

*CAP
0 *5:s 1.09665e-17

*RES
0 *6:d *5:s 0.001  // $mwires

*END

*D_NET *50 7.00743e-19

*CONN
*I *2:d B *C 6.0675 0.5125 
*I *4:s B *C 6.0675 0.5125 

*CAP
0 *2:d 7.00743e-19

*RES
0 *4:s *2:d 0.001  // $mwires

*END

*D_NET *49 0

*CONN
*I *2:s B *C 5.8025 0.5125 
*I *57:d B *C 5.8025 0.5125 


*RES
0 *57:d *2:s 0.001  // $mwires

*END

*D_NET *47 1.14088e-18

*CONN
*I *55:s B *C 5.3325 0.4825 
*I *56:d B *C 5.3325 0.4825 

*CAP
0 *55:s 1.14088e-18

*RES
0 *56:d *55:s 0.001  // $mwires

*END

*D_NET *46 1.18832e-18

*CONN
*I *14:d B *C 4.9300 0.4825 
*I *16:s B *C 4.9300 0.4825 

*CAP
0 *14:d 1.18832e-18

*RES
0 *16:s *14:d 0.001  // $mwires

*END

*D_NET *45 0

*CONN
*I *65:s B *C 0.6250 0.5125 
*I *66:d B *C 0.6250 0.5125 


*RES
0 *66:d *65:s 0.001  // $mwires

*END

*D_NET *43 0

*CONN
*I *11:s B *C 6.7600 1.1925 
*I *13:d B *C 6.7600 1.1925 


*RES
0 *13:d *11:s 0.001  // $mwires

*END

*D_NET *41 1.66857e-15

*CONN
*I *4:g B *C 6.2175 0.5125 
*I *8:g B *C 7.2425 0.5125 
*I *65:d B *C 0.4800 0.5125 
*I *11:g B *C 6.6975 1.1925 
*I *15:g B *C 7.2975 1.1925 
*I *32:d B *C 0.5525 1.0725 
*I *34:d B *C 0.5525 1.0725 
*N *41:2 *C 6.2450 0.8750 
*N *41:4 *C 6.6600 0.7050 
*N *41:6 *C 7.2700 0.9750 
*N *41:8 *C 6.6900 1.0500 
*N *41:9 *C 6.3700 1.3650 
*N *41:11 *C 0.5300 1.1200 

*CAP
0 *32:d 4.76783e-16
1 *15:g 1.62148e-17
2 *11:g 5.53102e-17
3 *65:d 6.60027e-17
4 *8:g 3.4691e-17
5 *4:g 3.94463e-17
6 *41:9 5.73624e-16
7 *41:8 1.09836e-16
8 *41:2 1.02507e-16
9 *41:4 1.01416e-16
10 *41:6 9.27388e-17

*RES
0 *4:g *41:2 110.845795  // $poly_conn
1 *11:g *41:4 132.950089  // $poly_conn
2 *15:g *41:6 19.691952  // $poly_conn
3 *41:6 *8:g 91.486824  // $poly_conn
4 *41:6 *41:8 45.452991  // $metal1_conn
5 *41:8 *41:9 0.458683  // $metal1_conn
6 *41:9 *41:11 4.324017  // $metal1_conn
7 *41:11 *65:d 75.464554  // $metal1_conn
8 *41:8 *41:4 0.262118  // $metal1_conn
9 *41:9 *41:2 0.409232  // $metal1_conn
10 *32:d *41:11 62  // $metal1_conn

*END

*D_NET *39 1.05605e-15

*CONN
*I *2:g B *C 5.9175 0.5125 
*I *10:g B *C 4.2875 0.4550 
*I *12:g B *C 4.4925 0.4550 
*I *16:d B *C 5.1150 0.4825 
*I *55:d B *C 5.1150 0.4825 
*I *58:g B *C 2.3075 0.4550 
*I *59:g B *C 2.5125 0.4550 
*I *60:g B *C 2.9475 0.4550 
*I *61:g B *C 3.1525 0.4550 
*I *62:g B *C 3.5875 0.4550 
*I *64:g B *C 3.7925 0.4550 
*I *7:g B *C 5.8475 1.1375 
*I *17:g B *C 4.0575 1.1600 
*I *18:g B *C 4.4175 1.1600 
*I *19:d B *C 4.8850 1.1200 
*I *20:d B *C 4.8850 1.1200 
*I *23:d B *C 5.3200 1.1200 
*I *24:d B *C 5.3200 1.1200 
*I *26:g B *C 2.3075 1.1600 
*I *27:g B *C 2.5125 1.1600 
*I *28:g B *C 2.9175 1.1600 
*I *29:g B *C 3.1525 1.1600 
*I *30:g B *C 3.5575 1.1600 
*I *31:g B *C 3.7925 1.1600 
*N *39:31 *C 5.8200 0.9200 
*N *39:37 *C 4.6450 0.8650 

*CAP
0 *29:g 2.50487e-16
1 *23:d 1.83809e-16
2 *18:g 2.57534e-16
3 *7:g 3.07305e-17
4 *16:d 8.95445e-17
5 *2:g 5.10721e-17
6 *39:37 8.85579e-17
7 *39:31 1.04318e-16

*RES
0 *39:31 *7:g 16.530039  // $poly_conn
1 *2:g *39:31 85.882225  // $poly_conn
2 *18:g *29:g 95.85585  // $poly_conn
3 *39:37 *18:g 45.112514  // $metal1_conn
4 *39:31 *23:d 45.411407  // $metal1_conn
5 *39:37 *16:d 75.576881  // $metal1_conn
6 *23:d *39:37 0.299873  // $metal1_conn

*END

*D_NET *37 5.34663e-16

*CONN
*I *4:d B *C 6.3225 0.5125 
*I *5:d B *C 6.3225 0.5125 
*I *16:g B *C 4.9875 0.4825 
*I *55:g B *C 5.2425 0.4825 
*I *9:d B *C 6.5625 1.1925 
*I *11:d B *C 6.5625 1.1925 
*I *20:g B *C 4.9875 1.1200 
*I *23:g B *C 5.2175 1.1200 
*N *37:2 *C 5.2800 0.6850 
*N *37:9 *C 6.3200 0.6850 

*CAP
0 *23:g 1.54948e-16
1 *9:d 7.33078e-17
2 *55:g 2.47052e-17
3 *16:g 3.73046e-17
4 *4:d 2.43719e-17
5 *37:9 1.20305e-16
6 *37:2 9.97199e-17

*RES
0 *55:g *37:2 18.790585  // $poly_conn
1 *23:g *16:g 18.337015  // $poly_conn
2 *37:2 *23:g 5.00195  // $poly_conn
3 *37:9 *37:2 45.735043  // $metal1_conn
4 *9:d *37:9 62.489326  // $metal1_conn
5 *37:9 *4:d 75.08857  // $metal1_conn

*END

*D_NET *35 5.94493e-16

*CONN
*I *58:d B *C 2.4100 0.4550 
*I *59:d B *C 2.4100 0.4550 
*I *60:d B *C 3.0500 0.4550 
*I *61:d B *C 3.0500 0.4550 
*I *67:g B *C 1.0275 0.4550 
*I *68:g B *C 1.2325 0.4550 
*I *69:g B *C 1.6375 0.4550 
*I *1:g B *C 1.9225 0.4550 
*I *26:d B *C 2.4100 1.1600 
*I *27:d B *C 2.4100 1.1600 
*I *28:d B *C 3.0350 1.1600 
*I *29:d B *C 3.0350 1.1600 
*I *36:g B *C 1.0275 1.1600 
*I *38:g B *C 1.2325 1.1600 
*I *40:g B *C 1.6375 1.1600 
*I *42:g B *C 1.9225 1.1600 

*CAP
0 *42:g 3.16353e-16
1 *28:d 2.78141e-16

*RES
0 *28:d *42:g 45.345543  // $metal1_conn

*END

*D_NET *33 3.523e-16

*CONN
*I *5:g B *C 6.4275 0.5125 
*I *8:d B *C 7.3350 0.5125 
*I *9:g B *C 6.4275 1.1925 
*I *15:d B *C 7.4050 1.1925 
*N *33:3 *C 6.4650 0.3400 
*N *33:6 *C 7.3450 0.5000 

*CAP
0 *15:d 4.97016e-17
1 *9:g 4.92458e-17
2 *8:d 1.0429e-16
3 *5:g 4.10702e-17
4 *33:3 1.07993e-16

*RES
0 *9:g *5:g 128.205124  // $poly_conn
1 *5:g *33:3 61.15522  // $poly_conn
2 *15:d *33:6 62.471577  // $metal1_conn
3 *33:6 *33:3 0.710735  // $metal1_conn
4 *8:d *33:6 75  // $metal1_conn

*END

*D_NET *53 1.34881e-16

*CONN
*I *7:d B *C 5.7450 1.1375 
*I *9:s B *C 6.3550 1.1925 
*I *25:d B *C 5.7450 1.1375 

*CAP
0 *9:s 6.7448e-17
1 *7:d 6.74334e-17

*RES
0 *9:s *7:d 124.260712  // $metal1_conn

*END

