*SPEF "IEEE 1481-1999"
*DESIGN  "TLATNSRX1"
*DATE "Mon Sep 27 11:27:14 2010"
*VENDOR "Cadence Design Systems"
*PROGRAM "Assura RCX"
*VERSION "3.2 Red Hat Linux release 7.2 (Enigma) - (09/09/2009-10:39)"
*DESIGN_FLOW "Physical Verification"
*DIVIDER /
*DELIMITER :
*BUS_DELIMITER []
*T_UNIT 1 PS
*C_UNIT 1e15 FF
*R_UNIT 1 OHM
*L_UNIT 1 MH
// DeviceFingerDelim "@"
// MATCHED
// caps2d version: 10

*NAME_MAP
*1 GN
*2 VSS
*3 mn17
*4 mn6
*5 mn22
*6 mn5
*7 Q
*8 mn10
*9 mn3
*10 mn11
*11 mn2
*12 mn15
*13 mn1
*14 mn16
*15 mn0
*16 mn21
*17 mn20
*18 net270
*19 VDD
*20 mp22
*21 mp10
*22 QN
*23 mp11
*24 mp15
*25 mp16
*26 qbint
*27 GNb
*28 GNbb
*29 GNbp
*30 n5
*31 qint
*32 net313
*33 net342
*34 mp17
*35 net350
*36 mp6
*37 net354
*38 mp5
*39 mp3
*40 mp2
*41 mp1
*42 RN
*43 mp0
*44 mp21
*45 mp20
*46 net366
*47 net326
*48 D
*49 SN

*GROUND_NETS VSS

*PORTS
*19 I
*2 I
*48 I
*1 I
*42 I
*49 I
*7 O
*22 O

*D_NET *19 5.36584e-16

*CONN
*P *19 I *C 0.1000 1.7100 
*I *38:s B *C 2.9250 1.1925 
*I *39:s B *C 2.9250 1.1925 
*I *40:s B *C 3.6750 1.2925 
*I *41:s B *C 4.1400 1.2925 
*I *43:s B *C 4.1400 1.2925 
*I *44:s B *C 0.5050 1.0950 
*I *45:s B *C 0.5050 1.0950 
*I *20:s B *C 1.2250 1.0825 
*I *21:s B *C 1.2250 1.0825 
*I *23:s B *C 1.7500 1.5700 
*I *24:s B *C 1.7500 1.5700 
*I *25:s B *C 2.1550 1.5700 
*N *19:2 *C 3.6650 1.7100 
*N *19:3 *C 3.5000 1.7100 
*N *19:4 *C 3.5000 1.7100 
*N *19:5 *C 2.9250 1.7100 
*N *19:6 *C 2.1300 1.7100 
*N *19:7 *C 1.7250 1.7100 
*N *19:8 *C 1.2000 1.7100 
*N *19:9 *C 1.1150 1.7100 
*N *19:10 *C 0.5050 1.7100 

*CAP
0 *25:s 7.77676e-18
1 *23:s 3.75978e-18
2 *20:s 3.74849e-17
3 *44:s 7.76733e-17
4 *41:s 3.49592e-17
5 *40:s 2.06034e-17
6 *38:s 3.42808e-17
7 *19:10 1.06661e-17
8 *19:9 1.78132e-17
9 *19:7 1.07843e-17
10 *19:6 1.63966e-17
11 *19:5 2.25981e-17
12 *19:2 1.33091e-17
13 *19:3 2.19984e-16
14 *19 8.49393e-18

*RES
0 *41:s *19:2 62.498116  // $metal1_conn
1 *19:2 *19:4 0.082315  // $metal1_conn
2 *19:4 *19:5 0.287341  // $metal1_conn
3 *19:5 *19:6 0.397159  // $metal1_conn
4 *19:6 *19:7 0.202135  // $metal1_conn
5 *19:7 *19:8 0.262338  // $metal1_conn
6 *19:8 *19:9 0.042409  // $metal1_conn
7 *19:9 *19:10 0.304648  // $metal1_conn
8 *19:10 *19 0.20208  // $metal1_conn
9 *19:2 *40:s 62.225857  // $metal1_conn
10 *19:5 *38:s 62.291927  // $metal1_conn
11 *19:6 *25:s 62.073887  // $metal1_conn
12 *19:7 *23:s 62.073887  // $metal1_conn
13 *19:9 *20:s 62.276512  // $metal1_conn
14 *19:10 *44:s 21.08079  // $metal1_conn
15 *19:3 *19:4 6.818182  // $metal1_conn
16 *19:3 *19:8 6.25  // $metal1_conn

*END

*D_NET *2 0

*CONN
*P *2 I *C 0.1000 0.0000 
*I *6:s B *C 2.9750 0.5075 
*I *9:s B *C 2.9750 0.5075 
*I *13:s B *C 4.1400 0.4775 
*I *15:s B *C 4.1400 0.4775 
*I *16:s B *C 0.5050 0.5300 
*I *17:s B *C 0.5050 0.5300 
*I *5:s B *C 1.2250 0.5875 
*I *8:s B *C 1.2250 0.5875 
*I *12:s B *C 1.8000 0.5075 
*N *2:2 *C 3.5000 0.0000 
*N *2:3 *C 3.5000 0.0000 
*N *2:4 *C 2.8850 0.0000 
*N *2:5 *C 1.6650 0.0000 
*N *2:6 *C 1.2000 0.0000 
*N *2:7 *C 1.1150 0.0000 
*N *2:8 *C 0.5050 0.0000 


*RES
0 *13:s *2:3 75.658501  // $metal1_conn
1 *2:3 *2:4 0.307343  // $metal1_conn
2 *2:4 *2:5 0.609686  // $metal1_conn
3 *2:5 *2:6 0.232334  // $metal1_conn
4 *2:6 *2:7 0.042409  // $metal1_conn
5 *2:7 *2:8 0.304648  // $metal1_conn
6 *2:8 *2 0.20208  // $metal1_conn
7 *2:4 *6:s 75.073891  // $metal1_conn
8 *2:5 *12:s 75.399689  // $metal1_conn
9 *2:7 *5:s 75.288994  // $metal1_conn
10 *2:8 *16:s 75.285324  // $metal1_conn
11 *2:2 *2:3 5.636364  // $metal1_conn
12 *2:2 *2:6 5.166667  // $metal1_conn

*END

*D_NET *48 2.81631e-16

*CONN
*P *48 I *C 2.9000 0.8550 
*I *6:g B *C 2.8225 0.5075 
*I *38:g B *C 2.8225 1.1925 
*N *48:2 *C 2.8500 0.8600 

*CAP
0 *38:g 5.21362e-17
1 *6:g 7.02853e-17
2 *48:2 1.00186e-16
3 *48 5.90239e-17

*RES
0 *38:g *48:2 49.179131  // $poly_conn
1 *48:2 *6:g 63.281693  // $poly_conn
2 *48:2 *48 45.013832  // $metal1_conn

*END

*D_NET *1 2.09448e-16

*CONN
*P *1 I *C 4.1000 1.0450 
*I *15:g B *C 4.2425 0.4775 
*I *43:g B *C 4.2425 1.2925 
*N *1:2 *C 4.2150 0.8450 

*CAP
0 *43:g 3.75323e-17
1 *15:g 3.48124e-17
2 *1:2 8.15919e-17
3 *1 5.5511e-17

*RES
0 *43:g *1:2 78.666313  // $poly_conn
1 *1:2 *15:g 67.127846  // $poly_conn
2 *1:2 *1 45.149654  // $metal1_conn

*END

*D_NET *42 8.05759e-16

*CONN
*P *42 I *C 3.7000 0.8550 
*I *13:g B *C 4.0375 0.4775 
*I *12:g B *C 1.8925 0.5075 
*I *41:g B *C 4.0375 1.2925 
*I *24:g B *C 1.7925 1.0825 
*N *42:1 *C 1.8550 0.3300 
*N *42:5 *C 4.0375 0.8750 
*N *42:6 *C 3.9000 0.8750 
*N *42:8 *C 3.7350 0.8600 

*CAP
0 *24:g 8.61348e-17
1 *41:g 4.1579e-17
2 *12:g 5.10685e-17
3 *13:g 4.4424e-17
4 *42:8 2.10734e-16
5 *42:5 4.51503e-17
6 *42:1 2.34424e-16
7 *42:6 7.08068e-17
8 *42 2.14376e-17

*RES
0 *42:1 *12:g 62.437271  // $poly_conn
1 *12:g *24:g 115.095047  // $poly_conn
2 *41:g *42:5 76.17614  // $poly_conn
3 *42:5 *42:6 52.686325  // $poly_conn
4 *42:5 *13:g 80.022293  // $poly_conn
5 *42:1 *42:8 1.659688  // $metal1_conn
6 *42:8 *42 0.024201  // $metal1_conn
7 *42:8 *42:6 0.132435  // $metal1_conn

*END

*D_NET *49 2.36085e-16

*CONN
*P *49 I *C 1.1000 1.0450 
*I *8:g B *C 1.2975 0.5875 
*I *21:g B *C 1.2975 1.0825 
*N *49:2 *C 1.2600 0.8400 

*CAP
0 *21:g 3.09924e-17
1 *8:g 5.53238e-17
2 *49:2 9.32609e-17
3 *49 5.6508e-17

*RES
0 *21:g *49:2 25.129578  // $poly_conn
1 *49:2 *8:g 36.668037  // $poly_conn
2 *49 *49:2 45.167679  // $metal1_conn

*END

*D_NET *7 9.65857e-17

*CONN
*P *7 O *C 0.1000 0.6650 
*I *16:d B *C 0.2975 0.5300 
*I *44:d B *C 0.2975 1.0950 
*N *7:3 *C 0.2750 0.6000 

*CAP
0 *44:d 4.36849e-17
1 *16:d 3.08151e-17
2 *7 2.20857e-17

*RES
0 *44:d *7:3 20.97102  // $metal1_conn
1 *7:3 *7 0.082978  // $metal1_conn
2 *16:d *7:3 75  // $metal1_conn

*END

*D_NET *22 1.62189e-16

*CONN
*P *22 O *C 0.9000 0.4750 
*I *5:d B *C 0.9200 0.5300 
*I *20:d B *C 0.9200 1.1350 

*CAP
0 *20:d 1.02484e-16
1 *5:d 5.97052e-17

*RES
0 *20:d *22 21.178238  // $metal1_conn
1 *22 *5:d 75.003304  // $metal1_conn

*END

*D_NET *47 0

*CONN
*I *11:s B *C 3.9025 0.4775 
*I *13:d B *C 3.9025 0.4775 


*RES
0 *13:d *11:s 0.001  // $mwires

*END

*D_NET *46 3.72863e-18

*CONN
*I *4:s B *C 2.7700 0.5075 
*I *6:d B *C 2.7700 0.5075 

*CAP
0 *4:s 3.72863e-18

*RES
0 *6:d *4:s 0.001  // $mwires

*END

*D_NET *37 0

*CONN
*I *3:s B *C 2.2125 0.5075 
*I *14:d B *C 2.2125 0.5075 


*RES
0 *14:d *3:s 0.001  // $mwires

*END

*D_NET *35 0

*CONN
*I *12:d B *C 1.9450 0.5075 
*I *14:s B *C 1.9450 0.5075 


*RES
0 *14:s *12:d 0.001  // $mwires

*END

*D_NET *33 1.40714e-18

*CONN
*I *8:d B *C 1.3500 0.5875 
*I *10:s B *C 1.3500 0.5875 

*CAP
0 *8:d 1.40714e-18

*RES
0 *10:s *8:d 0.001  // $mwires

*END

*D_NET *32 0

*CONN
*I *36:s B *C 2.7400 1.1925 
*I *38:d B *C 2.7400 1.1925 


*RES
0 *38:d *36:s 0.001  // $mwires

*END

*D_NET *31 5.68866e-16

*CONN
*I *17:g B *C 0.6075 0.5300 
*I *5:g B *C 1.0125 0.5300 
*I *10:d B *C 1.4950 0.5875 
*I *14:g B *C 1.9975 0.5075 
*I *45:g B *C 0.6075 1.0950 
*I *20:g B *C 1.0125 1.1350 
*I *21:d B *C 1.4450 1.0825 
*I *23:d B *C 1.4450 1.0825 
*I *25:g B *C 1.9975 1.0825 
*N *31:2 *C 1.0125 0.7600 
*N *31:3 *C 0.6075 0.7375 
*N *31:6 *C 1.0700 0.7600 
*N *31:9 *C 2.0350 0.6800 
*N *31:11 *C 1.5050 0.6800 
*N *31:12 *C 1.4575 0.6800 

*CAP
0 *25:g 5.12885e-17
1 *21:d 4.21821e-17
2 *20:g 3.83897e-17
3 *45:g 3.35656e-17
4 *14:g 4.5315e-17
5 *10:d 9.26922e-18
6 *5:g 2.53622e-17
7 *17:g 2.36867e-17
8 *31:12 7.94304e-17
9 *31:3 2.8966e-17
10 *31:2 1.73338e-17
11 *31:6 7.11937e-17
12 *31:9 1.02883e-16

*RES
0 *20:g *31:2 42.804329  // $poly_conn
1 *31:2 *31:3 97.787758  // $poly_conn
2 *31:3 *17:g 18.337015  // $poly_conn
3 *31:2 *5:g 22.29151  // $poly_conn
4 *31:2 *31:6 48.256718  // $poly_conn
5 *31:3 *45:g 40.131889  // $poly_conn
6 *25:g *31:9 66.15522  // $poly_conn
7 *31:9 *14:g 16.15522  // $poly_conn
8 *31:9 *31:11 45.412537  // $metal1_conn
9 *31:11 *31:12 0.049779  // $metal1_conn
10 *31:12 *31:6 0.331125  // $metal1_conn
11 *31:11 *10:d 75.03904  // $metal1_conn
12 *31:12 *21:d 62.265266  // $metal1_conn

*END

*D_NET *30 4.69611e-16

*CONN
*I *3:d B *C 2.5725 0.5075 
*I *4:d B *C 2.5725 0.5075 
*I *10:g B *C 1.4025 0.5875 
*I *34:d B *C 2.5550 1.1925 
*I *36:d B *C 2.5550 1.1925 
*I *23:g B *C 1.5925 1.0825 
*N *30:2 *C 1.6300 0.8700 
*N *30:5 *C 2.2250 0.9000 

*CAP
0 *23:g 3.75351e-17
1 *34:d 5.73502e-17
2 *10:g 5.9814e-17
3 *3:d 8.40954e-17
4 *30:5 1.24214e-16
5 *30:2 1.06602e-16

*RES
0 *23:g *30:2 17.437269  // $poly_conn
1 *30:2 *10:g 88.164284  // $poly_conn
2 *34:d *30:5 62.413784  // $metal1_conn
3 *30:5 *30:2 45.428684  // $metal1_conn
4 *30:5 *3:d 75.482422  // $metal1_conn

*END

*D_NET *29 3.33815e-16

*CONN
*I *11:g B *C 3.7675 0.4775 
*I *15:d B *C 4.3500 0.4775 
*I *40:g B *C 3.7675 1.2925 
*I *43:d B *C 4.3500 1.2925 
*N *29:1 *C 3.8950 0.6850 
*N *29:2 *C 3.7675 0.6850 
*N *29:6 *C 4.3750 0.6550 

*CAP
0 *43:d 4.70917e-17
1 *40:g 3.89487e-17
2 *15:d 1.72224e-17
3 *11:g 3.18493e-17
4 *29:6 6.43574e-17
5 *29:2 4.16344e-17
6 *29:1 9.27107e-17

*RES
0 *29:1 *29:2 53.145439  // $poly_conn
1 *29:2 *11:g 29.537844  // $poly_conn
2 *29:2 *40:g 123.127586  // $poly_conn
3 *43:d *29:6 62.420704  // $metal1_conn
4 *29:6 *29:1 0.312633  // $metal1_conn
5 *29:6 *15:d 75.113724  // $metal1_conn

*END

*D_NET *28 5.49819e-16

*CONN
*I *3:g B *C 2.4275 0.5075 
*I *9:g B *C 3.0275 0.5075 
*I *11:d B *C 3.6150 0.4775 
*I *36:g B *C 2.6575 1.1925 
*I *39:g B *C 3.0275 1.1925 
*I *40:d B *C 3.9025 1.2925 
*I *41:d B *C 3.9025 1.2925 
*N *28:1 *C 3.2600 0.6800 
*N *28:2 *C 3.0275 0.6800 
*N *28:8 *C 3.5050 0.6800 

*CAP
0 *40:d 8.33148e-17
1 *39:g 4.97915e-17
2 *36:g 1.11715e-16
3 *11:d 4.37684e-17
4 *9:g 3.39987e-17
5 *3:g 8.18704e-17
6 *28:8 7.63715e-17
7 *28:2 3.47923e-17
8 *28:1 3.4196e-17

*RES
0 *28:1 *28:2 64.315651  // $poly_conn
1 *28:2 *39:g 98.768608  // $poly_conn
2 *39:g *36:g 186.889923  // $poly_conn
3 *36:g *3:g 164.805481  // $poly_conn
4 *28:2 *9:g 20.563484  // $poly_conn
5 *40:d *28:8 62.654793  // $metal1_conn
6 *28:8 *28:1 0.148063  // $metal1_conn
7 *28:8 *11:d 75.138115  // $metal1_conn

*END

*D_NET *27 5.41381e-16

*CONN
*I *4:g B *C 2.7175 0.5075 
*I *9:d B *C 3.1200 0.5075 
*I *34:g B *C 2.4525 1.1925 
*I *39:d B *C 3.1200 1.1925 
*N *27:2 *C 2.4150 0.8100 
*N *27:4 *C 2.6900 0.7800 
*N *27:6 *C 3.0700 0.4925 

*CAP
0 *39:d 6.80021e-17
1 *34:g 4.48309e-17
2 *4:g 6.29524e-17
3 *27:6 1.17609e-16
4 *27:2 1.05154e-16
5 *27:4 1.42832e-16

*RES
0 *34:g *27:2 106.027016  // $poly_conn
1 *4:g *27:4 87.768875  // $poly_conn
2 *39:d *27:6 62.460144  // $metal1_conn
3 *27:6 *27:4 0.478335  // $metal1_conn
4 *27:4 *27:2 0.205685  // $metal1_conn
5 *27:6 *9:d 75.045204  // $metal1_conn

*END

*D_NET *26 2.50691e-16

*CONN
*I *16:g B *C 0.4025 0.5300 
*I *17:d B *C 0.7000 0.5300 
*I *44:g B *C 0.4025 1.0950 
*I *45:d B *C 0.7000 1.0950 
*N *26:1 *C 0.4650 0.7600 
*N *26:2 *C 0.4025 0.7600 
*N *26:6 *C 0.7100 0.7600 

*CAP
0 *45:d 7.76769e-17
1 *44:g 3.77572e-17
2 *17:d 2.13557e-17
3 *16:g 2.8528e-17
4 *26:6 2.4266e-17
5 *26:2 2.84627e-17
6 *26:1 3.26447e-17

*RES
0 *26:1 *26:2 46.294373  // $poly_conn
1 *26:2 *16:g 20.563484  // $poly_conn
2 *26:2 *44:g 30.819893  // $poly_conn
3 *45:d *26:6 20.938982  // $metal1_conn
4 *26:6 *26:1 0.152468  // $metal1_conn
5 *26:6 *17:d 75.11805  // $metal1_conn

*END

*D_NET *18 1.0827e-16

*CONN
*I *34:s B *C 2.3800 1.1925 
*I *24:d B *C 1.8950 1.0825 
*I *25:d B *C 1.8950 1.0825 

*CAP
0 *24:d 4.63968e-17
1 *34:s 6.18733e-17

*RES
0 *34:s *24:d 124.28228  // $metal1_conn

*END

