*SPEF "IEEE 1481-1999"
*DESIGN  "TLATNTSCAX16"
*DATE "Mon Sep 27 11:29:08 2010"
*VENDOR "Cadence Design Systems"
*PROGRAM "Assura RCX"
*VERSION "3.2 Red Hat Linux release 7.2 (Enigma) - (09/09/2009-10:39)"
*DESIGN_FLOW "Physical Verification"
*DIVIDER /
*DELIMITER :
*BUS_DELIMITER []
*T_UNIT 1 PS
*C_UNIT 1e15 FF
*R_UNIT 1 OHM
*L_UNIT 1 MH
// DeviceFingerDelim "@"
// MATCHED
// caps2d version: 10

*NAME_MAP
*1 VDD
*2 CK
*3 mn22
*4 mn22\@1
*5 mn22\@2
*6 mn22\@3
*7 mn22\@4
*8 mn22\@5
*9 mn22\@6
*10 mn22\@7
*11 mn22\@8
*12 Eb
*13 n5
*14 mn20
*15 CKb
*16 mn21
*17 mn21\@1
*18 mn20\@1
*19 mn22\@9
*20 mn22\@10
*21 mn22\@11
*22 mn22\@12
*23 mn22\@13
*24 mn3
*25 mp21
*26 mp21\@1
*27 mn10
*28 mp20
*29 mp22
*30 mn10\@1
*31 mp22\@9
*32 mp22\@1
*33 mn20\@2
*34 mp22\@10
*35 mp22\@2
*36 mn21\@2
*37 ECKb
*38 mp22\@11
*39 mp22\@3
*40 mn21\@3
*41 CKbb
*42 mp22\@12
*43 mp22\@4
*44 mn20\@3
*45 Eint
*46 mp22\@13
*47 mp22\@5
*48 mn1
*49 net246
*50 mp20\@1
*51 mp22\@6
*52 mn0
*53 net234
*54 mp3
*55 mp22\@7
*56 mn2
*57 net263
*58 E
*59 mp22\@8
*60 mn5
*61 net271\@2
*62 net271\@3
*63 net271
*64 net271\@1
*65 mp10
*66 mp10\@1
*67 mn16
*68 mp20\@2
*69 mn15
*70 mp21\@2
*71 mp21\@3
*72 mp20\@3
*73 mp1
*74 mp0
*75 mp2
*76 mp5
*77 mp16
*78 mp15
*79 VSS
*80 SE
*81 ECK

*GROUND_NETS VSS

*PORTS
*1 I
*79 I
*2 I
*58 I
*80 I
*81 O

*D_NET *1 1.49166e-15

*CONN
*P *1 I *C 0.1000 1.7100 
*I *29:s B *C 5.7150 1.1825 
*I *32:s B *C 6.1250 1.1825 
*I *35:s B *C 6.1250 1.1825 
*I *39:s B *C 6.5350 1.1825 
*I *43:s B *C 6.5350 1.1825 
*I *47:s B *C 6.9450 1.1825 
*I *51:s B *C 6.9450 1.1825 
*I *55:s B *C 7.3450 1.1825 
*I *59:s B *C 5.7150 1.1825 
*I *25:s B *C 4.0750 1.2100 
*I *26:s B *C 4.0750 1.2100 
*I *28:s B *C 4.5150 1.1825 
*I *31:s B *C 4.5150 1.1825 
*I *34:s B *C 4.8950 1.1825 
*I *38:s B *C 4.8950 1.1825 
*I *42:s B *C 5.3050 1.1825 
*I *46:s B *C 5.3050 1.1825 
*I *50:s B *C 3.6650 1.2100 
*I *54:s B *C 1.9300 1.1325 
*I *65:s B *C 2.3900 1.2500 
*I *66:s B *C 2.8750 1.2100 
*I *68:s B *C 2.8750 1.2100 
*I *70:s B *C 3.2550 1.2100 
*I *71:s B *C 3.2550 1.2100 
*I *72:s B *C 3.6650 1.2100 
*I *74:s B *C 0.5100 1.1925 
*I *75:s B *C 0.5100 1.1925 
*I *78:s B *C 1.9300 1.1325 
*N *1:3 *C 6.6000 1.7100 
*N *1:18 *C 1.6950 1.7100 
*N *1:19 *C 1.0000 1.7100 
*N *1:20 *C 0.4900 1.7100 

*CAP
0 *74:s 5.06263e-17
1 *54:s 4.01506e-17
2 *55:s 9.84292e-16
3 *1:20 1.35371e-17
4 *1:18 2.19713e-17
5 *1:3 3.70801e-16
6 *1 1.02819e-17

*RES
0 *1:20 *1 0.195197  // $metal1_conn
1 *1:3 *55:s 7.5  // $metal1_conn
2 *1:3 *55:s 8.333333  // $metal1_conn
3 *1:3 *55:s 8.333333  // $metal1_conn
4 *1:3 *1:19 7.5  // $metal1_conn
5 *1:18 *54:s 62.228413  // $metal1_conn
6 *1:20 *74:s 62.296822  // $metal1_conn
7 *55:s *1:18 0.305615  // $metal1_conn
8 *1:18 *1:19 0.348451  // $metal1_conn
9 *1:19 *1:20 0.255646  // $metal1_conn

*END

*D_NET *79 0

*CONN
*P *79 I *C 0.1000 0.0000 
*I *3:s B *C 5.6700 0.5125 
*I *4:s B *C 5.6700 0.5125 
*I *5:s B *C 6.0800 0.5125 
*I *6:s B *C 6.0800 0.5125 
*I *7:s B *C 6.4900 0.5125 
*I *8:s B *C 6.4900 0.5125 
*I *9:s B *C 6.9000 0.5125 
*I *10:s B *C 6.9000 0.5125 
*I *11:s B *C 7.3000 0.5125 
*I *14:s B *C 3.7650 0.4950 
*I *18:s B *C 4.4700 0.5125 
*I *19:s B *C 4.4700 0.5125 
*I *20:s B *C 4.8500 0.5125 
*I *21:s B *C 4.8500 0.5125 
*I *22:s B *C 5.2600 0.5125 
*I *23:s B *C 5.2600 0.5125 
*I *24:s B *C 2.0300 0.5725 
*I *27:s B *C 2.5950 0.5575 
*I *30:s B *C 3.1250 0.4950 
*I *33:s B *C 3.1250 0.4950 
*I *44:s B *C 3.7650 0.4950 
*I *48:s B *C 0.1350 0.3025 
*I *52:s B *C 0.5575 0.3025 
*I *56:s B *C 0.5575 0.3025 
*I *69:s B *C 2.0300 0.5725 
*N *79:3 *C 6.6000 0.0000 
*N *79:12 *C 3.7350 0.0000 
*N *79:16 *C 1.9450 0.0000 
*N *79:17 *C 1.0000 0.0000 
*N *79:18 *C 0.5550 0.0000 


*RES
0 *79 *48:s 75.181152  // $metal1_conn
1 *79:18 *79 0.228362  // $metal1_conn
2 *79:3 *11:s 6.2  // $metal1_conn
3 *79:3 *11:s 6.888889  // $metal1_conn
4 *79:3 *30:s 6.888889  // $metal1_conn
5 *79:3 *79:17 6.2  // $metal1_conn
6 *79:12 *14:s 75.261871  // $metal1_conn
7 *79:16 *24:s 75.117203  // $metal1_conn
8 *79:18 *52:s 75.182396  // $metal1_conn
9 *11:s *79:12 0.353271  // $metal1_conn
10 *79:12 *30:s 0.320664  // $metal1_conn
11 *30:s *79:16 0.28209  // $metal1_conn
12 *79:16 *79:17 0.473864  // $metal1_conn
13 *79:17 *79:18 0.223038  // $metal1_conn

*END

*D_NET *2 2.35308e-16

*CONN
*P *2 I *C 0.7000 0.6650 
*I *56:g B *C 0.6625 0.3025 
*I *75:g B *C 0.6625 1.1925 
*N *2:2 *C 0.6900 0.5100 

*CAP
0 *75:g 4.38544e-17
1 *56:g 2.68964e-17
2 *2:2 8.20926e-17
3 *2 8.24646e-17

*RES
0 *75:g *2:2 138.922729  // $poly_conn
1 *2:2 *56:g 26.102209  // $poly_conn
2 *2 *2:2 45.093136  // $metal1_conn

*END

*D_NET *58 2.69605e-16

*CONN
*P *58 I *C 0.1000 0.6650 
*I *48:g B *C 0.2275 0.3025 
*I *73:g B *C 0.2525 1.1925 
*N *58:2 *C 0.2175 0.9000 
*N *58:3 *C 0.1400 0.9000 

*CAP
0 *73:g 5.98409e-17
1 *48:g 4.92948e-17
2 *58:2 5.07974e-17
3 *58:3 5.75855e-17
4 *58 5.20866e-17

*RES
0 *73:g *58:2 49.726406  // $poly_conn
1 *58:2 *58:3 50.100433  // $poly_conn
2 *58:2 *48:g 128.542755  // $poly_conn
3 *58 *58:3 0.081956  // $metal1_conn

*END

*D_NET *80 3.20048e-16

*CONN
*P *80 I *C 0.5000 0.6650 
*I *52:g B *C 0.4525 0.3025 
*I *74:g B *C 0.3575 1.1925 
*N *80:2 *C 0.4900 0.5100 

*CAP
0 *74:g 9.46536e-17
1 *52:g 3.06531e-17
2 *80:2 1.09867e-16
3 *80 8.48744e-17

*RES
0 *52:g *80:2 25.129578  // $poly_conn
1 *80:2 *74:g 157.39505  // $poly_conn
2 *80 *80:2 45.093136  // $metal1_conn

*END

*D_NET *81 9.59168e-16

*CONN
*P *81 O *C 4.7000 0.8550 
*I *3:d B *C 5.4650 0.5125 
*I *4:d B *C 5.8750 0.5125 
*I *5:d B *C 5.8750 0.5125 
*I *6:d B *C 6.2850 0.5125 
*I *7:d B *C 6.2850 0.5125 
*I *8:d B *C 6.6950 0.5125 
*I *9:d B *C 6.6950 0.5125 
*I *10:d B *C 7.1050 0.5125 
*I *11:d B *C 7.1050 0.5125 
*I *19:d B *C 4.6450 0.5125 
*I *20:d B *C 4.6450 0.5125 
*I *21:d B *C 5.0550 0.5125 
*I *22:d B *C 5.0550 0.5125 
*I *23:d B *C 5.4650 0.5125 
*I *29:d B *C 5.9200 1.1825 
*I *32:d B *C 5.9200 1.1825 
*I *35:d B *C 6.3300 1.1825 
*I *39:d B *C 6.3300 1.1825 
*I *43:d B *C 6.7400 1.1825 
*I *47:d B *C 6.7400 1.1825 
*I *51:d B *C 7.1500 1.1825 
*I *55:d B *C 7.1500 1.1825 
*I *59:d B *C 5.5100 1.1825 
*I *31:d B *C 4.6900 1.1825 
*I *34:d B *C 4.6900 1.1825 
*I *38:d B *C 5.1000 1.1825 
*I *42:d B *C 5.1000 1.1825 
*I *46:d B *C 5.5100 1.1825 

*CAP
0 *81 9.59168e-16


*END

*D_NET *64 2.59478e-18

*CONN
*I *17:s B *C 4.2450 0.4950 
*I *18:d B *C 4.2450 0.4950 

*CAP
0 *17:s 2.59478e-18

*RES
0 *18:d *17:s 0.001  // $mwires

*END

*D_NET *63 1.79722e-18

*CONN
*I *14:d B *C 3.9200 0.4950 
*I *16:s B *C 3.9200 0.4950 

*CAP
0 *14:d 1.79722e-18

*RES
0 *16:s *14:d 0.001  // $mwires

*END

*D_NET *62 3.73376e-18

*CONN
*I *40:s B *C 3.5850 0.4950 
*I *44:d B *C 3.5850 0.4950 

*CAP
0 *40:s 3.73376e-18

*RES
0 *44:d *40:s 0.001  // $mwires

*END

*D_NET *61 0

*CONN
*I *33:d B *C 3.2500 0.4950 
*I *36:s B *C 3.2500 0.4950 


*RES
0 *36:s *33:d 0.001  // $mwires

*END

*D_NET *57 1.65622e-18

*CONN
*I *67:s B *C 1.7025 0.5725 
*I *69:d B *C 1.7025 0.5725 

*CAP
0 *67:s 1.65622e-18

*RES
0 *69:d *67:s 0.001  // $mwires

*END

*D_NET *53 1.34581e-18

*CONN
*I *77:s B *C 1.5700 1.2875 
*I *78:d B *C 1.5700 1.2875 

*CAP
0 *77:s 1.34581e-18

*RES
0 *78:d *77:s 0.001  // $mwires

*END

*D_NET *49 1.43799e-18

*CONN
*I *73:s B *C 0.3050 1.1925 
*I *74:d B *C 0.3050 1.1925 

*CAP
0 *73:s 1.43799e-18

*RES
0 *74:d *73:s 0.001  // $mwires

*END

*D_NET *45 1.39569e-15

*CONN
*I *14:g B *C 3.8675 0.4950 
*I *18:g B *C 4.3125 0.4950 
*I *27:d B *C 2.7450 0.5575 
*I *30:d B *C 2.7450 0.5575 
*I *33:g B *C 3.1975 0.4950 
*I *44:g B *C 3.6625 0.4950 
*I *69:g B *C 1.7825 0.5725 
*I *28:g B *C 4.3825 1.2100 
*I *50:g B *C 3.7675 1.2100 
*I *65:d B *C 2.5400 1.2500 
*I *66:d B *C 2.5400 1.2500 
*I *68:g B *C 2.9475 1.2100 
*I *72:g B *C 3.5625 1.2100 
*I *78:g B *C 1.6225 1.2875 
*N *45:2 *C 1.8100 0.7850 
*N *45:18 *C 2.6900 0.9050 
*N *45:19 *C 2.6900 0.8350 

*CAP
0 *78:g 9.89453e-17
1 *65:d 6.33916e-17
2 *28:g 6.51238e-16
3 *69:g 4.03446e-17
4 *44:g 3.84055e-17
5 *33:g 8.43489e-17
6 *27:d 3.77389e-17
7 *18:g 6.73416e-17
8 *14:g 6.04716e-17
9 *45:19 7.34981e-17
10 *45:18 2.52454e-17
11 *45:2 1.54725e-16

*RES
0 *45:2 *78:g 121.966492  // $poly_conn
1 *28:g *18:g 60.119781  // $poly_conn
2 *14:g *28:g 83.006393  // $poly_conn
3 *28:g *44:g 60.988419  // $poly_conn
4 *33:g *28:g 101.453659  // $poly_conn
5 *69:g *45:2 27.384262  // $poly_conn
6 *45:19 *45:2 45.614403  // $metal1_conn
7 *45:18 *65:d 31.335426  // $metal1_conn
8 *45:19 *27:d 75.164543  // $metal1_conn
9 *28:g *45:18 0.179815  // $metal1_conn
10 *45:18 *45:19 0.042263  // $metal1_conn

*END

*D_NET *41 1.28927e-15

*CONN
*I *16:g B *C 3.9725 0.4950 
*I *17:g B *C 4.1775 0.4950 
*I *24:d B *C 2.2275 0.5725 
*I *36:g B *C 3.3025 0.4950 
*I *40:g B *C 3.5075 0.4950 
*I *67:g B *C 1.6225 0.5725 
*I *25:g B *C 3.9725 1.2100 
*I *26:g B *C 4.1775 1.2100 
*I *54:d B *C 2.0950 1.1325 
*I *70:g B *C 3.1525 1.2100 
*I *71:g B *C 3.3575 1.2100 
*I *76:g B *C 1.3125 1.2875 
*N *41:2 *C 1.6500 0.8100 
*N *41:18 *C 2.2650 0.5650 
*N *41:19 *C 1.6500 0.8100 

*CAP
0 *76:g 5.74037e-17
1 *54:d 9.85174e-17
2 *26:g 5.68613e-16
3 *67:g 3.02345e-17
4 *40:g 4.29937e-17
5 *36:g 4.6014e-17
6 *24:d 1.57362e-16
7 *17:g 3.50791e-17
8 *16:g 4.57725e-17
9 *41:2 2.07283e-16

*RES
0 *41:2 *76:g 156.39505  // $poly_conn
1 *26:g *17:g 20.001841  // $poly_conn
2 *26:g *16:g 19.719322  // $poly_conn
3 *40:g *26:g 55.112999  // $poly_conn
4 *26:g *36:g 19.301718  // $poly_conn
5 *67:g *41:2 30.632605  // $poly_conn
6 *41:2 *41:19 45  // $metal1_conn
7 *41:19 *54:d 62.526852  // $metal1_conn
8 *24:d *41:18 75  // $metal1_conn
9 *26:g *41:18 1.042234  // $metal1_conn
10 *41:18 *41:19 0.633418  // $metal1_conn

*END

*D_NET *37 1.28969e-15

*CONN
*I *3:g B *C 5.5675 0.5125 
*I *4:g B *C 5.7725 0.5125 
*I *5:g B *C 5.9775 0.5125 
*I *6:g B *C 6.1825 0.5125 
*I *7:g B *C 6.3875 0.5125 
*I *8:g B *C 6.5925 0.5125 
*I *9:g B *C 6.7975 0.5125 
*I *10:g B *C 7.0025 0.5125 
*I *11:g B *C 7.2075 0.5125 
*I *16:d B *C 4.0750 0.4950 
*I *17:d B *C 4.0750 0.4950 
*I *19:g B *C 4.5425 0.5125 
*I *20:g B *C 4.7475 0.5125 
*I *21:g B *C 4.9525 0.5125 
*I *22:g B *C 5.1575 0.5125 
*I *23:g B *C 5.3625 0.5125 
*I *36:d B *C 3.4050 0.4950 
*I *40:d B *C 3.4050 0.4950 
*I *29:g B *C 5.8175 1.1825 
*I *32:g B *C 6.0225 1.1825 
*I *35:g B *C 6.2275 1.1825 
*I *39:g B *C 6.4325 1.1825 
*I *43:g B *C 6.6375 1.1825 
*I *47:g B *C 6.8425 1.1825 
*I *51:g B *C 7.0475 1.1825 
*I *55:g B *C 7.2525 1.1825 
*I *59:g B *C 5.6125 1.1825 
*I *25:d B *C 3.8700 1.2100 
*I *26:d B *C 4.2800 1.2100 
*I *28:d B *C 4.2800 1.2100 
*I *31:g B *C 4.5875 1.1825 
*I *34:g B *C 4.7925 1.1825 
*I *38:g B *C 4.9975 1.1825 
*I *42:g B *C 5.2025 1.1825 
*I *46:g B *C 5.4075 1.1825 
*I *50:d B *C 3.8700 1.2100 
*I *68:d B *C 3.0500 1.2100 
*I *70:d B *C 3.0500 1.2100 
*I *71:d B *C 3.4600 1.2100 
*I *72:d B *C 3.4600 1.2100 
*N *37:61 *C 4.5300 0.7750 
*N *37:63 *C 4.0750 0.5550 

*CAP
0 *26:d 3.9435e-16
1 *55:g 7.16212e-16
2 *36:d 8.10241e-17
3 *16:d 9.81048e-17

*RES
0 *16:d *37:63 75  // $metal1_conn
1 *37:63 *36:d 75.503052  // $metal1_conn
2 *55:g *37:61 45  // $metal1_conn
3 *26:d *37:61 0.398474  // $metal1_conn
4 *37:61 *37:63 0.409045  // $metal1_conn

*END

*D_NET *15 7.80475e-16

*CONN
*I *24:g B *C 2.1075 0.5725 
*I *56:d B *C 0.7550 0.3025 
*I *60:g B *C 1.2275 0.5725 
*I *54:g B *C 2.0025 1.1325 
*I *75:d B *C 0.8425 1.1450 
*I *77:g B *C 1.5175 1.2875 
*N *15:2 *C 1.2650 0.2200 
*N *15:4 *C 1.4900 0.9900 
*N *15:7 *C 2.1350 0.3750 
*N *15:8 *C 1.4900 0.2600 
*N *15:9 *C 0.8700 0.2900 

*CAP
0 *77:g 7.08305e-17
1 *75:d 9.8841e-17
2 *54:g 5.94536e-17
3 *60:g 1.70303e-17
4 *56:d 2.35148e-17
5 *24:g 3.72413e-17
6 *15:9 7.79884e-17
7 *15:8 8.59737e-17
8 *15:2 6.4298e-17
9 *15:4 1.56948e-16
10 *15:7 8.83551e-17

*RES
0 *60:g *15:2 107.309067  // $poly_conn
1 *77:g *15:4 85.204773  // $poly_conn
2 *54:g *24:g 112.530945  // $poly_conn
3 *24:g *15:7 68.538101  // $poly_conn
4 *15:4 *15:8 0.554563  // $metal1_conn
5 *15:8 *15:2 0.163007  // $metal1_conn
6 *15:2 *15:9 0.292612  // $metal1_conn
7 *15:9 *56:d 75.055328  // $metal1_conn
8 *15:8 *15:7 0.58299  // $metal1_conn
9 *15:9 *75:d 62.587723  // $metal1_conn

*END

*D_NET *13 5.28155e-16

*CONN
*I *27:g B *C 2.6425 0.5575 
*I *30:g B *C 2.8475 0.5575 
*I *60:s B *C 1.4250 0.5725 
*I *67:d B *C 1.4250 0.5725 
*I *65:g B *C 2.4375 1.2500 
*I *66:g B *C 2.6425 1.2500 
*I *76:d B *C 1.4150 1.2875 
*I *77:d B *C 1.4150 1.2875 
*N *13:8 *C 1.4150 1.1800 

*CAP
0 *66:g 2.00961e-16
1 *60:s 8.19832e-17
2 *27:g 7.66343e-17
3 *13:8 1.68576e-16

*RES
0 *27:g *66:g 51.15937  // $poly_conn
1 *66:g *13:8 45.987961  // $metal1_conn
2 *13:8 *76:d 62.024357  // $metal1_conn
3 *13:8 *60:s 75.548355  // $metal1_conn

*END

*D_NET *12 4.5193e-16

*CONN
*I *48:d B *C 0.3400 0.3025 
*I *52:d B *C 0.3400 0.3025 
*I *60:d B *C 1.1350 0.5725 
*I *73:d B *C 0.1600 1.1925 
*I *76:s B *C 1.2400 1.2875 
*N *12:3 *C 1.1250 1.3350 
*N *12:4 *C 0.3300 1.0800 

*CAP
0 *76:s 1.24617e-16
1 *73:d 2.52555e-17
2 *60:d 7.32107e-17
3 *48:d 8.27177e-17
4 *12:4 1.4613e-16

*RES
0 *60:d *12:3 75.548378  // $metal1_conn
1 *12:3 *12:4 0.726961  // $metal1_conn
2 *12:4 *73:d 62.173504  // $metal1_conn
3 *12:4 *48:d 75.578552  // $metal1_conn
4 *76:s *12:3 62  // $metal1_conn

*END

