*SPEF "IEEE 1481-1999"
*DESIGN  "TLATSRX2"
*DATE "Mon Sep 27 11:33:41 2010"
*VENDOR "Cadence Design Systems"
*PROGRAM "Assura RCX"
*VERSION "3.2 Red Hat Linux release 7.2 (Enigma) - (09/09/2009-10:39)"
*DESIGN_FLOW "Physical Verification"
*DIVIDER /
*DELIMITER :
*BUS_DELIMITER []
*T_UNIT 1 PS
*C_UNIT 1e15 FF
*R_UNIT 1 OHM
*L_UNIT 1 MH
// DeviceFingerDelim "@"
// MATCHED
// caps2d version: 10

*NAME_MAP
*1 Q
*2 VDD
*3 mp11
*4 mp10
*5 mp22
*6 net103
*7 mp22\@1
*8 mp20
*9 mp20\@1
*10 mp21
*11 mp21\@1
*12 mp5
*13 mp2
*14 mp6
*15 mp17
*16 mp16
*17 mp15
*18 mp0
*19 mp1
*20 mn5
*21 QN
*22 mn6
*23 mn17
*24 mn16
*25 mn15
*26 mn0
*27 mn1
*28 VSS
*29 RN
*30 Qbint
*31 Gbb
*32 n5
*33 mn11
*34 Qint
*35 mn10
*36 Gb
*37 mn22
*38 net142
*39 mn22\@1
*40 net191
*41 mn20
*42 net171
*43 SN
*44 mn20\@1
*45 net167
*46 D
*47 mn21
*48 net159
*49 mn21\@1
*50 mn2
*51 G
*52 net183

*GROUND_NETS VSS

*PORTS
*2 I
*28 I
*46 I
*51 I
*29 I
*43 I
*1 O
*21 O

*D_NET *2 7.16526e-16

*CONN
*P *2 I *C 0.1000 1.7100 
*I *3:s B *C 2.7350 1.1900 
*I *4:s B *C 3.3100 1.1500 
*I *5:s B *C 3.3100 1.1500 
*I *7:s B *C 3.6900 1.1500 
*I *8:s B *C 3.6900 1.1500 
*I *9:s B *C 4.1000 1.1500 
*I *10:s B *C 4.1000 1.1500 
*I *11:s B *C 4.5000 1.1500 
*I *13:s B *C 0.5750 1.1125 
*I *12:s B *C 0.5750 1.1125 
*I *16:s B *C 1.5600 1.5700 
*I *17:s B *C 1.9600 1.5700 
*I *18:s B *C 1.9600 1.5700 
*I *19:s B *C 2.7350 1.1900 
*N *2:4 *C 3.6000 1.7100 
*N *2:7 *C 2.6500 1.7100 
*N *2:8 *C 1.9350 1.7100 
*N *2:9 *C 1.5350 1.7100 
*N *2:10 *C 1.2000 1.7100 
*N *2:11 *C 0.4900 1.7100 

*CAP
0 *17:s 1.7187e-17
1 *16:s 1.93416e-17
2 *13:s 2.98595e-17
3 *11:s 2.7403e-16
4 *3:s 2.5787e-17
5 *2:11 1.19718e-17
6 *2:9 1.11675e-17
7 *2:8 2.38343e-17
8 *2:7 2.73122e-17
9 *2:4 2.69349e-16
10 *2 6.68701e-18

*RES
0 *2:11 *2 0.195099  // $metal1_conn
1 *2:4 *11:s 6.25  // $metal1_conn
2 *2:4 *2:10 6.25  // $metal1_conn
3 *2:7 *3:s 62.074516  // $metal1_conn
4 *2:8 *17:s 62.074516  // $metal1_conn
5 *2:9 *16:s 62.045811  // $metal1_conn
6 *2:11 *13:s 62.241108  // $metal1_conn
7 *11:s *2:7 0.270363  // $metal1_conn
8 *2:7 *2:8 0.358108  // $metal1_conn
9 *2:8 *2:9 0.199218  // $metal1_conn
10 *2:9 *2:10 0.166823  // $metal1_conn
11 *2:10 *2:11 0.355797  // $metal1_conn

*END

*D_NET *28 0

*CONN
*P *28 I *C 0.1000 0.0000 
*I *35:s B *C 3.2800 0.4900 
*I *37:s B *C 3.2800 0.4900 
*I *39:s B *C 3.6900 0.4900 
*I *41:s B *C 3.6900 0.4900 
*I *44:s B *C 4.1000 0.4900 
*I *47:s B *C 4.1000 0.4900 
*I *49:s B *C 4.5000 0.4900 
*I *50:s B *C 0.4625 0.3825 
*I *20:s B *C 0.4625 0.3825 
*I *25:s B *C 1.9200 0.3825 
*I *26:s B *C 1.9200 0.3825 
*N *28:4 *C 3.6000 0.0000 
*N *28:7 *C 1.8650 0.0000 
*N *28:8 *C 1.2000 0.0000 
*N *28:9 *C 0.3750 0.0000 


*RES
0 *28:9 *28 0.137438  // $metal1_conn
1 *28:4 *49:s 5.166667  // $metal1_conn
2 *28:4 *28:8 5.166667  // $metal1_conn
3 *28:7 *25:s 75.127304  // $metal1_conn
4 *28:9 *50:s 75.236328  // $metal1_conn
5 *49:s *28:7 0.663962  // $metal1_conn
6 *28:7 *28:8 0.333234  // $metal1_conn
7 *28:8 *28:9 0.413458  // $metal1_conn

*END

*D_NET *46 2.31207e-16

*CONN
*P *46 I *C 0.5000 0.8550 
*I *20:g B *C 0.6225 0.3825 
*I *12:g B *C 0.6225 1.1125 
*N *46:2 *C 0.5950 0.7200 

*CAP
0 *12:g 4.0307e-17
1 *20:g 3.17975e-17
2 *46:2 1.03637e-16
3 *46 5.54654e-17

*RES
0 *12:g *46:2 64.563744  // $poly_conn
1 *46:2 *20:g 59.435539  // $poly_conn
2 *46:2 *46 45.035686  // $metal1_conn

*END

*D_NET *51 2.00254e-16

*CONN
*P *51 I *C 2.3000 0.8550 
*I *27:g B *C 2.2625 0.3825 
*I *19:g B *C 2.3175 1.1425 
*N *51:2 *C 2.2900 0.8500 
*N *51:4 *C 2.2900 0.8500 

*CAP
0 *19:g 2.55848e-17
1 *27:g 3.57768e-17
2 *51:2 1.38892e-16

*RES
0 *19:g *51:2 38.922722  // $poly_conn
1 *51:2 *27:g 92.768875  // $poly_conn
2 *51:4 *51 0.003111  // $metal1_conn
3 *51:2 *51:4 45  // $metal1_conn

*END

*D_NET *29 2.90846e-16

*CONN
*P *29 I *C 1.9000 1.0450 
*I *25:g B *C 1.7025 0.3825 
*I *26:g B *C 1.9675 0.3825 
*I *17:g B *C 1.8025 1.1425 
*I *18:g B *C 1.9975 1.1425 
*N *29:2 *C 1.8400 0.9350 
*N *29:3 *C 1.8025 0.5525 

*CAP
0 *18:g 2.65705e-17
1 *17:g 2.51974e-17
2 *26:g 2.8065e-17
3 *25:g 4.47695e-17
4 *29:3 3.51057e-17
5 *29:2 1.09085e-16
6 *29 2.20534e-17

*RES
0 *18:g *29:2 47.619846  // $poly_conn
1 *29:2 *29:3 84.082993  // $poly_conn
2 *29:3 *25:g 43.19223  // $poly_conn
3 *29:2 *17:g 16.15522  // $poly_conn
4 *29:3 *26:g 59.858898  // $poly_conn
5 *29 *29:2 45.053539  // $metal1_conn

*END

*D_NET *43 2.7038e-16

*CONN
*P *43 I *C 3.1000 1.0450 
*I *35:g B *C 3.0875 0.5175 
*I *4:g B *C 3.0875 1.1900 
*N *43:2 *C 3.1250 0.8550 

*CAP
0 *4:g 3.79645e-17
1 *35:g 6.76156e-17
2 *43:2 9.55669e-17
3 *43 6.92328e-17

*RES
0 *4:g *43:2 36.668037  // $poly_conn
1 *43:2 *35:g 50.770603  // $poly_conn
2 *43 *43:2 45.090683  // $metal1_conn

*END

*D_NET *1 1.4595e-16

*CONN
*P *1 O *C 4.5000 0.8550 
*I *47:d B *C 4.3050 0.4900 
*I *49:d B *C 4.3050 0.4900 
*I *10:d B *C 4.3050 1.1500 
*I *11:d B *C 4.3050 1.1500 
*N *1:3 *C 4.3050 0.5600 

*CAP
0 *10:d 6.28447e-17
1 *47:d 2.63305e-17
2 *1 5.67751e-17

*RES
0 *10:d *1 20.927835  // $metal1_conn
1 *1 *1:3 0.18945  // $metal1_conn
2 *47:d *1:3 75  // $metal1_conn

*END

*D_NET *21 1.79595e-16

*CONN
*P *21 O *C 3.7000 0.6650 
*I *37:d B *C 3.4700 0.4900 
*I *39:d B *C 3.4700 0.4900 
*I *5:d B *C 3.4850 1.1500 
*I *7:d B *C 3.4850 1.1500 
*N *21:2 *C 3.5050 0.6550 
*N *21:4 *C 3.4850 0.4750 

*CAP
0 *5:d 7.14075e-17
1 *37:d 3.0293e-17
2 *21:2 4.40215e-17
3 *21 3.38731e-17

*RES
0 *21:2 *21 0.112655  // $metal1_conn
1 *5:d *21:2 21.034864  // $metal1_conn
2 *37:d *21:4 75  // $metal1_conn
3 *21:2 *21:4 0.124621  // $metal1_conn

*END

*D_NET *52 0

*CONN
*I *33:s B *C 3.0350 0.5175 
*I *35:d B *C 3.0350 0.5175 


*RES
0 *35:d *33:s 0.001  // $mwires

*END

*D_NET *48 1.73155e-18

*CONN
*I *26:d B *C 2.1150 0.3825 
*I *27:s B *C 2.1150 0.3825 

*CAP
0 *26:d 1.73155e-18

*RES
0 *27:s *26:d 0.001  // $mwires

*END

*D_NET *45 1.12865e-18

*CONN
*I *24:s B *C 1.6500 0.3825 
*I *25:d B *C 1.6500 0.3825 

*CAP
0 *24:s 1.12865e-18

*RES
0 *25:d *24:s 0.001  // $mwires

*END

*D_NET *42 4.38737e-19

*CONN
*I *23:s B *C 1.4700 0.3825 
*I *24:d B *C 1.4700 0.3825 

*CAP
0 *23:s 4.38737e-19

*RES
0 *24:d *23:s 0.001  // $mwires

*END

*D_NET *40 0

*CONN
*I *20:d B *C 0.7600 0.3825 
*I *22:s B *C 0.7600 0.3825 


*RES
0 *22:s *20:d 0.001  // $mwires

*END

*D_NET *38 8.16553e-18

*CONN
*I *12:d B *C 0.8125 1.1125 
*I *14:s B *C 0.8125 1.1125 

*CAP
0 *12:d 8.16553e-18

*RES
0 *14:s *12:d 0.001  // $mwires

*END

*D_NET *36 9.89452e-16

*CONN
*I *50:g B *C 0.3025 0.3825 
*I *23:g B *C 1.3425 0.3825 
*I *27:d B *C 2.3550 0.3825 
*I *13:g B *C 0.3575 1.1125 
*I *14:g B *C 1.0025 1.1125 
*I *18:d B *C 2.1575 1.1425 
*I *19:d B *C 2.1575 1.1425 
*N *36:2 *C 0.3300 0.5650 
*N *36:5 *C 1.0500 0.8050 
*N *36:7 *C 1.3700 0.6650 
*N *36:10 *C 2.1000 1.1900 
*N *36:11 *C 1.0500 0.5300 

*CAP
0 *18:d 1.88514e-16
1 *14:g 3.25099e-17
2 *13:g 4.60547e-17
3 *27:d 1.28849e-16
4 *23:g 3.53708e-17
5 *50:g 2.00463e-17
6 *36:11 1.38837e-16
7 *36:2 1.21973e-16
8 *36:5 9.10189e-17
9 *36:7 1.86278e-16

*RES
0 *13:g *36:2 104.307335  // $poly_conn
1 *36:2 *50:g 19.691952  // $poly_conn
2 *14:g *36:5 87.47493  // $poly_conn
3 *23:g *36:7 90.332977  // $poly_conn
4 *27:d *36:10 75.880493  // $metal1_conn
5 *36:10 *36:7 0.858918  // $metal1_conn
6 *36:7 *36:11 0.778623  // $metal1_conn
7 *36:11 *36:2 45.496243  // $metal1_conn
8 *36:11 *36:5 0.224659  // $metal1_conn
9 *18:d *36:10 62  // $metal1_conn

*END

*D_NET *34 9.38059e-16

*CONN
*I *33:d B *C 2.8900 0.5175 
*I *37:g B *C 3.3525 0.4900 
*I *39:g B *C 3.5875 0.4900 
*I *41:g B *C 3.7925 0.4900 
*I *44:g B *C 3.9975 0.4900 
*I *24:g B *C 1.5975 0.3825 
*I *3:d B *C 2.9350 1.1900 
*I *4:d B *C 2.9350 1.1900 
*I *5:g B *C 3.3825 1.1500 
*I *7:g B *C 3.5875 1.1500 
*I *8:g B *C 3.7925 1.1500 
*I *9:g B *C 3.9975 1.1500 
*I *16:g B *C 1.5975 1.1425 
*N *34:3 *C 1.5600 0.2100 
*N *34:18 *C 2.8800 0.6650 
*N *34:20 *C 2.8800 0.4750 

*CAP
0 *16:g 6.65303e-17
1 *9:g 1.23679e-16
2 *7:g 1.81495e-16
3 *3:d 9.28617e-17
4 *24:g 6.34935e-17
5 *33:d 1.48209e-16
6 *34:18 6.6058e-17
7 *34:3 1.95732e-16

*RES
0 *16:g *24:g 148.717941  // $poly_conn
1 *24:g *34:3 61.15522  // $poly_conn
2 *9:g *7:g 48.231998  // $poly_conn
3 *34:20 *34:3 1.420966  // $metal1_conn
4 *3:d *34:18 31.426823  // $metal1_conn
5 *33:d *34:20 75  // $metal1_conn
6 *34:18 *7:g 45.287842  // $metal1_conn
7 *34:18 *34:20 0.126394  // $metal1_conn

*END

*D_NET *32 6.73814e-16

*CONN
*I *33:g B *C 2.9825 0.5175 
*I *22:d B *C 1.1200 0.3825 
*I *23:d B *C 1.1200 0.3825 
*I *3:g B *C 2.7825 1.1900 
*I *14:d B *C 1.1050 1.1125 
*I *15:d B *C 1.1050 1.1125 
*N *32:2 *C 2.7450 0.9350 
*N *32:5 *C 1.1050 1.0650 

*CAP
0 *14:d 2.36796e-16
1 *3:g 2.56917e-17
2 *22:d 9.69628e-17
3 *33:g 6.89489e-17
4 *32:2 2.45414e-16

*RES
0 *33:g *32:2 117.651459  // $poly_conn
1 *32:2 *3:g 16.15522  // $poly_conn
2 *32:2 *32:5 46.721851  // $metal1_conn
3 *32:5 *22:d 75.566872  // $metal1_conn
4 *14:d *32:5 62  // $metal1_conn

*END

*D_NET *31 4.19191e-16

*CONN
*I *50:d B *C 0.1950 0.3825 
*I *22:g B *C 0.8975 0.3825 
*I *13:d B *C 0.2650 1.1125 
*I *15:g B *C 1.2075 1.1125 
*N *31:2 *C 0.8600 0.7000 
*N *31:6 *C 0.2550 1.1600 

*CAP
0 *15:g 7.62117e-17
1 *13:d 1.01116e-16
2 *22:g 2.73042e-17
3 *50:d 5.65681e-17
4 *31:2 1.57991e-16

*RES
0 *15:g *31:2 157.39505  // $poly_conn
1 *31:2 *22:g 53.334705  // $poly_conn
2 *50:d *31:6 75.549614  // $metal1_conn
3 *31:6 *31:2 45.706661  // $metal1_conn
4 *13:d *31:6 62  // $metal1_conn

*END

*D_NET *30 2.90494e-16

*CONN
*I *41:d B *C 3.8950 0.4900 
*I *44:d B *C 3.8950 0.4900 
*I *47:g B *C 4.2025 0.4900 
*I *49:g B *C 4.4075 0.4900 
*I *8:d B *C 3.8950 1.1500 
*I *9:d B *C 3.8950 1.1500 
*I *10:g B *C 4.2025 1.1500 
*I *11:g B *C 4.4075 1.1500 
*N *30:7 *C 3.8950 0.7450 

*CAP
0 *11:g 1.61057e-16
1 *8:d 7.54349e-17
2 *41:d 2.11654e-17
3 *30:7 3.28365e-17

*RES
0 *30:7 *8:d 20.959206  // $metal1_conn
1 *30:7 *41:d 75.123917  // $metal1_conn
2 *11:g *30:7 45.165379  // $metal1_conn

*END

*D_NET *6 1.08516e-16

*CONN
*I *15:s B *C 1.3000 1.1125 
*I *16:d B *C 1.7000 1.1425 
*I *17:d B *C 1.7000 1.1425 

*CAP
0 *16:d 6.13129e-17
1 *15:s 4.72033e-17

*RES
0 *16:d *15:s 124.233887  // $metal1_conn

*END

