*SPEF "IEEE 1481-1999"
*DESIGN  "TLATNTSCAX4"
*DATE "Mon Sep 27 11:30:39 2010"
*VENDOR "Cadence Design Systems"
*PROGRAM "Assura RCX"
*VERSION "3.2 Red Hat Linux release 7.2 (Enigma) - (09/09/2009-10:39)"
*DESIGN_FLOW "Physical Verification"
*DIVIDER /
*DELIMITER :
*BUS_DELIMITER []
*T_UNIT 1 PS
*C_UNIT 1e15 FF
*R_UNIT 1 OHM
*L_UNIT 1 MH
// DeviceFingerDelim "@"
// MATCHED
// caps2d version: 10

*NAME_MAP
*1 CK
*2 VSS
*3 mn10
*4 mn20
*5 mn0
*6 mn21
*7 mn2
*8 mn22
*9 mn5
*10 mn22\@1
*11 mn16
*12 mn22\@2
*13 mn15
*14 mn22\@3
*15 mn3
*16 mn1
*17 CKb
*18 ECKb
*19 Eint
*20 VDD
*21 mp0
*22 mp2
*23 mp5
*24 mp16
*25 mp15
*26 n5
*27 Eb
*28 CKbb
*29 net246
*30 net234
*31 net263
*32 net271
*33 mp10
*34 mp20
*35 mp21
*36 mp22
*37 mp22\@1
*38 mp22\@2
*39 mp22\@3
*40 mp3
*41 mp1
*42 SE
*43 ECK
*44 E

*GROUND_NETS VSS

*PORTS
*20 I
*2 I
*1 I
*44 I
*42 I
*43 O

*D_NET *20 7.29996e-16

*CONN
*P *20 I *C 0.1000 1.7100 
*I *33:s B *C 2.8400 1.1900 
*I *34:s B *C 2.8400 1.1900 
*I *35:s B *C 3.2700 1.1900 
*I *36:s B *C 3.2700 1.1900 
*I *37:s B *C 3.6800 1.1900 
*I *38:s B *C 3.6800 1.1900 
*I *39:s B *C 4.0800 1.1900 
*I *40:s B *C 2.1300 1.1025 
*I *21:s B *C 0.5700 1.2875 
*I *22:s B *C 0.5700 1.2875 
*I *25:s B *C 2.1300 1.1025 
*N *20:4 *C 3.2000 1.7100 
*N *20:5 *C 3.2000 1.7100 
*N *20:6 *C 2.8100 1.7100 
*N *20:7 *C 2.0450 1.7100 
*N *20:8 *C 1.1000 1.7100 
*N *20:9 *C 0.5700 1.7100 

*CAP
0 *21:s 3.73679e-17
1 *40:s 2.20261e-17
2 *39:s 2.13928e-16
3 *33:s 5.38569e-17
4 *20:9 1.98024e-17
5 *20:7 3.88052e-17
6 *20:6 2.23592e-17
7 *20:4 3.07849e-16
8 *20 1.40012e-17

*RES
0 *20:9 *20 0.235368  // $metal1_conn
1 *20:4 *20:5 7.5  // $metal1_conn
2 *20:4 *20:8 6.818182  // $metal1_conn
3 *20:6 *33:s 62.360882  // $metal1_conn
4 *20:7 *40:s 62.045841  // $metal1_conn
5 *20:9 *21:s 62.2369  // $metal1_conn
6 *39:s *20:5 0.03492  // $metal1_conn
7 *20:5 *20:6 0.19548  // $metal1_conn
8 *20:6 *20:7 0.382484  // $metal1_conn
9 *20:7 *20:8 0.472993  // $metal1_conn
10 *20:8 *20:9 0.265723  // $metal1_conn

*END

*D_NET *2 0

*CONN
*P *2 I *C 0.1000 0.0000 
*I *3:s B *C 2.7650 0.5000 
*I *4:s B *C 2.7650 0.5000 
*I *8:s B *C 3.2800 0.4550 
*I *10:s B *C 3.6800 0.4550 
*I *12:s B *C 3.6800 0.4550 
*I *14:s B *C 4.0800 0.4550 
*I *15:s B *C 2.0100 0.5875 
*I *16:s B *C 0.1550 0.5375 
*I *5:s B *C 0.5700 0.5375 
*I *7:s B *C 0.5700 0.5375 
*I *13:s B *C 2.0100 0.5875 
*N *2:4 *C 3.2000 0.0000 
*N *2:5 *C 3.2000 0.0000 
*N *2:6 *C 2.7350 0.0000 
*N *2:7 *C 2.0400 0.0000 
*N *2:8 *C 1.1000 0.0000 
*N *2:9 *C 0.5400 0.0000 
*N *2:10 *C 0.1450 0.0000 


*RES
0 *2:10 *2 0.022128  // $metal1_conn
1 *2:4 *2:5 6.2  // $metal1_conn
2 *2:4 *2:8 5.636364  // $metal1_conn
3 *2:6 *3:s 75.360878  // $metal1_conn
4 *2:7 *15:s 75.381073  // $metal1_conn
5 *2:9 *5:s 75.342667  // $metal1_conn
6 *2:10 *16:s 75.335564  // $metal1_conn
7 *14:s *2:5 0.03492  // $metal1_conn
8 *2:5 *2:6 0.23311  // $metal1_conn
9 *2:6 *2:7 0.348313  // $metal1_conn
10 *2:7 *2:8 0.471434  // $metal1_conn
11 *2:8 *2:9 0.280775  // $metal1_conn
12 *2:9 *2:10 0.197793  // $metal1_conn

*END

*D_NET *1 1.95069e-16

*CONN
*P *1 I *C 0.7000 1.0450 
*I *7:g B *C 0.6725 0.5375 
*I *22:g B *C 0.6725 1.2875 
*N *1:2 *C 0.6350 1.0350 
*N *1:4 *C 0.6350 1.0350 

*CAP
0 *22:g 3.0851e-17
1 *7:g 3.74483e-17
2 *1:2 8.06669e-17
3 *1 4.61025e-17

*RES
0 *22:g *1:2 27.69368  // $poly_conn
1 *1:2 *7:g 99.488556  // $poly_conn
2 *1:4 *1 0.022629  // $metal1_conn
3 *1:2 *1:4 45  // $metal1_conn

*END

*D_NET *44 2.55822e-16

*CONN
*P *44 I *C 0.1000 1.0450 
*I *16:g B *C 0.2475 0.5375 
*I *41:g B *C 0.3625 1.2875 
*N *44:2 *C 0.2475 0.7450 
*N *44:3 *C 0.1450 0.7450 

*CAP
0 *41:g 7.72742e-17
1 *16:g 2.2169e-17
2 *44:2 4.72441e-17
3 *44:3 5.45391e-17
4 *44 5.4596e-17

*RES
0 *41:g *44:2 128.410706  // $poly_conn
1 *44:2 *44:3 53.092224  // $poly_conn
2 *44:2 *16:g 24.801132  // $poly_conn
3 *44:3 *44 0.177244  // $metal1_conn

*END

*D_NET *42 3.17804e-16

*CONN
*P *42 I *C 0.5000 0.8550 
*I *5:g B *C 0.4675 0.5375 
*I *21:g B *C 0.4675 1.2875 
*N *42:2 *C 0.4950 0.8450 
*N *42:4 *C 0.4950 0.8450 

*CAP
0 *21:g 7.56239e-17
1 *5:g 3.69727e-17
2 *42:2 2.05207e-16

*RES
0 *21:g *42:2 77.384254  // $poly_conn
1 *42:2 *5:g 51.743237  // $poly_conn
2 *42:4 *42 0.003126  // $metal1_conn
3 *42:2 *42:4 45  // $metal1_conn

*END

*D_NET *43 2.56288e-16

*CONN
*P *43 O *C 3.5000 0.6650 
*I *8:d B *C 3.4750 0.4550 
*I *10:d B *C 3.4750 0.4550 
*I *12:d B *C 3.8850 0.4550 
*I *14:d B *C 3.8850 0.4550 
*I *36:d B *C 3.4750 1.1900 
*I *37:d B *C 3.4750 1.1900 
*I *38:d B *C 3.8850 1.1900 
*I *39:d B *C 3.8850 1.1900 

*CAP
0 *43 2.56288e-16


*END

*D_NET *32 0

*CONN
*I *4:d B *C 2.8900 0.5000 
*I *6:s B *C 2.8900 0.5000 


*RES
0 *6:s *4:d 0.001  // $mwires

*END

*D_NET *31 1.48119e-18

*CONN
*I *11:s B *C 1.8075 0.5875 
*I *13:d B *C 1.8075 0.5875 

*CAP
0 *11:s 1.48119e-18

*RES
0 *13:d *11:s 0.001  // $mwires

*END

*D_NET *30 1.71792e-18

*CONN
*I *24:s B *C 1.8550 1.3675 
*I *25:d B *C 1.8550 1.3675 

*CAP
0 *24:s 1.71792e-18

*RES
0 *25:d *24:s 0.001  // $mwires

*END

*D_NET *29 0

*CONN
*I *41:s B *C 0.4150 1.2875 
*I *21:d B *C 0.4150 1.2875 


*RES
0 *21:d *41:s 0.001  // $mwires

*END

*D_NET *28 1.01848e-15

*CONN
*I *6:g B *C 2.9425 0.5000 
*I *15:d B *C 2.2050 0.5875 
*I *11:g B *C 1.7075 0.5875 
*I *35:g B *C 3.1675 1.1900 
*I *40:d B *C 2.2700 1.1025 
*I *23:g B *C 1.5175 1.3675 
*N *28:2 *C 1.4150 1.1150 
*N *28:4 *C 1.6700 0.3450 
*N *28:6 *C 3.0650 0.7650 
*N *28:8 *C 2.2325 0.7350 
*N *28:10 *C 2.2150 0.6000 

*CAP
0 *23:g 3.02527e-17
1 *40:d 5.4041e-17
2 *35:g 5.05658e-17
3 *11:g 4.97604e-17
4 *15:d 1.21379e-16
5 *6:g 5.74324e-17
6 *28:8 1.17048e-16
7 *28:2 1.74008e-16
8 *28:4 1.63711e-16
9 *28:6 2.00285e-16

*RES
0 *23:g *28:2 83.446335  // $poly_conn
1 *11:g *28:4 79.103935  // $poly_conn
2 *35:g *28:6 62.511517  // $poly_conn
3 *28:6 *6:g 43.28075  // $poly_conn
4 *28:2 *28:4 0.789985  // $metal1_conn
5 *28:4 *28:8 0.66481  // $metal1_conn
6 *28:8 *28:10 0.094955  // $metal1_conn
7 *28:10 *28:6 46.032444  // $metal1_conn
8 *28:8 *40:d 62.236092  // $metal1_conn
9 *15:d *28:10 75  // $metal1_conn

*END

*D_NET *27 5.62393e-16

*CONN
*I *16:d B *C 0.3575 0.5375 
*I *5:d B *C 0.3575 0.5375 
*I *9:d B *C 1.3375 0.5875 
*I *41:d B *C 0.2700 1.2875 
*I *23:s B *C 1.4250 1.3675 
*N *27:2 *C 0.3500 0.6850 
*N *27:5 *C 1.2550 0.5750 

*CAP
0 *23:s 1.01422e-16
1 *41:d 5.58132e-17
2 *9:d 2.00399e-16
3 *16:d 2.40221e-17
4 *27:2 1.80736e-16

*RES
0 *41:d *27:2 62.480061  // $metal1_conn
1 *27:2 *16:d 75.073235  // $metal1_conn
2 *27:2 *27:5 1.044649  // $metal1_conn
3 *27:5 *23:s 62.652817  // $metal1_conn
4 *9:d *27:5 75  // $metal1_conn

*END

*D_NET *26 4.53673e-16

*CONN
*I *3:g B *C 2.6325 0.5575 
*I *9:s B *C 1.6050 0.5875 
*I *11:d B *C 1.6050 0.5875 
*I *33:g B *C 2.6575 1.1025 
*I *23:d B *C 1.6600 1.3675 
*I *24:d B *C 1.6600 1.3675 
*N *26:3 *C 2.6200 1.3750 
*N *26:5 *C 1.6205 1.3450 

*CAP
0 *23:d 1.53129e-16
1 *33:g 4.11018e-17
2 *9:s 8.43473e-17
3 *3:g 5.05338e-17
4 *26:3 1.24561e-16

*RES
0 *3:g *33:g 104.954872  // $poly_conn
1 *33:g *26:3 84.458618  // $poly_conn
2 *26:3 *26:5 0.729493  // $metal1_conn
3 *26:5 *9:s 75.512077  // $metal1_conn
4 *23:d *26:5 62  // $metal1_conn

*END

*D_NET *19 6.80637e-16

*CONN
*I *3:d B *C 2.4825 0.5575 
*I *4:g B *C 2.8375 0.5000 
*I *13:g B *C 1.9075 0.5875 
*I *33:d B *C 2.5650 1.1025 
*I *34:g B *C 2.9125 1.1900 
*I *25:g B *C 1.9075 1.3675 
*N *19:2 *C 1.9450 1.1600 
*N *19:5 *C 2.8750 0.8950 
*N *19:7 *C 2.5550 0.8950 
*N *19:9 *C 2.5550 1.0550 

*CAP
0 *25:g 5.17765e-17
1 *34:g 4.19476e-17
2 *33:d 6.22129e-17
3 *13:g 5.93001e-17
4 *4:g 7.81415e-17
5 *3:d 6.86498e-17
6 *19:7 6.67579e-17
7 *19:2 1.62575e-16
8 *19:5 8.9276e-17

*RES
0 *25:g *19:2 16.15522  // $poly_conn
1 *19:2 *13:g 118.719322  // $poly_conn
2 *34:g *19:5 18.425531  // $poly_conn
3 *19:5 *4:g 60.733223  // $poly_conn
4 *19:5 *19:7 45.251545  // $metal1_conn
5 *19:7 *19:9 0.087093  // $metal1_conn
6 *19:9 *19:2 45.582722  // $metal1_conn
7 *19:7 *3:d 75.347252  // $metal1_conn
8 *33:d *19:9 62  // $metal1_conn

*END

*D_NET *18 3.95629e-16

*CONN
*I *6:d B *C 3.0350 0.5000 
*I *8:g B *C 3.3725 0.4550 
*I *10:g B *C 3.5775 0.4550 
*I *12:g B *C 3.7825 0.4550 
*I *14:g B *C 3.9875 0.4550 
*I *34:d B *C 3.0400 1.1900 
*I *35:d B *C 3.0400 1.1900 
*I *36:g B *C 3.3725 1.1900 
*I *37:g B *C 3.5775 1.1900 
*I *38:g B *C 3.7825 1.1900 
*I *39:g B *C 3.9875 1.1900 
*N *18:14 *C 3.2250 0.8400 

*CAP
0 *39:g 2.37978e-16
1 *34:d 5.70607e-17
2 *6:d 4.69035e-17
3 *18:14 5.36874e-17

*RES
0 *18:14 *34:d 21.019011  // $metal1_conn
1 *18:14 *6:d 75.309349  // $metal1_conn
2 *39:g *18:14 45.057636  // $metal1_conn

*END

*D_NET *17 6.43998e-16

*CONN
*I *15:g B *C 2.1125 0.5875 
*I *7:d B *C 0.9050 0.5375 
*I *9:g B *C 1.5025 0.5875 
*I *40:g B *C 2.1775 1.1025 
*I *22:d B *C 0.7650 1.2875 
*I *24:g B *C 1.8025 1.3675 
*N *17:2 *C 1.7650 1.0000 
*N *17:3 *C 1.5025 0.9725 
*N *17:4 *C 1.0950 1.0000 
*N *17:7 *C 2.1125 0.8950 
*N *17:8 *C 2.0600 0.8950 

*CAP
0 *24:g 6.27365e-17
1 *22:d 5.35213e-17
2 *40:g 4.10004e-17
3 *9:g 3.56373e-17
4 *7:d 6.54907e-17
5 *15:g 2.99484e-17
6 *17:3 4.56452e-17
7 *17:4 1.2776e-16
8 *17:2 1.02541e-16
9 *17:8 7.97168e-17

*RES
0 *24:g *17:2 57.180859  // $poly_conn
1 *17:2 *17:3 54.480598  // $poly_conn
2 *17:3 *17:4 139.821991  // $poly_conn
3 *17:3 *9:g 75.428688  // $poly_conn
4 *40:g *17:7 23.629665  // $poly_conn
5 *17:7 *17:8 47.434158  // $poly_conn
6 *17:7 *15:g 51.083683  // $poly_conn
7 *7:d *17:4 75.327988  // $metal1_conn
8 *17:4 *22:d 62.399712  // $metal1_conn
9 *17:8 *17:2 45.202435  // $metal1_conn

*END

