*SPEF "IEEE 1481-1999"
*DESIGN  "TLATNX1"
*DATE "Mon Sep 27 11:31:47 2010"
*VENDOR "Cadence Design Systems"
*PROGRAM "Assura RCX"
*VERSION "3.2 Red Hat Linux release 7.2 (Enigma) - (09/09/2009-10:39)"
*DESIGN_FLOW "Physical Verification"
*DIVIDER /
*DELIMITER :
*BUS_DELIMITER []
*T_UNIT 1 PS
*C_UNIT 1e15 FF
*R_UNIT 1 OHM
*L_UNIT 1 MH
// DeviceFingerDelim "@"
// MATCHED
// caps2d version: 10

*NAME_MAP
*1 VDD
*2 mn1
*3 mn5
*4 mn6
*5 mn16
*6 mn15
*7 VSS
*8 mp21
*9 mn10
*10 mn0
*11 mn22
*12 mn20
*13 GN
*14 D
*15 QN
*16 Qint
*17 Q
*18 GNb
*19 net220
*20 net212
*21 net257
*22 net245
*23 Qbint
*24 GNbb
*25 mp1
*26 n0
*27 mp5
*28 mp6
*29 mp16
*30 mp15
*31 mp10
*32 mp0
*33 mp22
*34 mp20
*35 mn21

*GROUND_NETS VSS

*PORTS
*1 I
*7 I
*14 I
*13 I
*17 O
*15 O

*D_NET *1 4.54608e-16

*CONN
*P *1 I *C 0.1000 1.7100 
*I *25:s B *C 0.5750 1.1525 
*I *27:s B *C 0.5750 1.1525 
*I *30:s B *C 1.4050 1.1525 
*I *31:s B *C 1.4050 1.1525 
*I *32:s B *C 2.2950 1.1450 
*I *33:s B *C 2.2950 1.1450 
*I *34:s B *C 2.8950 1.0950 
*I *8:s B *C 2.8950 1.0950 
*N *1:2 *C 2.6000 1.7100 
*N *1:3 *C 2.6000 1.7100 
*N *1:4 *C 2.2850 1.7100 
*N *1:5 *C 1.3200 1.7100 
*N *1:6 *C 0.9000 1.7100 
*N *1:7 *C 0.4900 1.7100 

*CAP
0 *34:s 7.78723e-17
1 *32:s 4.69256e-17
2 *30:s 1.27294e-17
3 *25:s 3.39423e-17
4 *1:7 8.56082e-18
5 *1:5 2.89772e-17
6 *1:4 1.91528e-17
7 *1:2 2.18531e-16
8 *1 7.91659e-18

*RES
0 *34:s *1:3 21.2631  // $metal1_conn
1 *1:3 *1:4 0.157666  // $metal1_conn
2 *1:4 *1:5 0.483216  // $metal1_conn
3 *1:5 *1:6 0.210286  // $metal1_conn
4 *1:6 *1:7 0.205275  // $metal1_conn
5 *1:7 *1 0.195001  // $metal1_conn
6 *1:4 *32:s 62.285793  // $metal1_conn
7 *1:5 *30:s 62.074203  // $metal1_conn
8 *1:7 *25:s 62.253357  // $metal1_conn
9 *1:2 *1:3 9.375  // $metal1_conn
10 *1:2 *1:6 8.333333  // $metal1_conn

*END

*D_NET *7 0

*CONN
*P *7 I *C 0.1000 0.0000 
*I *2:s B *C 0.4600 0.4775 
*I *3:s B *C 0.4600 0.4775 
*I *6:s B *C 1.2650 0.4775 
*I *9:s B *C 1.2650 0.4775 
*I *10:s B *C 2.2750 0.5300 
*I *11:s B *C 2.2750 0.5300 
*I *12:s B *C 2.8950 0.5250 
*I *35:s B *C 2.8950 0.5250 
*N *7:2 *C 2.6000 0.0000 
*N *7:3 *C 2.6000 0.0000 
*N *7:4 *C 2.2650 0.0000 
*N *7:5 *C 1.2650 0.0000 
*N *7:6 *C 0.9000 0.0000 
*N *7:7 *C 0.4600 0.0000 


*RES
0 *12:s *7:3 75.468193  // $metal1_conn
1 *7:3 *7:4 0.167689  // $metal1_conn
2 *7:4 *7:5 0.500756  // $metal1_conn
3 *7:5 *7:6 0.182723  // $metal1_conn
4 *7:6 *7:7 0.220309  // $metal1_conn
5 *7:7 *7 0.179967  // $metal1_conn
6 *7:4 *10:s 75.292427  // $metal1_conn
7 *7:5 *6:s 75.29612  // $metal1_conn
8 *7:7 *2:s 75.294273  // $metal1_conn
9 *7:2 *7:3 7.75  // $metal1_conn
10 *7:2 *7:6 6.888889  // $metal1_conn

*END

*D_NET *14 3.15536e-16

*CONN
*P *14 I *C 0.3000 0.8550 
*I *3:g B *C 0.5625 0.4775 
*I *27:g B *C 0.6225 1.1525 
*N *14:2 *C 0.5625 0.9200 
*N *14:3 *C 0.5000 0.9200 

*CAP
0 *27:g 5.09672e-17
1 *3:g 8.23815e-17
2 *14:2 4.2996e-17
3 *14:3 8.66162e-17
4 *14 5.25754e-17

*RES
0 *27:g *14:2 34.820965  // $poly_conn
1 *14:2 *14:3 48.900734  // $poly_conn
2 *14:2 *3:g 85.057549  // $poly_conn
3 *14:3 *14 0.150351  // $metal1_conn

*END

*D_NET *13 1.89743e-16

*CONN
*P *13 I *C 2.1000 1.0450 
*I *10:g B *C 2.0375 0.5875 
*I *32:g B *C 2.0925 1.0575 
*N *13:2 *C 2.0650 0.8400 

*CAP
0 *32:g 3.0889e-17
1 *10:g 3.05982e-17
2 *13:2 5.87456e-17
3 *13 6.95098e-17

*RES
0 *32:g *13:2 19.691952  // $poly_conn
1 *13:2 *10:g 37.640671  // $poly_conn
2 *13:2 *13 45.125366  // $metal1_conn

*END

*D_NET *17 1.13668e-16

*CONN
*P *17 O *C 3.1000 0.4750 
*I *35:d B *C 3.0900 0.5250 
*I *8:d B *C 3.1025 1.0950 

*CAP
0 *8:d 6.42155e-17
1 *35:d 4.94522e-17

*RES
0 *8:d *17 21.038944  // $metal1_conn
1 *17 *35:d 75.010788  // $metal1_conn

*END

*D_NET *15 1.56981e-16

*CONN
*P *15 O *C 2.5000 0.6650 
*I *11:d B *C 2.4700 0.5300 
*I *33:d B *C 2.4800 1.1450 

*CAP
0 *33:d 9.15399e-17
1 *11:d 2.75446e-17
2 *15 3.78965e-17

*RES
0 *15 *11:d 75.03891  // $metal1_conn
1 *15 *33:d 20.953978  // $metal1_conn

*END

*D_NET *22 5.38201e-18

*CONN
*I *5:s B *C 1.0175 0.4775 
*I *6:d B *C 1.0175 0.4775 

*CAP
0 *5:s 5.38201e-18

*RES
0 *6:d *5:s 0.001  // $mwires

*END

*D_NET *21 0

*CONN
*I *3:d B *C 0.6150 0.4775 
*I *4:s B *C 0.6150 0.4775 


*RES
0 *4:s *3:d 0.001  // $mwires

*END

*D_NET *20 0

*CONN
*I *29:s B *C 1.1350 1.1525 
*I *30:d B *C 1.1350 1.1525 


*RES
0 *30:d *29:s 0.001  // $mwires

*END

*D_NET *19 1.64173e-18

*CONN
*I *27:d B *C 0.6875 1.1525 
*I *28:s B *C 0.6875 1.1525 

*CAP
0 *27:d 1.64173e-18

*RES
0 *28:s *27:d 0.001  // $mwires

*END

*D_NET *18 8.62195e-16

*CONN
*I *2:g B *C 0.3575 0.4775 
*I *4:g B *C 0.6675 0.4775 
*I *10:d B *C 1.9300 0.5875 
*I *25:g B *C 0.3575 1.1525 
*I *29:g B *C 1.0825 1.1525 
*I *32:d B *C 1.9575 1.0575 
*N *18:2 *C 0.3950 0.6550 
*N *18:5 *C 0.7050 0.6550 
*N *18:7 *C 0.9050 0.9450 
*N *18:9 *C 1.9050 1.0100 

*CAP
0 *32:d 1.62604e-16
1 *29:g 6.83698e-17
2 *25:g 5.15915e-17
3 *10:d 5.07552e-17
4 *4:g 6.4246e-17
5 *2:g 2.67837e-17
6 *18:2 9.20161e-17
7 *18:5 1.22224e-16
8 *18:7 2.23605e-16

*RES
0 *25:g *18:2 90.514198  // $poly_conn
1 *18:2 *2:g 17.437269  // $poly_conn
2 *4:g *18:5 62.437271  // $poly_conn
3 *29:g *18:7 82.858337  // $poly_conn
4 *18:9 *18:7 1.293326  // $metal1_conn
5 *18:7 *18:5 0.338151  // $metal1_conn
6 *18:5 *18:2 45.222282  // $metal1_conn
7 *18:9 *10:d 75.294907  // $metal1_conn
8 *32:d *18:9 62  // $metal1_conn

*END

*D_NET *16 6.74313e-16

*CONN
*I *6:g B *C 1.1625 0.4775 
*I *9:d B *C 1.4600 0.4775 
*I *11:g B *C 2.3675 0.5300 
*I *12:g B *C 2.7925 0.5250 
*I *30:g B *C 1.1875 1.1525 
*I *31:d B *C 1.5450 1.1525 
*I *33:g B *C 2.3875 1.1450 
*I *34:g B *C 2.7925 1.0950 
*N *16:2 *C 1.2250 0.9450 
*N *16:5 *C 2.7925 0.7375 
*N *16:6 *C 2.3775 0.7600 
*N *16:7 *C 2.3300 0.7600 
*N *16:11 *C 1.5550 0.4525 
*N *16:12 *C 1.5550 0.9150 

*CAP
0 *34:g 3.33248e-17
1 *33:g 3.25775e-17
2 *31:d 2.48452e-17
3 *30:g 5.93781e-17
4 *12:g 2.70269e-17
5 *11:g 2.20567e-17
6 *9:d 2.228e-17
7 *6:g 4.95357e-17
8 *16:12 4.36066e-17
9 *16:11 7.928e-17
10 *16:5 3.45976e-17
11 *16:2 1.007e-16
12 *16:7 1.45103e-16

*RES
0 *30:g *16:2 16.15522  // $poly_conn
1 *16:2 *6:g 103.161369  // $poly_conn
2 *34:g *16:5 40.514664  // $poly_conn
3 *16:5 *16:6 97.533066  // $poly_conn
4 *16:6 *16:7 46.988235  // $poly_conn
5 *16:5 *12:g 20.001841  // $poly_conn
6 *16:6 *11:g 26.735422  // $poly_conn
7 *16:6 *33:g 49.812347  // $poly_conn
8 *16:7 *16:11 0.78595  // $metal1_conn
9 *16:11 *16:12 0.298844  // $metal1_conn
10 *16:12 *16:2 45.21397  // $metal1_conn
11 *16:11 *9:d 75.037804  // $metal1_conn
12 *16:12 *31:d 62.129696  // $metal1_conn

*END

*D_NET *26 3.74493e-16

*CONN
*I *4:d B *C 0.7700 0.4775 
*I *5:d B *C 0.7700 0.4775 
*I *9:g B *C 1.3675 0.4775 
*I *28:d B *C 0.9175 1.1525 
*I *29:d B *C 0.9175 1.1525 
*I *31:g B *C 1.4525 1.1525 
*N *26:2 *C 1.3950 0.7250 
*N *26:4 *C 1.0650 0.7550 

*CAP
0 *31:g 4.59174e-17
1 *28:d 7.35835e-17
2 *9:g 2.39494e-17
3 *4:d 5.4825e-17
4 *26:4 8.69458e-17
5 *26:2 8.9272e-17

*RES
0 *31:g *26:2 77.095428  // $poly_conn
1 *26:2 *9:g 33.196705  // $poly_conn
2 *26:2 *26:4 45.21524  // $metal1_conn
3 *26:4 *4:d 75.387383  // $metal1_conn
4 *26:4 *28:d 62.339458  // $metal1_conn

*END

*D_NET *24 4.37474e-16

*CONN
*I *2:d B *C 0.2650 0.4775 
*I *5:g B *C 0.8725 0.4775 
*I *25:d B *C 0.2650 1.1525 
*I *28:g B *C 0.7525 1.1525 
*N *24:2 *C 0.7150 0.8150 
*N *24:6 *C 0.2550 1.1400 

*CAP
0 *28:g 4.9468e-17
1 *25:d 1.10071e-16
2 *5:g 4.52514e-17
3 *2:d 6.46067e-17
4 *24:2 1.68077e-16

*RES
0 *5:g *24:2 84.31813  // $poly_conn
1 *24:2 *28:g 49.488552  // $poly_conn
2 *2:d *24:6 75.577858  // $metal1_conn
3 *24:6 *24:2 45.497307  // $metal1_conn
4 *25:d *24:6 62  // $metal1_conn

*END

*D_NET *23 2.77e-16

*CONN
*I *12:d B *C 2.7000 0.5250 
*I *35:g B *C 2.9975 0.5250 
*I *34:d B *C 2.7000 1.0950 
*I *8:g B *C 2.9975 1.0950 
*N *23:2 *C 2.9975 0.7550 
*N *23:3 *C 2.9350 0.7550 
*N *23:5 *C 2.6900 0.7550 

*CAP
0 *8:g 3.85318e-17
1 *34:d 7.40839e-17
2 *35:g 3.06776e-17
3 *12:d 2.67441e-17
4 *23:5 3.9502e-17
5 *23:2 1.30459e-17
6 *23:3 5.44147e-17

*RES
0 *8:g *23:2 34.424801  // $poly_conn
1 *23:2 *23:3 46.294373  // $poly_conn
2 *23:2 *35:g 22.886339  // $poly_conn
3 *23:3 *23:5 0.154385  // $metal1_conn
4 *23:5 *12:d 75.116043  // $metal1_conn
5 *23:5 *34:d 20.941284  // $metal1_conn

*END

