*SPEF "IEEE 1481-1999"
*DESIGN  "XNOR2X4"
*DATE "Mon Sep 27 11:37:03 2010"
*VENDOR "Cadence Design Systems"
*PROGRAM "Assura RCX"
*VERSION "3.2 Red Hat Linux release 7.2 (Enigma) - (09/09/2009-10:39)"
*DESIGN_FLOW "Physical Verification"
*DIVIDER /
*DELIMITER :
*BUS_DELIMITER []
*T_UNIT 1 PS
*C_UNIT 1e15 FF
*R_UNIT 1 OHM
*L_UNIT 1 MH
// DeviceFingerDelim "@"
// MATCHED
// caps2d version: 10

*NAME_MAP
*1 mp5\@1
*2 mn2
*3 mp5\@2
*4 mn1
*5 mp5\@3
*6 VDD
*7 mp0
*8 net145
*9 mp4
*10 mp3
*11 mp2
*12 mp1
*13 Y
*14 n1
*15 n2
*16 n0
*17 net112
*18 A
*19 B
*20 VSS
*21 mn5
*22 mn5\@1
*23 mn5\@2
*24 mn5\@3
*25 mn0
*26 mn4
*27 mp5
*28 mn3

*GROUND_NETS VSS

*PORTS
*6 I
*20 I
*18 I
*19 I
*13 O

*D_NET *6 4.00371e-16

*CONN
*P *6 I *C 0.1000 1.7100 
*I *27:s B *C 0.1100 1.2700 
*I *1:s B *C 0.5100 1.2700 
*I *3:s B *C 0.5100 1.2700 
*I *5:s B *C 1.0050 1.1825 
*I *7:s B *C 1.0050 1.1825 
*I *11:s B *C 1.9100 1.1825 
*I *12:s B *C 1.9100 1.1825 
*N *6:2 *C 1.1000 1.7100 
*N *6:3 *C 1.1000 1.7100 

*CAP
0 *11:s 6.10358e-17
1 *6:2 1.45779e-16
2 *6 1.93556e-16

*RES
0 *6:2 *6:3 6.818182  // $metal1_conn
1 *11:s *6:3 21.342752  // $metal1_conn
2 *6:3 *6 0.090191  // $metal1_conn

*END

*D_NET *20 0

*CONN
*P *20 I *C 0.1000 0.0000 
*I *21:s B *C 0.1100 0.4600 
*I *22:s B *C 0.5100 0.4600 
*I *23:s B *C 0.5100 0.4600 
*I *24:s B *C 1.0050 0.4625 
*I *25:s B *C 1.0050 0.4625 
*I *2:s B *C 1.8350 0.4625 
*I *4:s B *C 1.8350 0.4625 
*N *20:2 *C 1.1000 0.0000 
*N *20:3 *C 1.1000 0.0000 


*RES
0 *20:2 *20:3 5.636364  // $metal1_conn
1 *2:s *20:3 38.020912  // $metal1_conn
2 *20:3 *20 0.090191  // $metal1_conn

*END

*D_NET *18 2.49025e-16

*CONN
*P *18 I *C 1.0150 0.9550 
*I *25:g B *C 1.0525 0.4625 
*I *7:g B *C 1.0525 1.1825 
*N *18:2 *C 1.0250 0.7400 

*CAP
0 *7:g 4.63272e-17
1 *25:g 4.69301e-17
2 *18:2 1.08288e-16
3 *18 4.74803e-17

*RES
0 *7:g *18:2 77.384254  // $poly_conn
1 *18:2 *25:g 44.050926  // $poly_conn
2 *18 *18:2 45.119438  // $metal1_conn

*END

*D_NET *19 5.40034e-16

*CONN
*P *19 I *C 1.7400 0.7950 
*I *26:g B *C 1.2825 0.4050 
*I *4:g B *C 1.8825 0.4625 
*I *10:g B *C 1.6175 1.2700 
*I *12:g B *C 1.9575 1.1825 
*N *19:2 *C 1.2800 0.7100 
*N *19:4 *C 1.5800 0.8050 
*N *19:6 *C 1.8550 0.8050 

*CAP
0 *12:g 4.08125e-17
1 *10:g 8.99418e-17
2 *4:g 3.02297e-17
3 *26:g 4.83193e-17
4 *19:2 1.11394e-16
5 *19:4 1.06652e-16
6 *19:6 8.51003e-17
7 *19 2.75847e-17

*RES
0 *26:g *19:2 79.602005  // $poly_conn
1 *10:g *19:4 104.744965  // $poly_conn
2 *12:g *19:6 70.497612  // $poly_conn
3 *19:6 *4:g 57.555679  // $poly_conn
4 *19:2 *19:4 0.312864  // $metal1_conn
5 *19:4 *19 0.122838  // $metal1_conn
6 *19 *19:6 45.071404  // $metal1_conn

*END

*D_NET *13 3.59388e-16

*CONN
*P *13 O *C 0.3150 0.6350 
*I *21:d B *C 0.3050 0.4600 
*I *22:d B *C 0.3050 0.4600 
*I *23:d B *C 0.7150 0.4600 
*I *24:d B *C 0.7150 0.4600 
*I *27:d B *C 0.3050 1.2700 
*I *1:d B *C 0.3050 1.2700 
*I *3:d B *C 0.7150 1.2700 
*I *5:d B *C 0.7150 1.2700 

*CAP
0 *3:d 2.06298e-16
1 *21:d 1.36341e-16
2 *13 1.67488e-17

*RES
0 *13 *21:d 0.103546  // $metal1_conn
1 *3:d *13 0.231263  // $metal1_conn

*END

*D_NET *8 0

*CONN
*I *28:s B *C 1.5525 0.4050 
*I *2:d B *C 1.5525 0.4050 


*RES
0 *2:d *28:s 0.001  // $mwires

*END

*D_NET *17 0

*CONN
*I *10:s B *C 1.6700 1.2700 
*I *11:d B *C 1.6700 1.2700 


*RES
0 *11:d *10:s 0.001  // $mwires

*END

*D_NET *16 7.30897e-16

*CONN
*I *21:g B *C 0.2025 0.4600 
*I *22:g B *C 0.4075 0.4600 
*I *23:g B *C 0.6125 0.4600 
*I *24:g B *C 0.8175 0.4600 
*I *26:d B *C 1.3850 0.4050 
*I *28:d B *C 1.3850 0.4050 
*I *27:g B *C 0.2025 1.2700 
*I *1:g B *C 0.4075 1.2700 
*I *3:g B *C 0.6125 1.2700 
*I *5:g B *C 0.8175 1.2700 
*I *9:s B *C 1.5150 1.2700 
*I *10:d B *C 1.5150 1.2700 
*N *16:14 *C 0.8350 0.7400 

*CAP
0 *9:s 1.2136e-16
1 *5:g 2.75043e-16
2 *26:d 1.19592e-16
3 *16:14 2.14902e-16

*RES
0 *9:s *16:14 32.046719  // $metal1_conn
1 *16:14 *26:d 38.377846  // $metal1_conn
2 *16:14 *5:g 45.117886  // $metal1_conn

*END

*D_NET *15 3.71525e-16

*CONN
*I *28:g B *C 1.4875 0.4050 
*I *4:d B *C 1.9750 0.4625 
*I *9:g B *C 1.4125 1.2700 
*I *12:d B *C 2.0500 1.1825 
*N *15:2 *C 1.4500 0.6350 
*N *15:4 *C 2.0000 0.6350 

*CAP
0 *12:d 3.02707e-17
1 *9:g 5.60647e-17
2 *4:d 2.00199e-17
3 *28:g 4.82331e-17
4 *15:4 7.9898e-17
5 *15:2 1.37039e-16

*RES
0 *28:g *15:2 18.425531  // $poly_conn
1 *15:2 *9:g 105.605019  // $poly_conn
2 *15:2 *15:4 45.400249  // $metal1_conn
3 *15:4 *4:d 75.100464  // $metal1_conn
4 *15:4 *12:d 62.341705  // $metal1_conn

*END

*D_NET *14 5.18967e-16

*CONN
*I *25:d B *C 1.2100 0.4050 
*I *26:s B *C 1.2100 0.4050 
*I *2:g B *C 1.6175 0.4050 
*I *7:d B *C 1.3400 1.2700 
*I *9:d B *C 1.3400 1.2700 
*I *11:g B *C 1.7225 1.2700 
*N *14:2 *C 1.7600 0.9750 
*N *14:4 *C 1.3100 0.9775 

*CAP
0 *11:g 7.38083e-17
1 *7:d 3.35544e-17
2 *2:g 8.22487e-17
3 *25:d 9.07407e-17
4 *14:4 1.14888e-16
5 *14:2 1.23727e-16

*RES
0 *11:g *14:2 16.15522  // $poly_conn
1 *14:2 *2:g 118.429749  // $poly_conn
2 *14:2 *14:4 45.356968  // $metal1_conn
3 *14:4 *25:d 75.527313  // $metal1_conn
4 *14:4 *7:d 62.062771  // $metal1_conn

*END

