*SPEF "IEEE 1481-1999"
*DESIGN  "XNOR3X1"
*DATE "Mon Sep 27 11:37:50 2010"
*VENDOR "Cadence Design Systems"
*PROGRAM "Assura RCX"
*VERSION "3.2 Red Hat Linux release 7.2 (Enigma) - (09/09/2009-10:39)"
*DESIGN_FLOW "Physical Verification"
*DIVIDER /
*DELIMITER :
*BUS_DELIMITER []
*T_UNIT 1 PS
*C_UNIT 1e15 FF
*R_UNIT 1 OHM
*L_UNIT 1 MH
// DeviceFingerDelim "@"
// MATCHED
// caps2d version: 10

*NAME_MAP
*1 VDD
*2 A
*3 B
*4 C
*5 mp7
*6 mp8
*7 n61
*8 n12
*9 n8
*10 n62
*11 Y
*12 n60
*13 n9
*14 n11
*15 VSS
*16 mp3
*17 mp4
*18 mp9
*19 mp1
*20 mp2
*21 mp11
*22 mp10
*23 mn3
*24 mp6
*25 mn4
*26 mp5
*27 mn9
*28 mn1
*29 mn2
*30 mn11
*31 mn10
*32 mn7
*33 mn6
*34 mn8
*35 mn5

*GROUND_NETS VSS

*PORTS
*1 I
*15 I
*2 I
*3 I
*4 I
*11 O

*D_NET *1 6.54539e-16

*CONN
*P *1 I *C 1.3000 1.6150 
*I *16:s B *C 0.4500 1.0900 
*I *17:s B *C 0.4500 1.0900 
*I *18:s B *C 1.1700 1.3250 
*I *5:s B *C 4.1200 1.0950 
*I *6:s B *C 4.1200 1.0950 
*N *1:2 *C 3.3000 1.7100 
*N *1:3 *C 3.3000 1.7100 
*N *1:4 *C 1.1000 1.7100 

*CAP
0 *5:s 7.37125e-17
1 *18:s 2.85734e-17
2 *16:s 5.02819e-17
3 *1:2 3.96667e-16
4 *1 1.05305e-16

*RES
0 *5:s *1:3 12.899039  // $metal1_conn
1 *1:3 *1 0.65132  // $metal1_conn
2 *1 *1:4 0.074646  // $metal1_conn
3 *1:4 *16:s 31.539022  // $metal1_conn
4 *1:4 *18:s 62.072372  // $metal1_conn
5 *1:2 *1:3 6.818182  // $metal1_conn
6 *1:2 *1:4 6.818182  // $metal1_conn

*END

*D_NET *15 0

*CONN
*P *15 I *C 0.5000 0.0950 
*I *23:s B *C 0.4500 0.4950 
*I *25:s B *C 0.4500 0.4950 
*I *27:s B *C 1.0650 0.3700 
*I *32:s B *C 4.1200 0.5575 
*I *34:s B *C 4.1200 0.5575 
*N *15:2 *C 3.3000 0.0000 
*N *15:3 *C 3.3000 0.0000 
*N *15:4 *C 1.1000 0.0000 
*N *15:6 *C 0.9800 0.1400 


*RES
0 *32:s *15:3 19.397564  // $metal1_conn
1 *15:3 *15:4 1.105478  // $metal1_conn
2 *15:4 *15:6 0.046582  // $metal1_conn
3 *15:6 *15 0.153219  // $metal1_conn
4 *15 *23:s 75.041161  // $metal1_conn
5 *15:2 *15:3 5.636364  // $metal1_conn
6 *15:2 *15:4 5.636364  // $metal1_conn
7 *27:s *15:6 75  // $metal1_conn

*END

*D_NET *2 2.06167e-16

*CONN
*P *2 I *C 0.1000 0.8550 
*I *23:g B *C 0.2325 0.4875 
*I *16:g B *C 0.2325 1.1300 
*N *2:2 *C 0.2325 0.6900 
*N *2:3 *C 0.1200 0.6900 

*CAP
0 *16:g 4.72536e-17
1 *23:g 3.31078e-17
2 *2:2 1.79933e-17
3 *2:3 3.92616e-17
4 *2 6.85503e-17

*RES
0 *16:g *2:2 60.065826  // $poly_conn
1 *2:2 *2:3 51.54969  // $poly_conn
2 *2:2 *23:g 22.886339  // $poly_conn
3 *2:3 *2 0.096022  // $metal1_conn

*END

*D_NET *3 7.68807e-16

*CONN
*P *3 I *C 0.5000 0.8550 
*I *25:g B *C 0.4975 0.4950 
*I *28:g B *C 1.3775 0.3700 
*I *30:g B *C 2.1575 0.3775 
*I *17:g B *C 0.4975 1.0900 
*I *20:g B *C 1.7475 1.1250 
*I *22:g B *C 2.2025 1.1950 
*N *3:4 *C 1.3775 0.6475 
*N *3:5 *C 0.4600 0.6900 
*N *3:9 *C 0.4600 0.6900 

*CAP
0 *22:g 1.02195e-16
1 *20:g 1.28475e-16
2 *17:g 5.07207e-17
3 *30:g 8.51757e-17
4 *28:g 3.82795e-17
5 *25:g 3.95084e-17
6 *3:4 1.302e-16
7 *3:5 1.30366e-16
8 *3 6.38871e-17

*RES
0 *30:g *22:g 143.616806  // $poly_conn
1 *22:g *20:g 185.60788  // $poly_conn
2 *20:g *3:4 148.413635  // $poly_conn
3 *3:4 *3:5 221.384064  // $poly_conn
4 *3:4 *28:g 42.09536  // $poly_conn
5 *3:5 *25:g 15.063406  // $poly_conn
6 *3:5 *17:g 53.744831  // $poly_conn
7 *3 *3:9 0.1003  // $metal1_conn
8 *3:5 *3:9 45  // $metal1_conn

*END

*D_NET *4 3.73748e-16

*CONN
*P *4 I *C 3.3000 0.8550 
*I *33:g B *C 3.0675 0.4750 
*I *32:g B *C 3.8175 0.5650 
*I *26:g B *C 3.3325 1.1650 
*I *5:g B *C 3.8175 1.1650 
*N *4:2 *C 2.9850 0.6950 
*N *4:4 *C 3.8175 0.9325 
*N *4:5 *C 3.3050 0.9050 

*CAP
0 *5:g 3.17464e-17
1 *26:g 3.58386e-17
2 *32:g 4.46644e-17
3 *33:g 3.80588e-17
4 *4:4 3.53081e-17
5 *4:2 6.54679e-17
6 *4:5 7.9997e-17
7 *4 4.26672e-17

*RES
0 *33:g *4:2 76.726654  // $poly_conn
1 *5:g *4:4 18.71979  // $poly_conn
2 *4:4 *4:5 115.03566  // $poly_conn
3 *4:4 *32:g 68.719788  // $poly_conn
4 *4:5 *26:g 17.437269  // $poly_conn
5 *4 *4:2 0.312974  // $metal1_conn
6 *4 *4:5 45.024208  // $metal1_conn

*END

*D_NET *11 7.92959e-17

*CONN
*P *11 O *C 4.3000 0.4750 
*I *34:d B *C 4.3000 0.5425 
*I *6:d B *C 4.2750 1.0950 
*N *11:2 *C 4.3000 0.4850 

*CAP
0 *6:d 3.71875e-17
1 *11 4.21084e-17

*RES
0 *11 *11:2 0.004841  // $metal1_conn
1 *11:2 *6:d 62.333397  // $metal1_conn
2 *34:d *11:2 75  // $metal1_conn

*END

*D_NET *10 8.95049e-16

*CONN
*I *23:d B *C 0.1250 0.4875 
*I *27:g B *C 1.1125 0.3700 
*I *29:s B *C 2.0050 0.3775 
*I *30:s B *C 2.0050 0.3775 
*I *16:d B *C 0.1400 1.1300 
*I *18:g B *C 1.2175 1.3250 
*I *20:d B *C 1.9075 1.0950 
*I *21:d B *C 1.9075 1.0950 
*N *10:2 *C 0.7900 0.2950 
*N *10:4 *C 0.9250 1.1300 
*N *10:7 *C 1.8500 1.1000 
*N *10:8 *C 0.2800 1.2350 
*N *10:10 *C 0.1000 0.4450 

*CAP
0 *20:d 1.50677e-16
1 *18:g 4.18193e-17
2 *16:d 2.93241e-17
3 *29:s 8.25689e-17
4 *27:g 6.79424e-17
5 *23:d 1.08775e-16
6 *10:8 1.3789e-16
7 *10:2 1.37595e-16
8 *10:4 1.38457e-16

*RES
0 *27:g *10:2 193.889557  // $poly_conn
1 *18:g *10:4 127.686287  // $poly_conn
2 *29:s *10:7 75.52449  // $metal1_conn
3 *10:7 *10:4 0.625262  // $metal1_conn
4 *10:4 *10:8 0.703307  // $metal1_conn
5 *10:8 *10:10 0.69898  // $metal1_conn
6 *10:8 *16:d 62.100311  // $metal1_conn
7 *10:10 *10:2 0.60429  // $metal1_conn
8 *20:d *10:7 62  // $metal1_conn
9 *23:d *10:10 75  // $metal1_conn

*END

*D_NET *9 7.2518e-16

*CONN
*I *27:d B *C 1.3300 0.3700 
*I *28:s B *C 1.3300 0.3700 
*I *31:s B *C 2.4950 0.3400 
*I *18:d B *C 1.3500 1.3250 
*I *19:d B *C 1.3500 1.3250 
*I *22:d B *C 2.3350 1.2600 
*N *9:1 *C 2.6550 1.4200 
*N *9:2 *C 2.6550 0.2600 
*N *9:4 *C 2.3350 1.4200 
*N *9:7 *C 2.4950 0.2600 

*CAP
0 *22:d 1.41698e-16
1 *18:d 1.11667e-16
2 *31:s 1.37552e-16
3 *27:d 1.30801e-16
4 *9:2 8.25859e-17
5 *9:1 1.20877e-16

*RES
0 *9:1 *9:2 370.409546  // $poly_conn
1 *9:1 *9:4 0.270384  // $metal1_conn
2 *9:4 *18:d 62.810211  // $metal1_conn
3 *22:d *9:4 62  // $metal1_conn
4 *9:2 *9:7 0.111682  // $metal1_conn
5 *9:7 *27:d 75.977287  // $metal1_conn
6 *31:s *9:7 75  // $metal1_conn

*END

*D_NET *8 5.68824e-16

*CONN
*I *30:d B *C 2.2600 0.3775 
*I *31:d B *C 2.2600 0.3775 
*I *35:s B *C 3.4650 0.5200 
*I *21:s B *C 2.1350 1.1950 
*I *22:s B *C 2.1350 1.1950 
*I *26:d B *C 3.4400 1.1650 
*N *8:3 *C 3.4650 1.1000 
*N *8:4 *C 2.5150 1.1000 

*CAP
0 *26:d 1.57298e-16
1 *21:s 6.63604e-17
2 *35:s 8.0241e-17
3 *30:d 1.00921e-16
4 *8:4 1.64004e-16

*RES
0 *35:s *8:3 75.386223  // $metal1_conn
1 *8:3 *8:4 0.653093  // $metal1_conn
2 *8:4 *21:s 62.342903  // $metal1_conn
3 *8:4 *30:d 75.644119  // $metal1_conn
4 *26:d *8:3 62  // $metal1_conn

*END

*D_NET *7 8.57241e-16

*CONN
*I *25:d B *C 0.6050 0.4950 
*I *29:g B *C 1.8525 0.3775 
*I *31:g B *C 2.3625 0.3775 
*I *17:d B *C 0.6475 1.0900 
*I *19:g B *C 1.4825 1.3250 
*I *21:g B *C 1.9675 1.0950 
*N *7:2 *C 1.4450 0.7800 
*N *7:3 *C 0.8100 0.8350 
*N *7:5 *C 1.9625 0.7975 
*N *7:6 *C 1.8525 0.5900 
*N *7:7 *C 1.7200 0.5900 
*N *7:8 *C 2.0400 0.7700 
*N *7:11 *C 2.3250 0.6550 
*N *7:12 *C 0.6950 0.8450 

*CAP
0 *21:g 7.86281e-17
1 *19:g 6.27253e-17
2 *17:d 5.4132e-17
3 *31:g 4.29894e-17
4 *29:g 2.44723e-17
5 *25:d 5.37514e-17
6 *7:12 5.53506e-17
7 *7:6 2.13076e-17
8 *7:5 4.20431e-17
9 *7:3 7.8906e-17
10 *7:2 1.34452e-16
11 *7:7 8.03997e-17
12 *7:8 5.56955e-17
13 *7:11 7.23878e-17

*RES
0 *19:g *7:2 90.514198  // $poly_conn
1 *7:2 *7:3 187.632248  // $poly_conn
2 *21:g *7:5 22.452612  // $poly_conn
3 *7:5 *7:6 71.932472  // $poly_conn
4 *7:6 *7:7 52.24773  // $poly_conn
5 *7:5 *7:8 56.105888  // $poly_conn
6 *7:6 *29:g 24.894089  // $poly_conn
7 *31:g *7:11 80.385986  // $poly_conn
8 *7:3 *7:12 0.05191  // $metal1_conn
9 *7:12 *25:d 75.213753  // $metal1_conn
10 *7:12 *17:d 62.203304  // $metal1_conn
11 *7:2 *7:7 45.239464  // $metal1_conn
12 *7:11 *7:8 0.214794  // $metal1_conn

*END

*D_NET *14 4.73046e-16

*CONN
*I *33:d B *C 3.2000 0.4750 
*I *35:d B *C 3.2000 0.4750 
*I *34:g B *C 4.1675 0.5575 
*I *24:s B *C 3.2300 1.1650 
*I *26:s B *C 3.2300 1.1650 
*I *6:g B *C 4.1675 1.0950 
*N *14:2 *C 4.1300 0.8000 
*N *14:4 *C 3.8750 0.8300 

*CAP
0 *6:g 2.79319e-17
1 *24:s 1.06105e-16
2 *34:g 2.29118e-17
3 *33:d 8.99858e-17
4 *14:4 1.74549e-16
5 *14:2 5.15627e-17

*RES
0 *6:g *14:2 16.15522  // $poly_conn
1 *14:2 *34:g 26.411629  // $poly_conn
2 *14:2 *14:4 45.165943  // $metal1_conn
3 *14:4 *33:d 75.768265  // $metal1_conn
4 *14:4 *24:s 62.792107  // $metal1_conn

*END

*D_NET *13 7.34077e-16

*CONN
*I *28:d B *C 1.6400 0.3775 
*I *29:d B *C 1.6400 0.3775 
*I *33:s B *C 2.9600 0.4750 
*I *19:s B *C 1.7000 1.1250 
*I *20:s B *C 1.7000 1.1250 
*I *24:d B *C 3.0800 1.1650 

*CAP
0 *24:d 2.49616e-16
1 *19:s 3.15234e-16
2 *33:s 5.69996e-17
3 *28:d 1.12228e-16

*RES
0 *19:s *28:d 137.828568  // $metal1_conn
1 *24:d *33:s 137.534134  // $metal1_conn
2 *24:d *19:s 125.105003  // $metal1_conn

*END

*D_NET *12 3.34983e-16

*CONN
*I *35:g B *C 3.3325 0.4750 
*I *32:d B *C 3.7100 0.5650 
*I *24:g B *C 3.1275 1.1650 
*I *5:d B *C 3.7100 1.1650 
*N *12:1 *C 3.6550 0.7600 
*N *12:2 *C 3.3325 0.7725 

*CAP
0 *5:d 5.66553e-17
1 *24:g 6.68904e-17
2 *32:d 4.23117e-17
3 *35:g 3.50583e-17
4 *12:2 4.91787e-17
5 *12:1 8.48886e-17

*RES
0 *12:1 *12:2 115.733849  // $poly_conn
1 *12:2 *24:g 106.395523  // $poly_conn
2 *12:2 *35:g 47.22356  // $poly_conn
3 *5:d *12:1 62.181564  // $metal1_conn
4 *12:1 *32:d 75.091026  // $metal1_conn

*END

