*SPEF "IEEE 1481-1999"
*DESIGN  "XNOR2XL"
*DATE "Mon Sep 27 11:37:26 2010"
*VENDOR "Cadence Design Systems"
*PROGRAM "Assura RCX"
*VERSION "3.2 Red Hat Linux release 7.2 (Enigma) - (09/09/2009-10:39)"
*DESIGN_FLOW "Physical Verification"
*DIVIDER /
*DELIMITER :
*BUS_DELIMITER []
*T_UNIT 1 PS
*C_UNIT 1e15 FF
*R_UNIT 1 OHM
*L_UNIT 1 MH
// DeviceFingerDelim "@"
// MATCHED
// caps2d version: 10

*NAME_MAP
*1 net145
*2 mp5
*3 mp0
*4 A
*5 mp4
*6 B
*7 mp3
*8 mp2
*9 mp1
*10 VDD
*11 n0
*12 n1
*13 n2
*14 mn5
*15 net112
*16 mn0
*17 mn4
*18 mn3
*19 mn2
*20 mn1
*21 Y
*22 VSS

*GROUND_NETS VSS

*PORTS
*10 I
*22 I
*4 I
*6 I
*21 O

*D_NET *10 2.16165e-16

*CONN
*P *10 I *C 0.1000 1.7100 
*I *2:s B *C 0.4250 1.5050 
*I *3:s B *C 0.4250 1.5050 
*I *8:s B *C 1.2475 1.0975 
*I *9:s B *C 1.2475 1.0975 
*N *10:2 *C 0.8000 1.7100 
*N *10:3 *C 0.8000 1.7100 
*N *10:4 *C 0.4000 1.7100 

*CAP
0 *8:s 3.1385e-17
1 *2:s 2.70843e-17
2 *10:4 8.62959e-18
3 *10:2 1.41316e-16
4 *10 7.74977e-18

*RES
0 *8:s *10:3 62.311897  // $metal1_conn
1 *10:3 *10:4 0.200397  // $metal1_conn
2 *10:4 *10 0.149998  // $metal1_conn
3 *10:4 *2:s 62.161373  // $metal1_conn
4 *10:2 *10:3 9.375  // $metal1_conn

*END

*D_NET *22 0

*CONN
*P *22 I *C 0.1000 0.0000 
*I *14:s B *C 0.3700 0.5325 
*I *16:s B *C 0.3700 0.5325 
*I *19:s B *C 1.1975 0.5325 
*I *20:s B *C 1.1975 0.5325 
*N *22:2 *C 0.8000 0.0000 
*N *22:3 *C 0.8000 0.0000 
*N *22:4 *C 0.3700 0.0000 


*RES
0 *19:s *22:3 75.593498  // $metal1_conn
1 *22:3 *22:4 0.215442  // $metal1_conn
2 *22:4 *22 0.134954  // $metal1_conn
3 *22:4 *14:s 75.345901  // $metal1_conn
4 *22:2 *22:3 7.75  // $metal1_conn

*END

*D_NET *4 2.04036e-16

*CONN
*P *4 I *C 0.4350 0.8550 
*I *16:g B *C 0.4725 0.5325 
*I *3:g B *C 0.4725 1.0975 
*N *4:2 *C 0.4450 0.7400 

*CAP
0 *3:g 5.11181e-17
1 *16:g 3.08739e-17
2 *4:2 7.38676e-17
3 *4 4.81768e-17

*RES
0 *3:g *4:2 55.589386  // $poly_conn
1 *4:2 *16:g 26.102209  // $poly_conn
2 *4 *4:2 45.073605  // $metal1_conn

*END

*D_NET *6 3.99199e-16

*CONN
*P *6 I *C 1.1300 0.8950 
*I *17:g B *C 0.6825 0.5325 
*I *20:g B *C 1.3025 0.5325 
*I *7:g B *C 0.8875 1.0975 
*I *9:g B *C 1.3025 1.0975 
*N *6:2 *C 0.8875 0.8850 
*N *6:4 *C 0.9500 0.8850 
*N *6:6 *C 1.2550 0.8450 

*CAP
0 *9:g 3.6107e-17
1 *7:g 3.91817e-17
2 *20:g 3.28508e-17
3 *17:g 6.2299e-17
4 *6:2 4.25751e-17
5 *6:4 7.46344e-17
6 *6:6 7.57033e-17
7 *6 3.58474e-17

*RES
0 *7:g *6:2 17.206898  // $poly_conn
1 *6:2 *17:g 97.597366  // $poly_conn
2 *6:2 *6:4 48.774086  // $poly_conn
3 *9:g *6:6 26.373035  // $poly_conn
4 *6:6 *20:g 50.73201  // $poly_conn
5 *6:6 *6 45.07423  // $metal1_conn
6 *6 *6:4 0.112771  // $metal1_conn

*END

*D_NET *21 1.28586e-16

*CONN
*P *21 O *C 0.1300 0.6650 
*I *14:d B *C 0.1750 0.5325 
*I *2:d B *C 0.1950 1.0975 

*CAP
0 *2:d 6.09715e-17
1 *14:d 1.9037e-17
2 *21 4.85777e-17

*RES
0 *2:d *21 62.307945  // $metal1_conn
1 *21 *14:d 75.087471  // $metal1_conn

*END

*D_NET *1 0

*CONN
*I *18:s B *C 0.9925 0.5325 
*I *19:d B *C 0.9925 0.5325 


*RES
0 *19:d *18:s 0.001  // $mwires

*END

*D_NET *15 3.7673e-18

*CONN
*I *7:s B *C 0.9900 1.0975 
*I *8:d B *C 0.9900 1.0975 

*CAP
0 *7:s 3.7673e-18

*RES
0 *8:d *7:s 0.001  // $mwires

*END

*D_NET *13 4.87145e-16

*CONN
*I *18:g B *C 0.8925 0.5325 
*I *20:d B *C 1.3950 0.5325 
*I *5:g B *C 0.6825 1.0975 
*I *9:d B *C 1.4450 1.0500 
*N *13:2 *C 0.7100 1.4200 
*N *13:4 *C 0.9200 0.7150 
*N *13:6 *C 1.4050 0.6850 
*N *13:8 *C 1.4050 1.0500 

*CAP
0 *9:d 9.13338e-17
1 *5:g 5.17019e-17
2 *20:d 1.44311e-17
3 *18:g 3.88673e-17
4 *13:6 5.72757e-17
5 *13:2 1.19548e-16
6 *13:4 1.13987e-16

*RES
0 *5:g *13:2 91.615028  // $poly_conn
1 *18:g *13:4 64.691956  // $poly_conn
2 *20:d *13:6 75.094055  // $metal1_conn
3 *13:6 *13:8 0.254359  // $metal1_conn
4 *13:8 *13:2 0.727822  // $metal1_conn
5 *13:6 *13:4 0.345589  // $metal1_conn
6 *9:d *13:8 62  // $metal1_conn

*END

*D_NET *12 3.94036e-16

*CONN
*I *16:d B *C 0.5775 0.5325 
*I *17:s B *C 0.5775 0.5325 
*I *19:g B *C 1.0925 0.5325 
*I *3:d B *C 0.5775 1.0975 
*I *5:d B *C 0.5775 1.0975 
*I *8:g B *C 1.0925 1.0975 
*N *12:3 *C 1.0550 0.3550 
*N *12:5 *C 0.5750 0.5450 

*CAP
0 *8:g 8.11156e-17
1 *3:d 7.20825e-17
2 *19:g 4.39099e-17
3 *16:d 1.0765e-16
4 *12:3 8.92785e-17

*RES
0 *8:g *19:g 98.717949  // $poly_conn
1 *19:g *12:3 62.437271  // $poly_conn
2 *12:3 *12:5 0.466214  // $metal1_conn
3 *12:5 *3:d 62.414749  // $metal1_conn
4 *16:d *12:5 75  // $metal1_conn

*END

*D_NET *11 4.30548e-16

*CONN
*I *14:g B *C 0.2675 0.5325 
*I *17:d B *C 0.7875 0.5325 
*I *18:d B *C 0.7875 0.5325 
*I *2:g B *C 0.2675 1.0975 
*I *5:s B *C 0.7850 1.0975 
*I *7:d B *C 0.7850 1.0975 
*N *11:2 *C 0.2400 0.8700 
*N *11:5 *C 0.7850 1.0500 

*CAP
0 *5:s 1.38618e-16
1 *2:g 3.14229e-17
2 *17:d 6.84015e-17
3 *14:g 3.51098e-17
4 *11:2 1.56995e-16

*RES
0 *2:g *11:2 22.256054  // $poly_conn
1 *11:2 *14:g 59.435539  // $poly_conn
2 *11:5 *11:2 45.839397  // $metal1_conn
3 *11:5 *17:d 75.399467  // $metal1_conn
4 *5:s *11:5 62  // $metal1_conn

*END

