*SPEF "IEEE 1481-1999"
*DESIGN  "XOR2X2"
*DATE "Mon Sep 27 11:38:56 2010"
*VENDOR "Cadence Design Systems"
*PROGRAM "Assura RCX"
*VERSION "3.2 Red Hat Linux release 7.2 (Enigma) - (09/09/2009-10:39)"
*DESIGN_FLOW "Physical Verification"
*DIVIDER /
*DELIMITER :
*BUS_DELIMITER []
*T_UNIT 1 PS
*C_UNIT 1e15 FF
*R_UNIT 1 OHM
*L_UNIT 1 MH
// DeviceFingerDelim "@"
// MATCHED
// caps2d version: 10

*NAME_MAP
*1 n0
*2 mp5
*3 net130
*4 mp5\@1
*5 mp0
*6 mn5
*7 net131
*8 mp4
*9 mn5\@1
*10 VSS
*11 mp3
*12 mn0
*13 mp2
*14 mn4
*15 mp1
*16 mn3
*17 mn2
*18 mn1
*19 Y
*20 A
*21 B
*22 VDD
*23 n1
*24 n2

*GROUND_NETS VSS

*PORTS
*22 I
*10 I
*20 I
*21 I
*19 O

*D_NET *22 2.90582e-16

*CONN
*P *22 I *C 0.1000 1.7100 
*I *2:s B *C 0.1850 1.1800 
*I *4:s B *C 0.7275 1.1825 
*I *5:s B *C 0.7275 1.1825 
*I *13:s B *C 1.5500 1.1825 
*I *15:s B *C 1.5500 1.1825 
*N *22:2 *C 1.0000 1.7100 
*N *22:3 *C 1.0000 1.7100 

*CAP
0 *13:s 6.40135e-17
1 *4:s 7.998e-17
2 *22:2 1.46589e-16

*RES
0 *4:s *22 0.024623  // $metal1_conn
1 *22:2 *22:3 7.5  // $metal1_conn
2 *13:s *22:3 62.630241  // $metal1_conn
3 *22:3 *4:s 0.179388  // $metal1_conn

*END

*D_NET *10 0

*CONN
*P *10 I *C 0.1000 0.0000 
*I *6:s B *C 0.1850 0.5300 
*I *9:s B *C 0.6950 0.5025 
*I *12:s B *C 0.6950 0.5025 
*I *17:s B *C 1.5950 0.5025 
*I *18:s B *C 1.5950 0.5025 
*N *10:2 *C 1.0000 0.0000 
*N *10:3 *C 1.0000 0.0000 


*RES
0 *9:s *10 0.024623  // $metal1_conn
1 *10:2 *10:3 6.2  // $metal1_conn
2 *17:s *10:3 75.656441  // $metal1_conn
3 *10:3 *9:s 0.195382  // $metal1_conn

*END

*D_NET *20 2.30837e-16

*CONN
*P *20 I *C 0.7000 0.8550 
*I *12:g B *C 0.7425 0.5025 
*I *5:g B *C 0.7775 1.1825 
*N *20:2 *C 0.7500 0.8750 

*CAP
0 *5:g 3.74454e-17
1 *12:g 3.90573e-17
2 *20:2 1.22161e-16
3 *20 3.21729e-17

*RES
0 *5:g *20:2 40.475597  // $poly_conn
1 *20:2 *12:g 66.116623  // $poly_conn
2 *20 *20:2 45.026955  // $metal1_conn

*END

*D_NET *21 4.98867e-16

*CONN
*P *21 I *C 1.5000 0.8550 
*I *16:g B *C 1.3875 0.5025 
*I *18:g B *C 1.6975 0.5025 
*I *8:g B *C 1.0925 1.1825 
*I *15:g B *C 1.6525 1.1825 
*N *21:2 *C 1.1200 0.8550 
*N *21:4 *C 1.3950 0.8450 
*N *21:6 *C 1.7250 0.8450 

*CAP
0 *15:g 3.5926e-17
1 *8:g 4.22238e-17
2 *18:g 3.81658e-17
3 *16:g 6.869e-17
4 *21:2 8.51764e-17
5 *21:4 9.9272e-17
6 *21:6 7.52717e-17
7 *21 5.41418e-17

*RES
0 *8:g *21:2 92.897079  // $poly_conn
1 *16:g *21:4 104.744965  // $poly_conn
2 *18:g *21:6 57.555679  // $poly_conn
3 *21:6 *15:g 52.548897  // $poly_conn
4 *21:6 *21 45.171555  // $metal1_conn
5 *21 *21:4 0.070628  // $metal1_conn
6 *21:4 *21:2 0.193718  // $metal1_conn

*END

*D_NET *19 1.8342e-16

*CONN
*P *19 O *C 0.3000 0.6650 
*I *6:d B *C 0.4050 0.5300 
*I *9:d B *C 0.4050 0.5300 
*I *2:d B *C 0.4050 1.1800 
*I *4:d B *C 0.4050 1.1800 

*CAP
0 *2:d 8.13366e-17
1 *6:d 4.03094e-17
2 *19 6.17738e-17

*RES
0 *19 *2:d 62.441963  // $metal1_conn
1 *6:d *19 75.150383  // $metal1_conn

*END

*D_NET *7 0

*CONN
*I *16:s B *C 1.4400 0.5025 
*I *17:d B *C 1.4400 0.5025 


*RES
0 *17:d *16:s 0.001  // $mwires

*END

*D_NET *3 2.04538e-18

*CONN
*I *11:s B *C 1.3825 1.1825 
*I *13:d B *C 1.3825 1.1825 

*CAP
0 *11:s 2.04538e-18

*RES
0 *13:d *11:s 0.001  // $mwires

*END

*D_NET *1 5.74883e-16

*CONN
*I *6:g B *C 0.3025 0.5300 
*I *9:g B *C 0.5075 0.5300 
*I *14:d B *C 1.2850 0.5025 
*I *16:d B *C 1.2850 0.5025 
*I *2:g B *C 0.3025 1.1800 
*I *4:g B *C 0.5075 1.1800 
*I *8:s B *C 1.2050 1.1825 
*I *11:d B *C 1.2050 1.1825 
*N *1:8 *C 0.4700 0.7600 

*CAP
0 *8:s 1.03947e-16
1 *4:g 3.69952e-16
2 *14:d 1.00985e-16

*RES
0 *4:g *1:8 45  // $metal1_conn
1 *1:8 *8:s 62.953461  // $metal1_conn
2 *14:d *1:8 75.944252  // $metal1_conn

*END

*D_NET *24 4.1752e-16

*CONN
*I *14:g B *C 1.1825 0.5025 
*I *18:d B *C 1.7900 0.5025 
*I *11:g B *C 1.3175 1.1825 
*I *15:d B *C 1.7450 1.1825 
*N *24:1 *C 1.2800 1.3900 
*N *24:5 *C 1.7550 1.0400 

*CAP
0 *15:d 1.06395e-17
1 *11:g 7.65601e-17
2 *18:d 5.07549e-17
3 *14:g 6.97279e-17
4 *24:5 1.07763e-16
5 *24:1 1.02075e-16

*RES
0 *24:1 *11:g 61.15522  // $poly_conn
1 *11:g *14:g 139.164444  // $poly_conn
2 *18:d *24:5 75.519882  // $metal1_conn
3 *24:5 *24:1 0.598074  // $metal1_conn
4 *24:5 *15:d 62.049442  // $metal1_conn

*END

*D_NET *23 4.70376e-16

*CONN
*I *12:d B *C 0.9625 0.5025 
*I *14:s B *C 0.9625 0.5025 
*I *17:g B *C 1.4925 0.5025 
*I *5:d B *C 0.9350 1.1825 
*I *8:d B *C 0.9350 1.1825 
*I *13:g B *C 1.4475 1.1825 
*N *23:2 *C 1.5650 0.6850 
*N *23:4 *C 0.9300 0.6850 

*CAP
0 *13:g 8.57215e-17
1 *5:d 5.31187e-17
2 *17:g 4.68753e-17
3 *12:d 3.47941e-17
4 *23:4 8.86925e-17
5 *23:2 1.61174e-16

*RES
0 *17:g *23:2 21.193991  // $poly_conn
1 *23:2 *13:g 99.573807  // $poly_conn
2 *23:2 *23:4 45.458515  // $metal1_conn
3 *23:4 *5:d 62.312973  // $metal1_conn
4 *23:4 *12:d 75.118095  // $metal1_conn

*END

