*SPEF "IEEE 1481-1999"
*DESIGN  "XOR2X4"
*DATE "Mon Sep 27 11:39:20 2010"
*VENDOR "Cadence Design Systems"
*PROGRAM "Assura RCX"
*VERSION "3.2 Red Hat Linux release 7.2 (Enigma) - (09/09/2009-10:39)"
*DESIGN_FLOW "Physical Verification"
*DIVIDER /
*DELIMITER :
*BUS_DELIMITER []
*T_UNIT 1 PS
*C_UNIT 1e15 FF
*R_UNIT 1 OHM
*L_UNIT 1 MH
// DeviceFingerDelim "@"
// MATCHED
// caps2d version: 10

*NAME_MAP
*1 mp5\@2
*2 mp5\@3
*3 mp0
*4 mp4
*5 Y
*6 mp3
*7 mp2
*8 mp1
*9 mn5
*10 mn5\@1
*11 mn5\@2
*12 mn5\@3
*13 mn0
*14 mn4
*15 mn3
*16 mn2
*17 mn1
*18 VDD
*19 A
*20 B
*21 n1
*22 n2
*23 n0
*24 net130
*25 VSS
*26 net131
*27 mp5
*28 mp5\@1

*GROUND_NETS VSS

*PORTS
*18 I
*25 I
*19 I
*20 I
*5 O

*D_NET *18 3.7748e-16

*CONN
*P *18 I *C 0.1000 1.7100 
*I *27:s B *C 0.1100 1.2700 
*I *28:s B *C 0.5100 1.2700 
*I *1:s B *C 0.5100 1.2700 
*I *2:s B *C 1.0050 1.1825 
*I *3:s B *C 1.0050 1.1825 
*I *7:s B *C 2.1000 1.1375 
*I *8:s B *C 2.1000 1.1375 
*N *18:2 *C 1.2000 1.7100 
*N *18:3 *C 1.2000 1.7100 

*CAP
0 *7:s 5.43553e-17
1 *18:2 1.62717e-16
2 *18 1.60408e-16

*RES
0 *18:2 *18:3 6.25  // $metal1_conn
1 *7:s *18:3 62.804863  // $metal1_conn
2 *18:3 *18 0.155367  // $metal1_conn

*END

*D_NET *25 0

*CONN
*P *25 I *C 0.1000 0.0000 
*I *9:s B *C 0.1100 0.4600 
*I *10:s B *C 0.5100 0.4600 
*I *11:s B *C 0.5100 0.4600 
*I *12:s B *C 1.0050 0.4625 
*I *13:s B *C 1.0050 0.4625 
*I *16:s B *C 2.1000 0.3475 
*I *17:s B *C 2.1000 0.3475 
*N *25:5 *C 1.2000 0.0000 
*N *25:6 *C 1.2000 0.0000 


*RES
0 *25:5 *25:6 5.166667  // $metal1_conn
1 *25:6 *16:s 75.65963  // $metal1_conn
2 *25 *25:6 0.139901  // $metal1_conn

*END

*D_NET *19 2.5946e-16

*CONN
*P *19 I *C 1.1000 1.0450 
*I *13:g B *C 1.0525 0.4625 
*I *3:g B *C 1.0525 1.1825 
*N *19:2 *C 1.0250 0.7400 
*N *19:4 *C 1.0250 0.7400 
*N *19:5 *C 1.0625 0.7400 
*N *19:6 *C 1.0625 1.0450 

*CAP
0 *3:g 4.20089e-17
1 *13:g 3.70843e-17
2 *19:5 7.00961e-17
3 *19:2 3.69434e-17
4 *19 7.33268e-17

*RES
0 *3:g *19:2 77.384254  // $poly_conn
1 *19:2 *13:g 44.050926  // $poly_conn
2 *19:4 *19:5 0.006435  // $metal1_conn
3 *19:6 *19 0.006521  // $metal1_conn
4 *19:5 *19:6 0.094296  // $metal1_conn
5 *19:2 *19:4 45  // $metal1_conn

*END

*D_NET *20 4.07696e-16

*CONN
*P *20 I *C 2.1000 0.6650 
*I *15:g B *C 1.7675 0.4050 
*I *17:g B *C 2.1525 0.3475 
*I *4:g B *C 1.5975 1.1700 
*I *8:g B *C 2.1525 1.1375 
*N *20:2 *C 1.8050 0.6550 
*N *20:5 *C 2.1550 0.6850 

*CAP
0 *8:g 4.78646e-17
1 *4:g 5.58432e-17
2 *17:g 3.84197e-17
3 *15:g 3.98181e-17
4 *20:2 1.15063e-16
5 *20:5 7.47229e-17
6 *20 3.59646e-17

*RES
0 *15:g *20:2 21.283424  // $poly_conn
1 *20:2 *4:g 111.241203  // $poly_conn
2 *8:g *20:5 78.191742  // $poly_conn
3 *20:5 *17:g 57.678925  // $poly_conn
4 *20 *20:2 45.177784  // $metal1_conn
5 *20 *20:5 45.030556  // $metal1_conn

*END

*D_NET *5 2.92302e-16

*CONN
*P *5 O *C 0.3000 1.0450 
*I *9:d B *C 0.3050 0.4600 
*I *10:d B *C 0.3050 0.4600 
*I *11:d B *C 0.7150 0.4600 
*I *12:d B *C 0.7150 0.4600 
*I *27:d B *C 0.3050 1.2700 
*I *28:d B *C 0.3050 1.2700 
*I *1:d B *C 0.7150 1.2700 
*I *2:d B *C 0.7150 1.2700 

*CAP
0 *1:d 1.61067e-16
1 *9:d 1.13334e-16
2 *5 1.79002e-17

*RES
0 *5 *9:d 0.312216  // $metal1_conn
1 *1:d *5 0.038422  // $metal1_conn

*END

*D_NET *26 3.69248e-18

*CONN
*I *15:s B *C 1.8575 0.4050 
*I *16:d B *C 1.8575 0.4050 

*CAP
0 *15:s 3.69248e-18

*RES
0 *16:d *15:s 0.001  // $mwires

*END

*D_NET *24 2.74008e-18

*CONN
*I *6:s B *C 1.8750 1.1700 
*I *7:d B *C 1.8750 1.1700 

*CAP
0 *6:s 2.74008e-18

*RES
0 *7:d *6:s 0.001  // $mwires

*END

*D_NET *23 6.91368e-16

*CONN
*I *9:g B *C 0.2025 0.4600 
*I *10:g B *C 0.4075 0.4600 
*I *11:g B *C 0.6125 0.4600 
*I *12:g B *C 0.8175 0.4600 
*I *14:d B *C 1.6250 0.4050 
*I *15:d B *C 1.6250 0.4050 
*I *27:g B *C 0.2025 1.2700 
*I *28:g B *C 0.4075 1.2700 
*I *1:g B *C 0.6125 1.2700 
*I *2:g B *C 0.8175 1.2700 
*I *4:s B *C 1.7000 1.1700 
*I *6:d B *C 1.7000 1.1700 
*N *23:14 *C 0.8300 0.7400 

*CAP
0 *4:s 1.18141e-16
1 *2:g 2.64122e-16
2 *14:d 1.07774e-16
3 *23:14 2.01331e-16

*RES
0 *4:s *23:14 63.031818  // $metal1_conn
1 *23:14 *14:d 75.841934  // $metal1_conn
2 *23:14 *2:g 45.103279  // $metal1_conn

*END

*D_NET *22 4.90548e-16

*CONN
*I *14:g B *C 1.4825 0.4050 
*I *17:d B *C 2.2450 0.3475 
*I *6:g B *C 1.8025 1.1700 
*I *8:d B *C 2.2450 1.1375 
*N *22:2 *C 1.4550 0.6650 
*N *22:4 *C 1.7650 0.8350 
*N *22:6 *C 2.2550 0.4950 
*N *22:7 *C 1.6150 0.6350 

*CAP
0 *8:d 4.39964e-17
1 *6:g 5.95411e-17
2 *17:d 1.86115e-17
3 *14:g 3.88388e-17
4 *22:7 7.07727e-17
5 *22:6 1.08122e-16
6 *22:2 5.61187e-17
7 *22:4 9.45467e-17

*RES
0 *14:g *22:2 69.82016  // $poly_conn
1 *6:g *22:4 71.411629  // $poly_conn
2 *8:d *22:6 62.518192  // $metal1_conn
3 *22:6 *22:7 0.587902  // $metal1_conn
4 *22:7 *22:2 0.083318  // $metal1_conn
5 *22:6 *17:d 75.070808  // $metal1_conn
6 *22:7 *22:4 0.256773  // $metal1_conn

*END

*D_NET *21 4.66331e-16

*CONN
*I *13:d B *C 1.4100 0.4050 
*I *14:s B *C 1.4100 0.4050 
*I *16:g B *C 1.9475 0.4050 
*I *3:d B *C 1.5250 1.1700 
*I *4:d B *C 1.5250 1.1700 
*I *7:g B *C 1.9475 1.1700 
*N *21:2 *C 1.9850 0.8750 
*N *21:5 *C 1.2950 0.9950 

*CAP
0 *7:g 6.29258e-17
1 *3:d 3.74091e-17
2 *16:g 7.08171e-17
3 *13:d 8.40043e-17
4 *21:5 8.06276e-17
5 *21:2 1.30547e-16

*RES
0 *7:g *21:2 16.15522  // $poly_conn
1 *21:2 *16:g 77.69368  // $poly_conn
2 *3:d *21:5 62.09396  // $metal1_conn
3 *21:5 *13:d 75.365089  // $metal1_conn
4 *21:5 *21:2 45.520874  // $metal1_conn

*END

