*SPEF "IEEE 1481-1999"
*DESIGN  "XOR2XL"
*DATE "Mon Sep 27 11:39:41 2010"
*VENDOR "Cadence Design Systems"
*PROGRAM "Assura RCX"
*VERSION "3.2 Red Hat Linux release 7.2 (Enigma) - (09/09/2009-10:39)"
*DESIGN_FLOW "Physical Verification"
*DIVIDER /
*DELIMITER :
*BUS_DELIMITER []
*T_UNIT 1 PS
*C_UNIT 1e15 FF
*R_UNIT 1 OHM
*L_UNIT 1 MH
// DeviceFingerDelim "@"
// MATCHED
// caps2d version: 10

*NAME_MAP
*1 mp3
*2 mp2
*3 mp1
*4 mn5
*5 Y
*6 mn0
*7 mn4
*8 mn3
*9 mn2
*10 n1
*11 mn1
*12 n2
*13 net131
*14 A
*15 VDD
*16 n0
*17 B
*18 net130
*19 VSS
*20 mp5
*21 mp0
*22 mp4

*GROUND_NETS VSS

*PORTS
*15 I
*19 I
*14 I
*17 I
*5 O

*D_NET *15 2.25981e-16

*CONN
*P *15 I *C 0.1000 1.7100 
*I *20:s B *C 0.3850 1.5475 
*I *21:s B *C 0.3850 1.5475 
*I *2:s B *C 1.1450 1.1675 
*I *3:s B *C 1.1450 1.1675 
*N *15:2 *C 0.8000 1.7100 
*N *15:3 *C 0.8000 1.7100 
*N *15:4 *C 0.3550 1.7100 

*CAP
0 *2:s 4.05135e-17
1 *20:s 1.44858e-17
2 *15:4 9.15392e-18
3 *15:2 1.54495e-16
4 *15 7.33339e-18

*RES
0 *2:s *15:3 62.519226  // $metal1_conn
1 *15:3 *15:4 0.223076  // $metal1_conn
2 *15:4 *15 0.127495  // $metal1_conn
3 *15:4 *20:s 62.097622  // $metal1_conn
4 *15:2 *15:3 9.375  // $metal1_conn

*END

*D_NET *19 0

*CONN
*P *19 I *C 0.1000 0.0000 
*I *4:s B *C 0.3250 0.4875 
*I *6:s B *C 0.3250 0.4875 
*I *9:s B *C 1.2450 0.4875 
*I *11:s B *C 1.2450 0.4875 
*N *19:2 *C 0.8000 0.0000 
*N *19:3 *C 0.8000 0.0000 
*N *19:4 *C 0.3250 0.0000 


*RES
0 *9:s *19:3 75.569771  // $metal1_conn
1 *19:3 *19:4 0.238128  // $metal1_conn
2 *19:4 *19 0.112443  // $metal1_conn
3 *19:4 *4:s 75.3405  // $metal1_conn
4 *19:2 *19:3 7.75  // $metal1_conn

*END

*D_NET *14 2.35671e-16

*CONN
*P *14 I *C 0.4100 1.0450 
*I *6:g B *C 0.4275 0.4875 
*I *21:g B *C 0.4275 1.1675 
*N *14:2 *C 0.4000 0.8850 

*CAP
0 *21:g 4.24474e-17
1 *6:g 4.16625e-17
2 *14:2 9.42304e-17
3 *14 5.73311e-17

*RES
0 *21:g *14:2 36.35862  // $poly_conn
1 *14:2 *6:g 74.820152  // $poly_conn
2 *14 *14:2 45.102211  // $metal1_conn

*END

*D_NET *17 5.07022e-16

*CONN
*P *17 I *C 0.8850 0.8400 
*I *8:g B *C 1.0225 0.4875 
*I *11:g B *C 1.3475 0.4875 
*I *22:g B *C 0.6475 1.1675 
*I *3:g B *C 1.2475 1.1675 
*N *17:1 *C 0.7000 0.8750 
*N *17:4 *C 0.9850 0.8300 
*N *17:6 *C 1.2750 0.8450 

*CAP
0 *3:g 3.52936e-17
1 *22:g 4.34187e-17
2 *11:g 3.8375e-17
3 *8:g 6.07856e-17
4 *17:1 9.13881e-17
5 *17:4 1.03731e-16
6 *17:6 1.05214e-16
7 *17 2.88168e-17

*RES
0 *17:1 *22:g 87.026947  // $poly_conn
1 *8:g *17:4 104.744965  // $poly_conn
2 *11:g *17:6 66.809547  // $poly_conn
3 *17:6 *3:g 44.321754  // $poly_conn
4 *17:6 *17:4 45.174362  // $metal1_conn
5 *17:4 *17 0.059824  // $metal1_conn
6 *17 *17:1 0.111158  // $metal1_conn

*END

*D_NET *5 1.30902e-16

*CONN
*P *5 O *C 0.1100 0.6650 
*I *4:d B *C 0.1300 0.4875 
*I *20:d B *C 0.1300 1.1675 

*CAP
0 *20:d 5.88838e-17
1 *4:d 2.18579e-17
2 *5 5.016e-17

*RES
0 *5 *4:d 75.099205  // $metal1_conn
1 *5 *20:d 62.273567  // $metal1_conn

*END

*D_NET *13 0

*CONN
*I *8:s B *C 1.0825 0.4875 
*I *9:d B *C 1.0825 0.4875 


*RES
0 *9:d *8:s 0.001  // $mwires

*END

*D_NET *18 5.21894e-19

*CONN
*I *1:s B *C 0.9475 1.1675 
*I *2:d B *C 0.9475 1.1675 

*CAP
0 *1:s 5.21894e-19

*RES
0 *2:d *1:s 0.001  // $mwires

*END

*D_NET *16 5.79007e-16

*CONN
*I *4:g B *C 0.2225 0.4875 
*I *7:d B *C 0.9200 0.4875 
*I *8:d B *C 0.9200 0.4875 
*I *20:g B *C 0.2225 1.1675 
*I *22:s B *C 0.7500 1.1675 
*I *1:d B *C 0.7500 1.1675 
*N *16:2 *C 0.2600 0.6950 
*N *16:5 *C 0.2600 0.6950 

*CAP
0 *22:s 1.16179e-16
1 *20:g 4.18547e-17
2 *7:d 9.82709e-17
3 *4:g 2.50085e-17
4 *16:2 2.97694e-16

*RES
0 *20:g *16:2 84.103943  // $poly_conn
1 *16:2 *4:g 25.129578  // $poly_conn
2 *7:d *16:5 75.884903  // $metal1_conn
3 *16:5 *22:s 62.858147  // $metal1_conn
4 *16:2 *16:5 45  // $metal1_conn

*END

*D_NET *12 4.02207e-16

*CONN
*I *7:g B *C 0.8175 0.4875 
*I *11:d B *C 1.4400 0.4875 
*I *1:g B *C 0.8525 1.1675 
*I *3:d B *C 1.3400 1.1675 
*N *12:3 *C 0.8900 1.3750 
*N *12:5 *C 1.3500 1.0250 

*CAP
0 *3:d 1.05432e-17
1 *1:g 6.69478e-17
2 *11:d 3.82565e-17
3 *7:g 6.70763e-17
4 *12:5 9.91198e-17
5 *12:3 1.20264e-16

*RES
0 *7:g *1:g 137.943604  // $poly_conn
1 *1:g *12:3 61.15522  // $poly_conn
2 *11:d *12:5 75.439957  // $metal1_conn
3 *12:5 *12:3 0.586277  // $metal1_conn
4 *12:5 *3:d 62.049652  // $metal1_conn

*END

*D_NET *10 4.94193e-16

*CONN
*I *6:d B *C 0.6225 0.4875 
*I *7:s B *C 0.6225 0.4875 
*I *9:g B *C 1.1425 0.4875 
*I *21:d B *C 0.5375 1.1675 
*I *22:d B *C 0.5375 1.1675 
*I *2:g B *C 1.0425 1.1675 
*N *10:1 *C 1.2050 0.6600 
*N *10:2 *C 1.1425 0.6600 
*N *10:5 *C 0.5850 0.6600 

*CAP
0 *2:g 8.3525e-17
1 *21:d 8.00619e-17
2 *9:g 4.19285e-17
3 *6:d 3.52678e-17
4 *10:5 1.06358e-16
5 *10:2 7.20706e-17
6 *10:1 7.49805e-17

*RES
0 *10:1 *10:2 46.294373  // $poly_conn
1 *10:2 *2:g 111.299545  // $poly_conn
2 *10:2 *9:g 20.563484  // $poly_conn
3 *10:1 *10:5 0.441222  // $metal1_conn
4 *10:5 *21:d 62.354591  // $metal1_conn
5 *10:5 *6:d 75.113228  // $metal1_conn

*END

