*SPEF "IEEE 1481-1999"
*DESIGN  "XOR3XL"
*DATE "Mon Sep 27 11:40:27 2010"
*VENDOR "Cadence Design Systems"
*PROGRAM "Assura RCX"
*VERSION "3.2 Red Hat Linux release 7.2 (Enigma) - (09/09/2009-10:39)"
*DESIGN_FLOW "Physical Verification"
*DIVIDER /
*DELIMITER :
*BUS_DELIMITER []
*T_UNIT 1 PS
*C_UNIT 1e15 FF
*R_UNIT 1 OHM
*L_UNIT 1 MH
// DeviceFingerDelim "@"
// MATCHED
// caps2d version: 10

*NAME_MAP
*1 VDD
*2 A
*3 B
*4 C
*5 mp8
*6 mp7
*7 n56
*8 n11
*9 n61
*10 n62
*11 Y
*12 n60
*13 n44
*14 n50
*15 VSS
*16 mp10
*17 mp9
*18 mp0
*19 mp2
*20 mp1
*21 mp5
*22 mp6
*23 mn10
*24 mp4
*25 mn9
*26 mp3
*27 mn0
*28 mn2
*29 mn1
*30 mn5
*31 mn6
*32 mn8
*33 mn4
*34 mn7
*35 mn3

*GROUND_NETS VSS

*PORTS
*1 I
*15 I
*2 I
*3 I
*4 I
*11 O

*D_NET *1 6.01624e-16

*CONN
*P *1 I *C 0.5000 1.7100 
*I *16:s B *C 0.4700 1.1800 
*I *17:s B *C 0.4700 1.1800 
*I *18:s B *C 1.1650 1.3250 
*I *5:s B *C 4.1200 1.1125 
*I *6:s B *C 4.1200 1.1125 
*N *1:2 *C 3.3000 1.7100 
*N *1:3 *C 3.3000 1.7100 
*N *1:4 *C 1.1000 1.7100 

*CAP
0 *5:s 8.23844e-17
1 *18:s 1.10695e-17
2 *16:s 3.17509e-17
3 *1:2 4.45592e-16
4 *1 3.08275e-17

*RES
0 *5:s *1:3 13.045666  // $metal1_conn
1 *1:3 *1:4 1.103856  // $metal1_conn
2 *1:4 *1 0.301508  // $metal1_conn
3 *1 *16:s 31.201141  // $metal1_conn
4 *1:4 *18:s 62.071472  // $metal1_conn
5 *1:2 *1:3 6.818182  // $metal1_conn
6 *1:2 *1:4 6.818182  // $metal1_conn

*END

*D_NET *15 0

*CONN
*P *15 I *C 0.5000 0.0000 
*I *23:s B *C 0.4700 0.5050 
*I *25:s B *C 0.4700 0.5050 
*I *27:s B *C 1.0900 0.3850 
*I *32:s B *C 4.1200 0.5650 
*I *34:s B *C 4.1200 0.5650 
*N *15:2 *C 3.3000 0.0000 
*N *15:3 *C 3.3000 0.0000 
*N *15:4 *C 1.1000 0.0000 
*N *15:5 *C 1.0050 0.0000 


*RES
0 *32:s *15:3 19.39509  // $metal1_conn
1 *15:3 *15:4 1.103447  // $metal1_conn
2 *15:4 *15:5 0.046581  // $metal1_conn
3 *15:5 *15 0.251894  // $metal1_conn
4 *15 *23:s 75.123024  // $metal1_conn
5 *15:5 *27:s 75.045822  // $metal1_conn
6 *15:2 *15:3 5.636364  // $metal1_conn
7 *15:2 *15:4 5.636364  // $metal1_conn

*END

*D_NET *2 2.017e-16

*CONN
*P *2 I *C 0.1000 0.8550 
*I *23:g B *C 0.2475 0.5050 
*I *16:g B *C 0.2475 1.1800 
*N *2:2 *C 0.2475 0.7100 
*N *2:3 *C 0.1450 0.7100 

*CAP
0 *16:g 3.84796e-17
1 *23:g 2.7986e-17
2 *2:2 1.94572e-17
3 *2:3 4.03727e-17
4 *2 7.54041e-17

*RES
0 *16:g *2:2 78.014542  // $poly_conn
1 *2:2 *2:3 50.485863  // $poly_conn
2 *2:2 *23:g 25.450441  // $poly_conn
3 *2:3 *2 0.080031  // $metal1_conn

*END

*D_NET *3 9.34999e-16

*CONN
*P *3 I *C 0.5000 1.0450 
*I *25:g B *C 0.5225 0.5050 
*I *29:g B *C 1.8475 0.3850 
*I *31:g B *C 2.3875 0.3850 
*I *17:g B *C 0.5225 1.1800 
*I *19:g B *C 1.4775 1.3250 
*I *21:g B *C 1.9775 1.1650 
*N *3:2 *C 1.4400 0.8325 
*N *3:3 *C 0.5225 0.8325 
*N *3:4 *C 0.4850 0.7000 
*N *3:5 *C 1.4400 0.7800 
*N *3:8 *C 2.0650 0.7100 
*N *3:9 *C 1.9775 0.7375 
*N *3:10 *C 1.8475 0.5800 
*N *3:11 *C 1.7450 0.5800 
*N *3:15 *C 2.3500 0.6550 

*CAP
0 *21:g 7.02514e-17
1 *19:g 6.17622e-17
2 *17:g 4.43337e-17
3 *31:g 4.42386e-17
4 *29:g 2.40156e-17
5 *25:g 3.58237e-17
6 *3:10 2.39594e-17
7 *3:9 1.9538e-17
8 *3:3 5.90786e-17
9 *3:2 1.05874e-16
10 *3:4 7.7929e-17
11 *3:5 6.1494e-17
12 *3:11 7.68402e-17
13 *3:8 8.90387e-17
14 *3:15 7.39056e-17
15 *3 6.69162e-17

*RES
0 *19:g *3:2 87.638367  // $poly_conn
1 *3:2 *3:3 218.851105  // $poly_conn
2 *3:3 *3:4 22.953773  // $poly_conn
3 *3:2 *3:5 47.610134  // $poly_conn
4 *3:3 *17:g 47.824196  // $poly_conn
5 *3:4 *25:g 16.15522  // $poly_conn
6 *3:8 *3:9 57.770714  // $poly_conn
7 *3:9 *3:10 63.897243  // $poly_conn
8 *3:10 *3:11 50.485863  // $poly_conn
9 *3:9 *21:g 65.172279  // $poly_conn
10 *3:10 *29:g 22.886339  // $poly_conn
11 *31:g *3:15 80.385986  // $poly_conn
12 *3:4 *3 45.20055  // $metal1_conn
13 *3:5 *3:11 0.256252  // $metal1_conn
14 *3:15 *3:8 0.164803  // $metal1_conn

*END

*D_NET *4 3.69603e-16

*CONN
*P *4 I *C 3.3000 0.8550 
*I *33:g B *C 3.0675 0.4750 
*I *32:g B *C 3.8175 0.5650 
*I *26:g B *C 3.3325 1.1650 
*I *5:g B *C 3.8175 1.1650 
*N *4:2 *C 2.9850 0.6950 
*N *4:4 *C 3.8175 0.9325 
*N *4:5 *C 3.3050 0.9050 

*CAP
0 *5:g 2.76364e-17
1 *26:g 3.34183e-17
2 *32:g 4.29185e-17
3 *33:g 3.90986e-17
4 *4:4 3.5381e-17
5 *4:2 6.80284e-17
6 *4:5 8.02204e-17
7 *4 4.29011e-17

*RES
0 *33:g *4:2 76.726654  // $poly_conn
1 *5:g *4:4 18.71979  // $poly_conn
2 *4:4 *4:5 115.03566  // $poly_conn
3 *4:4 *32:g 68.719788  // $poly_conn
4 *4:5 *26:g 17.437269  // $poly_conn
5 *4 *4:2 0.309408  // $metal1_conn
6 *4 *4:5 45.024193  // $metal1_conn

*END

*D_NET *11 8.29434e-17

*CONN
*P *11 O *C 4.3000 0.6650 
*I *34:d B *C 4.2750 0.5650 
*I *6:d B *C 4.2750 1.1125 

*CAP
0 *6:d 3.48695e-17
1 *34:d 4.80739e-17

*RES
0 *6:d *11 62.28804  // $metal1_conn
1 *11 *34:d 75.034477  // $metal1_conn

*END

*D_NET *10 8.88212e-16

*CONN
*I *23:d B *C 0.1400 0.5050 
*I *27:g B *C 1.1375 0.3850 
*I *29:d B *C 1.9850 0.3850 
*I *30:d B *C 1.9850 0.3850 
*I *16:d B *C 0.1550 1.1800 
*I *18:g B *C 1.2125 1.3250 
*I *20:s B *C 1.8600 1.1650 
*I *21:s B *C 1.8600 1.1650 
*N *10:2 *C 0.8150 0.3300 
*N *10:4 *C 0.9200 1.1300 
*N *10:7 *C 1.8750 1.1000 
*N *10:8 *C 0.3050 1.2450 
*N *10:10 *C 0.1150 0.4700 

*CAP
0 *20:s 1.49354e-16
1 *18:g 4.24577e-17
2 *16:d 2.71268e-17
3 *29:d 8.39423e-17
4 *27:g 6.35678e-17
5 *23:d 1.05876e-16
6 *10:8 1.56814e-16
7 *10:2 1.1279e-16
8 *10:4 1.46284e-16

*RES
0 *27:g *10:2 182.056076  // $poly_conn
1 *18:g *10:4 133.601562  // $poly_conn
2 *29:d *10:7 75.518517  // $metal1_conn
3 *10:7 *10:4 0.638185  // $metal1_conn
4 *10:4 *10:8 0.713856  // $metal1_conn
5 *10:8 *10:10 0.679463  // $metal1_conn
6 *10:8 *16:d 62.106289  // $metal1_conn
7 *10:10 *10:2 0.567054  // $metal1_conn
8 *20:s *10:7 62  // $metal1_conn
9 *23:d *10:10 75  // $metal1_conn

*END

*D_NET *9 6.99604e-16

*CONN
*I *25:d B *C 0.6300 0.5050 
*I *28:g B *C 1.4025 0.3850 
*I *30:g B *C 2.1225 0.3850 
*I *17:d B *C 0.6675 1.1800 
*I *20:g B *C 1.7425 1.1650 
*I *22:g B *C 2.2275 1.2700 
*N *9:4 *C 1.4025 0.6475 
*N *9:5 *C 0.7300 0.7000 

*CAP
0 *22:g 9.77417e-17
1 *20:g 9.21034e-17
2 *17:d 8.07612e-17
3 *30:g 9.75652e-17
4 *28:g 3.81335e-17
5 *25:d 3.43023e-17
6 *9:4 1.18184e-16
7 *9:5 1.40813e-16

*RES
0 *30:g *22:g 170.468628  // $poly_conn
1 *22:g *20:g 189.454025  // $poly_conn
2 *20:g *9:4 161.234146  // $poly_conn
3 *9:4 *9:5 206.175995  // $poly_conn
4 *9:4 *28:g 38.249203  // $poly_conn
5 *25:d *9:5 75.106659  // $metal1_conn
6 *9:5 *17:d 62.297951  // $metal1_conn

*END

*D_NET *8 7.18737e-16

*CONN
*I *27:d B *C 1.3550 0.3850 
*I *28:d B *C 1.3550 0.3850 
*I *31:s B *C 2.5200 0.3400 
*I *18:d B *C 1.3450 1.3250 
*I *19:s B *C 1.3450 1.3250 
*I *22:d B *C 2.3600 1.2975 
*N *8:1 *C 2.6800 1.4200 
*N *8:2 *C 2.6800 0.2600 
*N *8:4 *C 2.3600 1.4200 
*N *8:7 *C 2.5200 0.2600 

*CAP
0 *22:d 1.26511e-16
1 *18:d 1.00695e-16
2 *31:s 1.37799e-16
3 *27:d 1.36251e-16
4 *8:2 9.68247e-17
5 *8:1 1.20656e-16

*RES
0 *8:1 *8:2 207.354706  // $poly_conn
1 *8:1 *8:4 0.237603  // $metal1_conn
2 *8:4 *18:d 62.736198  // $metal1_conn
3 *22:d *8:4 62  // $metal1_conn
4 *8:2 *8:7 0.111182  // $metal1_conn
5 *8:7 *27:d 75.96875  // $metal1_conn
6 *31:s *8:7 75  // $metal1_conn

*END

*D_NET *7 5.80883e-16

*CONN
*I *30:s B *C 2.2550 0.3850 
*I *31:d B *C 2.2550 0.3850 
*I *35:d B *C 3.4650 0.5200 
*I *21:d B *C 2.1800 1.2700 
*I *22:s B *C 2.1800 1.2700 
*I *26:s B *C 3.4400 1.1650 
*N *7:3 *C 3.4650 1.1000 
*N *7:4 *C 2.5400 1.1000 

*CAP
0 *26:s 1.56121e-16
1 *21:d 6.83005e-17
2 *35:d 8.04379e-17
3 *30:s 1.08497e-16
4 *7:4 1.67527e-16

*RES
0 *35:d *7:3 75.381828  // $metal1_conn
1 *7:3 *7:4 0.628945  // $metal1_conn
2 *7:4 *21:d 62.338997  // $metal1_conn
3 *7:4 *30:s 75.667397  // $metal1_conn
4 *26:s *7:3 62  // $metal1_conn

*END

*D_NET *14 4.68125e-16

*CONN
*I *33:s B *C 3.2000 0.4750 
*I *35:s B *C 3.2000 0.4750 
*I *34:g B *C 4.1675 0.5650 
*I *24:d B *C 3.2300 1.1650 
*I *26:d B *C 3.2300 1.1650 
*I *6:g B *C 4.1675 1.1125 
*N *14:2 *C 4.1300 0.8650 
*N *14:4 *C 3.8750 0.8950 

*CAP
0 *6:g 2.28133e-17
1 *24:d 9.71629e-17
2 *34:g 2.44459e-17
3 *33:s 9.59819e-17
4 *14:4 1.74002e-16
5 *14:2 5.37185e-17

*RES
0 *6:g *14:2 27.69368  // $poly_conn
1 *14:2 *34:g 43.078297  // $poly_conn
2 *14:2 *14:4 45.158485  // $metal1_conn
3 *14:4 *33:s 75.808701  // $metal1_conn
4 *14:4 *24:d 62.733521  // $metal1_conn

*END

*D_NET *13 7.44505e-16

*CONN
*I *28:s B *C 1.6250 0.3850 
*I *29:s B *C 1.6250 0.3850 
*I *33:d B *C 2.9600 0.4750 
*I *19:d B *C 1.6950 1.1650 
*I *20:d B *C 1.6950 1.1650 
*I *24:s B *C 3.0800 1.1650 

*CAP
0 *24:s 2.52155e-16
1 *19:d 3.26096e-16
2 *33:d 6.03508e-17
3 *28:s 1.05904e-16

*RES
0 *19:d *28:s 137.844193  // $metal1_conn
1 *24:s *33:d 137.528046  // $metal1_conn
2 *24:s *19:d 125.098915  // $metal1_conn

*END

*D_NET *12 3.35476e-16

*CONN
*I *35:g B *C 3.3325 0.4750 
*I *32:d B *C 3.7100 0.5650 
*I *24:g B *C 3.1275 1.1650 
*I *5:d B *C 3.7100 1.1650 
*N *12:1 *C 3.6550 0.7600 
*N *12:2 *C 3.3325 0.7725 

*CAP
0 *5:d 5.81929e-17
1 *24:g 6.58157e-17
2 *32:d 4.20764e-17
3 *35:g 3.48355e-17
4 *12:2 4.96206e-17
5 *12:1 8.49351e-17

*RES
0 *12:1 *12:2 115.733849  // $poly_conn
1 *12:2 *24:g 106.395523  // $poly_conn
2 *12:2 *35:g 47.22356  // $poly_conn
3 *5:d *12:1 62.180634  // $metal1_conn
4 *12:1 *32:d 75.090561  // $metal1_conn

*END

