*SPEF "IEEE 1481-1999"
*DESIGN  "ACHCONX2"
*DATE "Mon Sep 27 08:39:06 2010"
*VENDOR "Cadence Design Systems"
*PROGRAM "Assura RCX"
*VERSION "3.2 Red Hat Linux release 7.2 (Enigma) - (09/09/2009-10:39)"
*DESIGN_FLOW "Physical Verification"
*DIVIDER /
*DELIMITER :
*BUS_DELIMITER []
*T_UNIT 1 PS
*C_UNIT 1e15 FF
*R_UNIT 1 OHM
*L_UNIT 1 MH
// DeviceFingerDelim "@"
// MATCHED
// caps2d version: 10

*NAME_MAP
*1 mn4
*2 mn4\@1
*3 mn7
*4 mn7\@1
*5 mp1
*6 mn9
*7 mp4
*8 mn9\@1
*9 mp4\@1
*10 mn8
*11 mp7
*12 mn8\@1
*13 mp7\@1
*14 mn10
*15 mp9
*16 mp9\@1
*17 mp8
*18 mp8\@1
*19 VSS
*20 mp10
*21 mp10\@1
*22 mp6
*23 mp6\@1
*24 mp5
*25 mp5\@1
*26 mp11
*27 mp11\@1
*28 mp3
*29 mp3\@1
*30 n13
*31 mp2
*32 n11
*33 mp2\@1
*34 n10
*35 A
*36 mp1\@1
*37 n15
*38 B
*39 net0370
*40 n12
*41 n9
*42 CI
*43 VDD
*44 mn10\@1
*45 mn3
*46 mn3\@1
*47 mn2
*48 mn2\@1
*49 mn1
*50 mn1\@1
*51 mn6
*52 mn6\@1
*53 mn5
*54 CON
*55 mn5\@1
*56 mn11
*57 mn11\@1

*GROUND_NETS VSS

*PORTS
*43 I
*19 I
*35 I
*38 I
*42 I
*54 O

*D_NET *43 8.34424e-16

*CONN
*P *43 I *C 0.1000 1.7100 
*I *11:s B *C 4.7800 1.1275 
*I *13:s B *C 5.2250 1.2825 
*I *20:s B *C 6.8750 1.2875 
*I *21:s B *C 7.2600 1.3625 
*I *22:s B *C 0.1850 1.0925 
*I *23:s B *C 0.6550 1.0300 
*I *24:s B *C 0.6550 1.0300 
*I *25:s B *C 1.2700 1.0925 
*I *26:s B *C 1.2700 1.0925 
*I *27:s B *C 1.7150 1.2950 
*N *43:3 *C 6.5000 1.7100 
*N *43:4 *C 6.5000 1.7100 
*N *43:7 *C 2.9000 1.7100 

*CAP
0 *21:s 3.08031e-17
1 *13:s 4.78806e-17
2 *43:3 6.55537e-16
3 *43 1.00203e-16

*RES
0 *43:3 *43:4 8.333333  // $metal1_conn
1 *43:3 *13:s 8.333333  // $metal1_conn
2 *43:3 *43:7 8.333333  // $metal1_conn
3 *43:3 *43 7.5  // $metal1_conn
4 *21:s *43:4 0.145234  // $metal1_conn
5 *43:4 *13:s 0.638245  // $metal1_conn
6 *13:s *43:7 0.903335  // $metal1_conn
7 *43:7 *43 0.593112  // $metal1_conn

*END

*D_NET *19 0

*CONN
*P *19 I *C 0.7000 0.0000 
*I *3:s B *C 4.7800 0.4225 
*I *4:s B *C 5.2250 0.3000 
*I *14:s B *C 6.8750 0.5375 
*I *44:s B *C 7.2600 0.3575 
*I *51:s B *C 0.1850 0.5625 
*I *52:s B *C 0.6550 0.5825 
*I *53:s B *C 0.6550 0.5825 
*I *55:s B *C 1.2275 0.5625 
*I *56:s B *C 1.2275 0.5625 
*I *57:s B *C 1.7150 0.3700 
*N *19:3 *C 6.5000 0.0000 
*N *19:4 *C 6.5000 0.0000 
*N *19:7 *C 2.9000 0.0000 


*RES
0 *19:3 *19:4 6.888889  // $metal1_conn
1 *19:3 *4:s 6.888889  // $metal1_conn
2 *19:3 *19:7 6.888889  // $metal1_conn
3 *19:3 *19 6.2  // $metal1_conn
4 *44:s *19:4 0.144284  // $metal1_conn
5 *19:4 *4:s 0.638245  // $metal1_conn
6 *4:s *19:7 0.903335  // $metal1_conn
7 *19:7 *19 0.593112  // $metal1_conn

*END

*D_NET *35 1.96172e-16

*CONN
*P *35 I *C 0.1200 1.0450 
*I *51:g B *C 0.2325 0.5625 
*I *52:g B *C 0.4375 0.5625 
*I *22:g B *C 0.2325 1.0925 
*I *23:g B *C 0.4375 1.0925 
*N *35:4 *C 0.1750 0.7700 
*N *35:8 *C 0.1475 0.7700 
*N *35:9 *C 0.1475 1.0450 

*CAP
0 *23:g 1.07419e-16
1 *35:9 3.88499e-17
2 *35:8 4.13255e-17
3 *35:4 8.57695e-18

*RES
0 *23:g *35:4 47.912865  // $poly_conn
1 *35 *35:9 0.004237  // $metal1_conn
2 *35:8 *35:4 0.004315  // $metal1_conn
3 *35:8 *35:9 0.13607  // $metal1_conn

*END

*D_NET *38 1.28322e-15

*CONN
*P *38 I *C 1.7000 0.8550 
*I *1:g B *C 4.0775 0.4175 
*I *2:g B *C 4.3425 0.4175 
*I *3:g B *C 4.8275 0.4225 
*I *4:g B *C 5.0925 0.4225 
*I *47:g B *C 2.5975 0.3675 
*I *48:g B *C 2.8625 0.3675 
*I *56:g B *C 1.3175 0.5625 
*I *57:g B *C 1.5825 0.5625 
*I *5:g B *C 3.7175 1.1350 
*I *11:g B *C 4.8275 1.1275 
*I *13:g B *C 5.0925 1.1275 
*I *26:g B *C 1.3175 1.0925 
*I *27:g B *C 1.5825 1.1525 
*I *28:g B *C 2.1525 1.1775 
*I *29:g B *C 2.3725 1.1775 
*I *36:g B *C 3.4525 1.1350 
*N *38:13 *C 2.5200 0.6200 
*N *38:14 *C 2.9500 0.6200 
*N *38:22 *C 4.3800 0.6200 

*CAP
0 *29:g 1.61415e-16
1 *27:g 1.89247e-16
2 *13:g 2.26125e-16
3 *5:g 2.13408e-16
4 *47:g 7.94032e-17
5 *1:g 8.43214e-17
6 *38:13 1.0386e-16
7 *38:14 1.1176e-16
8 *38:22 7.39625e-17
9 *38 3.97177e-17

*RES
0 *1:g *38:22 67.565475  // $poly_conn
1 *5:g *1:g 185.096893  // $poly_conn
2 *47:g *38:14 57.387943  // $poly_conn
3 *47:g *38:13 55.993183  // $poly_conn
4 *29:g *27:g 128.182236  // $poly_conn
5 *38 *27:g 45.024948  // $metal1_conn
6 *13:g *38:22 22.868845  // $metal1_conn
7 *38:14 *5:g 45.526917  // $metal1_conn
8 *38:13 *29:g 45.342579  // $metal1_conn

*END

*D_NET *42 1.95193e-16

*CONN
*P *42 I *C 7.1000 0.8550 
*I *14:g B *C 6.9225 0.5375 
*I *44:g B *C 7.1275 0.5375 
*I *20:g B *C 6.9225 1.2875 
*I *21:g B *C 7.1275 1.2875 
*N *42:6 *C 7.0300 0.8350 
*N *42:7 *C 7.0300 0.8450 
*N *42:8 *C 7.1005 0.8450 

*CAP
0 *21:g 1.20059e-16
1 *42:8 2.77801e-17
2 *42:7 4.73547e-17

*RES
0 *42:8 *42 0.001404  // $metal1_conn
1 *21:g *42:6 22.5  // $metal1_conn
2 *42:6 *42:7 0.001404  // $metal1_conn
3 *42:7 *42:8 0.035417  // $metal1_conn

*END

*D_NET *54 4.7998e-16

*CONN
*P *54 O *C 6.1000 0.8550 
*I *6:s B *C 5.5300 0.4525 
*I *8:s B *C 6.0600 0.4525 
*I *10:s B *C 6.0600 0.4525 
*I *12:s B *C 6.5700 0.4225 
*I *15:s B *C 5.5850 1.1775 
*I *16:s B *C 5.9850 1.1775 
*I *17:s B *C 5.9850 1.1775 
*I *18:s B *C 6.4600 1.1775 

*CAP
0 *18:s 2.02858e-16
1 *6:s 2.18562e-16
2 *54 5.85609e-17

*RES
0 *6:s *54 0.324163  // $metal1_conn
1 *54 *18:s 0.138218  // $metal1_conn

*END

*D_NET *37 1.01739e-15

*CONN
*I *45:s B *C 1.9600 0.3675 
*I *46:s B *C 2.5500 0.3675 
*I *47:d B *C 2.5500 0.3675 
*I *48:d B *C 2.9950 0.3525 
*I *51:d B *C 0.3350 0.5625 
*I *52:d B *C 0.3350 0.5625 
*I *53:g B *C 0.7025 0.5825 
*I *55:g B *C 0.9675 0.5825 
*I *22:d B *C 0.3350 1.0925 
*I *23:d B *C 0.3350 1.0925 
*I *24:g B *C 0.7025 1.0300 
*I *25:g B *C 0.9875 1.0300 
*I *28:s B *C 2.0600 1.1775 
*I *29:s B *C 2.4750 1.1775 
*I *31:d B *C 2.4750 1.1775 
*I *33:d B *C 2.9350 1.1775 
*N *37:4 *C 0.6450 0.7600 
*N *37:6 *C 1.0250 0.7600 
*N *37:9 *C 0.3350 0.7600 
*N *37:17 *C 1.2600 0.7600 

*CAP
0 *33:d 3.54272e-16
1 *25:g 9.90779e-17
2 *22:d 3.75686e-17
3 *51:d 1.40696e-17
4 *45:s 2.76238e-16
5 *37:17 1.39031e-16
6 *37:9 4.22062e-17
7 *37:4 3.5162e-17
8 *37:6 1.97673e-17

*RES
0 *25:g *37:6 46.965603  // $poly_conn
1 *25:g *37:4 48.256718  // $poly_conn
2 *37:17 *37:6 0.142864  // $metal1_conn
3 *37:4 *37:9 0.196414  // $metal1_conn
4 *45:s *37:17 0.844134  // $metal1_conn
5 *37:9 *51:d 75.141769  // $metal1_conn
6 *37:9 *22:d 20.918657  // $metal1_conn
7 *37:17 *33:d 0.938931  // $metal1_conn

*END

*D_NET *34 1.21222e-15

*CONN
*I *10:g B *C 6.1075 0.4525 
*I *12:g B *C 6.4375 0.4525 
*I *47:s B *C 2.8150 0.3675 
*I *48:s B *C 2.8150 0.3675 
*I *49:d B *C 3.5650 0.4175 
*I *50:d B *C 3.5650 0.4175 
*I *5:d B *C 3.5850 1.1350 
*I *15:g B *C 5.6775 1.1775 
*I *16:g B *C 5.8825 1.1775 
*I *31:s B *C 2.7950 1.1775 
*I *33:s B *C 2.7950 1.1775 
*I *36:d B *C 3.5850 1.1350 
*N *34:6 *C 5.9850 0.6500 
*N *34:8 *C 5.7000 0.8600 
*N *34:10 *C 3.5850 1.1000 
*N *34:12 *C 2.7100 0.9400 
*N *34:14 *C 2.7300 0.4600 

*CAP
0 *31:s 1.40731e-16
1 *16:g 3.41537e-16
2 *5:d 2.996e-16
3 *49:d 1.093e-16
4 *47:s 1.1775e-16
5 *10:g 9.81812e-17
6 *34:6 1.05124e-16

*RES
0 *10:g *34:6 55.219883  // $poly_conn
1 *34:6 *34:8 0.309765  // $metal1_conn
2 *16:g *34:8 45  // $metal1_conn
3 *34:14 *49:d 75.593826  // $metal1_conn
4 *47:s *34:14 75  // $metal1_conn
5 *5:d *34:10 62  // $metal1_conn
6 *31:s *34:12 62  // $metal1_conn
7 *34:8 *34:10 1.677799  // $metal1_conn
8 *34:10 *34:12 0.788322  // $metal1_conn
9 *34:12 *34:14 0.337309  // $metal1_conn

*END

*D_NET *32 1.16071e-15

*CONN
*I *1:d B *C 3.9300 0.4175 
*I *2:d B *C 4.4750 0.3675 
*I *49:s B *C 3.3000 0.4175 
*I *50:s B *C 3.9300 0.4175 
*I *53:d B *C 0.8350 0.5825 
*I *55:d B *C 0.8350 0.5825 
*I *5:s B *C 3.9350 1.1900 
*I *7:d B *C 3.9350 1.1900 
*I *9:d B *C 4.4750 1.2700 
*I *24:d B *C 0.8450 1.0300 
*I *25:d B *C 0.8450 1.0300 
*I *36:s B *C 3.4050 1.1350 
*N *32:12 *C 0.8350 1.0300 

*CAP
0 *24:d 2.37893e-16
1 *9:d 6.13135e-16
2 *53:d 3.73706e-17
3 *1:d 2.7231e-16

*RES
0 *1:d *9:d 62.58461  // $metal1_conn
1 *32:12 *53:d 75.287384  // $metal1_conn
2 *24:d *32:12 31  // $metal1_conn
3 *9:d *32:12 2.040773  // $metal1_conn

*END

*D_NET *30 9.32615e-16

*CONN
*I *45:g B *C 2.0675 0.3675 
*I *46:g B *C 2.3325 0.3675 
*I *49:g B *C 3.3475 0.4175 
*I *50:g B *C 3.6125 0.4175 
*I *56:d B *C 1.4500 0.5625 
*I *57:d B *C 1.4500 0.5625 
*I *7:g B *C 3.9825 1.1900 
*I *9:g B *C 4.3425 1.1900 
*I *26:d B *C 1.5350 1.1525 
*I *27:d B *C 1.5350 1.1525 
*I *31:g B *C 2.5775 1.1775 
*I *33:g B *C 2.8425 1.1775 
*N *30:3 *C 3.3100 0.6200 
*N *30:8 *C 1.9550 0.5650 
*N *30:15 *C 3.8600 0.7500 
*N *30:18 *C 1.4500 0.5650 

*CAP
0 *33:g 1.61954e-16
1 *26:d 6.33492e-17
2 *9:g 1.54734e-16
3 *56:d 7.77269e-17
4 *49:g 6.73174e-17
5 *45:g 1.07705e-16
6 *30:8 7.17999e-17
7 *30:3 1.21166e-16
8 *30:15 1.06862e-16

*RES
0 *49:g *30:3 22.565475  // $poly_conn
1 *9:g *30:15 63.389679  // $poly_conn
2 *30:3 *33:g 129.832062  // $poly_conn
3 *45:g *30:8 54.156052  // $poly_conn
4 *33:g *45:g 103.320442  // $poly_conn
5 *30:3 *30:15 45.461266  // $metal1_conn
6 *30:8 *30:18 0.377332  // $metal1_conn
7 *56:d *30:18 75  // $metal1_conn
8 *30:18 *26:d 62.361347  // $metal1_conn

*END

*D_NET *41 1.31312e-15

*CONN
*I *1:s B *C 4.2950 0.4175 
*I *2:s B *C 4.2950 0.4175 
*I *6:g B *C 5.5775 0.4525 
*I *8:g B *C 5.8425 0.4525 
*I *45:d B *C 2.2850 0.3675 
*I *46:d B *C 2.2850 0.3675 
*I *7:s B *C 4.2950 1.1900 
*I *9:s B *C 4.2950 1.1900 
*I *17:g B *C 6.0875 1.1775 
*I *18:g B *C 6.3525 1.1775 
*I *28:d B *C 2.2625 1.1775 
*I *29:d B *C 2.2625 1.1775 
*N *41:5 *C 5.2750 0.6200 
*N *41:11 *C 2.2550 1.1000 
*N *41:14 *C 4.2100 0.4600 

*CAP
0 *28:d 2.97177e-16
1 *18:g 1.24931e-16
2 *7:s 3.29446e-16
3 *45:d 9.95009e-17
4 *6:g 1.17022e-16
5 *1:s 1.82427e-16
6 *41:5 1.62614e-16

*RES
0 *6:g *41:5 112.898918  // $poly_conn
1 *18:g *6:g 104.31292  // $poly_conn
2 *41:5 *41:14 1.087074  // $metal1_conn
3 *1:s *41:14 75  // $metal1_conn
4 *41:11 *45:d 75.695465  // $metal1_conn
5 *7:s *41:11 63.597439  // $metal1_conn
6 *41:14 *7:s 62.362087  // $metal1_conn
7 *28:d *41:11 62  // $metal1_conn

*END

*D_NET *40 4.71014e-16

*CONN
*I *3:d B *C 4.9600 0.4225 
*I *4:d B *C 4.9600 0.4225 
*I *6:d B *C 5.7950 0.4525 
*I *8:d B *C 5.7950 0.4525 
*I *11:d B *C 5.0450 1.1275 
*I *13:d B *C 5.0450 1.1275 
*I *15:d B *C 5.7800 1.1775 
*I *16:d B *C 5.7800 1.1775 
*N *40:2 *C 4.9900 0.7800 

*CAP
0 *15:d 9.45953e-17
1 *11:d 1.22832e-16
2 *6:d 1.08322e-16
3 *3:d 5.37203e-17
4 *40:2 9.15444e-17

*RES
0 *6:d *40:2 75.676926  // $metal1_conn
1 *15:d *11:d 124.600578  // $metal1_conn
2 *40:2 *3:d 75.242935  // $metal1_conn
3 *40:2 *11:d 62.103851  // $metal1_conn

*END

*D_NET *39 3.13398e-16

*CONN
*I *10:d B *C 6.3900 0.4525 
*I *12:d B *C 6.3900 0.4525 
*I *14:d B *C 7.0250 0.5375 
*I *44:d B *C 7.0250 0.5375 
*I *17:d B *C 6.2200 1.1775 
*I *18:d B *C 6.2200 1.1775 
*I *20:d B *C 7.0250 1.2875 
*I *21:d B *C 7.0250 1.2875 
*N *39:2 *C 6.6750 1.1500 
*N *39:4 *C 6.6750 0.5750 

*CAP
0 *20:d 2.7793e-17
1 *17:d 6.42022e-17
2 *14:d 3.09364e-17
3 *10:d 5.64618e-17
4 *39:4 6.28941e-17
5 *39:2 7.11107e-17

*RES
0 *39:4 *14:d 75.252846  // $metal1_conn
1 *20:d *39:2 62.222931  // $metal1_conn
2 *39:4 *10:d 75.273338  // $metal1_conn
3 *39:2 *17:d 62.380589  // $metal1_conn
4 *39:2 *39:4 0.391497  // $metal1_conn

*END

