*SPEF "IEEE 1481-1999"
*DESIGN  "ADDFHX4"
*DATE "Mon Sep 27 08:40:14 2010"
*VENDOR "Cadence Design Systems"
*PROGRAM "Assura RCX"
*VERSION "3.2 Red Hat Linux release 7.2 (Enigma) - (09/09/2009-10:39)"
*DESIGN_FLOW "Physical Verification"
*DIVIDER /
*DELIMITER :
*BUS_DELIMITER []
*T_UNIT 1 PS
*C_UNIT 1e15 FF
*R_UNIT 1 OHM
*L_UNIT 1 MH
// DeviceFingerDelim "@"
// MATCHED
// caps2d version: 10

*NAME_MAP
*1 mp13\@2
*2 CI
*3 mp13\@3
*4 mp12
*5 mp12\@1
*6 mp12\@2
*7 mp12\@3
*8 mp2
*9 CO
*10 mp3
*11 mp4
*12 mp1
*13 mp0
*14 VDD
*15 mn7
*16 mn6
*17 mn5
*18 mn8
*19 mn11
*20 mn10
*21 mn9
*22 mp7
*23 mn13
*24 mp6
*25 mn13\@1
*26 mp5
*27 mp8
*28 mp11
*29 mp10
*30 mp9
*31 mp13
*32 mp13\@1
*33 n2
*34 n4
*35 Sb
*36 COb
*37 A
*38 n1
*39 B
*40 n9
*41 n8
*42 n0
*43 n7
*44 n6
*45 mn13\@2
*46 S
*47 mn13\@3
*48 mn12
*49 mn12\@1
*50 mn12\@2
*51 mn12\@3
*52 VSS
*53 mn2
*54 mn3
*55 mn4
*56 n3
*57 mn1
*58 n5
*59 mn0

*GROUND_NETS VSS

*PORTS
*14 I
*52 I
*37 I
*39 I
*2 I
*9 O
*46 O

*D_NET *14 6.96066e-16

*CONN
*P *14 I *C 0.1000 1.7100 
*I *22:s B *C 2.8600 1.1450 
*I *24:s B *C 3.3300 1.1450 
*I *26:s B *C 3.3300 1.1450 
*I *30:s B *C 4.5500 1.1950 
*I *31:s B *C 4.5500 1.1950 
*I *32:s B *C 4.9800 1.1950 
*I *1:s B *C 4.9800 1.1950 
*I *3:s B *C 5.3800 1.1950 
*I *4:s B *C 0.1750 1.1000 
*I *5:s B *C 0.5800 1.1000 
*I *6:s B *C 0.5800 1.1000 
*I *7:s B *C 0.9850 1.1000 
*I *8:s B *C 1.7500 1.1250 
*I *10:s B *C 1.7500 1.1250 
*I *13:s B *C 2.8600 1.1450 
*N *14:3 *C 4.7000 1.7100 
*N *14:6 *C 3.2450 1.7100 
*N *14:7 *C 2.9000 1.7100 
*N *14:8 *C 2.7750 1.7100 
*N *14:9 *C 1.6650 1.7100 

*CAP
0 *8:s 1.37734e-17
1 *7:s 1.37008e-16
2 *3:s 1.70174e-16
3 *24:s 1.35246e-17
4 *22:s 1.53795e-17
5 *14:9 2.74201e-17
6 *14:8 2.05496e-17
7 *14:6 2.73451e-17
8 *14:3 2.70892e-16

*RES
0 *7:s *14 0.03215  // $metal1_conn
1 *14:3 *3:s 8.333333  // $metal1_conn
2 *14:3 *14:7 8.333333  // $metal1_conn
3 *14:3 *7:s 7.5  // $metal1_conn
4 *14:6 *24:s 62.045826  // $metal1_conn
5 *14:8 *22:s 62.045826  // $metal1_conn
6 *14:9 *8:s 62.07473  // $metal1_conn
7 *3:s *14:6 0.628124  // $metal1_conn
8 *14:6 *14:7 0.171895  // $metal1_conn
9 *14:7 *14:8 0.06155  // $metal1_conn
10 *14:8 *14:9 0.555397  // $metal1_conn
11 *14:9 *7:s 0.333346  // $metal1_conn

*END

*D_NET *52 0

*CONN
*P *52 I *C 0.1000 0.0000 
*I *15:s B *C 2.8050 0.3600 
*I *16:s B *C 3.3300 0.3600 
*I *17:s B *C 3.3300 0.3600 
*I *21:s B *C 4.5500 0.4050 
*I *23:s B *C 4.5500 0.4050 
*I *25:s B *C 4.9850 0.4050 
*I *45:s B *C 4.9850 0.4050 
*I *47:s B *C 5.3900 0.4050 
*I *48:s B *C 0.1750 0.5100 
*I *49:s B *C 0.5800 0.5100 
*I *50:s B *C 0.5800 0.5100 
*I *51:s B *C 0.9850 0.5100 
*I *53:s B *C 1.7500 0.4600 
*I *54:s B *C 1.7500 0.4600 
*I *59:s B *C 2.8050 0.3600 
*N *52:3 *C 4.7000 0.0000 
*N *52:6 *C 3.2150 0.0000 
*N *52:7 *C 2.9000 0.0000 
*N *52:8 *C 2.8050 0.0000 
*N *52:9 *C 1.6650 0.0000 


*RES
0 *51:s *52 0.03215  // $metal1_conn
1 *52:3 *47:s 6.888889  // $metal1_conn
2 *52:3 *52:7 6.888889  // $metal1_conn
3 *52:3 *51:s 6.2  // $metal1_conn
4 *52:6 *16:s 75.097351  // $metal1_conn
5 *52:8 *15:s 75.174965  // $metal1_conn
6 *52:9 *53:s 75.045822  // $metal1_conn
7 *47:s *52:6 0.644121  // $metal1_conn
8 *52:6 *52:7 0.157797  // $metal1_conn
9 *52:7 *52:8 0.047453  // $metal1_conn
10 *52:8 *52:9 0.570444  // $metal1_conn
11 *52:9 *51:s 0.332396  // $metal1_conn

*END

*D_NET *37 1.35784e-15

*CONN
*P *37 I *C 4.3000 0.6650 
*I *17:g B *C 3.3775 0.3600 
*I *21:g B *C 4.4275 0.4050 
*I *53:g B *C 1.5325 0.4600 
*I *59:g B *C 2.7025 0.3600 
*I *26:g B *C 3.3775 1.1450 
*I *30:g B *C 4.4275 1.1950 
*I *8:g B *C 1.5325 1.0950 
*I *13:g B *C 2.6425 1.1450 
*N *37:2 *C 1.5700 0.6900 
*N *37:5 *C 2.6850 0.7500 
*N *37:8 *C 3.4150 0.6900 
*N *37:11 *C 4.4550 0.6850 
*N *37:13 *C 3.4150 0.6900 
*N *37:14 *C 2.6850 0.7500 

*CAP
0 *13:g 9.27019e-17
1 *8:g 5.7155e-17
2 *30:g 6.96191e-17
3 *26:g 7.1544e-17
4 *59:g 7.97015e-17
5 *53:g 3.86117e-17
6 *21:g 4.78373e-17
7 *17:g 4.91885e-17
8 *37:2 1.62285e-16
9 *37:5 2.75797e-16
10 *37:8 2.33555e-16
11 *37:11 7.60336e-17
12 *37 1.03814e-16

*RES
0 *8:g *37:2 44.360348  // $poly_conn
1 *37:2 *53:g 16.15522  // $poly_conn
2 *59:g *37:5 54.815918  // $poly_conn
3 *37:5 *13:g 41.874607  // $poly_conn
4 *26:g *37:8 57.180859  // $poly_conn
5 *37:8 *17:g 41.796242  // $poly_conn
6 *30:g *37:11 72.256058  // $poly_conn
7 *37:11 *21:g 29.94836  // $poly_conn
8 *37:11 *37 45.086288  // $metal1_conn
9 *37 *37:13 0.712655  // $metal1_conn
10 *37:13 *37:14 0.626915  // $metal1_conn
11 *37:14 *37:2 45.901688  // $metal1_conn
12 *37:8 *37:13 45  // $metal1_conn
13 *37:5 *37:14 45  // $metal1_conn

*END

*D_NET *39 1.29501e-15

*CONN
*P *39 I *C 2.3000 0.8550 
*I *16:g B *C 3.1125 0.3600 
*I *20:g B *C 4.2925 0.4050 
*I *54:g B *C 1.7975 0.4600 
*I *57:g B *C 2.5975 0.3600 
*I *24:g B *C 3.1125 1.1450 
*I *29:g B *C 4.2925 1.1950 
*I *10:g B *C 1.7975 1.1250 
*I *12:g B *C 2.5375 1.1450 
*N *39:2 *C 1.8250 0.8200 
*N *39:5 *C 2.5375 0.8200 
*N *39:6 *C 2.4650 0.8200 
*N *39:8 *C 3.2350 0.8500 
*N *39:9 *C 3.1125 0.8500 
*N *39:13 *C 4.2650 0.8500 

*CAP
0 *12:g 7.0204e-17
1 *10:g 5.66438e-17
2 *29:g 7.08687e-17
3 *24:g 5.41725e-17
4 *57:g 8.54071e-17
5 *54:g 5.36068e-17
6 *20:g 9.42379e-17
7 *16:g 5.86594e-17
8 *39:9 2.73963e-17
9 *39:5 4.01136e-17
10 *39:2 1.12923e-16
11 *39:6 8.89368e-17
12 *39:8 2.30205e-16
13 *39:13 1.82899e-16
14 *39 6.87367e-17

*RES
0 *10:g *39:2 19.691952  // $poly_conn
1 *39:2 *54:g 50.461182  // $poly_conn
2 *57:g *39:5 84.860931  // $poly_conn
3 *39:5 *39:6 47.037205  // $poly_conn
4 *39:5 *12:g 30.022295  // $poly_conn
5 *39:8 *39:9 52.613522  // $poly_conn
6 *39:9 *16:g 87.230148  // $poly_conn
7 *39:9 *24:g 20.563484  // $poly_conn
8 *29:g *39:13 29.948362  // $poly_conn
9 *39:13 *20:g 72.256058  // $poly_conn
10 *39:13 *39:8 45.813972  // $metal1_conn
11 *39:8 *39 0.620943  // $metal1_conn
12 *39 *39:6 0.06372  // $metal1_conn
13 *39:6 *39:2 45.534008  // $metal1_conn

*END

*D_NET *2 9.48785e-16

*CONN
*P *2 I *C 2.3000 0.4750 
*I *15:g B *C 2.9075 0.3600 
*I *19:g B *C 4.1875 0.4050 
*I *55:g B *C 2.0025 0.4600 
*I *22:g B *C 2.9075 1.1450 
*I *28:g B *C 4.1325 1.1950 
*I *11:g B *C 2.0025 1.1250 
*N *2:2 *C 2.0025 0.6675 
*N *2:4 *C 2.2950 0.5000 
*N *2:6 *C 2.9075 0.5900 
*N *2:7 *C 2.8550 0.5900 
*N *2:10 *C 4.1325 0.6325 
*N *2:11 *C 3.9550 0.5300 
*N *2:13 *C 2.8400 0.5150 

*CAP
0 *11:g 5.37394e-17
1 *28:g 7.28038e-17
2 *22:g 7.488e-17
3 *55:g 3.22732e-17
4 *19:g 6.03543e-17
5 *15:g 3.58758e-17
6 *2:13 1.89589e-16
7 *2:10 4.46521e-17
8 *2:2 3.33778e-17
9 *2:4 3.83077e-17
10 *2:7 5.02001e-17
11 *2:11 1.77971e-16
12 *2 8.47619e-17

*RES
0 *11:g *2:2 66.155685  // $poly_conn
1 *2:2 *55:g 18.71979  // $poly_conn
2 *2:2 *2:4 133.233994  // $poly_conn
3 *22:g *2:6 89.553009  // $poly_conn
4 *2:6 *2:7 45.294373  // $poly_conn
5 *2:6 *15:g 22.886339  // $poly_conn
6 *19:g *2:10 32.036545  // $poly_conn
7 *2:10 *2:11 90.627655  // $poly_conn
8 *2:10 *28:g 89.531258  // $poly_conn
9 *2:11 *2:13 0.894388  // $metal1_conn
10 *2:13 *2 0.428517  // $metal1_conn
11 *2 *2:4 0.003282  // $metal1_conn
12 *2:13 *2:7 0.042287  // $metal1_conn

*END

*D_NET *9 3.01989e-16

*CONN
*P *9 O *C 0.3000 0.6650 
*I *48:d B *C 0.3700 0.5100 
*I *49:d B *C 0.3700 0.5100 
*I *50:d B *C 0.7900 0.5100 
*I *51:d B *C 0.7900 0.5100 
*I *4:d B *C 0.3700 1.1000 
*I *5:d B *C 0.3700 1.1000 
*I *6:d B *C 0.7900 1.1000 
*I *7:d B *C 0.7900 1.1000 

*CAP
0 *6:d 1.8615e-16
1 *48:d 1.02182e-16
2 *9 1.36573e-17

*RES
0 *9 *48:d 0.050049  // $metal1_conn
1 *6:d *9 0.246839  // $metal1_conn

*END

*D_NET *46 3.18246e-16

*CONN
*P *46 O *C 5.3000 0.6650 
*I *23:d B *C 4.7750 0.4050 
*I *25:d B *C 4.7750 0.4050 
*I *45:d B *C 5.1950 0.4050 
*I *47:d B *C 5.1950 0.4050 
*I *31:d B *C 4.7750 1.1950 
*I *32:d B *C 4.7750 1.1950 
*I *1:d B *C 5.1850 1.1950 
*I *3:d B *C 5.1850 1.1950 
*N *46:1 *C 5.2550 0.6650 

*CAP
0 *1:d 1.73207e-16
1 *23:d 1.0503e-16
2 *46:1 4.00086e-17

*RES
0 *46 *46:1 0.007499  // $metal1_conn
1 *46:1 *23:d 0.132298  // $metal1_conn
2 *46:1 *1:d 0.306174  // $metal1_conn

*END

*D_NET *44 2.86435e-18

*CONN
*I *20:s B *C 4.3600 0.4050 
*I *21:d B *C 4.3600 0.4050 

*CAP
0 *20:s 2.86435e-18

*RES
0 *21:d *20:s 0.001  // $mwires

*END

*D_NET *43 1.60888e-18

*CONN
*I *19:s B *C 4.2400 0.4050 
*I *20:d B *C 4.2400 0.4050 

*CAP
0 *19:s 1.60888e-18

*RES
0 *20:d *19:s 0.001  // $mwires

*END

*D_NET *42 1.23995e-18

*CONN
*I *57:s B *C 2.6500 0.3600 
*I *59:d B *C 2.6500 0.3600 

*CAP
0 *57:s 1.23995e-18

*RES
0 *59:d *57:s 0.001  // $mwires

*END

*D_NET *41 3.22966e-18

*CONN
*I *29:s B *C 4.3600 1.1950 
*I *30:d B *C 4.3600 1.1950 

*CAP
0 *29:s 3.22966e-18

*RES
0 *30:d *29:s 0.001  // $mwires

*END

*D_NET *40 3.62073e-18

*CONN
*I *28:s B *C 4.2125 1.1950 
*I *29:d B *C 4.2125 1.1950 

*CAP
0 *28:s 3.62073e-18

*RES
0 *29:d *28:s 0.001  // $mwires

*END

*D_NET *38 2.07034e-18

*CONN
*I *12:s B *C 2.5900 1.1450 
*I *13:d B *C 2.5900 1.1450 

*CAP
0 *12:s 2.07034e-18

*RES
0 *13:d *12:s 0.001  // $mwires

*END

*D_NET *36 1.26614e-15

*CONN
*I *18:g B *C 3.5825 0.3600 
*I *48:g B *C 0.2675 0.5100 
*I *49:g B *C 0.4725 0.5100 
*I *50:g B *C 0.6875 0.5100 
*I *51:g B *C 0.8925 0.5100 
*I *55:d B *C 2.0950 0.4600 
*I *57:d B *C 2.5050 0.3600 
*I *27:g B *C 3.5825 1.1450 
*I *4:g B *C 0.2675 1.1000 
*I *5:g B *C 0.4725 1.1000 
*I *6:g B *C 0.6875 1.1000 
*I *7:g B *C 0.8925 1.1000 
*I *11:d B *C 2.0950 1.1250 
*I *12:d B *C 2.4450 1.1450 
*N *36:14 *C 3.5825 0.8725 
*N *36:16 *C 3.8050 1.0100 
*N *36:18 *C 2.4350 1.2800 
*N *36:19 *C 2.1050 1.1950 
*N *36:20 *C 1.2400 0.7900 
*N *36:23 *C 2.1050 0.3300 

*CAP
0 *12:d 1.28439e-16
1 *11:d 3.33477e-17
2 *7:g 2.63567e-16
3 *27:g 3.51127e-17
4 *57:d 6.25043e-17
5 *55:d 1.47944e-17
6 *18:g 6.22645e-17
7 *36:23 1.49065e-16
8 *36:20 1.81593e-16
9 *36:19 1.04912e-16
10 *36:14 3.47833e-17
11 *36:16 1.95756e-16

*RES
0 *27:g *36:14 18.71979  // $poly_conn
1 *36:14 *18:g 96.924919  // $poly_conn
2 *36:14 *36:16 111.1297  // $poly_conn
3 *36:16 *36:18 1.136707  // $metal1_conn
4 *36:20 *7:g 0.400347  // $metal1_conn
5 *12:d *36:18 62  // $metal1_conn
6 *36:19 *11:d 20.71594  // $metal1_conn
7 *36:23 *57:d 75.351295  // $metal1_conn
8 *36:23 *55:d 75.055031  // $metal1_conn
9 *36:18 *36:19 0.263135  // $metal1_conn
10 *36:19 *36:20 0.898906  // $metal1_conn
11 *36:20 *36:23 0.958014  // $metal1_conn

*END

*D_NET *35 6.87196e-16

*CONN
*I *18:d B *C 3.6825 0.3600 
*I *19:d B *C 4.1150 0.4050 
*I *23:g B *C 4.6725 0.4050 
*I *25:g B *C 4.8775 0.4050 
*I *45:g B *C 5.0925 0.4050 
*I *47:g B *C 5.2975 0.4050 
*I *27:d B *C 3.7975 1.2800 
*I *28:d B *C 4.0400 1.1950 
*I *31:g B *C 4.6725 1.1950 
*I *32:g B *C 4.8775 1.1950 
*I *1:g B *C 5.0825 1.1950 
*I *3:g B *C 5.2875 1.1950 
*N *35:16 *C 4.6150 0.6850 
*N *35:18 *C 4.0850 0.3700 
*N *35:21 *C 4.0300 1.2000 

*CAP
0 *3:g 2.71239e-16
1 *28:d 7.56831e-17
2 *27:d 5.71576e-17
3 *19:d 9.65634e-17
4 *18:d 5.94919e-17
5 *35:16 1.27061e-16

*RES
0 *3:g *35:16 0.192981  // $metal1_conn
1 *28:d *35:21 62  // $metal1_conn
2 *35:21 *27:d 62.212601  // $metal1_conn
3 *19:d *35:18 75  // $metal1_conn
4 *35:18 *18:d 75.28067  // $metal1_conn
5 *35:16 *35:18 0.591661  // $metal1_conn
6 *35:16 *35:21 0.738006  // $metal1_conn

*END

*D_NET *34 1.57383e-16

*CONN
*I *15:d B *C 3.0100 0.3600 
*I *16:d B *C 3.0100 0.3600 
*I *17:d B *C 3.4800 0.3600 
*I *18:s B *C 3.4800 0.3600 

*CAP
0 *17:d 8.01613e-17
1 *15:d 7.72214e-17

*RES
0 *17:d *15:d 150.282227  // $metal1_conn

*END

*D_NET *33 1.66402e-16

*CONN
*I *53:d B *C 1.4400 0.4600 
*I *54:d B *C 1.9000 0.4600 
*I *55:s B *C 1.9000 0.4600 

*CAP
0 *54:d 8.98499e-17
1 *53:d 7.6552e-17

*RES
0 *54:d *53:d 150.282227  // $metal1_conn

*END

*D_NET *58 1.73252e-16

*CONN
*I *22:d B *C 3.0100 1.1450 
*I *24:d B *C 3.0100 1.1450 
*I *26:d B *C 3.4800 1.1450 
*I *27:s B *C 3.4800 1.1450 

*CAP
0 *26:d 7.79264e-17
1 *22:d 9.53258e-17

*RES
0 *26:d *22:d 124.282227  // $metal1_conn

*END

*D_NET *56 1.44325e-16

*CONN
*I *8:d B *C 1.4400 1.0950 
*I *10:d B *C 1.9000 1.1250 
*I *11:s B *C 1.9000 1.1250 

*CAP
0 *10:d 8.0966e-17
1 *8:d 6.33591e-17

*RES
0 *8:d *10:d 124.271194  // $metal1_conn

*END

