*SPEF "IEEE 1481-1999"
*DESIGN  "ADDFXL"
*DATE "Mon Sep 27 08:42:06 2010"
*VENDOR "Cadence Design Systems"
*PROGRAM "Assura RCX"
*VERSION "3.2 Red Hat Linux release 7.2 (Enigma) - (09/09/2009-10:39)"
*DESIGN_FLOW "Physical Verification"
*DIVIDER /
*DELIMITER :
*BUS_DELIMITER []
*T_UNIT 1 PS
*C_UNIT 1e15 FF
*R_UNIT 1 OHM
*L_UNIT 1 MH
// DeviceFingerDelim "@"
// MATCHED
// caps2d version: 10

*NAME_MAP
*1 CI
*2 VSS
*3 mn7
*4 mn6
*5 mn2
*6 mn5
*7 mn3
*8 mn8
*9 CO
*10 mn4
*11 mn11
*12 S
*13 mn1
*14 mn10
*15 mn0
*16 mn9
*17 mn13
*18 mn12
*19 n2
*20 n5
*21 VDD
*22 mp2
*23 mp3
*24 mp4
*25 mp1
*26 mp0
*27 n3
*28 n4
*29 Sb
*30 COb
*31 n1
*32 n9
*33 n8
*34 n0
*35 mp6
*36 n7
*37 mp5
*38 n6
*39 mp8
*40 mp11
*41 mp10
*42 mp9
*43 mp13
*44 mp7
*45 mp12
*46 A
*47 B

*GROUND_NETS VSS

*PORTS
*21 I
*2 I
*46 I
*47 I
*1 I
*9 O
*12 O

*D_NET *21 4.58478e-16

*CONN
*P *21 I *C 0.1000 1.7100 
*I *35:s B *C 2.3550 1.2175 
*I *37:s B *C 2.3550 1.2175 
*I *42:s B *C 3.6800 1.1875 
*I *43:s B *C 3.6800 1.1875 
*I *44:s B *C 1.9300 1.5700 
*I *45:s B *C 0.1500 1.0325 
*I *22:s B *C 1.0100 1.0625 
*I *23:s B *C 1.0100 1.0625 
*I *26:s B *C 1.9300 1.5700 
*N *21:2 *C 3.0000 1.7100 
*N *21:3 *C 3.0000 1.7100 
*N *21:4 *C 2.1250 1.7100 
*N *21:5 *C 1.9050 1.7100 
*N *21:6 *C 1.0000 1.7100 
*N *21:7 *C 0.9250 1.7100 
*N *21:8 *C 0.1400 1.7100 

*CAP
0 *22:s 8.9552e-18
1 *45:s 2.78799e-17
2 *44:s 1.19906e-17
3 *42:s 4.17717e-17
4 *35:s 1.8321e-17
5 *21:8 5.34164e-18
6 *21:7 3.15114e-17
7 *21:5 2.21585e-17
8 *21:4 1.92781e-17
9 *21:2 2.69867e-16
10 *21 1.40256e-18

*RES
0 *42:s *21:3 62.573246  // $metal1_conn
1 *21:3 *21:4 0.437871  // $metal1_conn
2 *21:4 *21:5 0.109368  // $metal1_conn
3 *21:5 *21:6 0.453873  // $metal1_conn
4 *21:6 *21:7 0.03749  // $metal1_conn
5 *21:7 *21:8 0.393469  // $metal1_conn
6 *21:8 *21 0.019619  // $metal1_conn
7 *21:4 *35:s 62.045841  // $metal1_conn
8 *21:5 *44:s 62.080902  // $metal1_conn
9 *21:7 *22:s 62.074944  // $metal1_conn
10 *21:8 *45:s 62.403324  // $metal1_conn
11 *21:2 *21:3 7.5  // $metal1_conn
12 *21:2 *21:6 7.5  // $metal1_conn

*END

*D_NET *2 0

*CONN
*P *2 I *C 0.1000 0.0000 
*I *3:s B *C 1.9500 0.3175 
*I *4:s B *C 2.4800 0.3175 
*I *6:s B *C 2.4800 0.3175 
*I *16:s B *C 3.6225 0.3425 
*I *17:s B *C 3.6225 0.3425 
*I *18:s B *C 0.1300 0.3325 
*I *5:s B *C 1.0100 0.4975 
*I *7:s B *C 1.0100 0.4975 
*I *15:s B *C 1.9500 0.3175 
*N *2:2 *C 3.0000 0.0000 
*N *2:3 *C 3.0000 0.0000 
*N *2:4 *C 2.3650 0.0000 
*N *2:5 *C 1.9500 0.0000 
*N *2:6 *C 1.0000 0.0000 


*RES
0 *16:s *2:3 75.553841  // $metal1_conn
1 *2:3 *2:4 0.318405  // $metal1_conn
2 *2:4 *2:5 0.207827  // $metal1_conn
3 *2:5 *2:6 0.477015  // $metal1_conn
4 *2:6 *2 0.452278  // $metal1_conn
5 *2 *18:s 75.20565  // $metal1_conn
6 *2:4 *4:s 75.09745  // $metal1_conn
7 *2:5 *3:s 75.18589  // $metal1_conn
8 *2:6 *5:s 75.071495  // $metal1_conn
9 *2:2 *2:3 6.2  // $metal1_conn
10 *2:2 *2:6 6.2  // $metal1_conn

*END

*D_NET *46 1.28664e-15

*CONN
*P *46 I *C 3.5000 0.8550 
*I *6:g B *C 2.5275 0.3175 
*I *16:g B *C 3.5175 0.3425 
*I *5:g B *C 0.8625 0.5175 
*I *15:g B *C 1.8475 0.3175 
*I *37:g B *C 2.4025 1.2175 
*I *42:g B *C 3.4625 1.1875 
*I *22:g B *C 0.8625 1.0075 
*I *26:g B *C 1.7725 1.1975 
*N *46:2 *C 0.8900 0.7000 
*N *46:5 *C 1.8100 0.6900 
*N *46:8 *C 2.5000 0.6900 
*N *46:11 *C 3.4900 0.9450 
*N *46:13 *C 2.5000 0.6900 
*N *46:14 *C 1.8100 0.6900 
*N *46:15 *C 0.8900 0.7000 

*CAP
0 *26:g 8.71299e-17
1 *22:g 4.63876e-17
2 *42:g 3.84827e-17
3 *37:g 6.51191e-17
4 *15:g 5.04556e-17
5 *5:g 3.777e-17
6 *16:g 6.37077e-17
7 *6:g 4.27954e-17
8 *46:2 1.51227e-16
9 *46:5 2.41076e-16
10 *46:8 2.77379e-16
11 *46:11 7.62314e-17
12 *46 1.08879e-16

*RES
0 *22:g *46:2 42.768875  // $poly_conn
1 *46:2 *5:g 19.691952  // $poly_conn
2 *15:g *46:5 69.707581  // $poly_conn
3 *46:5 *26:g 95.348602  // $poly_conn
4 *6:g *46:8 65.247986  // $poly_conn
5 *46:8 *37:g 107.677101  // $poly_conn
6 *16:g *46:11 127.384254  // $poly_conn
7 *46:11 *42:g 26.102209  // $poly_conn
8 *46 *46:13 0.823156  // $metal1_conn
9 *46:13 *46:14 0.578018  // $metal1_conn
10 *46:14 *46:15 0.722499  // $metal1_conn
11 *46 *46:11 45.054111  // $metal1_conn
12 *46:8 *46:13 45  // $metal1_conn
13 *46:5 *46:14 45  // $metal1_conn
14 *46:2 *46:15 45  // $metal1_conn

*END

*D_NET *47 1.18273e-15

*CONN
*P *47 I *C 1.7000 1.0450 
*I *4:g B *C 2.2625 0.3175 
*I *14:g B *C 3.3375 0.3425 
*I *7:g B *C 1.0575 0.4975 
*I *13:g B *C 1.6675 0.3175 
*I *35:g B *C 2.1825 1.0575 
*I *41:g B *C 3.2625 1.1875 
*I *23:g B *C 1.0575 1.0625 
*I *25:g B *C 1.6675 1.1975 
*N *47:2 *C 1.0850 0.8450 
*N *47:5 *C 1.6400 0.8750 
*N *47:8 *C 2.1825 0.8500 
*N *47:9 *C 2.1200 0.8500 
*N *47:12 *C 3.3000 0.8500 
*N *47:14 *C 1.6400 0.8750 

*CAP
0 *25:g 5.74962e-17
1 *23:g 4.29122e-17
2 *41:g 6.62442e-17
3 *35:g 4.45286e-17
4 *13:g 6.25914e-17
5 *7:g 5.29756e-17
6 *14:g 7.74437e-17
7 *4:g 5.57655e-17
8 *47:8 4.52019e-17
9 *47:2 1.09034e-16
10 *47:5 1.50639e-16
11 *47:9 1.77535e-16
12 *47:12 2.10161e-16
13 *47 3.02053e-17

*RES
0 *23:g *47:2 19.691952  // $poly_conn
1 *47:2 *7:g 61.999645  // $poly_conn
2 *25:g *47:5 46.615028  // $poly_conn
3 *47:5 *13:g 115.845802  // $poly_conn
4 *4:g *47:8 125.846603  // $poly_conn
5 *47:8 *47:9 48.900734  // $poly_conn
6 *47:8 *35:g 15.826773  // $poly_conn
7 *14:g *47:12 101.949463  // $poly_conn
8 *47:12 *41:g 49.898674  // $poly_conn
9 *47:12 *47:9 45.895264  // $metal1_conn
10 *47:9 *47:14 0.389414  // $metal1_conn
11 *47:14 *47:2 45.435467  // $metal1_conn
12 *47:14 *47 0.057334  // $metal1_conn
13 *47:5 *47:14 45  // $metal1_conn

*END

*D_NET *1 9.14981e-16

*CONN
*P *1 I *C 1.7000 0.4750 
*I *3:g B *C 2.0525 0.3175 
*I *11:g B *C 3.2325 0.3425 
*I *10:g B *C 1.2625 0.4975 
*I *40:g B *C 3.1575 1.1875 
*I *44:g B *C 1.9775 1.0575 
*I *24:g B *C 1.2625 1.0625 
*N *1:2 *C 1.2625 0.6475 
*N *1:4 *C 1.5250 0.5000 
*N *1:6 *C 2.0150 0.5300 
*N *1:9 *C 3.1650 0.5350 
*N *1:10 *C 3.0900 0.5300 
*N *1:12 *C 2.0150 0.5300 

*CAP
0 *24:g 4.85448e-17
1 *44:g 7.91581e-17
2 *40:g 9.05042e-17
3 *10:g 2.59364e-17
4 *11:g 5.14469e-17
5 *3:g 3.23775e-17
6 *1:2 2.86832e-17
7 *1:4 9.51411e-17
8 *1:6 2.15788e-16
9 *1:10 2.0758e-16
10 *1 3.98213e-17

*RES
0 *24:g *1:2 77.694153  // $poly_conn
1 *1:2 *10:g 18.71979  // $poly_conn
2 *1:2 *1:4 123.950211  // $poly_conn
3 *3:g *1:6 28.681942  // $poly_conn
4 *1:6 *44:g 100.476807  // $poly_conn
5 *11:g *1:9 37.35041  // $poly_conn
6 *1:9 *1:10 50.435963  // $poly_conn
7 *1:9 *40:g 132.875275  // $poly_conn
8 *1:10 *1:12 0.882385  // $metal1_conn
9 *1:12 *1 0.244239  // $metal1_conn
10 *1 *1:4 0.087487  // $metal1_conn
11 *1:6 *1:12 45  // $metal1_conn

*END

*D_NET *9 1.81587e-16

*CONN
*P *9 O *C 0.1000 0.8550 
*I *18:d B *C 0.3475 0.3325 
*I *45:d B *C 0.3350 1.0325 

*CAP
0 *45:d 4.19441e-17
1 *18:d 8.33662e-17
2 *9 5.62766e-17

*RES
0 *45:d *9 62.251945  // $metal1_conn
1 *9 *18:d 75.521034  // $metal1_conn

*END

*D_NET *12 1.1556e-16

*CONN
*P *12 O *C 3.9000 0.6650 
*I *17:d B *C 3.8500 0.3425 
*I *43:d B *C 3.8500 1.1875 

*CAP
0 *43:d 3.61781e-17
1 *17:d 2.30747e-17
2 *12 5.6307e-17

*RES
0 *43:d *12 62.348858  // $metal1_conn
1 *12 *17:d 75.215942  // $metal1_conn

*END

*D_NET *38 3.19338e-18

*CONN
*I *14:s B *C 3.4275 0.3425 
*I *16:d B *C 3.4275 0.3425 

*CAP
0 *14:s 3.19338e-18

*RES
0 *16:d *14:s 0.001  // $mwires

*END

*D_NET *36 1.88509e-18

*CONN
*I *11:s B *C 3.2850 0.3425 
*I *14:d B *C 3.2850 0.3425 

*CAP
0 *11:s 1.88509e-18

*RES
0 *14:d *11:s 0.001  // $mwires

*END

*D_NET *34 0

*CONN
*I *13:s B *C 1.7575 0.3175 
*I *15:d B *C 1.7575 0.3175 


*RES
0 *15:d *13:s 0.001  // $mwires

*END

*D_NET *33 5.04185e-18

*CONN
*I *41:s B *C 3.3625 1.1875 
*I *42:d B *C 3.3625 1.1875 

*CAP
0 *41:s 5.04185e-18

*RES
0 *42:d *41:s 0.001  // $mwires

*END

*D_NET *32 2.0997e-18

*CONN
*I *40:s B *C 3.2100 1.1875 
*I *41:d B *C 3.2100 1.1875 

*CAP
0 *40:s 2.0997e-18

*RES
0 *41:d *40:s 0.001  // $mwires

*END

*D_NET *31 0

*CONN
*I *25:s B *C 1.7200 1.1975 
*I *26:d B *C 1.7200 1.1975 


*RES
0 *26:d *25:s 0.001  // $mwires

*END

*D_NET *30 1.02914e-15

*CONN
*I *8:g B *C 2.7575 0.3175 
*I *18:g B *C 0.2425 0.3325 
*I *10:d B *C 1.3550 0.4975 
*I *13:d B *C 1.5750 0.3175 
*I *39:g B *C 2.6525 1.2175 
*I *45:g B *C 0.2425 1.0325 
*I *24:d B *C 1.3550 1.0625 
*I *25:d B *C 1.5750 1.1975 
*N *30:2 *C 0.2700 0.7000 
*N *30:5 *C 2.6150 1.0100 
*N *30:8 *C 1.5650 1.2450 
*N *30:9 *C 1.3650 1.2150 
*N *30:10 *C 0.5700 0.6700 
*N *30:12 *C 1.3650 0.3050 

*CAP
0 *25:d 1.36663e-16
1 *24:d 1.79305e-17
2 *45:g 1.97826e-17
3 *39:g 2.85424e-17
4 *13:d 4.21923e-17
5 *10:d 3.8631e-17
6 *18:g 2.36767e-17
7 *8:g 6.54688e-17
8 *30:12 1.13889e-16
9 *30:10 1.67671e-16
10 *30:9 1.08356e-16
11 *30:2 6.55845e-17
12 *30:5 2.00754e-16

*RES
0 *45:g *30:2 49.179131  // $poly_conn
1 *30:2 *18:g 67.127846  // $poly_conn
2 *8:g *30:5 171.49762  // $poly_conn
3 *30:5 *39:g 16.15522  // $poly_conn
4 *30:5 *30:8 46.174919  // $metal1_conn
5 *30:8 *30:9 0.136214  // $metal1_conn
6 *30:9 *30:10 0.96161  // $metal1_conn
7 *30:10 *30:2 45.195911  // $metal1_conn
8 *30:9 *24:d 62.056355  // $metal1_conn
9 *30:10 *30:12 0.868238  // $metal1_conn
10 *30:12 *10:d 75.114067  // $metal1_conn
11 *30:12 *13:d 75.150085  // $metal1_conn
12 *25:d *30:8 62  // $metal1_conn

*END

*D_NET *29 4.79122e-16

*CONN
*I *8:d B *C 2.8500 0.3175 
*I *11:d B *C 3.1400 0.3425 
*I *17:g B *C 3.7275 0.3425 
*I *39:d B *C 2.7950 1.2175 
*I *40:d B *C 3.0650 1.1875 
*I *43:g B *C 3.7275 1.1875 
*N *29:2 *C 3.7000 0.5500 
*N *29:5 *C 3.1300 0.3300 
*N *29:6 *C 3.7000 0.5500 
*N *29:8 *C 3.0555 1.1400 

*CAP
0 *43:g 4.55011e-17
1 *40:d 8.22913e-17
2 *39:d 3.57244e-17
3 *17:g 2.59429e-17
4 *11:d 7.10619e-17
5 *8:d 3.68674e-17
6 *29:2 1.81733e-16

*RES
0 *43:g *29:2 127.384254  // $poly_conn
1 *29:2 *17:g 26.102209  // $poly_conn
2 *29:5 *29:6 0.515709  // $metal1_conn
3 *29:6 *29:8 0.90879  // $metal1_conn
4 *29:8 *39:d 62.130676  // $metal1_conn
5 *29:5 *8:d 75.20105  // $metal1_conn
6 *11:d *29:5 75  // $metal1_conn
7 *29:2 *29:6 45  // $metal1_conn
8 *40:d *29:8 62  // $metal1_conn

*END

*D_NET *28 1.57649e-16

*CONN
*I *3:d B *C 2.1575 0.3175 
*I *4:d B *C 2.1575 0.3175 
*I *6:d B *C 2.6425 0.3175 
*I *8:s B *C 2.6425 0.3175 
*N *28:2 *C 2.6300 0.3300 
*N *28:4 *C 2.1605 0.3300 

*CAP
0 *6:d 7.94743e-17
1 *3:d 7.81752e-17

*RES
0 *28:2 *28:4 0.264496  // $metal1_conn
1 *6:d *28:2 75  // $metal1_conn
2 *3:d *28:4 75  // $metal1_conn

*END

*D_NET *27 1.35131e-16

*CONN
*I *22:d B *C 0.7700 1.0075 
*I *23:d B *C 1.1600 1.0625 
*I *24:s B *C 1.1600 1.0625 

*CAP
0 *23:d 6.98175e-17
1 *22:d 6.53134e-17

*RES
0 *23:d *22:d 124.240501  // $metal1_conn

*END

*D_NET *20 1.40793e-16

*CONN
*I *35:d B *C 2.0800 1.0575 
*I *37:d B *C 2.5275 1.2175 
*I *39:s B *C 2.5275 1.2175 
*I *44:d B *C 2.0800 1.0575 

*CAP
0 *37:d 6.72914e-17
1 *35:d 7.35016e-17

*RES
0 *37:d *35:d 124.280106  // $metal1_conn

*END

*D_NET *19 1.43986e-16

*CONN
*I *5:d B *C 0.7700 0.5175 
*I *7:d B *C 1.1600 0.4975 
*I *10:s B *C 1.1600 0.4975 

*CAP
0 *7:d 7.29759e-17
1 *5:d 7.10102e-17

*RES
0 *7:d *5:d 150.245651  // $metal1_conn

*END

