*SPEF "IEEE 1481-1999"
*DESIGN  "ADDFHXL"
*DATE "Mon Sep 27 08:40:36 2010"
*VENDOR "Cadence Design Systems"
*PROGRAM "Assura RCX"
*VERSION "3.2 Red Hat Linux release 7.2 (Enigma) - (09/09/2009-10:39)"
*DESIGN_FLOW "Physical Verification"
*DIVIDER /
*DELIMITER :
*BUS_DELIMITER []
*T_UNIT 1 PS
*C_UNIT 1e15 FF
*R_UNIT 1 OHM
*L_UNIT 1 MH
// DeviceFingerDelim "@"
// MATCHED
// caps2d version: 10

*NAME_MAP
*1 CI
*2 VSS
*3 mn7
*4 mn6
*5 mn2
*6 mn5
*7 mn3
*8 mn8
*9 CO
*10 mn4
*11 mn11
*12 S
*13 mn1
*14 mn10
*15 mn0
*16 mn9
*17 mn13
*18 mn12
*19 n3
*20 n5
*21 VDD
*22 mp2
*23 mp3
*24 mp4
*25 mp1
*26 mp0
*27 n4
*28 n2
*29 Sb
*30 COb
*31 n1
*32 n9
*33 n8
*34 n0
*35 mp7
*36 n7
*37 mp6
*38 n6
*39 mp5
*40 mp8
*41 mp11
*42 mp10
*43 mp9
*44 mp13
*45 mp12
*46 A
*47 B

*GROUND_NETS VSS

*PORTS
*21 I
*2 I
*46 I
*47 I
*1 I
*9 O
*12 O

*D_NET *21 6.10464e-16

*CONN
*P *21 I *C 0.1000 1.7100 
*I *35:s B *C 2.0025 1.3100 
*I *37:s B *C 2.5400 1.5700 
*I *39:s B *C 2.5400 1.5700 
*I *43:s B *C 3.8950 1.2500 
*I *44:s B *C 3.8950 1.2500 
*I *45:s B *C 0.1800 1.0550 
*I *22:s B *C 1.0450 1.2500 
*I *23:s B *C 1.0450 1.2500 
*I *26:s B *C 2.0025 1.3100 
*N *21:2 *C 2.5150 1.7100 
*N *21:3 *C 1.9300 1.7100 
*N *21:4 *C 1.1000 1.7100 
*N *21:5 *C 1.1000 1.7100 
*N *21:6 *C 0.9600 1.7100 
*N *21:7 *C 0.1700 1.7100 
*N *21:8 *C 3.3000 1.7100 

*CAP
0 *22:s 2.32259e-17
1 *45:s 4.07821e-17
2 *43:s 6.00853e-17
3 *37:s 2.57471e-17
4 *35:s 4.62297e-17
5 *21:7 1.42033e-17
6 *21:6 1.65834e-17
7 *21:3 3.24688e-17
8 *21:2 3.29358e-17
9 *21:4 3.16499e-16
10 *21 1.70319e-18

*RES
0 *37:s *21:2 62.047024  // $metal1_conn
1 *21:2 *21:3 0.289675  // $metal1_conn
2 *21:3 *21:5 0.416104  // $metal1_conn
3 *21:5 *21:6 0.069073  // $metal1_conn
4 *21:6 *21:7 0.394896  // $metal1_conn
5 *21:7 *21 0.034657  // $metal1_conn
6 *21:2 *21:8 0.390184  // $metal1_conn
7 *21:8 *43:s 62.411388  // $metal1_conn
8 *21:3 *35:s 62.186478  // $metal1_conn
9 *21:6 *22:s 62.045826  // $metal1_conn
10 *21:7 *45:s 62.363567  // $metal1_conn
11 *21:4 *21:5 6.818182  // $metal1_conn
12 *21:4 *21:8 6.818182  // $metal1_conn

*END

*D_NET *2 0

*CONN
*P *2 I *C 0.1000 0.0000 
*I *3:s B *C 2.0700 0.5025 
*I *4:s B *C 2.6000 0.5025 
*I *6:s B *C 2.6000 0.5025 
*I *16:s B *C 3.8950 0.5275 
*I *17:s B *C 3.8950 0.5275 
*I *18:s B *C 0.1800 0.4825 
*I *5:s B *C 1.0450 0.5575 
*I *7:s B *C 1.0450 0.5575 
*I *15:s B *C 2.0700 0.5025 
*N *2:2 *C 2.0650 0.0000 
*N *2:3 *C 1.1000 0.0000 
*N *2:4 *C 1.1000 0.0000 
*N *2:5 *C 0.9600 0.0000 
*N *2:6 *C 0.1700 0.0000 
*N *2:7 *C 2.4850 0.0000 
*N *2:11 *C 3.3000 0.0000 


*RES
0 *3:s *2:2 75.288788  // $metal1_conn
1 *2:2 *2:4 0.483404  // $metal1_conn
2 *2:4 *2:5 0.069073  // $metal1_conn
3 *2:5 *2:6 0.394896  // $metal1_conn
4 *2:6 *2 0.034657  // $metal1_conn
5 *2:2 *2:7 0.209854  // $metal1_conn
6 *2:7 *4:s 75.201355  // $metal1_conn
7 *2:5 *5:s 75.045822  // $metal1_conn
8 *2:6 *18:s 75.275208  // $metal1_conn
9 *2:7 *2:11 0.408581  // $metal1_conn
10 *2:11 *16:s 75.491577  // $metal1_conn
11 *2:3 *2:4 5.636364  // $metal1_conn
12 *2:3 *2:11 5.636364  // $metal1_conn

*END

*D_NET *46 1.26832e-15

*CONN
*P *46 I *C 3.7000 0.8550 
*I *6:g B *C 2.6475 0.5025 
*I *16:g B *C 3.6575 0.5275 
*I *5:g B *C 0.8275 0.5575 
*I *15:g B *C 1.9625 0.5025 
*I *39:g B *C 2.5775 1.1200 
*I *43:g B *C 3.6575 1.2500 
*I *22:g B *C 0.8975 1.1200 
*I *26:g B *C 1.8275 1.3100 
*N *46:2 *C 0.9350 0.8650 
*N *46:5 *C 1.9250 0.8550 
*N *46:8 *C 2.5500 0.8650 
*N *46:11 *C 3.6950 0.8350 
*N *46:13 *C 3.6950 0.8350 
*N *46:14 *C 2.5500 0.8650 
*N *46:15 *C 1.9250 0.8550 

*CAP
0 *26:g 7.73804e-17
1 *22:g 4.59788e-17
2 *43:g 6.05663e-17
3 *39:g 6.78419e-17
4 *15:g 6.83853e-17
5 *5:g 4.59047e-17
6 *16:g 5.00718e-17
7 *6:g 4.94791e-17
8 *46:2 1.36029e-16
9 *46:5 2.53787e-16
10 *46:8 2.33074e-16
11 *46:11 1.79819e-16

*RES
0 *22:g *46:2 16.15522  // $poly_conn
1 *46:2 *5:g 56.112999  // $poly_conn
2 *15:g *46:5 54.61676  // $poly_conn
3 *46:5 *26:g 76.173698  // $poly_conn
4 *6:g *46:8 67.026283  // $poly_conn
5 *46:8 *39:g 16.15522  // $poly_conn
6 *43:g *46:11 57.180859  // $poly_conn
7 *46:11 *16:g 43.078297  // $poly_conn
8 *46 *46:13 0.003124  // $metal1_conn
9 *46:13 *46:14 0.905319  // $metal1_conn
10 *46:14 *46:15 0.506781  // $metal1_conn
11 *46:15 *46:2 45.772076  // $metal1_conn
12 *46:11 *46:13 45  // $metal1_conn
13 *46:8 *46:14 45  // $metal1_conn
14 *46:5 *46:15 45  // $metal1_conn

*END

*D_NET *47 1.29295e-15

*CONN
*P *47 I *C 1.7000 1.0050 
*I *4:g B *C 2.3825 0.5025 
*I *14:g B *C 3.5125 0.5275 
*I *7:g B *C 1.0925 0.5575 
*I *13:g B *C 1.8575 0.5025 
*I *37:g B *C 2.3825 1.3100 
*I *42:g B *C 3.5125 1.2500 
*I *23:g B *C 1.0925 1.2500 
*I *25:g B *C 1.7225 1.3100 
*N *47:2 *C 1.1300 0.9950 
*N *47:5 *C 1.6850 1.0150 
*N *47:8 *C 2.3450 1.0550 
*N *47:11 *C 3.4750 0.9950 
*N *47:13 *C 2.3450 1.0550 
*N *47:14 *C 1.6850 1.0150 

*CAP
0 *25:g 6.24202e-17
1 *23:g 4.9024e-17
2 *42:g 5.30766e-17
3 *37:g 4.94436e-17
4 *13:g 9.98708e-17
5 *7:g 5.38561e-17
6 *14:g 8.73082e-17
7 *4:g 5.88577e-17
8 *47:2 1.32844e-16
9 *47:5 5.96777e-17
10 *47:8 2.66387e-16
11 *47:11 1.81868e-16
12 *47 1.38321e-16

*RES
0 *23:g *47:2 16.15522  // $poly_conn
1 *47:2 *7:g 76.411629  // $poly_conn
2 *13:g *47:5 118.429749  // $poly_conn
3 *47:5 *25:g 26.411629  // $poly_conn
4 *37:g *47:8 16.15522  // $poly_conn
5 *47:8 *4:g 105.898811  // $poly_conn
6 *42:g *47:11 16.15522  // $poly_conn
7 *47:11 *14:g 84.103943  // $poly_conn
8 *47:11 *47:13 45.947258  // $metal1_conn
9 *47:13 *47:14 0.550885  // $metal1_conn
10 *47:14 *47 0.005569  // $metal1_conn
11 *47:14 *47:2 45.427822  // $metal1_conn
12 *47:8 *47:13 45  // $metal1_conn
13 *47:5 *47:14 45  // $metal1_conn

*END

*D_NET *1 8.81114e-16

*CONN
*P *1 I *C 1.7000 0.6650 
*I *3:g B *C 2.1775 0.5025 
*I *11:g B *C 3.4075 0.5275 
*I *10:g B *C 1.2975 0.5575 
*I *35:g B *C 2.1775 1.3100 
*I *41:g B *C 3.3325 1.2500 
*I *24:g B *C 1.2975 1.2500 
*N *1:2 *C 1.2975 0.7375 
*N *1:4 *C 1.5900 0.6750 
*N *1:6 *C 2.1400 0.7050 
*N *1:9 *C 3.3325 0.7150 
*N *1:10 *C 3.1750 0.6750 
*N *1:12 *C 2.1400 0.7050 

*CAP
0 *24:g 6.30836e-17
1 *41:g 7.06036e-17
2 *35:g 6.29993e-17
3 *10:g 3.19001e-17
4 *11:g 5.17694e-17
5 *3:g 3.20224e-17
6 *1:9 4.25692e-17
7 *1:2 3.03113e-17
8 *1:4 7.43993e-17
9 *1:6 1.96305e-16
10 *1:10 1.65517e-16
11 *1 5.96341e-17

*RES
0 *24:g *1:2 90.514664  // $poly_conn
1 *1:2 *10:g 18.71979  // $poly_conn
2 *1:2 *1:4 110.316048  // $poly_conn
3 *35:g *1:6 105.898811  // $poly_conn
4 *1:6 *3:g 16.15522  // $poly_conn
5 *11:g *1:9 26.736696  // $poly_conn
6 *1:9 *1:10 76.034981  // $poly_conn
7 *1:9 *41:g 90.570107  // $poly_conn
8 *1:10 *1:12 0.837765  // $metal1_conn
9 *1:12 *1 0.330169  // $metal1_conn
10 *1 *1:4 0.073842  // $metal1_conn
11 *1:6 *1:12 45  // $metal1_conn

*END

*D_NET *9 2.11413e-16

*CONN
*P *9 O *C 0.1000 0.6650 
*I *18:d B *C 0.3650 0.4825 
*I *45:d B *C 0.3650 1.0550 

*CAP
0 *45:d 8.88986e-17
1 *18:d 6.06185e-17
2 *9 6.18957e-17

*RES
0 *45:d *9 31.465679  // $metal1_conn
1 *9 *18:d 75.283951  // $metal1_conn

*END

*D_NET *12 1.22688e-16

*CONN
*P *12 O *C 4.3000 0.6650 
*I *17:d B *C 4.0800 0.5275 
*I *44:d B *C 4.0800 1.2500 
*N *12:1 *C 4.1150 0.6650 

*CAP
0 *44:d 4.21209e-17
1 *17:d 5.71702e-17
2 *12 2.33969e-17

*RES
0 *12 *12:1 0.075245  // $metal1_conn
1 *12:1 *17:d 75.073143  // $metal1_conn
2 *12:1 *44:d 31.400591  // $metal1_conn

*END

*D_NET *38 3.49935e-18

*CONN
*I *14:s B *C 3.5850 0.5275 
*I *16:d B *C 3.5850 0.5275 

*CAP
0 *14:s 3.49935e-18

*RES
0 *16:d *14:s 0.001  // $mwires

*END

*D_NET *36 2.09961e-18

*CONN
*I *11:s B *C 3.4600 0.5275 
*I *14:d B *C 3.4600 0.5275 

*CAP
0 *11:s 2.09961e-18

*RES
0 *14:d *11:s 0.001  // $mwires

*END

*D_NET *34 0

*CONN
*I *13:s B *C 1.9100 0.5025 
*I *15:d B *C 1.9100 0.5025 


*RES
0 *15:d *13:s 0.001  // $mwires

*END

*D_NET *33 3.15095e-18

*CONN
*I *42:s B *C 3.5850 1.2500 
*I *43:d B *C 3.5850 1.2500 

*CAP
0 *42:s 3.15095e-18

*RES
0 *43:d *42:s 0.001  // $mwires

*END

*D_NET *32 3.92543e-18

*CONN
*I *41:s B *C 3.4225 1.2500 
*I *42:d B *C 3.4225 1.2500 

*CAP
0 *41:s 3.92543e-18

*RES
0 *42:d *41:s 0.001  // $mwires

*END

*D_NET *31 1.71568e-18

*CONN
*I *25:s B *C 1.7750 1.3100 
*I *26:d B *C 1.7750 1.3100 

*CAP
0 *25:s 1.71568e-18

*RES
0 *26:d *25:s 0.001  // $mwires

*END

*D_NET *30 1.1581e-15

*CONN
*I *8:g B *C 2.8525 0.5025 
*I *18:g B *C 0.2725 0.4825 
*I *10:d B *C 1.3900 0.5575 
*I *13:d B *C 1.7650 0.5025 
*I *40:g B *C 2.7825 1.2500 
*I *45:g B *C 0.2725 1.0550 
*I *24:d B *C 1.3900 1.2500 
*I *25:d B *C 1.6250 1.3100 
*N *30:2 *C 0.3000 0.7900 
*N *30:5 *C 2.8525 0.9975 
*N *30:7 *C 3.0050 1.1550 
*N *30:9 *C 1.6105 1.3250 
*N *30:10 *C 1.4000 1.3750 
*N *30:11 *C 0.5350 0.7900 
*N *30:13 *C 1.4000 0.4400 

*CAP
0 *25:d 1.80406e-16
1 *24:d 2.88823e-17
2 *45:g 2.10441e-17
3 *40:g 4.26094e-17
4 *13:d 5.25013e-17
5 *10:d 9.41428e-18
6 *18:g 2.5255e-17
7 *8:g 5.36415e-17
8 *30:13 1.11423e-16
9 *30:11 1.99344e-16
10 *30:10 1.21744e-16
11 *30:5 4.17985e-17
12 *30:2 6.06597e-17
13 *30:7 2.09378e-16

*RES
0 *45:g *30:2 19.691952  // $poly_conn
1 *30:2 *18:g 44.050926  // $poly_conn
2 *8:g *30:5 96.132896  // $poly_conn
3 *30:5 *40:g 35.499924  // $poly_conn
4 *30:5 *30:7 101.473923  // $poly_conn
5 *30:7 *30:9 1.382218  // $metal1_conn
6 *30:9 *30:10 0.140358  // $metal1_conn
7 *30:10 *30:11 1.033122  // $metal1_conn
8 *30:11 *30:2 45.16061  // $metal1_conn
9 *30:10 *24:d 31.065475  // $metal1_conn
10 *30:11 *30:13 0.896129  // $metal1_conn
11 *30:13 *10:d 75.036148  // $metal1_conn
12 *30:13 *13:d 75.264748  // $metal1_conn
13 *25:d *30:9 31  // $metal1_conn

*END

*D_NET *29 5.04642e-16

*CONN
*I *8:d B *C 2.9950 0.4725 
*I *11:d B *C 3.3350 0.5275 
*I *17:g B *C 3.9625 0.5275 
*I *40:d B *C 2.9975 1.3450 
*I *41:d B *C 3.2600 1.2500 
*I *44:g B *C 3.9625 1.2500 
*N *29:2 *C 3.9250 0.7300 
*N *29:5 *C 3.3050 0.4850 
*N *29:7 *C 3.9250 0.7300 
*N *29:9 *C 3.2305 1.3450 

*CAP
0 *44:g 3.5732e-17
1 *41:d 8.8859e-17
2 *40:d 4.34818e-17
3 *17:g 2.27317e-17
4 *11:d 7.10017e-17
5 *8:d 4.93609e-17
6 *29:2 1.93475e-16

*RES
0 *44:g *29:2 84.103943  // $poly_conn
1 *29:2 *17:g 16.15522  // $poly_conn
2 *29:5 *8:d 75.245087  // $metal1_conn
3 *29:5 *29:7 0.548243  // $metal1_conn
4 *29:7 *29:9 0.872818  // $metal1_conn
5 *29:9 *40:d 62.12693  // $metal1_conn
6 *11:d *29:5 75  // $metal1_conn
7 *29:2 *29:7 45  // $metal1_conn
8 *41:d *29:9 62  // $metal1_conn

*END

*D_NET *28 1.43769e-16

*CONN
*I *5:d B *C 0.7350 0.5575 
*I *7:d B *C 1.1950 0.5575 
*I *10:s B *C 1.1950 0.5575 

*CAP
0 *7:d 7.31358e-17
1 *5:d 7.06334e-17

*RES
0 *7:d *5:d 150.282227  // $metal1_conn

*END

*D_NET *27 1.43537e-16

*CONN
*I *3:d B *C 2.2800 0.5025 
*I *4:d B *C 2.2800 0.5025 
*I *6:d B *C 2.7500 0.5025 
*I *8:s B *C 2.7500 0.5025 

*CAP
0 *6:d 7.303e-17
1 *3:d 7.05069e-17

*RES
0 *6:d *3:d 150.276718  // $metal1_conn

*END

*D_NET *20 1.6186e-16

*CONN
*I *35:d B *C 2.2800 1.3100 
*I *37:d B *C 2.2800 1.3100 
*I *39:d B *C 2.7300 1.2500 
*I *40:s B *C 2.7300 1.2500 

*CAP
0 *39:d 8.01253e-17
1 *35:d 8.17347e-17

*RES
0 *39:d *35:d 124.240189  // $metal1_conn

*END

*D_NET *19 1.33146e-16

*CONN
*I *22:d B *C 0.8050 1.1200 
*I *23:d B *C 1.1950 1.2500 
*I *24:s B *C 1.1950 1.2500 

*CAP
0 *23:d 6.84278e-17
1 *22:d 6.47184e-17

*RES
0 *22:d *23:d 124.217705  // $metal1_conn

*END

