*SPEF "IEEE 1481-1999"
*DESIGN  "ADDFX1"
*DATE "Mon Sep 27 08:40:59 2010"
*VENDOR "Cadence Design Systems"
*PROGRAM "Assura RCX"
*VERSION "3.2 Red Hat Linux release 7.2 (Enigma) - (09/09/2009-10:39)"
*DESIGN_FLOW "Physical Verification"
*DIVIDER /
*DELIMITER :
*BUS_DELIMITER []
*T_UNIT 1 PS
*C_UNIT 1e15 FF
*R_UNIT 1 OHM
*L_UNIT 1 MH
// DeviceFingerDelim "@"
// MATCHED
// caps2d version: 10

*NAME_MAP
*1 CI
*2 mn2
*3 CO
*4 mn3
*5 mn4
*6 mp2
*7 mn1
*8 VDD
*9 mp3
*10 mn0
*11 S
*12 mp4
*13 VSS
*14 mp1
*15 mp0
*16 n4
*17 n5
*18 Sb
*19 COb
*20 n1
*21 n9
*22 n8
*23 n0
*24 n7
*25 n6
*26 mn6
*27 mn5
*28 mn8
*29 mn11
*30 n2
*31 mn10
*32 n3
*33 mn9
*34 mn13
*35 mn7
*36 mn12
*37 mp6
*38 mp5
*39 mp8
*40 mp11
*41 mp10
*42 mp9
*43 mp13
*44 mp7
*45 mp12
*46 A
*47 B

*GROUND_NETS VSS

*PORTS
*8 I
*13 I
*46 I
*47 I
*1 I
*3 O
*11 O

*D_NET *8 3.98953e-16

*CONN
*P *8 I *C 0.1000 1.7100 
*I *37:s B *C 1.8875 1.1825 
*I *38:s B *C 1.8875 1.1825 
*I *42:s B *C 2.7250 1.2200 
*I *43:s B *C 2.7250 1.2200 
*I *44:s B *C 1.4600 1.5350 
*I *45:s B *C 0.3450 1.5000 
*I *6:s B *C 0.7350 1.1825 
*I *9:s B *C 0.7350 1.1825 
*I *15:s B *C 1.4600 1.5350 
*N *8:2 *C 2.3000 1.7100 
*N *8:3 *C 2.3000 1.7100 
*N *8:4 *C 1.7975 1.7100 
*N *8:5 *C 1.4300 1.7100 
*N *8:6 *C 0.8000 1.7100 
*N *8:7 *C 0.6300 1.7100 
*N *8:8 *C 0.3050 1.7100 

*CAP
0 *6:s 1.21352e-17
1 *45:s 2.52323e-17
2 *44:s 7.50537e-18
3 *42:s 5.56127e-17
4 *37:s 1.202e-17
5 *8:8 7.13123e-18
6 *8:7 3.95797e-18
7 *8:5 1.28908e-17
8 *8:4 1.07811e-17
9 *8:2 2.42154e-16
10 *8 9.5323e-18

*RES
0 *42:s *8:3 31.569046  // $metal1_conn
1 *8:3 *8:4 0.252242  // $metal1_conn
2 *8:4 *8:5 0.184209  // $metal1_conn
3 *8:5 *8:6 0.316372  // $metal1_conn
4 *8:6 *8:7 0.085227  // $metal1_conn
5 *8:7 *8:8 0.162916  // $metal1_conn
6 *8:8 *8 0.102563  // $metal1_conn
7 *8:4 *37:s 62.110264  // $metal1_conn
8 *8:5 *44:s 62.110958  // $metal1_conn
9 *8:7 *6:s 62.107712  // $metal1_conn
10 *8:8 *45:s 62.171352  // $metal1_conn
11 *8:2 *8:3 10.714286  // $metal1_conn
12 *8:2 *8:6 9.375  // $metal1_conn

*END

*D_NET *13 0

*CONN
*P *13 I *C 0.1000 0.0000 
*I *26:s B *C 1.9250 0.3175 
*I *27:s B *C 1.9250 0.3175 
*I *33:s B *C 2.7250 0.3750 
*I *34:s B *C 2.7250 0.3750 
*I *35:s B *C 1.4550 0.3175 
*I *36:s B *C 0.3500 0.6000 
*I *2:s B *C 0.7350 0.3175 
*I *4:s B *C 0.7350 0.3175 
*I *10:s B *C 1.4550 0.3175 
*N *13:2 *C 2.3000 0.0000 
*N *13:3 *C 2.3000 0.0000 
*N *13:4 *C 1.8400 0.0000 
*N *13:5 *C 1.4000 0.0000 
*N *13:6 *C 0.8000 0.0000 
*N *13:7 *C 0.6800 0.0000 
*N *13:8 *C 0.3050 0.0000 


*RES
0 *33:s *13:3 75.41745  // $metal1_conn
1 *13:3 *13:4 0.230949  // $metal1_conn
2 *13:4 *13:5 0.220703  // $metal1_conn
3 *13:5 *13:6 0.301297  // $metal1_conn
4 *13:6 *13:7 0.060102  // $metal1_conn
5 *13:7 *13:8 0.188041  // $metal1_conn
6 *13:8 *13 0.102563  // $metal1_conn
7 *13:4 *26:s 75.101242  // $metal1_conn
8 *13:5 *35:s 75.189751  // $metal1_conn
9 *13:7 *2:s 75.195389  // $metal1_conn
10 *13:8 *36:s 75.424934  // $metal1_conn
11 *13:2 *13:3 8.857142  // $metal1_conn
12 *13:2 *13:6 7.75  // $metal1_conn

*END

*D_NET *46 1.36768e-15

*CONN
*P *46 I *C 2.6275 0.6650 
*I *27:g B *C 1.9725 0.3175 
*I *33:g B *C 2.5925 0.3175 
*I *2:g B *C 0.5775 0.3175 
*I *10:g B *C 1.2975 0.3175 
*I *38:g B *C 1.9375 1.1825 
*I *42:g B *C 2.5575 1.1825 
*I *6:g B *C 0.5875 1.1825 
*I *15:g B *C 1.2975 1.1825 
*N *46:2 *C 0.6050 0.8450 
*N *46:5 *C 1.3350 0.8450 
*N *46:8 *C 1.9350 0.6150 
*N *46:11 *C 2.6350 0.6450 
*N *46:13 *C 2.6350 0.6450 
*N *46:14 *C 1.9350 0.6150 
*N *46:15 *C 1.3350 0.8450 

*CAP
0 *15:g 6.92857e-17
1 *6:g 5.16099e-17
2 *42:g 9.73456e-17
3 *38:g 6.54133e-17
4 *10:g 7.58894e-17
5 *2:g 4.32977e-17
6 *33:g 5.67746e-17
7 *27:g 3.78583e-17
8 *46:2 1.4523e-16
9 *46:5 2.79543e-16
10 *46:8 2.38739e-16
11 *46:11 2.06691e-16

*RES
0 *6:g *46:2 49.488552  // $poly_conn
1 *46:2 *2:g 107.180855  // $poly_conn
2 *15:g *46:5 49.488552  // $poly_conn
3 *46:5 *10:g 107.180855  // $poly_conn
4 *27:g *46:8 48.206497  // $poly_conn
5 *46:8 *38:g 108.462906  // $poly_conn
6 *33:g *46:11 54.578163  // $poly_conn
7 *46:11 *42:g 100.148506  // $poly_conn
8 *46:13 *46 0.003591  // $metal1_conn
9 *46 *46:14 0.711989  // $metal1_conn
10 *46:14 *46:15 0.715716  // $metal1_conn
11 *46:15 *46:2 45.702137  // $metal1_conn
12 *46:11 *46:13 45  // $metal1_conn
13 *46:8 *46:14 45  // $metal1_conn
14 *46:5 *46:15 45  // $metal1_conn

*END

*D_NET *47 1.37238e-15

*CONN
*P *47 I *C 1.9900 0.8150 
*I *26:g B *C 1.7075 0.3175 
*I *31:g B *C 2.4875 0.3175 
*I *4:g B *C 0.7825 0.3175 
*I *7:g B *C 1.1925 0.3175 
*I *37:g B *C 1.7075 1.1825 
*I *41:g B *C 2.4525 1.1825 
*I *9:g B *C 0.7825 1.1825 
*I *14:g B *C 1.1925 1.1825 
*N *47:2 *C 0.8200 0.9650 
*N *47:5 *C 1.1550 0.9650 
*N *47:8 *C 1.6700 0.9650 
*N *47:11 *C 2.4350 0.7350 
*N *47:13 *C 1.6700 0.9650 
*N *47:14 *C 1.1550 0.9650 

*CAP
0 *14:g 5.06983e-17
1 *9:g 4.03969e-17
2 *41:g 9.66132e-17
3 *37:g 3.88715e-17
4 *7:g 8.47425e-17
5 *4:g 6.19111e-17
6 *31:g 8.68024e-17
7 *26:g 6.50506e-17
8 *47:2 1.386e-16
9 *47:5 2.12434e-16
10 *47:8 1.94457e-16
11 *47:11 1.87909e-16
12 *47 1.13892e-16

*RES
0 *9:g *47:2 18.719322  // $poly_conn
1 *47:2 *4:g 137.950089  // $poly_conn
2 *14:g *47:5 18.719322  // $poly_conn
3 *47:5 *7:g 137.950089  // $poly_conn
4 *37:g *47:8 18.719322  // $poly_conn
5 *47:8 *26:g 137.950089  // $poly_conn
6 *31:g *47:11 84.219627  // $poly_conn
7 *47:11 *41:g 78.372368  // $poly_conn
8 *47:11 *47 45.458092  // $metal1_conn
9 *47 *47:13 0.404832  // $metal1_conn
10 *47:13 *47:14 0.580198  // $metal1_conn
11 *47:14 *47:2 45.377411  // $metal1_conn
12 *47:8 *47:13 45  // $metal1_conn
13 *47:5 *47:14 45  // $metal1_conn

*END

*D_NET *1 9.77469e-16

*CONN
*P *1 I *C 1.5050 0.6450 
*I *29:g B *C 2.3825 0.3175 
*I *35:g B *C 1.5025 0.3175 
*I *5:g B *C 0.9875 0.3175 
*I *40:g B *C 2.3475 1.1825 
*I *44:g B *C 1.5025 1.1825 
*I *12:g B *C 0.9875 1.1825 
*N *1:1 *C 1.0600 0.7250 
*N *1:2 *C 0.9875 0.7250 
*N *1:6 *C 1.5400 0.6700 
*N *1:9 *C 2.3350 0.4950 
*N *1:11 *C 1.5400 0.6700 

*CAP
0 *12:g 5.60838e-17
1 *44:g 6.60415e-17
2 *40:g 1.09874e-16
3 *5:g 4.06113e-17
4 *35:g 4.09191e-17
5 *29:g 4.28965e-17
6 *1:2 4.51869e-17
7 *1:1 1.01701e-16
8 *1:6 6.76998e-17
9 *1:9 2.44941e-16
10 *1 1.61514e-16

*RES
0 *1:1 *1:2 47.037205  // $poly_conn
1 *1:2 *5:g 79.227043  // $poly_conn
2 *1:2 *12:g 83.073196  // $poly_conn
3 *44:g *1:6 93.039703  // $poly_conn
4 *1:6 *35:g 60.988419  // $poly_conn
5 *29:g *1:9 19.639494  // $poly_conn
6 *1:9 *40:g 143.708908  // $poly_conn
7 *1:9 *1:11 45.860363  // $metal1_conn
8 *1:11 *1 0.013381  // $metal1_conn
9 *1 *1:1 0.371173  // $metal1_conn
10 *1:6 *1:11 45  // $metal1_conn

*END

*D_NET *3 1.25364e-16

*CONN
*P *3 O *C 0.0900 0.9650 
*I *36:d B *C 0.1100 0.5300 
*I *45:d B *C 0.1100 1.3000 

*CAP
0 *45:d 4.02045e-17
1 *36:d 4.15832e-17
2 *3 4.35765e-17

*RES
0 *45:d *3 20.901375  // $metal1_conn
1 *3 *36:d 37.79855  // $metal1_conn

*END

*D_NET *11 1.57408e-16

*CONN
*P *11 O *C 2.9100 1.1300 
*I *34:d B *C 2.8900 0.3750 
*I *43:d B *C 2.8900 1.2200 

*CAP
0 *43:d 2.87332e-17
1 *34:d 8.12761e-17
2 *11 4.73986e-17

*RES
0 *43:d *11 20.731258  // $metal1_conn
1 *11 *34:d 38.014854  // $metal1_conn

*END

*D_NET *25 1.50273e-18

*CONN
*I *31:s B *C 2.5400 0.3175 
*I *33:d B *C 2.5400 0.3175 

*CAP
0 *31:s 1.50273e-18

*RES
0 *33:d *31:s 0.001  // $mwires

*END

*D_NET *24 1.78033e-18

*CONN
*I *29:s B *C 2.4350 0.3175 
*I *31:d B *C 2.4350 0.3175 

*CAP
0 *29:s 1.78033e-18

*RES
0 *31:d *29:s 0.001  // $mwires

*END

*D_NET *23 0

*CONN
*I *7:s B *C 1.2450 0.3175 
*I *10:d B *C 1.2450 0.3175 


*RES
0 *10:d *7:s 0.001  // $mwires

*END

*D_NET *22 0

*CONN
*I *41:s B *C 2.5050 1.1825 
*I *42:d B *C 2.5050 1.1825 


*RES
0 *42:d *41:s 0.001  // $mwires

*END

*D_NET *21 0

*CONN
*I *40:s B *C 2.4000 1.1825 
*I *41:d B *C 2.4000 1.1825 


*RES
0 *41:d *40:s 0.001  // $mwires

*END

*D_NET *20 1.4721e-18

*CONN
*I *14:s B *C 1.2450 1.1825 
*I *15:d B *C 1.2450 1.1825 

*CAP
0 *14:s 1.4721e-18

*RES
0 *15:d *14:s 0.001  // $mwires

*END

*D_NET *19 1.07119e-15

*CONN
*I *28:g B *C 2.1775 0.3175 
*I *36:g B *C 0.2025 0.5300 
*I *5:d B *C 1.0900 0.3175 
*I *7:d B *C 1.0900 0.3175 
*I *39:g B *C 2.1425 1.1825 
*I *45:g B *C 0.2025 1.3000 
*I *12:d B *C 1.0900 1.1825 
*I *14:d B *C 1.0900 1.1825 
*N *19:1 *C 0.2650 0.9650 
*N *19:2 *C 0.2025 0.9650 
*N *19:6 *C 2.1250 0.9350 
*N *19:8 *C 1.0900 1.0850 
*N *19:9 *C 0.4550 1.0850 

*CAP
0 *12:d 2.41361e-17
1 *45:g 3.21492e-17
2 *39:g 3.378e-17
3 *5:d 1.4993e-16
4 *36:g 3.21252e-17
5 *28:g 6.86055e-17
6 *19:9 1.87479e-16
7 *19:8 2.03836e-16
8 *19:2 2.46902e-17
9 *19:1 4.54969e-17
10 *19:6 2.68962e-16

*RES
0 *19:1 *19:2 46.294373  // $poly_conn
1 *19:2 *36:g 73.127586  // $poly_conn
2 *19:2 *45:g 30.819893  // $poly_conn
3 *28:g *19:6 133.356644  // $poly_conn
4 *19:6 *39:g 25.769672  // $poly_conn
5 *19:6 *19:8 46.144993  // $metal1_conn
6 *19:8 *19:9 0.608683  // $metal1_conn
7 *19:9 *19:1 0.232898  // $metal1_conn
8 *19:8 *12:d 62.070866  // $metal1_conn
9 *19:9 *5:d 76.048729  // $metal1_conn

*END

*D_NET *18 5.10403e-16

*CONN
*I *28:d B *C 2.2800 0.3175 
*I *29:d B *C 2.2800 0.3175 
*I *34:g B *C 2.7975 0.3750 
*I *39:d B *C 2.2450 1.1825 
*I *40:d B *C 2.2450 1.1825 
*I *43:g B *C 2.7975 1.2200 
*N *18:2 *C 2.7700 0.8350 
*N *18:5 *C 2.7700 0.8350 

*CAP
0 *43:g 4.31051e-17
1 *39:d 1.06243e-16
2 *34:g 4.73256e-17
3 *28:d 1.1837e-16
4 *18:2 1.95359e-16

*RES
0 *43:g *18:2 37.911495  // $poly_conn
1 *18:2 *34:g 73.808937  // $poly_conn
2 *28:d *18:5 75.671005  // $metal1_conn
3 *18:5 *39:d 62.626057  // $metal1_conn
4 *18:2 *18:5 45  // $metal1_conn

*END

*D_NET *17 1.36065e-16

*CONN
*I *37:d B *C 1.6050 1.1825 
*I *38:d B *C 2.0400 1.1825 
*I *39:s B *C 2.0400 1.1825 
*I *44:d B *C 1.6050 1.1825 

*CAP
0 *38:d 6.79713e-17
1 *37:d 6.80939e-17

*RES
0 *38:d *37:d 124.367554  // $metal1_conn

*END

*D_NET *16 1.619e-16

*CONN
*I *26:d B *C 1.6050 0.3175 
*I *27:d B *C 2.0750 0.3175 
*I *28:s B *C 2.0750 0.3175 
*I *35:d B *C 1.6050 0.3175 

*CAP
0 *27:d 7.98069e-17
1 *26:d 8.20934e-17

*RES
0 *27:d *26:d 150.373917  // $metal1_conn

*END

*D_NET *32 1.18879e-16

*CONN
*I *6:d B *C 0.5150 1.1825 
*I *9:d B *C 0.8850 1.1825 
*I *12:s B *C 0.8850 1.1825 

*CAP
0 *9:d 6.23874e-17
1 *6:d 5.64914e-17

*RES
0 *9:d *6:d 124.337982  // $metal1_conn

*END

*D_NET *30 1.77469e-16

*CONN
*I *2:d B *C 0.5050 0.3175 
*I *4:d B *C 0.8850 0.3175 
*I *5:s B *C 0.8850 0.3175 

*CAP
0 *4:d 8.66421e-17
1 *2:d 9.08274e-17

*RES
0 *4:d *2:d 150.59819  // $metal1_conn

*END

