*SPEF "IEEE 1481-1999"
*DESIGN  "ADDHX4"
*DATE "Mon Sep 27 08:43:14 2010"
*VENDOR "Cadence Design Systems"
*PROGRAM "Assura RCX"
*VERSION "3.2 Red Hat Linux release 7.2 (Enigma) - (09/09/2009-10:39)"
*DESIGN_FLOW "Physical Verification"
*DIVIDER /
*DELIMITER :
*BUS_DELIMITER []
*T_UNIT 1 PS
*C_UNIT 1e15 FF
*R_UNIT 1 OHM
*L_UNIT 1 MH
// DeviceFingerDelim "@"
// MATCHED
// caps2d version: 10

*NAME_MAP
*1 VSS
*2 mn4
*3 mn3
*4 mn6
*5 mn2
*6 mn8
*7 mn5
*8 CO
*9 mn8\@1
*10 mn5\@1
*11 S
*12 mn8\@2
*13 mn5\@2
*14 mn8\@3
*15 mn5\@3
*16 mn0
*17 mn1
*18 mn7
*19 COb
*20 Sb
*21 n0
*22 VDD
*23 mp6
*24 mp8
*25 mp8\@1
*26 mp8\@2
*27 mp8\@3
*28 mp0
*29 n1
*30 n3
*31 n4
*32 n2
*33 mp4
*34 mp3
*35 mp2
*36 mp5
*37 mp5\@1
*38 mp5\@2
*39 mp5\@3
*40 mp1
*41 mp7
*42 A
*43 B

*GROUND_NETS VSS

*PORTS
*22 I
*1 I
*42 I
*43 I
*8 O
*11 O

*D_NET *22 5.0304e-16

*CONN
*P *22 I *C 0.1000 1.7100 
*I *35:s B *C 2.9600 1.0950 
*I *36:s B *C 2.9600 1.0950 
*I *37:s B *C 3.5150 1.0950 
*I *38:s B *C 3.5150 1.0950 
*I *39:s B *C 3.9250 1.5700 
*I *40:s B *C 3.9250 1.5700 
*I *41:s B *C 0.2550 1.1150 
*I *23:s B *C 0.7450 1.1150 
*I *24:s B *C 0.7450 1.1150 
*I *25:s B *C 1.2900 1.2350 
*I *26:s B *C 1.2900 1.2350 
*I *27:s B *C 1.8750 1.1475 
*I *28:s B *C 1.8750 1.1475 
*N *22:3 *C 3.2000 1.7100 
*N *22:10 *C 0.1700 1.7100 

*CAP
0 *27:s 1.14109e-16
1 *41:s 3.95628e-17
2 *39:s 1.15986e-16
3 *22:10 6.19284e-18
4 *22:3 2.25209e-16
5 *22 1.98069e-18

*RES
0 *22:10 *22 0.034639  // $metal1_conn
1 *22:3 *39:s 7.5  // $metal1_conn
2 *22:3 *27:s 6.818182  // $metal1_conn
3 *22:10 *41:s 62.214149  // $metal1_conn
4 *39:s *27:s 0.543535  // $metal1_conn
5 *27:s *22:10 0.244303  // $metal1_conn

*END

*D_NET *1 0

*CONN
*P *1 I *C 0.1000 0.0000 
*I *5:s B *C 2.9700 0.5300 
*I *7:s B *C 2.9700 0.5300 
*I *10:s B *C 3.4500 0.5300 
*I *13:s B *C 3.4500 0.5300 
*I *15:s B *C 3.9200 0.5875 
*I *17:s B *C 3.9200 0.5875 
*I *4:s B *C 0.5200 0.5100 
*I *6:s B *C 0.5200 0.5100 
*I *9:s B *C 1.2350 0.5000 
*I *12:s B *C 1.2350 0.5000 
*I *14:s B *C 1.7900 0.4425 
*I *16:s B *C 1.7900 0.4425 
*N *1:3 *C 3.2000 0.0000 


*RES
0 *14:s *1 0.205093  // $metal1_conn
1 *1:3 *15:s 6.2  // $metal1_conn
2 *1:3 *14:s 5.636364  // $metal1_conn
3 *15:s *14:s 0.547599  // $metal1_conn

*END

*D_NET *42 6.20553e-16

*CONN
*P *42 I *C 0.5000 0.6650 
*I *4:g B *C 0.4075 0.5100 
*I *16:g B *C 1.9075 0.4425 
*I *23:g B *C 0.5275 1.1150 
*I *28:g B *C 1.9225 1.1475 
*N *42:2 *C 0.4900 0.7400 
*N *42:5 *C 1.7950 0.6500 

*CAP
0 *28:g 4.94262e-17
1 *23:g 6.07202e-17
2 *16:g 2.47606e-17
3 *4:g 5.45703e-17
4 *42:2 8.14689e-17
5 *42:5 1.95498e-16
6 *42 1.54109e-16

*RES
0 *23:g *42:2 36.668037  // $poly_conn
1 *42:2 *4:g 23.399754  // $poly_conn
2 *28:g *42:5 102.137901  // $poly_conn
3 *42:5 *16:g 38.446335  // $poly_conn
4 *42:5 *42 46.300438  // $metal1_conn
5 *42 *42:2 45.044949  // $metal1_conn

*END

*D_NET *43 1.18899e-15

*CONN
*P *43 I *C 0.1000 0.8550 
*I *3:g B *C 2.6075 0.4750 
*I *17:g B *C 3.9675 0.5875 
*I *18:g B *C 0.3025 0.5100 
*I *33:g B *C 2.4325 1.1300 
*I *40:g B *C 3.9625 1.0075 
*I *41:g B *C 0.3025 1.1150 
*N *43:2 *C 0.3025 0.8200 
*N *43:3 *C 0.1700 0.8200 
*N *43:6 *C 2.4225 0.8375 
*N *43:7 *C 1.9650 0.8100 
*N *43:10 *C 3.9650 0.8000 
*N *43:11 *C 3.9100 0.8000 
*N *43:13 *C 1.9500 1.2600 

*CAP
0 *41:g 2.37486e-17
1 *40:g 3.12003e-17
2 *33:g 3.94266e-17
3 *18:g 5.73228e-17
4 *17:g 3.01325e-17
5 *3:g 7.31506e-17
6 *43:13 3.43989e-16
7 *43:6 6.39138e-17
8 *43:2 2.25861e-17
9 *43:3 1.80489e-16
10 *43:7 7.47638e-17
11 *43:11 2.33962e-16
12 *43 1.43042e-17

*RES
0 *41:g *43:2 22.886339  // $poly_conn
1 *43:2 *43:3 53.677353  // $poly_conn
2 *43:2 *18:g 43.399158  // $poly_conn
3 *3:g *43:6 88.72596  // $poly_conn
4 *43:6 *43:7 149.460556  // $poly_conn
5 *43:6 *33:g 23.933537  // $poly_conn
6 *17:g *43:10 33.192116  // $poly_conn
7 *43:10 *43:11 48.032555  // $poly_conn
8 *43:10 *40:g 22.935705  // $poly_conn
9 *43:11 *43:13 1.910558  // $metal1_conn
10 *43:13 *43:3 1.522984  // $metal1_conn
11 *43:3 *43 0.030209  // $metal1_conn
12 *43:13 *43:7 0.329864  // $metal1_conn

*END

*D_NET *8 2.42912e-16

*CONN
*P *8 O *C 1.3000 0.6650 
*I *6:d B *C 0.8250 0.5100 
*I *9:d B *C 0.8250 0.5100 
*I *12:d B *C 1.4275 0.5000 
*I *14:d B *C 1.4275 0.5000 
*I *24:d B *C 0.9325 1.1150 
*I *25:d B *C 0.9325 1.1150 
*I *26:d B *C 1.4550 1.2350 
*I *27:d B *C 1.4550 1.2350 

*CAP
0 *26:d 1.12285e-16
1 *6:d 1.18676e-16
2 *8 1.195e-17

*RES
0 *6:d *8 0.014983  // $metal1_conn
1 *8 *26:d 0.193717  // $metal1_conn

*END

*D_NET *11 2.68999e-16

*CONN
*P *11 O *C 3.3000 0.8550 
*I *7:d B *C 3.1250 0.5300 
*I *10:d B *C 3.1250 0.5300 
*I *13:d B *C 3.6000 0.5300 
*I *15:d B *C 3.6000 0.5300 
*I *36:d B *C 3.1525 1.0950 
*I *37:d B *C 3.1525 1.0950 
*I *38:d B *C 3.6650 1.0950 
*I *39:d B *C 3.6650 1.0950 

*CAP
0 *7:d 1.12716e-16
1 *11 1.56283e-16

*RES
0 *11 *7:d 0.14865  // $metal1_conn

*END

*D_NET *32 2.86708e-18

*CONN
*I *3:s B *C 2.6750 0.4750 
*I *5:d B *C 2.6750 0.4750 

*CAP
0 *3:s 2.86708e-18

*RES
0 *5:d *3:s 0.001  // $mwires

*END

*D_NET *31 1.54183e-18

*CONN
*I *18:s B *C 0.3550 0.5100 
*I *4:d B *C 0.3550 0.5100 

*CAP
0 *18:s 1.54183e-18

*RES
0 *4:d *18:s 0.001  // $mwires

*END

*D_NET *30 2.24133e-18

*CONN
*I *34:s B *C 2.6900 1.1300 
*I *35:d B *C 2.6900 1.1300 

*CAP
0 *34:s 2.24133e-18

*RES
0 *35:d *34:s 0.001  // $mwires

*END

*D_NET *29 6.79595e-16

*CONN
*I *2:g B *C 2.3525 0.4750 
*I *17:d B *C 4.0600 0.5875 
*I *34:g B *C 2.6375 1.1300 
*I *40:d B *C 4.0575 1.0075 
*N *29:2 *C 2.3150 0.7050 
*N *29:4 *C 2.6000 0.8350 
*N *29:7 *C 4.0700 0.5750 

*CAP
0 *40:d 3.88848e-17
1 *34:g 7.38744e-17
2 *17:d 1.72928e-16
3 *2:g 3.8782e-17
4 *29:2 2.51848e-16
5 *29:4 1.03278e-16

*RES
0 *2:g *29:2 61.15522  // $poly_conn
1 *34:g *29:4 61.15522  // $poly_conn
2 *40:d *29:7 62.272449  // $metal1_conn
3 *29:7 *29:2 1.617556  // $metal1_conn
4 *29:2 *29:4 0.263486  // $metal1_conn
5 *17:d *29:7 75  // $metal1_conn

*END

*D_NET *21 4.74004e-16

*CONN
*I *2:s B *C 2.2800 0.4750 
*I *5:g B *C 2.7425 0.4750 
*I *16:d B *C 2.2800 0.4750 
*I *33:s B *C 2.3600 1.1300 
*I *35:g B *C 2.7425 1.1300 
*I *28:d B *C 2.3600 1.1300 
*N *21:2 *C 2.7700 0.8250 
*N *21:4 *C 2.1550 1.0250 

*CAP
0 *35:g 7.68192e-17
1 *33:s 2.32764e-17
2 *5:g 6.37323e-17
3 *2:s 7.16159e-17
4 *21:4 8.7227e-17
5 *21:2 1.51333e-16

*RES
0 *35:g *21:2 19.691952  // $poly_conn
1 *21:2 *5:g 47.897079  // $poly_conn
2 *21:2 *21:4 45.583958  // $metal1_conn
3 *21:4 *2:s 75.427422  // $metal1_conn
4 *21:4 *33:s 62.061447  // $metal1_conn

*END

*D_NET *20 5.79596e-16

*CONN
*I *2:d B *C 2.4800 0.4750 
*I *3:d B *C 2.4800 0.4750 
*I *7:g B *C 3.0175 0.5300 
*I *10:g B *C 3.2325 0.5300 
*I *13:g B *C 3.4975 0.5300 
*I *15:g B *C 3.7025 0.5300 
*I *33:d B *C 2.5350 1.1300 
*I *34:d B *C 2.5350 1.1300 
*I *36:g B *C 3.0075 1.0950 
*I *37:g B *C 3.2975 1.0950 
*I *38:g B *C 3.5625 1.0950 
*I *39:g B *C 3.7675 1.0950 
*N *20:8 *C 2.9400 0.7600 

*CAP
0 *39:g 2.54195e-16
1 *33:d 1.09432e-16
2 *2:d 8.10967e-17
3 *20:8 1.34872e-16

*RES
0 *39:g *20:8 49.466599  // $poly_conn
1 *20:8 *33:d 62.644123  // $metal1_conn
2 *2:d *20:8 75.434082  // $metal1_conn

*END

*D_NET *19 4.58429e-16

*CONN
*I *18:d B *C 0.2100 0.5100 
*I *6:g B *C 0.6325 0.5100 
*I *9:g B *C 1.0175 0.5100 
*I *12:g B *C 1.2825 0.5000 
*I *14:g B *C 1.5725 0.5000 
*I *41:d B *C 0.4150 1.1150 
*I *23:d B *C 0.4150 1.1150 
*I *24:g B *C 0.7925 1.1150 
*I *25:g B *C 1.0725 1.1150 
*I *26:g B *C 1.3375 1.2350 
*I *27:g B *C 1.5725 1.2350 
*N *19:17 *C 0.4050 0.9800 

*CAP
0 *27:g 3.32666e-16
1 *41:d 7.91764e-17
2 *18:d 4.6587e-17

*RES
0 *41:d *19:17 62  // $metal1_conn
1 *19:17 *18:d 75.34034  // $metal1_conn
2 *27:g *19:17 45.252106  // $metal1_conn

*END

