*SPEF "IEEE 1481-1999"
*DESIGN  "AND2X6"
*DATE "Mon Sep 27 08:45:08 2010"
*VENDOR "Cadence Design Systems"
*PROGRAM "Assura RCX"
*VERSION "3.2 Red Hat Linux release 7.2 (Enigma) - (09/09/2009-10:39)"
*DESIGN_FLOW "Physical Verification"
*DIVIDER /
*DELIMITER :
*BUS_DELIMITER []
*T_UNIT 1 PS
*C_UNIT 1e15 FF
*R_UNIT 1 OHM
*L_UNIT 1 MH
// DeviceFingerDelim "@"
// MATCHED
// caps2d version: 10

*NAME_MAP
*1 mp1\@1
*2 mp0\@1
*3 mp2
*4 mp2\@1
*5 Y
*6 mp2\@2
*7 mp2\@3
*8 mp2\@4
*9 mn1
*10 mn0
*11 mn0\@1
*12 mn1\@1
*13 mn2
*14 mn2\@1
*15 mn2\@2
*16 mn2\@3
*17 mn2\@4
*18 VDD
*19 A
*20 B
*21 net61
*22 net69
*23 net69\@1
*24 VSS
*25 mp0
*26 mp1

*GROUND_NETS VSS

*PORTS
*18 I
*24 I
*19 I
*20 I
*5 O

*D_NET *18 4.42621e-16

*CONN
*P *18 I *C 0.1000 1.7100 
*I *25:s B *C 0.1100 1.1750 
*I *26:s B *C 0.5100 1.1750 
*I *1:s B *C 0.5100 1.1750 
*I *2:s B *C 0.9500 1.1350 
*I *3:s B *C 0.9500 1.1350 
*I *4:s B *C 1.3300 1.1350 
*I *6:s B *C 1.3300 1.1350 
*I *7:s B *C 1.7400 1.1350 
*I *8:s B *C 1.7400 1.1350 
*N *18:3 *C 1.1000 1.7100 

*CAP
0 *26:s 6.29499e-17
1 *18:3 7.76025e-17
2 *18 3.02068e-16

*RES
0 *18:3 *18 6.818182  // $metal1_conn
1 *18 *26:s 31.30862  // $metal1_conn

*END

*D_NET *24 0

*CONN
*P *24 I *C 0.1000 0.0000 
*I *9:s B *C 0.2100 0.4550 
*I *12:s B *C 0.9150 0.4300 
*I *13:s B *C 0.9150 0.4300 
*I *14:s B *C 1.3150 0.4300 
*I *15:s B *C 1.3150 0.4300 
*I *16:s B *C 1.7250 0.4300 
*I *17:s B *C 1.7250 0.4300 
*N *24:3 *C 1.1000 0.0000 
*N *24:6 *C 0.2000 0.0000 


*RES
0 *24:6 *24 0.04971  // $metal1_conn
1 *24:3 *16:s 5.636364  // $metal1_conn
2 *24:6 *9:s 37.778549  // $metal1_conn
3 *16:s *24:6 0.353212  // $metal1_conn

*END

*D_NET *19 4.70816e-16

*CONN
*P *19 I *C 0.1000 0.6650 
*I *9:g B *C 0.3025 0.4550 
*I *12:g B *C 0.7625 0.4550 
*I *25:g B *C 0.2025 1.1750 
*I *2:g B *C 0.8175 1.1750 

*CAP
0 *2:g 3.51732e-16
1 *12:g 4.97194e-17
2 *9:g 5.54933e-17
3 *19 1.38713e-17

*RES
0 *2:g *12:g 19.691952  // $poly_conn
1 *9:g *2:g 44.369274  // $poly_conn
2 *2:g *19 0.026721  // $metal1_conn

*END

*D_NET *20 2.82524e-16

*CONN
*P *20 I *C 0.5250 0.8550 
*I *10:g B *C 0.4075 0.4550 
*I *11:g B *C 0.6125 0.4550 
*I *26:g B *C 0.4075 1.1750 
*I *1:g B *C 0.6125 1.1750 
*N *20:7 *C 0.4450 0.8150 
*N *20:8 *C 0.4450 0.8350 
*N *20:9 *C 0.5255 0.8350 

*CAP
0 *1:g 1.16178e-16
1 *11:g 3.77902e-17
2 *10:g 5.51828e-17
3 *20:8 4.32273e-17
4 *20 3.01449e-17

*RES
0 *1:g *11:g 50.771072  // $poly_conn
1 *1:g *10:g 49.488552  // $poly_conn
2 *20:9 *20 0.005636  // $metal1_conn
3 *1:g *20:7 45  // $metal1_conn
4 *20:7 *20:8 0.005636  // $metal1_conn
5 *20:8 *20:9 0.042051  // $metal1_conn

*END

*D_NET *5 4.57347e-16

*CONN
*P *5 O *C 1.7000 0.8550 
*I *13:d B *C 1.1100 0.4300 
*I *14:d B *C 1.1100 0.4300 
*I *15:d B *C 1.5200 0.4300 
*I *16:d B *C 1.5200 0.4300 
*I *17:d B *C 1.9200 0.4300 
*I *3:d B *C 1.1250 1.1350 
*I *4:d B *C 1.1250 1.1350 
*I *6:d B *C 1.5350 1.1350 
*I *7:d B *C 1.5350 1.1350 
*I *8:d B *C 1.9350 1.1350 

*CAP
0 *8:d 2.50331e-16
1 *13:d 1.92364e-16
2 *5 1.46524e-17

*RES
0 *8:d *5 0.027022  // $metal1_conn
1 *5 *13:d 0.172625  // $metal1_conn

*END

*D_NET *23 3.01608e-18

*CONN
*I *11:s B *C 0.6875 0.4550 
*I *12:d B *C 0.6875 0.4550 

*CAP
0 *11:s 3.01608e-18

*RES
0 *12:d *11:s 0.001  // $mwires

*END

*D_NET *22 0

*CONN
*I *9:d B *C 0.3550 0.4550 
*I *10:s B *C 0.3550 0.4550 


*RES
0 *10:s *9:d 0.001  // $mwires

*END

*D_NET *21 7.34377e-16

*CONN
*I *10:d B *C 0.5100 0.4550 
*I *11:d B *C 0.5100 0.4550 
*I *13:g B *C 1.0075 0.4300 
*I *14:g B *C 1.2125 0.4300 
*I *15:g B *C 1.4175 0.4300 
*I *16:g B *C 1.6225 0.4300 
*I *17:g B *C 1.8275 0.4300 
*I *25:d B *C 0.3050 1.1750 
*I *26:d B *C 0.3050 1.1750 
*I *1:d B *C 0.7150 1.1750 
*I *2:d B *C 0.7150 1.1750 
*I *3:g B *C 1.0225 1.1350 
*I *4:g B *C 1.2275 1.1350 
*I *6:g B *C 1.4325 1.1350 
*I *7:g B *C 1.6375 1.1350 
*I *8:g B *C 1.8425 1.1350 
*N *21:17 *C 0.9500 0.7200 

*CAP
0 *8:g 3.46282e-16
1 *1:d 2.18665e-16
2 *10:d 9.43464e-17
3 *21:17 7.50836e-17

*RES
0 *8:g *21:17 0.181379  // $metal1_conn
1 *21:17 *10:d 37.964874  // $metal1_conn
2 *21:17 *1:d 0.400732  // $metal1_conn

*END

