*SPEF "IEEE 1481-1999"
*DESIGN  "AND2X4"
*DATE "Mon Sep 27 08:44:45 2010"
*VENDOR "Cadence Design Systems"
*PROGRAM "Assura RCX"
*VERSION "3.2 Red Hat Linux release 7.2 (Enigma) - (09/09/2009-10:39)"
*DESIGN_FLOW "Physical Verification"
*DIVIDER /
*DELIMITER :
*BUS_DELIMITER []
*T_UNIT 1 PS
*C_UNIT 1e15 FF
*R_UNIT 1 OHM
*L_UNIT 1 MH
// DeviceFingerDelim "@"
// MATCHED
// caps2d version: 10

*NAME_MAP
*1 mp2\@1
*2 mp2\@2
*3 mp2\@3
*4 mn1
*5 Y
*6 mn0
*7 mn2
*8 mn2\@1
*9 mn2\@2
*10 net61
*11 mn2\@3
*12 net69
*13 A
*14 VDD
*15 B
*16 VSS
*17 mp1
*18 mp0
*19 mp2

*GROUND_NETS VSS

*PORTS
*14 I
*16 I
*13 I
*15 I
*5 O

*D_NET *14 3.16862e-16

*CONN
*P *14 I *C 0.1000 1.7100 
*I *17:s B *C 0.1100 1.2850 
*I *18:s B *C 0.5625 1.2850 
*I *19:s B *C 0.5625 1.2850 
*I *1:s B *C 0.9925 1.2850 
*I *2:s B *C 0.9925 1.2850 
*I *3:s B *C 1.4075 1.2850 
*N *14:3 *C 0.8000 1.7100 

*CAP
0 *3:s 1.71273e-16
1 *17:s 4.16637e-17
2 *14:3 9.38084e-17
3 *14 1.01166e-17

*RES
0 *14 *17:s 20.95549  // $metal1_conn
1 *3:s *14 0.225522  // $metal1_conn
2 *14:3 *3:s 9.375  // $metal1_conn

*END

*D_NET *16 0

*CONN
*P *16 I *C 0.1000 0.0000 
*I *6:s B *C 0.5625 0.3800 
*I *7:s B *C 0.5625 0.3800 
*I *8:s B *C 0.9925 0.3800 
*I *9:s B *C 0.9925 0.3800 
*I *11:s B *C 1.4075 0.3800 
*N *16:3 *C 0.8000 0.0000 


*RES
0 *11:s *16 0.225221  // $metal1_conn
1 *16:3 *11:s 7.75  // $metal1_conn

*END

*D_NET *13 2.40672e-16

*CONN
*P *13 I *C 0.4750 1.0450 
*I *6:g B *C 0.4475 0.3800 
*I *18:g B *C 0.4475 1.2850 
*N *13:2 *C 0.4850 0.8200 

*CAP
0 *18:g 4.62182e-17
1 *6:g 7.63042e-17
2 *13:2 9.16746e-17
3 *13 2.64749e-17

*RES
0 *18:g *13:2 59.744961  // $poly_conn
1 *13:2 *6:g 70.001373  // $poly_conn
2 *13 *13:2 45.135021  // $metal1_conn

*END

*D_NET *15 2.24637e-16

*CONN
*P *15 I *C 0.1350 0.8850 
*I *4:g B *C 0.3425 0.3800 
*I *17:g B *C 0.2025 1.2850 
*N *15:2 *C 0.2025 0.6850 
*N *15:3 *C 0.1450 0.6850 

*CAP
0 *17:g 4.86751e-17
1 *4:g 6.53726e-17
2 *15:2 3.35295e-17
3 *15:3 4.73446e-17
4 *15 2.97154e-17

*RES
0 *4:g *15:2 68.154297  // $poly_conn
1 *15:2 *15:3 48.400734  // $poly_conn
2 *15:2 *17:g 94.031898  // $poly_conn
3 *15 *15:3 0.120019  // $metal1_conn

*END

*D_NET *5 3.73531e-16

*CONN
*P *5 O *C 1.2750 0.6650 
*I *7:d B *C 0.7800 0.3800 
*I *8:d B *C 0.7800 0.3800 
*I *9:d B *C 1.2050 0.3800 
*I *11:d B *C 1.2050 0.3800 
*I *19:d B *C 0.7800 1.2850 
*I *1:d B *C 0.7800 1.2850 
*I *2:d B *C 1.2050 1.2850 
*I *3:d B *C 1.2050 1.2850 

*CAP
0 *2:d 1.72506e-16
1 *7:d 1.65841e-16
2 *5 3.51837e-17

*RES
0 *2:d *5 0.349146  // $metal1_conn
1 *5 *7:d 0.158677  // $metal1_conn

*END

*D_NET *12 0

*CONN
*I *4:s B *C 0.3950 0.3800 
*I *6:d B *C 0.3950 0.3800 


*RES
0 *6:d *4:s 0.001  // $mwires

*END

*D_NET *10 5.6901e-16

*CONN
*I *4:d B *C 0.2500 0.3800 
*I *7:g B *C 0.6775 0.3800 
*I *8:g B *C 0.8825 0.3800 
*I *9:g B *C 1.1025 0.3800 
*I *11:g B *C 1.3075 0.3800 
*I *17:d B *C 0.3250 1.2850 
*I *18:d B *C 0.3250 1.2850 
*I *19:g B *C 0.6775 1.2850 
*I *1:g B *C 0.8825 1.2850 
*I *2:g B *C 1.1025 1.2850 
*I *3:g B *C 1.3075 1.2850 
*N *10:14 *C 0.3050 0.6300 
*N *10:15 *C 0.3050 0.4500 

*CAP
0 *3:g 3.42562e-16
1 *17:d 8.15633e-17
2 *4:d 2.12127e-17
3 *10:15 1.09781e-17
4 *10:14 1.12694e-16

*RES
0 *3:g *10:14 0.372508  // $metal1_conn
1 *10:14 *17:d 21.159679  // $metal1_conn
2 *10:15 *4:d 75.148521  // $metal1_conn
3 *10:15 *4:d 75.032021  // $metal1_conn
4 *10:14 *10:15 0.131093  // $metal1_conn

*END

