*SPEF "IEEE 1481-1999"
*DESIGN  "AND2X8"
*DATE "Mon Sep 27 08:45:31 2010"
*VENDOR "Cadence Design Systems"
*PROGRAM "Assura RCX"
*VERSION "3.2 Red Hat Linux release 7.2 (Enigma) - (09/09/2009-10:39)"
*DESIGN_FLOW "Physical Verification"
*DIVIDER /
*DELIMITER :
*BUS_DELIMITER []
*T_UNIT 1 PS
*C_UNIT 1e15 FF
*R_UNIT 1 OHM
*L_UNIT 1 MH
// DeviceFingerDelim "@"
// MATCHED
// caps2d version: 10

*NAME_MAP
*1 VDD
*2 mn0
*3 mn1
*4 mn1\@1
*5 mn0\@1
*6 mn2
*7 VSS
*8 mp2\@5
*9 mn2\@1
*10 mp2\@6
*11 mn2\@2
*12 mn2\@3
*13 mn2\@4
*14 A
*15 B
*16 n0
*17 net69
*18 Y
*19 net69\@1
*20 mp0
*21 mp1
*22 mp1\@1
*23 mp0\@1
*24 mp2
*25 mp2\@1
*26 mp2\@2
*27 mp2\@3
*28 mp2\@4
*29 mn2\@5
*30 mn2\@6

*GROUND_NETS VSS

*PORTS
*1 I
*7 I
*14 I
*15 I
*18 O

*D_NET *1 5.52356e-16

*CONN
*P *1 I *C 0.1000 1.7100 
*I *20:s B *C 0.1200 1.2300 
*I *21:s B *C 0.5200 1.2300 
*I *22:s B *C 0.5200 1.2300 
*I *23:s B *C 0.9850 1.2025 
*I *24:s B *C 0.9850 1.2025 
*I *25:s B *C 1.3650 1.2025 
*I *26:s B *C 1.3650 1.2025 
*I *27:s B *C 1.7750 1.2025 
*I *28:s B *C 1.7750 1.2025 
*I *8:s B *C 2.1850 1.2025 
*I *10:s B *C 2.1850 1.2025 
*N *1:2 *C 2.0000 1.7100 

*CAP
0 *21:s 6.28016e-17
1 *1:2 1.35875e-16
2 *1 3.53679e-16

*RES
0 *1:2 *1 12.5  // $metal1_conn
1 *1:2 *1 10.714286  // $metal1_conn
2 *1 *21:s 31.273033  // $metal1_conn

*END

*D_NET *7 0

*CONN
*P *7 I *C 0.1000 0.0000 
*I *2:s B *C 0.2100 0.4400 
*I *5:s B *C 0.9100 0.4225 
*I *6:s B *C 0.9100 0.4225 
*I *9:s B *C 1.3100 0.4225 
*I *11:s B *C 1.3100 0.4225 
*I *12:s B *C 1.7200 0.4225 
*I *13:s B *C 1.7200 0.4225 
*I *29:s B *C 2.1300 0.4225 
*I *30:s B *C 2.1300 0.4225 
*N *7:2 *C 2.0000 0.0000 
*N *7:7 *C 0.7000 0.0000 
*N *7:8 *C 0.2000 0.0000 


*RES
0 *7:8 *7 0.049735  // $metal1_conn
1 *7:2 *29:s 10.333333  // $metal1_conn
2 *7:2 *7:7 8.857142  // $metal1_conn
3 *7:8 *2:s 37.769676  // $metal1_conn
4 *29:s *7:7 0.100167  // $metal1_conn
5 *7:7 *7:8 0.250713  // $metal1_conn

*END

*D_NET *14 4.85556e-16

*CONN
*P *14 I *C 0.1000 0.6900 
*I *2:g B *C 0.3025 0.4400 
*I *5:g B *C 0.7275 0.4400 
*I *20:g B *C 0.2125 1.2300 
*I *23:g B *C 0.8275 1.2300 

*CAP
0 *23:g 3.49635e-16
1 *5:g 6.18762e-17
2 *2:g 4.71907e-17
3 *14 2.68542e-17

*RES
0 *23:g *5:g 24.110537  // $poly_conn
1 *2:g *23:g 20.313141  // $poly_conn
2 *23:g *14 0.111815  // $metal1_conn

*END

*D_NET *15 3.27402e-16

*CONN
*P *15 I *C 0.5000 0.8550 
*I *3:g B *C 0.4175 0.4400 
*I *4:g B *C 0.6225 0.4400 
*I *21:g B *C 0.4175 1.2300 
*I *22:g B *C 0.6225 1.2300 
*N *15:8 *C 0.4950 0.8350 

*CAP
0 *22:g 1.30144e-16
1 *4:g 5.66275e-17
2 *3:g 5.23614e-17
3 *15 8.827e-17

*RES
0 *22:g *4:g 65.194031  // $poly_conn
1 *22:g *3:g 62.871178  // $poly_conn
2 *15:8 *15 0.003831  // $metal1_conn
3 *22:g *15:8 45  // $metal1_conn

*END

*D_NET *18 7.46776e-16

*CONN
*P *18 O *C 2.1000 0.8050 
*I *6:d B *C 1.1050 0.4225 
*I *9:d B *C 1.1050 0.4225 
*I *11:d B *C 1.5150 0.4225 
*I *12:d B *C 1.5150 0.4225 
*I *13:d B *C 1.9250 0.4225 
*I *29:d B *C 1.9250 0.4225 
*I *30:d B *C 2.3250 0.4225 
*I *24:d B *C 1.1600 1.2025 
*I *25:d B *C 1.1600 1.2025 
*I *26:d B *C 1.5700 1.2025 
*I *27:d B *C 1.5700 1.2025 
*I *28:d B *C 1.9800 1.2025 
*I *8:d B *C 1.9800 1.2025 
*I *10:d B *C 2.3800 1.2025 

*CAP
0 *10:d 3.5562e-16
1 *6:d 3.764e-16
2 *18 1.47566e-17

*RES
0 *10:d *18 0.1217  // $metal1_conn
1 *18 *6:d 0.090229  // $metal1_conn

*END

*D_NET *19 1.77389e-18

*CONN
*I *4:s B *C 0.6750 0.4400 
*I *5:d B *C 0.6750 0.4400 

*CAP
0 *4:s 1.77389e-18

*RES
0 *5:d *4:s 0.001  // $mwires

*END

*D_NET *17 0

*CONN
*I *2:d B *C 0.3600 0.4400 
*I *3:s B *C 0.3600 0.4400 


*RES
0 *3:s *2:d 0.001  // $mwires

*END

*D_NET *16 9.01941e-16

*CONN
*I *3:d B *C 0.5200 0.4400 
*I *4:d B *C 0.5200 0.4400 
*I *6:g B *C 1.0025 0.4225 
*I *9:g B *C 1.2075 0.4225 
*I *11:g B *C 1.4125 0.4225 
*I *12:g B *C 1.6175 0.4225 
*I *13:g B *C 1.8225 0.4225 
*I *29:g B *C 2.0275 0.4225 
*I *30:g B *C 2.2325 0.4225 
*I *20:d B *C 0.3150 1.2300 
*I *21:d B *C 0.3150 1.2300 
*I *22:d B *C 0.7250 1.2300 
*I *23:d B *C 0.7250 1.2300 
*I *24:g B *C 1.0575 1.2025 
*I *25:g B *C 1.2625 1.2025 
*I *26:g B *C 1.4675 1.2025 
*I *27:g B *C 1.6725 1.2025 
*I *28:g B *C 1.8775 1.2025 
*I *8:g B *C 2.0825 1.2025 
*I *10:g B *C 2.2875 1.2025 
*N *16:25 *C 0.9150 0.8000 

*CAP
0 *10:g 5.29324e-16
1 *22:d 2.07501e-16
2 *3:d 9.19775e-17
3 *16:25 7.31377e-17

*RES
0 *10:g *16:25 0.22373  // $metal1_conn
1 *16:25 *3:d 37.960609  // $metal1_conn
2 *16:25 *22:d 0.339604  // $metal1_conn

*END

