*SPEF "IEEE 1481-1999"
*DESIGN  "AND2X2"
*DATE "Mon Sep 27 08:44:22 2010"
*VENDOR "Cadence Design Systems"
*PROGRAM "Assura RCX"
*VERSION "3.2 Red Hat Linux release 7.2 (Enigma) - (09/09/2009-10:39)"
*DESIGN_FLOW "Physical Verification"
*DIVIDER /
*DELIMITER :
*BUS_DELIMITER []
*T_UNIT 1 PS
*C_UNIT 1e15 FF
*R_UNIT 1 OHM
*L_UNIT 1 MH
// DeviceFingerDelim "@"
// MATCHED
// caps2d version: 10

*NAME_MAP
*1 mp1
*2 mp0
*3 mp2
*4 mp2\@1
*5 VSS
*6 n0
*7 net73
*8 mn1
*9 mn0
*10 A
*11 VDD
*12 mn2
*13 Y
*14 B
*15 mn2\@1

*GROUND_NETS VSS

*PORTS
*11 I
*5 I
*10 I
*14 I
*13 O

*D_NET *11 1.7318e-16

*CONN
*P *11 I *C 0.1000 1.7100 
*I *1:s B *C 0.1250 1.5700 
*I *2:s B *C 0.5075 1.1450 
*I *3:s B *C 0.5075 1.1450 
*I *4:s B *C 0.8850 1.1450 
*N *11:2 *C 0.5000 1.7100 

*CAP
0 *4:s 8.06777e-17
1 *1:s 5.8856e-18
2 *11:2 8.11679e-17
3 *11 5.44858e-18

*RES
0 *11 *1:s 62.084064  // $metal1_conn
1 *4:s *11 0.200611  // $metal1_conn
2 *11:2 *4:s 15  // $metal1_conn

*END

*D_NET *5 0

*CONN
*P *5 I *C 0.1000 0.0000 
*I *9:s B *C 0.5400 0.4350 
*I *12:s B *C 0.5400 0.4350 
*I *15:s B *C 0.8850 0.4350 
*N *5:2 *C 0.5000 0.0000 


*RES
0 *15:s *5 0.200309  // $metal1_conn
1 *5:2 *15:s 12.4  // $metal1_conn

*END

*D_NET *10 2.80868e-16

*CONN
*P *10 I *C 0.4050 0.9050 
*I *9:g B *C 0.3675 0.4925 
*I *2:g B *C 0.3675 1.2325 
*N *10:2 *C 0.4050 0.7450 

*CAP
0 *2:g 5.95901e-17
1 *9:g 5.49868e-17
2 *10:2 1.22559e-16
3 *10 4.37329e-17

*RES
0 *2:g *10:2 86.551674  // $poly_conn
1 *10:2 *9:g 35.269619  // $poly_conn
2 *10 *10:2 45.101006  // $metal1_conn

*END

*D_NET *14 2.31056e-16

*CONN
*P *14 I *C 0.0950 0.9150 
*I *8:g B *C 0.2625 0.4925 
*I *1:g B *C 0.1625 1.2325 
*N *14:2 *C 0.1625 1.0150 
*N *14:3 *C 0.1050 1.0150 

*CAP
0 *1:g 2.98339e-17
1 *8:g 6.9744e-17
2 *14:2 4.56593e-17
3 *14:3 3.65822e-17
4 *14 4.9237e-17

*RES
0 *8:g *14:2 126.596138  // $poly_conn
1 *14:2 *14:3 48.026802  // $poly_conn
2 *14:2 *1:g 16.307936  // $poly_conn
3 *14 *14:3 0.059971  // $metal1_conn

*END

*D_NET *13 1.84371e-16

*CONN
*P *13 O *C 0.7300 0.7550 
*I *12:d B *C 0.6900 0.4350 
*I *15:d B *C 0.6900 0.4350 
*I *3:d B *C 0.6900 1.1450 
*I *4:d B *C 0.6900 1.1450 
*N *13:1 *C 0.6900 0.7675 

*CAP
0 *3:d 6.22954e-17
1 *12:d 6.18174e-17
2 *13:1 5.09575e-17
3 *13 9.30091e-18

*RES
0 *13 *13:1 0.005594  // $metal1_conn
1 *13:1 *3:d 20.941353  // $metal1_conn
2 *13:1 *12:d 37.763451  // $metal1_conn

*END

*D_NET *7 1.40724e-18

*CONN
*I *8:s B *C 0.3150 0.4925 
*I *9:d B *C 0.3150 0.4925 

*CAP
0 *8:s 1.40724e-18

*RES
0 *9:d *8:s 0.001  // $mwires

*END

*D_NET *6 4.08929e-16

*CONN
*I *8:d B *C 0.1700 0.4925 
*I *12:g B *C 0.5875 0.4350 
*I *15:g B *C 0.7925 0.4350 
*I *1:d B *C 0.2650 1.2325 
*I *2:d B *C 0.2650 1.2325 
*I *3:g B *C 0.5875 1.1450 
*I *4:g B *C 0.7925 1.1450 
*N *6:7 *C 0.2650 0.5550 

*CAP
0 *4:g 2.3737e-16
1 *1:d 7.46762e-17
2 *8:d 1.74658e-17
3 *6:7 7.9417e-17

*RES
0 *6:7 *8:d 75.07473  // $metal1_conn
1 *6:7 *1:d 62.487144  // $metal1_conn
2 *4:g *6:7 45.362221  // $metal1_conn

*END

