*SPEF "IEEE 1481-1999"
*DESIGN  "AND3X8"
*DATE "Mon Sep 27 08:47:47 2010"
*VENDOR "Cadence Design Systems"
*PROGRAM "Assura RCX"
*VERSION "3.2 Red Hat Linux release 7.2 (Enigma) - (09/09/2009-10:39)"
*DESIGN_FLOW "Physical Verification"
*DIVIDER /
*DELIMITER :
*BUS_DELIMITER []
*T_UNIT 1 PS
*C_UNIT 1e15 FF
*R_UNIT 1 OHM
*L_UNIT 1 MH
// DeviceFingerDelim "@"
// MATCHED
// caps2d version: 10

*NAME_MAP
*1 A
*2 B
*3 net95
*4 C
*5 net107
*6 net107\@1
*7 mn3
*8 mn3\@1
*9 mn3\@2
*10 mp3
*11 mn3\@3
*12 mp3\@1
*13 mn3\@4
*14 mp3\@2
*15 mn3\@5
*16 mp3\@3
*17 mn0
*18 mp3\@4
*19 mn1
*20 mp3\@5
*21 mn2
*22 mp3\@6
*23 mp0
*24 mp1
*25 mp2
*26 Y
*27 mp2\@1
*28 mp1\@1
*29 mp0\@1
*30 VDD
*31 mn2\@1
*32 mn1\@1
*33 mn0\@1
*34 mn3\@6
*35 net107\@2
*36 net107\@3
*37 VSS

*GROUND_NETS VSS

*PORTS
*30 I
*37 I
*1 I
*2 I
*4 I
*26 O

*D_NET *30 5.38953e-16

*CONN
*P *30 I *C 0.1000 1.7100 
*I *10:s B *C 1.8550 1.1525 
*I *12:s B *C 1.8550 1.1525 
*I *14:s B *C 2.2650 1.1525 
*I *16:s B *C 2.2650 1.1525 
*I *18:s B *C 2.6750 1.1525 
*I *20:s B *C 2.6750 1.1525 
*I *22:s B *C 1.4750 1.1525 
*I *23:s B *C 0.2250 1.1800 
*I *24:s B *C 0.6250 1.1800 
*I *25:s B *C 0.6250 1.1800 
*I *27:s B *C 1.0350 1.1800 
*I *28:s B *C 1.0350 1.1800 
*I *29:s B *C 1.4750 1.1525 
*N *30:2 *C 2.3000 1.7100 

*CAP
0 *18:s 4.07981e-16
1 *30:2 1.30973e-16

*RES
0 *18:s *30 0.057224  // $metal1_conn
1 *30:2 *18:s 10.714286  // $metal1_conn
2 *30:2 *18:s 9.375  // $metal1_conn

*END

*D_NET *37 0

*CONN
*P *37 I *C 0.1000 0.0000 
*I *7:s B *C 1.8550 0.5125 
*I *8:s B *C 1.8550 0.5125 
*I *9:s B *C 2.2650 0.5125 
*I *11:s B *C 2.2650 0.5125 
*I *13:s B *C 2.6750 0.5125 
*I *15:s B *C 2.6750 0.5125 
*I *17:s B *C 0.4150 0.4350 
*I *33:s B *C 1.5000 0.5125 
*I *34:s B *C 1.5000 0.5125 
*N *37:2 *C 2.3000 0.0000 
*N *37:6 *C 0.8000 0.0000 
*N *37:7 *C 0.3750 0.0000 


*RES
0 *37:7 *37 0.137461  // $metal1_conn
1 *37:2 *13:s 8.857142  // $metal1_conn
2 *37:2 *37:6 7.75  // $metal1_conn
3 *37:7 *17:s 75.221092  // $metal1_conn
4 *13:s *37:6 0.307266  // $metal1_conn
5 *37:6 *37:7 0.212934  // $metal1_conn

*END

*D_NET *1 5.64068e-16

*CONN
*P *1 I *C 0.3000 0.6650 
*I *17:g B *C 0.5075 0.4350 
*I *33:g B *C 1.2725 0.4350 
*I *23:g B *C 0.3175 1.1800 
*I *29:g B *C 1.3425 1.1800 

*CAP
0 *33:g 5.05408e-17
1 *17:g 6.80641e-17
2 *1 4.45464e-16

*RES
0 *1 *33:g 19.516291  // $poly_conn
1 *17:g *1 65.369408  // $poly_conn

*END

*D_NET *2 5.05028e-16

*CONN
*P *2 I *C 1.1000 0.8550 
*I *19:g B *C 0.6125 0.4350 
*I *32:g B *C 1.1375 0.4350 
*I *24:g B *C 0.5225 1.1800 
*I *28:g B *C 1.1375 1.1800 

*CAP
0 *28:g 3.56724e-16
1 *32:g 5.82388e-17
2 *19:g 6.67658e-17
3 *2 2.32998e-17

*RES
0 *28:g *32:g 29.94836  // $poly_conn
1 *19:g *28:g 22.256054  // $poly_conn
2 *2 *28:g 0.087422  // $metal1_conn

*END

*D_NET *4 2.87388e-16

*CONN
*P *4 I *C 0.7000 0.8550 
*I *21:g B *C 0.7725 0.4350 
*I *31:g B *C 0.9775 0.4350 
*I *25:g B *C 0.7275 1.1800 
*I *27:g B *C 0.9325 1.1800 
*N *4:2 *C 0.8000 0.7825 
*N *4:7 *C 0.8000 0.8450 

*CAP
0 *27:g 1.24316e-16
1 *31:g 4.73229e-17
2 *21:g 4.1151e-17
3 *4:2 3.69697e-17
4 *4 3.76277e-17

*RES
0 *31:g *4:2 85.596397  // $poly_conn
1 *4:2 *21:g 52.521122  // $poly_conn
2 *4:2 *27:g 3.815496  // $poly_conn
3 *4 *4:7 0.033753  // $metal1_conn
4 *27:g *4:7 45  // $metal1_conn

*END

*D_NET *26 5.68391e-16

*CONN
*P *26 O *C 2.7000 0.6650 
*I *7:d B *C 1.6500 0.5125 
*I *8:d B *C 2.0600 0.5125 
*I *9:d B *C 2.0600 0.5125 
*I *11:d B *C 2.4700 0.5125 
*I *13:d B *C 2.4700 0.5125 
*I *15:d B *C 2.8700 0.5125 
*I *34:d B *C 1.6500 0.5125 
*I *10:d B *C 1.6500 1.1525 
*I *12:d B *C 2.0600 1.1525 
*I *14:d B *C 2.0600 1.1525 
*I *16:d B *C 2.4700 1.1525 
*I *18:d B *C 2.4700 1.1525 
*I *20:d B *C 2.8700 1.1525 
*I *22:d B *C 1.6500 1.1525 

*CAP
0 *20:d 3.60744e-16
1 *7:d 1.94638e-16
2 *26 1.30093e-17

*RES
0 *20:d *26 0.187223  // $metal1_conn
1 *26 *7:d 0.013626  // $metal1_conn

*END

*D_NET *36 4.63574e-18

*CONN
*I *32:s B *C 1.2050 0.4350 
*I *33:d B *C 1.2050 0.4350 

*CAP
0 *32:s 4.63574e-18

*RES
0 *33:d *32:s 0.001  // $mwires

*END

*D_NET *35 4.81629e-18

*CONN
*I *31:s B *C 1.0575 0.4350 
*I *32:d B *C 1.0575 0.4350 

*CAP
0 *31:s 4.81629e-18

*RES
0 *32:d *31:s 0.001  // $mwires

*END

*D_NET *6 3.20535e-18

*CONN
*I *19:s B *C 0.6925 0.4350 
*I *21:s B *C 0.6925 0.4350 

*CAP
0 *19:s 3.20535e-18

*RES
0 *21:s *19:s 0.001  // $mwires

*END

*D_NET *5 1.67223e-18

*CONN
*I *17:d B *C 0.5600 0.4350 
*I *19:d B *C 0.5600 0.4350 

*CAP
0 *17:d 1.67223e-18

*RES
0 *19:d *17:d 0.001  // $mwires

*END

*D_NET *3 9.18291e-16

*CONN
*I *7:g B *C 1.7525 0.5125 
*I *8:g B *C 1.9575 0.5125 
*I *9:g B *C 2.1625 0.5125 
*I *11:g B *C 2.3675 0.5125 
*I *13:g B *C 2.5725 0.5125 
*I *15:g B *C 2.7775 0.5125 
*I *21:d B *C 0.8750 0.4350 
*I *31:d B *C 0.8750 0.4350 
*I *34:g B *C 1.5475 0.5125 
*I *10:g B *C 1.7525 1.1525 
*I *12:g B *C 1.9575 1.1525 
*I *14:g B *C 2.1625 1.1525 
*I *16:g B *C 2.3675 1.1525 
*I *18:g B *C 2.5725 1.1525 
*I *20:g B *C 2.7775 1.1525 
*I *22:g B *C 1.5475 1.1525 
*I *23:d B *C 0.4200 1.1800 
*I *24:d B *C 0.4200 1.1800 
*I *25:d B *C 0.8300 1.1800 
*I *27:d B *C 0.8300 1.1800 
*I *28:d B *C 1.2400 1.1800 
*I *29:d B *C 1.2400 1.1800 
*N *3:24 *C 1.4600 0.7750 

*CAP
0 *28:d 2.20842e-16
1 *25:d 3.43263e-17
2 *20:g 4.57464e-16
3 *21:d 1.053e-16
4 *3:24 1.00359e-16

*RES
0 *20:g *3:24 0.229779  // $metal1_conn
1 *3:24 *21:d 75.712868  // $metal1_conn
2 *28:d *25:d 31.05945  // $metal1_conn
3 *3:24 *28:d 0.358761  // $metal1_conn

*END

