*SPEF "IEEE 1481-1999"
*DESIGN  "AND3X2"
*DATE "Mon Sep 27 08:46:39 2010"
*VENDOR "Cadence Design Systems"
*PROGRAM "Assura RCX"
*VERSION "3.2 Red Hat Linux release 7.2 (Enigma) - (09/09/2009-10:39)"
*DESIGN_FLOW "Physical Verification"
*DIVIDER /
*DELIMITER :
*BUS_DELIMITER []
*T_UNIT 1 PS
*C_UNIT 1e15 FF
*R_UNIT 1 OHM
*L_UNIT 1 MH
// DeviceFingerDelim "@"
// MATCHED
// caps2d version: 10

*NAME_MAP
*1 mp3
*2 mp3\@1
*3 mn2
*4 Y
*5 mn1
*6 mn0
*7 mn3
*8 mn3\@1
*9 net95
*10 A
*11 VDD
*12 net111
*13 B
*14 net103
*15 C
*16 VSS
*17 mp2
*18 mp1
*19 mp0

*GROUND_NETS VSS

*PORTS
*11 I
*16 I
*10 I
*13 I
*15 I
*4 O

*D_NET *11 2.70269e-16

*CONN
*P *11 I *C 0.1000 1.7100 
*I *17:s B *C 0.4700 1.3125 
*I *18:s B *C 0.4700 1.3125 
*I *19:s B *C 1.1150 1.2250 
*I *1:s B *C 1.1150 1.2250 
*I *2:s B *C 1.4850 1.2250 
*N *11:3 *C 0.8000 1.7100 
*N *11:4 *C 0.8000 1.7100 
*N *11:5 *C 0.4700 1.7100 

*CAP
0 *2:s 9.94068e-17
1 *17:s 2.77594e-17
2 *11:5 1.09806e-17
3 *11:3 1.22305e-16
4 *11 9.81708e-18

*RES
0 *11:5 *11 0.184424  // $metal1_conn
1 *11:3 *11:4 9.375  // $metal1_conn
2 *11:5 *17:s 62.212341  // $metal1_conn
3 *2:s *11:4 0.122218  // $metal1_conn
4 *11:4 *11:5 0.164688  // $metal1_conn

*END

*D_NET *16 0

*CONN
*P *16 I *C 0.1000 0.0000 
*I *6:s B *C 1.0000 0.4700 
*I *7:s B *C 1.0000 0.4700 
*I *8:s B *C 1.3700 0.4700 
*N *16:3 *C 0.8000 0.0000 
*N *16:4 *C 0.8000 0.0000 


*RES
0 *16:4 *16 0.349503  // $metal1_conn
1 *16:3 *16:4 7.75  // $metal1_conn
2 *8:s *16:4 0.084745  // $metal1_conn

*END

*D_NET *10 2.40885e-16

*CONN
*P *10 I *C 0.9000 1.0450 
*I *6:g B *C 0.8375 0.4125 
*I *19:g B *C 0.8375 1.3125 
*N *10:2 *C 0.8650 1.0650 

*CAP
0 *19:g 3.02707e-17
1 *6:g 6.78126e-17
2 *10:2 9.67655e-17
3 *10 4.60365e-17

*RES
0 *19:g *10:2 27.384262  // $poly_conn
1 *10:2 *6:g 140.204773  // $poly_conn
2 *10 *10:2 45.005062  // $metal1_conn

*END

*D_NET *13 2.62999e-16

*CONN
*P *13 I *C 0.3000 0.6650 
*I *5:g B *C 0.5725 0.4125 
*I *18:g B *C 0.5725 1.3125 
*N *13:2 *C 0.5450 0.6200 

*CAP
0 *18:g 5.99416e-17
1 *5:g 3.38526e-17
2 *13:2 1.13168e-16
3 *13 5.60367e-17

*RES
0 *18:g *13:2 141.486816  // $poly_conn
1 *13:2 *5:g 26.102209  // $poly_conn
2 *13 *13:2 45.165535  // $metal1_conn

*END

*D_NET *15 2.24417e-16

*CONN
*P *15 I *C 0.1000 0.8550 
*I *3:g B *C 0.4125 0.4125 
*I *17:g B *C 0.3675 1.3125 
*N *15:2 *C 0.3675 0.8500 
*N *15:3 *C 0.1300 0.8500 

*CAP
0 *17:g 4.08754e-17
1 *3:g 4.90662e-17
2 *15:2 5.04525e-17
3 *15:3 1.40032e-17
4 *15 7.00192e-17

*RES
0 *3:g *15:2 90.698708  // $poly_conn
1 *15:2 *15:3 63.706627  // $poly_conn
2 *15:2 *17:g 79.128448  // $poly_conn
3 *15:3 *15 0.003952  // $metal1_conn

*END

*D_NET *4 1.31768e-16

*CONN
*P *4 O *C 1.3000 0.6650 
*I *7:d B *C 1.1750 0.4700 
*I *8:d B *C 1.1750 0.4700 
*I *1:d B *C 1.2900 1.2250 
*I *2:d B *C 1.2900 1.2250 

*CAP
0 *1:d 7.47939e-17
1 *7:d 2.08634e-17
2 *4 3.61104e-17

*RES
0 *1:d *4 21.054188  // $metal1_conn
1 *4 *7:d 75.153893  // $metal1_conn

*END

*D_NET *14 5.31986e-18

*CONN
*I *5:s B *C 0.7050 0.4125 
*I *6:d B *C 0.7050 0.4125 

*CAP
0 *5:s 5.31986e-18

*RES
0 *6:d *5:s 0.001  // $mwires

*END

*D_NET *12 3.00783e-18

*CONN
*I *3:s B *C 0.4925 0.4125 
*I *5:d B *C 0.4925 0.4125 

*CAP
0 *3:s 3.00783e-18

*RES
0 *5:d *3:s 0.001  // $mwires

*END

*D_NET *9 4.42552e-16

*CONN
*I *3:d B *C 0.3200 0.4125 
*I *7:g B *C 1.0725 0.4700 
*I *8:g B *C 1.2775 0.4700 
*I *17:d B *C 0.2750 1.3125 
*I *18:d B *C 0.7050 1.3125 
*I *19:d B *C 0.7050 1.3125 
*I *1:g B *C 1.1875 1.2250 
*I *2:g B *C 1.3925 1.2250 
*N *9:5 *C 0.9850 0.7000 
*N *9:9 *C 0.7050 0.7000 
*N *9:10 *C 0.7050 1.1700 

*CAP
0 *2:g 1.39745e-16
1 *18:d 2.57806e-17
2 *17:d 3.71259e-17
3 *3:d 6.25765e-17
4 *9:10 5.33529e-17
5 *9:9 7.44783e-17
6 *9:5 4.9493e-17

*RES
0 *2:g *9:5 51.496479  // $poly_conn
1 *9:5 *9:9 0.172211  // $metal1_conn
2 *9:10 *18:d 62.078117  // $metal1_conn
3 *9:10 *17:d 62.317444  // $metal1_conn
4 *9:9 *3:d 75.47171  // $metal1_conn
5 *9:9 *9:10 0.339185  // $metal1_conn

*END

