*SPEF "IEEE 1481-1999"
*DESIGN  "AND3X4"
*DATE "Mon Sep 27 08:47:01 2010"
*VENDOR "Cadence Design Systems"
*PROGRAM "Assura RCX"
*VERSION "3.2 Red Hat Linux release 7.2 (Enigma) - (09/09/2009-10:39)"
*DESIGN_FLOW "Physical Verification"
*DIVIDER /
*DELIMITER :
*BUS_DELIMITER []
*T_UNIT 1 PS
*C_UNIT 1e15 FF
*R_UNIT 1 OHM
*L_UNIT 1 MH
// DeviceFingerDelim "@"
// MATCHED
// caps2d version: 10

*NAME_MAP
*1 net111
*2 mp2
*3 net107
*4 mp1
*5 mp0
*6 mn2
*7 mp3
*8 mn1
*9 VSS
*10 mp3\@1
*11 mn0
*12 mp3\@2
*13 mn3
*14 mp3\@3
*15 mn3\@1
*16 mn3\@2
*17 mn3\@3
*18 Y
*19 A
*20 B
*21 C
*22 VDD
*23 net95

*GROUND_NETS VSS

*PORTS
*22 I
*9 I
*19 I
*20 I
*21 I
*18 O

*D_NET *22 3.39484e-16

*CONN
*P *22 I *C 0.1000 1.7100 
*I *2:s B *C 0.3650 1.2750 
*I *4:s B *C 0.3650 1.2750 
*I *5:s B *C 0.8300 1.2750 
*I *7:s B *C 0.8300 1.2750 
*I *10:s B *C 1.2750 1.2750 
*I *12:s B *C 1.2750 1.2750 
*I *14:s B *C 1.6750 1.2750 
*N *22:3 *C 0.9000 1.7100 
*N *22:6 *C 0.3650 1.7100 

*CAP
0 *14:s 1.64328e-16
1 *2:s 3.49968e-17
2 *22:6 1.27227e-17
3 *22:3 1.15869e-16
4 *22 1.15679e-17

*RES
0 *22:6 *22 0.13249  // $metal1_conn
1 *22:3 *14:s 8.333333  // $metal1_conn
2 *22:6 *2:s 62.191948  // $metal1_conn
3 *14:s *22:6 0.215317  // $metal1_conn

*END

*D_NET *9 0

*CONN
*P *9 I *C 0.1000 0.0000 
*I *11:s B *C 0.7500 0.5300 
*I *13:s B *C 0.7500 0.5300 
*I *15:s B *C 1.1675 0.5300 
*I *16:s B *C 1.1675 0.5300 
*I *17:s B *C 1.6175 0.5300 
*N *9:3 *C 0.9000 0.0000 


*RES
0 *17:s *9 0.325626  // $metal1_conn
1 *9:3 *17:s 6.888889  // $metal1_conn

*END

*D_NET *19 2.23463e-16

*CONN
*P *19 I *C 0.9000 1.0450 
*I *11:g B *C 0.6475 0.5300 
*I *5:g B *C 0.6925 1.2750 
*N *19:2 *C 0.7300 0.9700 

*CAP
0 *5:g 3.49138e-17
1 *11:g 5.65982e-17
2 *19:2 7.29437e-17
3 *19 5.90071e-17

*RES
0 *5:g *19:2 18.719322  // $poly_conn
1 *19:2 *11:g 69.711807  // $poly_conn
2 *19:2 *19 45.09296  // $metal1_conn

*END

*D_NET *20 2.66608e-16

*CONN
*P *20 I *C 0.3000 0.6650 
*I *8:g B *C 0.3825 0.5300 
*I *4:g B *C 0.4675 1.2750 
*N *20:2 *C 0.4100 0.7700 

*CAP
0 *4:g 5.79355e-17
1 *8:g 5.41842e-17
2 *20:2 1.24161e-16
3 *20 3.03274e-17

*RES
0 *4:g *20:2 71.961029  // $poly_conn
1 *20:2 *8:g 17.398676  // $poly_conn
2 *20:2 *20 45.087879  // $metal1_conn

*END

*D_NET *21 2.24827e-16

*CONN
*P *21 I *C 0.1000 0.6650 
*I *6:g B *C 0.2775 0.5300 
*I *2:g B *C 0.2625 1.2750 
*N *21:2 *C 0.2700 0.7950 
*N *21:3 *C 0.1100 0.7950 

*CAP
0 *2:g 4.48526e-17
1 *6:g 5.08174e-17
2 *21:2 3.25436e-17
3 *21:3 6.22981e-17
4 *21 3.43154e-17

*RES
0 *6:g *21:2 33.63467  // $poly_conn
1 *21:2 *21:3 56.77816  // $poly_conn
2 *21:2 *2:g 72.096207  // $poly_conn
3 *21 *21:3 0.080978  // $metal1_conn

*END

*D_NET *18 3.51024e-16

*CONN
*P *18 O *C 1.7000 0.8550 
*I *13:d B *C 0.9550 0.5300 
*I *15:d B *C 0.9550 0.5300 
*I *16:d B *C 1.3875 0.5300 
*I *17:d B *C 1.3875 0.5300 
*I *7:d B *C 1.0700 1.2750 
*I *10:d B *C 1.0700 1.2750 
*I *12:d B *C 1.4800 1.2750 
*I *14:d B *C 1.4800 1.2750 
*N *18:1 *C 1.4950 0.8550 

*CAP
0 *12:d 1.71754e-16
1 *13:d 1.18464e-16
2 *18:1 3.00095e-17
3 *18 3.07976e-17

*RES
0 *18 *18:1 0.084923  // $metal1_conn
1 *18:1 *13:d 0.232842  // $metal1_conn
2 *18:1 *12:d 0.191622  // $metal1_conn

*END

*D_NET *3 9.72147e-18

*CONN
*I *8:s B *C 0.5150 0.5300 
*I *11:d B *C 0.5150 0.5300 

*CAP
0 *8:s 9.72147e-18

*RES
0 *11:d *8:s 0.001  // $mwires

*END

*D_NET *1 2.10049e-18

*CONN
*I *6:s B *C 0.3300 0.5300 
*I *8:d B *C 0.3300 0.5300 

*CAP
0 *6:s 2.10049e-18

*RES
0 *8:d *6:s 0.001  // $mwires

*END

*D_NET *23 6.07737e-16

*CONN
*I *6:d B *C 0.1850 0.5300 
*I *13:g B *C 0.8525 0.5300 
*I *15:g B *C 1.0575 0.5300 
*I *16:g B *C 1.2775 0.5300 
*I *17:g B *C 1.4975 0.5300 
*I *2:d B *C 0.1700 1.2750 
*I *4:d B *C 0.5800 1.2750 
*I *5:d B *C 0.5800 1.2750 
*I *7:g B *C 0.9675 1.2750 
*I *10:g B *C 1.1725 1.2750 
*I *12:g B *C 1.3775 1.2750 
*I *14:g B *C 1.5825 1.2750 
*N *23:16 *C 0.5700 0.7800 
*N *23:17 *C 0.5700 1.2200 

*CAP
0 *14:g 3.17452e-16
1 *4:d 2.97334e-17
2 *2:d 4.11455e-17
3 *6:d 5.06312e-17
4 *23:17 5.09945e-17
5 *23:16 1.17781e-16

*RES
0 *14:g *23:16 0.376697  // $metal1_conn
1 *23:17 *4:d 31.084436  // $metal1_conn
2 *23:17 *2:d 31.335695  // $metal1_conn
3 *23:16 *6:d 75.516701  // $metal1_conn
4 *23:16 *23:17 0.34049  // $metal1_conn

*END

