*SPEF "IEEE 1481-1999"
*DESIGN  "AND4XL"
*DATE "Mon Sep 27 08:50:28 2010"
*VENDOR "Cadence Design Systems"
*PROGRAM "Assura RCX"
*VERSION "3.2 Red Hat Linux release 7.2 (Enigma) - (09/09/2009-10:39)"
*DESIGN_FLOW "Physical Verification"
*DIVIDER /
*DELIMITER :
*BUS_DELIMITER []
*T_UNIT 1 PS
*C_UNIT 1e15 FF
*R_UNIT 1 OHM
*L_UNIT 1 MH
// DeviceFingerDelim "@"
// MATCHED
// caps2d version: 10

*NAME_MAP
*1 mp0
*2 mp4
*3 mn3
*4 Y
*5 mn2
*6 mn1
*7 mn0
*8 mn4
*9 net128
*10 A
*11 VDD
*12 net100
*13 net136
*14 B
*15 net124
*16 C
*17 D
*18 VSS
*19 mp3
*20 mp2
*21 mp1

*GROUND_NETS VSS

*PORTS
*11 I
*18 I
*10 I
*14 I
*16 I
*17 I
*4 O

*D_NET *11 1.93173e-16

*CONN
*P *11 I *C 0.1000 1.7100 
*I *19:s B *C 0.1850 1.2325 
*I *20:s B *C 0.6300 1.2325 
*I *21:s B *C 0.6300 1.2325 
*I *1:s B *C 1.1500 1.2325 
*I *2:s B *C 1.1500 1.2325 
*N *11:2 *C 0.7000 1.7100 
*N *11:3 *C 0.7000 1.7100 
*N *11:4 *C 0.5450 1.7100 
*N *11:5 *C 0.1750 1.7100 

*CAP
0 *1:s 2.79963e-17
1 *20:s 1.02419e-17
2 *19:s 1.8405e-17
3 *11:5 7.59545e-18
4 *11:4 5.81573e-18
5 *11:2 1.23119e-16

*RES
0 *1:s *11:3 62.283092  // $metal1_conn
1 *11:3 *11:4 0.077521  // $metal1_conn
2 *11:4 *11:5 0.185126  // $metal1_conn
3 *11:5 *11 0.037151  // $metal1_conn
4 *11:4 *20:s 62.074516  // $metal1_conn
5 *11:5 *19:s 62.267761  // $metal1_conn
6 *11:2 *11:3 10.714286  // $metal1_conn

*END

*D_NET *18 0

*CONN
*P *18 I *C 0.1000 0.0000 
*I *7:s B *C 1.0000 0.3325 
*I *8:s B *C 1.0000 0.3325 
*N *18:2 *C 0.7000 0.0000 
*N *18:3 *C 0.7000 0.0000 


*RES
0 *7:s *18:3 75.376884  // $metal1_conn
1 *18:3 *18 0.300589  // $metal1_conn
2 *18:2 *18:3 8.857142  // $metal1_conn

*END

*D_NET *10 2.72308e-16

*CONN
*P *10 I *C 1.1000 1.2350 
*I *7:g B *C 0.8975 0.3325 
*I *1:g B *C 0.9325 1.2325 
*N *10:1 *C 1.0300 0.9200 
*N *10:2 *C 0.9325 0.9200 

*CAP
0 *1:g 3.44289e-17
1 *7:g 6.542e-17
2 *10:2 3.8043e-17
3 *10:1 6.85338e-17
4 *10 6.58826e-17

*RES
0 *10:1 *10:2 49.177555  // $poly_conn
1 *10:2 *7:g 129.322235  // $poly_conn
2 *10:2 *1:g 45.893711  // $poly_conn
3 *10 *10:1 0.195424  // $metal1_conn

*END

*D_NET *14 2.99576e-16

*CONN
*P *14 I *C 0.7000 0.8550 
*I *6:g B *C 0.6775 0.3325 
*I *21:g B *C 0.6775 1.2325 
*N *14:2 *C 0.6950 0.7000 

*CAP
0 *21:g 5.60352e-17
1 *6:g 4.30293e-17
2 *14:2 1.08608e-16
3 *14 9.19031e-17

*RES
0 *21:g *14:2 98.090134  // $poly_conn
1 *14:2 *6:g 64.756798  // $poly_conn
2 *14 *14:2 45.09013  // $metal1_conn

*END

*D_NET *16 3.43441e-16

*CONN
*P *16 I *C 0.5000 0.8550 
*I *5:g B *C 0.4825 0.3325 
*I *20:g B *C 0.4825 1.2325 
*N *16:2 *C 0.5100 0.7000 

*CAP
0 *20:g 5.9925e-17
1 *5:g 6.41045e-17
2 *16:2 1.2262e-16
3 *16 9.67907e-17

*RES
0 *20:g *16:2 100.461182  // $poly_conn
1 *16:2 *5:g 67.127846  // $poly_conn
2 *16 *16:2 45.09013  // $metal1_conn

*END

*D_NET *17 2.54517e-16

*CONN
*P *17 I *C 0.3000 0.8550 
*I *3:g B *C 0.3775 0.3325 
*I *19:g B *C 0.2775 1.2325 
*N *17:2 *C 0.2800 0.6700 
*N *17:4 *C 0.2800 0.6700 
*N *17:5 *C 0.2900 0.6700 
*N *17:6 *C 0.2900 0.8550 

*CAP
0 *19:g 4.22742e-17
1 *3:g 5.28498e-17
2 *17:2 9.37734e-17
3 *17 6.56199e-17

*RES
0 *3:g *17:2 67.93351  // $poly_conn
1 *17:2 *19:g 104.815918  // $poly_conn
2 *17:4 *17:5 0.001403  // $metal1_conn
3 *17:6 *17 0.001473  // $metal1_conn
4 *17:5 *17:6 0.09293  // $metal1_conn
5 *17:2 *17:4 45  // $metal1_conn

*END

*D_NET *4 1.3637e-16

*CONN
*P *4 O *C 1.3000 0.4750 
*I *8:d B *C 1.1950 0.3325 
*I *2:d B *C 1.2900 1.2325 

*CAP
0 *2:d 5.66844e-17
1 *8:d 3.28307e-17
2 *4 4.68551e-17

*RES
0 *2:d *4 62.45575  // $metal1_conn
1 *4 *8:d 75.121056  // $metal1_conn

*END

*D_NET *13 0

*CONN
*I *3:s B *C 0.4300 0.3325 
*I *5:d B *C 0.4300 0.3325 


*RES
0 *5:d *3:s 0.001  // $mwires

*END

*D_NET *9 0

*CONN
*I *5:s B *C 0.5800 0.3325 
*I *6:d B *C 0.5800 0.3325 


*RES
0 *6:d *5:s 0.001  // $mwires

*END

*D_NET *15 0

*CONN
*I *6:s B *C 0.7875 0.3325 
*I *7:d B *C 0.7875 0.3325 


*RES
0 *7:d *6:s 0.001  // $mwires

*END

*D_NET *12 5.04142e-16

*CONN
*I *3:d B *C 0.2850 0.3325 
*I *8:g B *C 1.1025 0.3325 
*I *19:d B *C 0.3800 1.2325 
*I *20:d B *C 0.3800 1.2325 
*I *21:d B *C 0.8050 1.2325 
*I *1:d B *C 0.8050 1.2325 
*I *2:g B *C 1.1975 1.2325 
*N *12:2 *C 1.1300 0.5400 
*N *12:6 *C 0.7800 1.2800 
*N *12:7 *C 0.8700 0.5100 

*CAP
0 *2:g 5.38885e-17
1 *21:d 1.06179e-16
2 *19:d 5.12208e-17
3 *8:g 2.81798e-17
4 *3:d 6.77477e-17
5 *12:7 1.09849e-16
6 *12:2 8.70771e-17

*RES
0 *2:g *12:2 143.765366  // $poly_conn
1 *12:2 *8:g 22.940296  // $poly_conn
2 *19:d *12:6 62.274384  // $metal1_conn
3 *12:6 *12:7 0.601004  // $metal1_conn
4 *12:7 *3:d 75.503426  // $metal1_conn
5 *12:7 *12:2 45.182251  // $metal1_conn
6 *21:d *12:6 62  // $metal1_conn

*END

