*SPEF "IEEE 1481-1999"
*DESIGN  "AND4X1"
*DATE "Mon Sep 27 08:48:32 2010"
*VENDOR "Cadence Design Systems"
*PROGRAM "Assura RCX"
*VERSION "3.2 Red Hat Linux release 7.2 (Enigma) - (09/09/2009-10:39)"
*DESIGN_FLOW "Physical Verification"
*DIVIDER /
*DELIMITER :
*BUS_DELIMITER []
*T_UNIT 1 PS
*C_UNIT 1e15 FF
*R_UNIT 1 OHM
*L_UNIT 1 MH
// DeviceFingerDelim "@"
// MATCHED
// caps2d version: 10

*NAME_MAP
*1 mp0
*2 mp4
*3 mn3
*4 Y
*5 mn2
*6 mn1
*7 mn0
*8 mn4
*9 net128
*10 A
*11 VDD
*12 net116
*13 net124
*14 B
*15 net132
*16 C
*17 D
*18 VSS
*19 mp3
*20 mp2
*21 mp1

*GROUND_NETS VSS

*PORTS
*11 I
*18 I
*10 I
*14 I
*16 I
*17 I
*4 O

*D_NET *11 1.97619e-16

*CONN
*P *11 I *C 0.1000 1.7100 
*I *19:s B *C 0.1100 1.2375 
*I *20:s B *C 0.6250 1.2375 
*I *21:s B *C 0.6250 1.2375 
*I *1:s B *C 1.0100 1.1500 
*I *2:s B *C 1.0100 1.1500 
*N *11:2 *C 0.7000 1.7100 
*N *11:3 *C 0.7000 1.7100 
*N *11:4 *C 0.5400 1.7100 

*CAP
0 *1:s 3.885e-17
1 *20:s 2.12981e-17
2 *19:s 1.79026e-17
3 *11:4 7.13232e-18
4 *11:2 1.05588e-16
5 *11 6.84713e-18

*RES
0 *1:s *11:3 62.439819  // $metal1_conn
1 *11:3 *11:4 0.079881  // $metal1_conn
2 *11:4 *11 0.220067  // $metal1_conn
3 *11 *19:s 62.272045  // $metal1_conn
4 *11:4 *20:s 62.1567  // $metal1_conn
5 *11:2 *11:3 10.714286  // $metal1_conn

*END

*D_NET *18 0

*CONN
*P *18 I *C 0.1000 0.0000 
*I *7:s B *C 0.9900 0.4000 
*I *8:s B *C 0.9900 0.4000 
*N *18:2 *C 0.7000 0.0000 
*N *18:3 *C 0.7000 0.0000 


*RES
0 *7:s *18:3 75.371445  // $metal1_conn
1 *18:3 *18 0.300038  // $metal1_conn
2 *18:2 *18:3 8.857142  // $metal1_conn

*END

*D_NET *10 2.3721e-16

*CONN
*P *10 I *C 0.8600 0.7400 
*I *7:g B *C 0.8225 0.4575 
*I *1:g B *C 0.8775 1.2375 
*N *10:2 *C 0.8500 0.7100 
*N *10:4 *C 0.8500 0.7100 
*N *10:5 *C 0.8550 0.7100 
*N *10:6 *C 0.8550 0.7400 

*CAP
0 *1:g 5.66252e-17
1 *7:g 4.4583e-17
2 *10:2 8.97058e-17
3 *10 4.6296e-17

*RES
0 *1:g *10:2 99.179131  // $poly_conn
1 *10:2 *7:g 37.640671  // $poly_conn
2 *10:4 *10:5 0.001026  // $metal1_conn
3 *10:6 *10 0.001129  // $metal1_conn
4 *10:5 *10:6 0.01684  // $metal1_conn
5 *10:2 *10:4 45  // $metal1_conn

*END

*D_NET *14 2.61756e-16

*CONN
*P *14 I *C 0.5500 0.8950 
*I *6:g B *C 0.6725 0.4575 
*I *21:g B *C 0.6725 1.2375 
*N *14:2 *C 0.6725 0.6650 
*N *14:3 *C 0.5600 0.6650 

*CAP
0 *21:g 5.79529e-17
1 *6:g 3.56561e-17
2 *14:2 3.86624e-17
3 *14:3 8.34951e-17
4 *14 4.59898e-17

*RES
0 *21:g *14:2 116.476082  // $poly_conn
1 *14:2 *14:3 51.54969  // $poly_conn
2 *14:2 *6:g 31.860699  // $poly_conn
3 *14 *14:3 0.152772  // $metal1_conn

*END

*D_NET *16 2.46389e-16

*CONN
*P *16 I *C 0.3700 1.0500 
*I *5:g B *C 0.4075 0.4575 
*I *20:g B *C 0.4075 1.2375 
*N *16:2 *C 0.3800 0.6600 

*CAP
0 *20:g 5.45108e-17
1 *5:g 3.35171e-17
2 *16:2 1.2085e-16
3 *16 3.75105e-17

*RES
0 *20:g *16:2 111.999641  // $poly_conn
1 *16:2 *5:g 24.820156  // $poly_conn
2 *16 *16:2 45.233143  // $metal1_conn

*END

*D_NET *17 1.9667e-16

*CONN
*P *17 I *C 0.1100 0.6000 
*I *3:g B *C 0.2475 0.4575 
*I *19:g B *C 0.2025 1.2375 
*N *17:2 *C 0.1600 0.6650 

*CAP
0 *19:g 4.63614e-17
1 *3:g 3.08131e-17
2 *17:2 1.00856e-16
3 *17 1.86395e-17

*RES
0 *3:g *17:2 29.850044  // $poly_conn
1 *17:2 *19:g 108.424309  // $poly_conn
2 *17 *17:2 45.022804  // $metal1_conn

*END

*D_NET *4 1.15003e-16

*CONN
*P *4 O *C 1.1750 1.2050 
*I *8:d B *C 1.1750 0.4000 
*I *2:d B *C 1.1750 1.1500 
*N *4:2 *C 1.1850 1.1500 

*CAP
0 *2:d 5.0235e-17
1 *8:d 6.47683e-17

*RES
0 *4 *4:2 0.043008  // $metal1_conn
1 *4:2 *8:d 37.997898  // $metal1_conn
2 *2:d *4:2 20.666666  // $metal1_conn

*END

*D_NET *13 2.75199e-18

*CONN
*I *6:s B *C 0.7475 0.4575 
*I *7:d B *C 0.7475 0.4575 

*CAP
0 *6:s 2.75199e-18

*RES
0 *7:d *6:s 0.001  // $mwires

*END

*D_NET *9 7.34284e-18

*CONN
*I *5:s B *C 0.5400 0.4575 
*I *6:d B *C 0.5400 0.4575 

*CAP
0 *5:s 7.34284e-18

*RES
0 *6:d *5:s 0.001  // $mwires

*END

*D_NET *15 4.36151e-18

*CONN
*I *3:s B *C 0.3275 0.4575 
*I *5:d B *C 0.3275 0.4575 

*CAP
0 *3:s 4.36151e-18

*RES
0 *5:d *3:s 0.001  // $mwires

*END

*D_NET *12 5.02616e-16

*CONN
*I *3:d B *C 0.1550 0.4575 
*I *8:g B *C 1.0825 0.4000 
*I *19:d B *C 0.3050 1.2375 
*I *20:d B *C 0.3050 1.2375 
*I *21:d B *C 0.7750 1.2375 
*I *1:d B *C 0.7750 1.2375 
*I *2:g B *C 1.0825 1.1500 
*N *12:2 *C 1.0825 0.6300 
*N *12:3 *C 1.0300 0.6300 
*N *12:5 *C 0.6800 0.5200 
*N *12:7 *C 0.6800 1.2550 

*CAP
0 *2:g 5.59131e-17
1 *21:d 2.02334e-17
2 *19:d 3.56802e-17
3 *8:g 3.4485e-17
4 *3:d 5.79542e-17
5 *12:7 7.05758e-17
6 *12:5 1.26374e-16
7 *12:3 1.014e-16

*RES
0 *2:g *12:2 80.578644  // $poly_conn
1 *12:2 *12:3 45.294373  // $poly_conn
2 *12:2 *8:g 22.886339  // $poly_conn
3 *12:3 *12:5 0.306341  // $metal1_conn
4 *12:5 *3:d 75.420761  // $metal1_conn
5 *12:5 *12:7 0.50471  // $metal1_conn
6 *12:7 *19:d 62.266251  // $metal1_conn
7 *12:7 *21:d 62.067379  // $metal1_conn

*END

