*SPEF "IEEE 1481-1999"
*DESIGN  "AND4X4"
*DATE "Mon Sep 27 08:49:18 2010"
*VENDOR "Cadence Design Systems"
*PROGRAM "Assura RCX"
*VERSION "3.2 Red Hat Linux release 7.2 (Enigma) - (09/09/2009-10:39)"
*DESIGN_FLOW "Physical Verification"
*DIVIDER /
*DELIMITER :
*BUS_DELIMITER []
*T_UNIT 1 PS
*C_UNIT 1e15 FF
*R_UNIT 1 OHM
*L_UNIT 1 MH
// DeviceFingerDelim "@"
// MATCHED
// caps2d version: 10

*NAME_MAP
*1 mp2
*2 mn4\@3
*3 mp1
*4 mp0
*5 VDD
*6 mp4
*7 net124
*8 mp4\@1
*9 net120
*10 mp4\@2
*11 mp4\@3
*12 Y
*13 net100
*14 net132
*15 A
*16 B
*17 C
*18 VSS
*19 D
*20 mn3
*21 mn2
*22 mn1
*23 mn0
*24 mn4
*25 mn4\@1
*26 mp3
*27 mn4\@2

*GROUND_NETS VSS

*PORTS
*5 I
*18 I
*15 I
*16 I
*17 I
*19 I
*12 O

*D_NET *5 3.94987e-16

*CONN
*P *5 I *C 0.1000 1.7100 
*I *26:s B *C 0.2600 1.2850 
*I *1:s B *C 0.6600 1.2850 
*I *3:s B *C 0.6600 1.2850 
*I *4:s B *C 1.1050 1.2850 
*I *6:s B *C 1.1050 1.2850 
*I *8:s B *C 1.5250 1.2850 
*I *10:s B *C 1.5250 1.2850 
*I *11:s B *C 1.9250 1.2850 
*N *5:3 *C 1.1000 1.7100 
*N *5:5 *C 0.6600 1.7100 
*N *5:6 *C 0.2500 1.7100 

*CAP
0 *11:s 1.6017e-16
1 *1:s 5.05208e-17
2 *26:s 4.86882e-17
3 *5:6 7.29591e-18
4 *5:5 1.68503e-17
5 *5:3 1.11461e-16

*RES
0 *5:6 *5 0.074776  // $metal1_conn
1 *5:3 *11:s 6.818182  // $metal1_conn
2 *5:5 *1:s 62.226437  // $metal1_conn
3 *5:6 *26:s 20.94593  // $metal1_conn
4 *11:s *5:5 0.220456  // $metal1_conn
5 *5:5 *5:6 0.205216  // $metal1_conn

*END

*D_NET *18 0

*CONN
*P *18 I *C 0.1000 0.0000 
*I *23:s B *C 1.0300 0.4400 
*I *24:s B *C 1.0300 0.4400 
*I *25:s B *C 1.4475 0.4400 
*I *27:s B *C 1.4475 0.4400 
*I *2:s B *C 1.8975 0.4400 
*N *18:3 *C 1.1000 0.0000 


*RES
0 *2:s *18 0.465932  // $metal1_conn
1 *18:3 *2:s 5.636364  // $metal1_conn

*END

*D_NET *15 2.47828e-16

*CONN
*P *15 I *C 1.1000 1.0450 
*I *23:g B *C 0.9275 0.4400 
*I *4:g B *C 0.9925 1.2850 
*N *15:2 *C 1.0300 0.8800 

*CAP
0 *4:g 4.36694e-17
1 *23:g 6.55262e-17
2 *15:2 7.0264e-17
3 *15 6.8368e-17

*RES
0 *4:g *15:2 44.360348  // $poly_conn
1 *15:2 *23:g 74.840012  // $poly_conn
2 *15 *15:2 45.113621  // $metal1_conn

*END

*D_NET *16 2.93522e-16

*CONN
*P *16 I *C 0.7000 0.6650 
*I *22:g B *C 0.7625 0.4400 
*I *3:g B *C 0.7625 1.2850 
*N *16:2 *C 0.7625 0.7100 
*N *16:3 *C 0.7100 0.7100 

*CAP
0 *3:g 5.89424e-17
1 *22:g 4.34399e-17
2 *16:3 1.33268e-16
3 *16 5.78713e-17

*RES
0 *3:g *16:2 94.124863  // $poly_conn
1 *16:2 *16:3 45.361767  // $poly_conn
2 *16:2 *22:g 32.586399  // $poly_conn
3 *16 *16:3 0.028012  // $metal1_conn

*END

*D_NET *17 2.92471e-16

*CONN
*P *17 I *C 0.5000 0.6650 
*I *21:g B *C 0.5575 0.4400 
*I *1:g B *C 0.5575 1.2850 
*N *17:2 *C 0.5300 0.6800 
*N *17:4 *C 0.5300 0.6800 

*CAP
0 *1:g 6.65483e-17
1 *21:g 4.31522e-17
2 *17:2 5.90436e-17
3 *17 1.23727e-16

*RES
0 *1:g *17:2 96.615021  // $poly_conn
1 *17:2 *21:g 19.691952  // $poly_conn
2 *17 *17:4 0.003974  // $metal1_conn
3 *17:2 *17:4 45  // $metal1_conn

*END

*D_NET *19 2.23246e-16

*CONN
*P *19 I *C 0.3000 0.6650 
*I *20:g B *C 0.3975 0.4400 
*I *26:g B *C 0.3525 1.2850 
*N *19:2 *C 0.3300 0.6700 
*N *19:4 *C 0.3300 0.6700 

*CAP
0 *26:g 4.97655e-17
1 *20:g 3.36327e-17
2 *19:2 4.25472e-17
3 *19 9.73002e-17

*RES
0 *20:g *19:2 21.156593  // $poly_conn
1 *19:2 *26:g 98.206505  // $poly_conn
2 *19 *19:4 0.003974  // $metal1_conn
3 *19:2 *19:4 45  // $metal1_conn

*END

*D_NET *12 3.63883e-16

*CONN
*P *12 O *C 1.9000 0.6650 
*I *24:d B *C 1.2350 0.4400 
*I *25:d B *C 1.2350 0.4400 
*I *27:d B *C 1.6675 0.4400 
*I *2:d B *C 1.6675 0.4400 
*I *6:d B *C 1.3200 1.2850 
*I *8:d B *C 1.3200 1.2850 
*I *10:d B *C 1.7300 1.2850 
*I *11:d B *C 1.7300 1.2850 
*N *12:1 *C 1.7750 0.6650 

*CAP
0 *10:d 1.84589e-16
1 *24:d 1.18814e-16
2 *12:1 3.3132e-17
3 *12 2.73473e-17

*RES
0 *12 *12:1 0.046212  // $metal1_conn
1 *12:1 *24:d 0.162484  // $metal1_conn
2 *12:1 *10:d 0.31188  // $metal1_conn

*END

*D_NET *9 6.37031e-18

*CONN
*I *22:s B *C 0.8450 0.4400 
*I *23:d B *C 0.8450 0.4400 

*CAP
0 *22:s 6.37031e-18

*RES
0 *23:d *22:s 0.001  // $mwires

*END

*D_NET *7 8.52723e-18

*CONN
*I *21:s B *C 0.6600 0.4400 
*I *22:d B *C 0.6600 0.4400 

*CAP
0 *21:s 8.52723e-18

*RES
0 *22:d *21:s 0.001  // $mwires

*END

*D_NET *14 4.11805e-18

*CONN
*I *20:s B *C 0.4775 0.4400 
*I *21:d B *C 0.4775 0.4400 

*CAP
0 *20:s 4.11805e-18

*RES
0 *21:d *20:s 0.001  // $mwires

*END

*D_NET *13 7.33556e-16

*CONN
*I *20:d B *C 0.3050 0.4400 
*I *24:g B *C 1.1325 0.4400 
*I *25:g B *C 1.3375 0.4400 
*I *27:g B *C 1.5575 0.4400 
*I *2:g B *C 1.7775 0.4400 
*I *26:d B *C 0.4550 1.2850 
*I *1:d B *C 0.4550 1.2850 
*I *3:d B *C 0.8775 1.2850 
*I *4:d B *C 0.8775 1.2850 
*I *6:g B *C 1.2175 1.2850 
*I *8:g B *C 1.4225 1.2850 
*I *10:g B *C 1.6275 1.2850 
*I *11:g B *C 1.8325 1.2850 
*N *13:14 *C 0.8700 0.6900 
*N *13:16 *C 0.8700 1.1300 

*CAP
0 *11:g 3.34839e-16
1 *3:d 4.19122e-17
2 *26:d 7.88963e-17
3 *20:d 7.75827e-17
4 *13:16 7.37183e-17
5 *13:14 1.26607e-16

*RES
0 *11:g *13:14 0.35369  // $metal1_conn
1 *13:16 *3:d 20.785322  // $metal1_conn
2 *13:16 *26:d 21.062578  // $metal1_conn
3 *13:14 *20:d 75.640167  // $metal1_conn
4 *13:14 *13:16 0.357502  // $metal1_conn

*END

