*SPEF "IEEE 1481-1999"
*DESIGN  "AND4X2"
*DATE "Mon Sep 27 08:48:55 2010"
*VENDOR "Cadence Design Systems"
*PROGRAM "Assura RCX"
*VERSION "3.2 Red Hat Linux release 7.2 (Enigma) - (09/09/2009-10:39)"
*DESIGN_FLOW "Physical Verification"
*DIVIDER /
*DELIMITER :
*BUS_DELIMITER []
*T_UNIT 1 PS
*C_UNIT 1e15 FF
*R_UNIT 1 OHM
*L_UNIT 1 MH
// DeviceFingerDelim "@"
// MATCHED
// caps2d version: 10

*NAME_MAP
*1 net124
*2 mp3
*3 net120
*4 mp2
*5 A
*6 mp1
*7 B
*8 mp0
*9 C
*10 mp4
*11 D
*12 mp4\@1
*13 VDD
*14 net100
*15 mn3
*16 net132
*17 mn2
*18 mn1
*19 mn0
*20 mn4
*21 mn4\@1
*22 Y
*23 VSS

*GROUND_NETS VSS

*PORTS
*13 I
*23 I
*5 I
*7 I
*9 I
*11 I
*22 O

*D_NET *13 2.21006e-16

*CONN
*P *13 I *C 0.1000 1.7100 
*I *2:s B *C 0.2350 1.5700 
*I *4:s B *C 0.6400 1.5700 
*I *6:s B *C 0.6400 1.5700 
*I *8:s B *C 1.1600 1.1400 
*I *10:s B *C 1.1600 1.1400 
*I *12:s B *C 1.5550 1.1400 
*N *13:3 *C 0.9000 1.7100 
*N *13:4 *C 0.9000 1.7100 
*N *13:5 *C 0.6150 1.7100 
*N *13:6 *C 0.2100 1.7100 

*CAP
0 *12:s 8.10116e-17
1 *4:s 1.0765e-17
2 *2:s 4.34191e-18
3 *13:6 6.21813e-18
4 *13:5 9.49168e-18
5 *13:3 1.05044e-16
6 *13 4.13286e-18

*RES
0 *13:6 *13 0.054716  // $metal1_conn
1 *13:3 *13:4 8.333333  // $metal1_conn
2 *13:5 *4:s 62.074623  // $metal1_conn
3 *13:6 *2:s 62.074623  // $metal1_conn
4 *12:s *13:4 0.100101  // $metal1_conn
5 *13:4 *13:5 0.142727  // $metal1_conn
6 *13:5 *13:6 0.202708  // $metal1_conn

*END

*D_NET *23 0

*CONN
*P *23 I *C 0.1000 0.0000 
*I *19:s B *C 1.1400 0.4250 
*I *20:s B *C 1.1400 0.4250 
*I *21:s B *C 1.5550 0.4250 
*N *23:3 *C 0.9000 0.0000 
*N *23:4 *C 0.9000 0.0000 


*RES
0 *23:4 *23 0.400936  // $metal1_conn
1 *23:3 *23:4 6.888889  // $metal1_conn
2 *21:s *23:4 0.115145  // $metal1_conn

*END

*D_NET *5 2.20007e-16

*CONN
*P *5 I *C 1.1000 0.8550 
*I *19:g B *C 0.9975 0.4825 
*I *8:g B *C 0.9975 1.2275 
*N *5:2 *C 1.0300 0.8350 

*CAP
0 *8:g 3.93431e-17
1 *19:g 3.94244e-17
2 *5:2 1.00079e-16
3 *5 4.1161e-17

*RES
0 *8:g *5:2 62.27047  // $poly_conn
1 *5:2 *19:g 60.988419  // $poly_conn
2 *5 *5:2 45.022346  // $metal1_conn

*END

*D_NET *7 2.5031e-16

*CONN
*P *7 I *C 0.7000 0.6650 
*I *18:g B *C 0.6775 0.4825 
*I *6:g B *C 0.6775 1.2275 
*N *7:2 *C 0.7050 0.6650 

*CAP
0 *6:g 5.48867e-17
1 *18:g 2.75092e-17
2 *7:2 4.45131e-17
3 *7 1.23401e-16

*RES
0 *6:g *7:2 108.153488  // $poly_conn
1 *7:2 *18:g 19.691952  // $poly_conn
2 *7 *7:2 45  // $metal1_conn

*END

*D_NET *9 2.81548e-16

*CONN
*P *9 I *C 0.5000 1.0450 
*I *17:g B *C 0.4825 0.4825 
*I *4:g B *C 0.4825 1.2275 
*N *9:2 *C 0.5100 0.6700 

*CAP
0 *4:g 6.19322e-17
1 *17:g 4.67625e-17
2 *9:2 1.17357e-16
3 *9 5.5497e-17

*RES
0 *4:g *9:2 106.871437  // $poly_conn
1 *9:2 *17:g 20.974003  // $poly_conn
2 *9 *9:2 45.225037  // $metal1_conn

*END

*D_NET *11 2.32895e-16

*CONN
*P *11 I *C 0.1000 0.6650 
*I *15:g B *C 0.3775 0.4825 
*I *2:g B *C 0.2725 1.2275 
*N *11:2 *C 0.3000 0.6900 
*N *11:4 *C 0.3000 0.6900 

*CAP
0 *2:g 4.29692e-17
1 *15:g 4.32377e-17
2 *11:2 1.11926e-16
3 *11 3.47624e-17

*RES
0 *15:g *11:2 29.471972  // $poly_conn
1 *11:2 *2:g 98.581322  // $poly_conn
2 *11 *11:4 0.034589  // $metal1_conn
3 *11:2 *11:4 45  // $metal1_conn

*END

*D_NET *22 1.89416e-16

*CONN
*P *22 O *C 1.5000 0.6650 
*I *20:d B *C 1.3350 0.4250 
*I *21:d B *C 1.3350 0.4250 
*I *10:d B *C 1.3350 1.1400 
*I *12:d B *C 1.3350 1.1400 
*N *22:1 *C 1.4300 0.6650 

*CAP
0 *10:d 6.03443e-17
1 *20:d 4.91404e-17
2 *22:1 7.99313e-17

*RES
0 *22 *22:1 0.019594  // $metal1_conn
1 *22:1 *10:d 21.063824  // $metal1_conn
2 *22:1 *20:d 75.25753  // $metal1_conn

*END

*D_NET *3 8.81927e-18

*CONN
*I *18:s B *C 0.8375 0.4825 
*I *19:d B *C 0.8375 0.4825 

*CAP
0 *18:s 8.81927e-18

*RES
0 *19:d *18:s 0.001  // $mwires

*END

*D_NET *1 6.01635e-18

*CONN
*I *17:s B *C 0.5800 0.4825 
*I *18:d B *C 0.5800 0.4825 

*CAP
0 *17:s 6.01635e-18

*RES
0 *18:d *17:s 0.001  // $mwires

*END

*D_NET *16 2.92448e-18

*CONN
*I *15:s B *C 0.4300 0.4825 
*I *17:d B *C 0.4300 0.4825 

*CAP
0 *15:s 2.92448e-18

*RES
0 *17:d *15:s 0.001  // $mwires

*END

*D_NET *14 5.15792e-16

*CONN
*I *15:d B *C 0.2850 0.4825 
*I *20:g B *C 1.2325 0.4250 
*I *21:g B *C 1.4375 0.4250 
*I *2:d B *C 0.3775 1.2275 
*I *4:d B *C 0.3775 1.2275 
*I *6:d B *C 0.8375 1.2275 
*I *8:d B *C 0.8375 1.2275 
*I *10:g B *C 1.2325 1.1400 
*I *12:g B *C 1.4375 1.1400 
*N *14:7 *C 0.8700 0.5450 
*N *14:10 *C 0.7800 1.2700 

*CAP
0 *12:g 2.13462e-16
1 *6:d 9.26504e-17
2 *2:d 3.48751e-17
3 *15:d 4.92011e-17
4 *14:7 1.25604e-16

*RES
0 *6:d *14:10 62  // $metal1_conn
1 *14:10 *2:d 62.275108  // $metal1_conn
2 *14:7 *15:d 75.470741  // $metal1_conn
3 *12:g *14:7 45.341209  // $metal1_conn
4 *14:7 *14:10 0.558266  // $metal1_conn

*END

