*SPEF "IEEE 1481-1999"
*DESIGN  "AO21XL"
*DATE "Mon Sep 27 08:52:19 2010"
*VENDOR "Cadence Design Systems"
*PROGRAM "Assura RCX"
*VERSION "3.2 Red Hat Linux release 7.2 (Enigma) - (09/09/2009-10:39)"
*DESIGN_FLOW "Physical Verification"
*DIVIDER /
*DELIMITER :
*BUS_DELIMITER []
*T_UNIT 1 PS
*C_UNIT 1e15 FF
*R_UNIT 1 OHM
*L_UNIT 1 MH
// DeviceFingerDelim "@"
// MATCHED
// caps2d version: 10

*NAME_MAP
*1 A0
*2 A1
*3 mp0
*4 mp1
*5 mp2
*6 mp3
*7 VSS
*8 n2
*9 n0
*10 n1
*11 mn0
*12 mn1
*13 VDD
*14 mn2
*15 Y
*16 B0
*17 mn3

*GROUND_NETS VSS

*PORTS
*13 I
*7 I
*1 I
*2 I
*16 I
*15 O

*D_NET *13 2.00171e-16

*CONN
*P *13 I *C 0.1000 1.7100 
*I *3:s B *C 0.3500 1.3725 
*I *4:s B *C 0.3500 1.3725 
*I *6:s B *C 1.0950 1.3450 
*N *13:2 *C 0.7000 1.7100 
*N *13:3 *C 0.7000 1.7100 
*N *13:4 *C 0.3500 1.7100 

*CAP
0 *6:s 3.14012e-17
1 *3:s 2.08066e-17
2 *13:4 1.10007e-17
3 *13:2 1.26371e-16
4 *13 1.05912e-17

*RES
0 *6:s *13:3 62.435234  // $metal1_conn
1 *13:3 *13:4 0.174972  // $metal1_conn
2 *13:4 *13 0.124674  // $metal1_conn
3 *13:4 *3:s 62.173241  // $metal1_conn
4 *13:2 *13:3 10.714286  // $metal1_conn

*END

*D_NET *7 0

*CONN
*P *7 I *C 0.1000 0.0000 
*I *11:s B *C 0.2550 0.4525 
*I *14:s B *C 0.8600 0.4525 
*I *17:s B *C 0.8600 0.4525 
*N *7:2 *C 0.2450 0.0000 
*N *7:3 *C 0.7000 0.0000 
*N *7:4 *C 0.7000 0.0000 


*RES
0 *11:s *7:2 75.272705  // $metal1_conn
1 *7:2 *7 0.071713  // $metal1_conn
2 *7:2 *7:4 0.227112  // $metal1_conn
3 *7:4 *14:s 75.362885  // $metal1_conn
4 *7:3 *7:4 8.857142  // $metal1_conn

*END

*D_NET *1 2.53493e-16

*CONN
*P *1 I *C 0.1000 0.8550 
*I *11:g B *C 0.3475 0.4525 
*I *3:g B *C 0.2475 1.3725 
*N *1:2 *C 0.2475 0.8875 
*N *1:3 *C 0.1300 0.8500 

*CAP
0 *3:g 4.56928e-17
1 *11:g 6.28822e-17
2 *1:2 4.94251e-17
3 *1:3 1.26871e-17
4 *1 8.28059e-17

*RES
0 *11:g *1:2 111.523727  // $poly_conn
1 *1:2 *1:3 64.490395  // $poly_conn
2 *1:2 *3:g 92.095352  // $poly_conn
3 *1:3 *1 0.003958  // $metal1_conn

*END

*D_NET *2 3.00676e-16

*CONN
*P *2 I *C 0.3000 0.8550 
*I *12:g B *C 0.4525 0.4525 
*I *4:g B *C 0.4525 1.3725 
*N *2:2 *C 0.4900 0.6600 

*CAP
0 *4:g 6.59769e-17
1 *12:g 4.4171e-17
2 *2:2 1.22054e-16
3 *2 6.84741e-17

*RES
0 *4:g *2:2 145.642395  // $poly_conn
1 *2:2 *12:g 25.129578  // $poly_conn
2 *2:2 *2 45.18906  // $metal1_conn

*END

*D_NET *16 2.58266e-16

*CONN
*P *16 I *C 0.7000 1.0450 
*I *14:g B *C 0.7525 0.4525 
*I *5:g B *C 0.6575 1.3725 
*N *16:2 *C 0.6800 0.7600 

*CAP
0 *5:g 4.50408e-17
1 *14:g 3.50643e-17
2 *16:2 1.19884e-16
3 *16 5.82766e-17

*RES
0 *14:g *16:2 56.271976  // $poly_conn
1 *16:2 *5:g 120.001373  // $poly_conn
2 *16 *16:2 45.164883  // $metal1_conn

*END

*D_NET *15 9.4714e-17

*CONN
*P *15 O *C 1.1000 0.6650 
*I *17:d B *C 1.0700 0.4525 
*I *6:d B *C 1.2250 1.0075 

*CAP
0 *6:d 3.54659e-17
1 *17:d 2.39616e-17
2 *15 3.52864e-17

*RES
0 *6:d *15 62.236652  // $metal1_conn
1 *15 *17:d 75.11956  // $metal1_conn

*END

*D_NET *10 0

*CONN
*I *11:d B *C 0.4000 0.4525 
*I *12:s B *C 0.4000 0.4525 


*RES
0 *12:s *11:d 0.001  // $mwires

*END

*D_NET *9 3.10704e-16

*CONN
*I *12:d B *C 0.6025 0.4525 
*I *14:d B *C 0.6025 0.4525 
*I *17:g B *C 0.9675 0.4525 
*I *5:d B *C 0.8050 1.3725 
*I *6:g B *C 1.1325 1.0075 
*N *9:2 *C 0.9300 0.6300 
*N *9:5 *C 0.8700 0.6300 

*CAP
0 *6:g 3.29082e-17
1 *5:d 6.48759e-17
2 *17:g 2.37655e-17
3 *12:d 5.18716e-17
4 *9:5 1.05921e-16
5 *9:2 3.13618e-17

*RES
0 *6:g *9:2 97.138641  // $poly_conn
1 *9:2 *17:g 17.437269  // $poly_conn
2 *5:d *9:5 62.462681  // $metal1_conn
3 *9:5 *12:d 75.254906  // $metal1_conn
4 *9:5 *9:2 45.032089  // $metal1_conn

*END

*D_NET *8 1.09544e-16

*CONN
*I *3:d B *C 0.1550 1.3725 
*I *4:d B *C 0.5550 1.3725 
*I *5:s B *C 0.5550 1.3725 

*CAP
0 *4:d 5.37078e-17
1 *3:d 5.58366e-17

*RES
0 *3:d *4:d 124.303658  // $metal1_conn

*END

