*SPEF "IEEE 1481-1999"
*DESIGN  "AO21X1"
*DATE "Mon Sep 27 08:51:11 2010"
*VENDOR "Cadence Design Systems"
*PROGRAM "Assura RCX"
*VERSION "3.2 Red Hat Linux release 7.2 (Enigma) - (09/09/2009-10:39)"
*DESIGN_FLOW "Physical Verification"
*DIVIDER /
*DELIMITER :
*BUS_DELIMITER []
*T_UNIT 1 PS
*C_UNIT 1e15 FF
*R_UNIT 1 OHM
*L_UNIT 1 MH
// DeviceFingerDelim "@"
// MATCHED
// caps2d version: 10

*NAME_MAP
*1 A0
*2 A1
*3 mp0
*4 mp1
*5 mp2
*6 mp3
*7 VSS
*8 net96
*9 net049
*10 net104
*11 mn0
*12 mn1
*13 VDD
*14 mn2
*15 Y
*16 B0
*17 mn3

*GROUND_NETS VSS

*PORTS
*13 I
*7 I
*1 I
*2 I
*16 I
*15 O

*D_NET *13 1.74192e-16

*CONN
*P *13 I *C 0.1000 1.7100 
*I *3:s B *C 0.3450 1.1375 
*I *4:s B *C 0.3450 1.1375 
*I *6:s B *C 1.0150 1.1800 
*N *13:2 *C 0.7000 1.7100 
*N *13:3 *C 0.7000 1.7100 
*N *13:4 *C 0.3400 1.7100 

*CAP
0 *6:s 2.52862e-17
1 *3:s 3.74134e-17
2 *13:4 5.3999e-18
3 *13:2 1.0136e-16
4 *13 4.73253e-18

*RES
0 *6:s *13:3 62.413891  // $metal1_conn
1 *13:3 *13:4 0.17923  // $metal1_conn
2 *13:4 *13 0.119173  // $metal1_conn
3 *13:4 *3:s 62.326794  // $metal1_conn
4 *13:2 *13:3 10.714286  // $metal1_conn

*END

*D_NET *7 0

*CONN
*P *7 I *C 0.1000 0.0000 
*I *11:s B *C 0.2250 0.4725 
*I *14:s B *C 0.9025 0.5300 
*I *17:s B *C 0.9025 0.5300 
*N *7:2 *C 0.7000 0.0000 
*N *7:3 *C 0.7000 0.0000 
*N *7:4 *C 0.2150 0.0000 


*RES
0 *14:s *7:3 75.408058  // $metal1_conn
1 *7:3 *7:4 0.241531  // $metal1_conn
2 *7:4 *7 0.056872  // $metal1_conn
3 *7:4 *11:s 75.283722  // $metal1_conn
4 *7:2 *7:3 8.857142  // $metal1_conn

*END

*D_NET *1 1.8066e-16

*CONN
*P *1 I *C 0.3000 0.6750 
*I *11:g B *C 0.3175 0.4725 
*I *3:g B *C 0.2375 1.1375 
*N *1:2 *C 0.2900 0.8650 

*CAP
0 *3:g 3.04628e-17
1 *11:g 4.2415e-17
2 *1:2 8.46616e-17
3 *1 2.31201e-17

*RES
0 *11:g *1:2 71.244827  // $poly_conn
1 *1:2 *3:g 35.008934  // $poly_conn
2 *1 *1:2 45.11322  // $metal1_conn

*END

*D_NET *2 2.35911e-16

*CONN
*P *2 I *C 0.5000 0.5150 
*I *12:g B *C 0.4525 0.4725 
*I *4:g B *C 0.4525 1.1375 
*N *2:2 *C 0.4900 0.8300 

*CAP
0 *4:g 3.93458e-17
1 *12:g 4.59296e-17
2 *2:2 1.03272e-16
3 *2 4.73632e-17

*RES
0 *4:g *2:2 41.796242  // $poly_conn
1 *2:2 *12:g 63.591114  // $poly_conn
2 *2 *2:2 45.18771  // $metal1_conn

*END

*D_NET *16 2.01806e-16

*CONN
*P *16 I *C 0.7000 0.8350 
*I *14:g B *C 0.7725 0.4725 
*I *5:g B *C 0.6825 1.1375 
*N *16:2 *C 0.7100 0.8300 
*N *16:4 *C 0.7100 0.8300 

*CAP
0 *5:g 3.1756e-17
1 *14:g 3.79641e-17
2 *16:2 5.18783e-17
3 *16 8.02074e-17

*RES
0 *14:g *16:2 65.967445  // $poly_conn
1 *16:2 *5:g 40.475597  // $poly_conn
2 *16:4 *16 0.002724  // $metal1_conn
3 *16:2 *16:4 45  // $metal1_conn

*END

*D_NET *15 1.12459e-16

*CONN
*P *15 O *C 1.2000 1.0150 
*I *17:d B *C 1.0700 0.5300 
*I *6:d B *C 1.1800 1.1800 

*CAP
0 *6:d 2.74687e-17
1 *17:d 6.0867e-17
2 *15 2.41232e-17

*RES
0 *6:d *15 20.768116  // $metal1_conn
1 *15 *17:d 37.887699  // $metal1_conn

*END

*D_NET *10 0

*CONN
*I *11:d B *C 0.3850 0.4725 
*I *12:s B *C 0.3850 0.4725 


*RES
0 *12:s *11:d 0.001  // $mwires

*END

*D_NET *9 3.00098e-16

*CONN
*I *12:d B *C 0.6125 0.4725 
*I *14:d B *C 0.6125 0.4725 
*I *17:g B *C 0.9775 0.5300 
*I *5:d B *C 0.8250 1.1225 
*I *6:g B *C 1.0875 1.1800 
*N *9:2 *C 0.9300 0.7600 
*N *9:4 *C 0.8700 0.7600 

*CAP
0 *6:g 3.85143e-17
1 *5:d 4.41822e-17
2 *17:g 3.56385e-17
3 *12:d 7.10201e-17
4 *9:4 7.79304e-17
5 *9:2 3.28126e-17

*RES
0 *6:g *9:2 72.497612  // $poly_conn
1 *9:2 *17:g 16.15522  // $poly_conn
2 *9:2 *9:4 45.014992  // $metal1_conn
3 *9:4 *12:d 75.333481  // $metal1_conn
4 *9:4 *5:d 62.311493  // $metal1_conn

*END

*D_NET *8 1.16089e-16

*CONN
*I *3:d B *C 0.1450 1.1375 
*I *4:d B *C 0.5675 1.1375 
*I *5:s B *C 0.5675 1.1375 

*CAP
0 *4:d 6.04735e-17
1 *3:d 5.56152e-17

*RES
0 *4:d *3:d 124.348511  // $metal1_conn

*END

