*SPEF "IEEE 1481-1999"
*DESIGN  "AO21X2"
*DATE "Mon Sep 27 08:51:34 2010"
*VENDOR "Cadence Design Systems"
*PROGRAM "Assura RCX"
*VERSION "3.2 Red Hat Linux release 7.2 (Enigma) - (09/09/2009-10:39)"
*DESIGN_FLOW "Physical Verification"
*DIVIDER /
*DELIMITER :
*BUS_DELIMITER []
*T_UNIT 1 PS
*C_UNIT 1e15 FF
*R_UNIT 1 OHM
*L_UNIT 1 MH
// DeviceFingerDelim "@"
// MATCHED
// caps2d version: 10

*NAME_MAP
*1 mp3
*2 mp3\@1
*3 mn0
*4 Y
*5 mn1
*6 mn2
*7 mn3
*8 mn3\@1
*9 net84
*10 VDD
*11 net100
*12 net104
*13 B0
*14 VSS
*15 A0
*16 A1
*17 mp0
*18 mp1
*19 mp2

*GROUND_NETS VSS

*PORTS
*10 I
*14 I
*15 I
*16 I
*13 I
*4 O

*D_NET *10 2.16341e-16

*CONN
*P *10 I *C 0.1000 1.7100 
*I *17:s B *C 0.5850 1.5700 
*I *18:s B *C 0.5850 1.5700 
*I *1:s B *C 1.1200 1.2850 
*I *2:s B *C 1.4900 1.2850 
*N *10:3 *C 0.8000 1.7100 
*N *10:4 *C 0.8000 1.7100 
*N *10:5 *C 0.5600 1.7100 

*CAP
0 *2:s 8.60033e-17
1 *17:s 1.10697e-17
2 *10:5 8.63074e-18
3 *10:3 1.05354e-16
4 *10 5.28312e-18

*RES
0 *10:5 *10 0.229202  // $metal1_conn
1 *10:3 *10:4 9.375  // $metal1_conn
2 *10:5 *17:s 62.073681  // $metal1_conn
3 *2:s *10:4 0.144582  // $metal1_conn
4 *10:4 *10:5 0.11962  // $metal1_conn

*END

*D_NET *14 0

*CONN
*P *14 I *C 0.1000 0.0000 
*I *3:s B *C 0.3350 0.4425 
*I *6:s B *C 1.0350 0.3850 
*I *7:s B *C 1.0350 0.3850 
*I *8:s B *C 1.4250 0.3850 
*N *14:3 *C 0.8000 0.0000 
*N *14:4 *C 0.8000 0.0000 
*N *14:5 *C 0.3250 0.0000 


*RES
0 *14:5 *14 0.111882  // $metal1_conn
1 *14:3 *14:4 7.75  // $metal1_conn
2 *14:5 *3:s 75.26622  // $metal1_conn
3 *8:s *14:4 0.112132  // $metal1_conn
4 *14:4 *14:5 0.23694  // $metal1_conn

*END

*D_NET *15 2.0587e-16

*CONN
*P *15 I *C 0.3000 0.8550 
*I *3:g B *C 0.4275 0.4425 
*I *17:g B *C 0.4275 1.1725 
*N *15:2 *C 0.4275 0.6500 
*N *15:3 *C 0.3100 0.6500 

*CAP
0 *17:g 4.88691e-17
1 *3:g 3.52033e-17
2 *15:2 3.3471e-17
3 *15:3 3.91683e-17
4 *15 4.9158e-17

*RES
0 *17:g *15:2 103.099213  // $poly_conn
1 *15:2 *15:3 50.931942  // $poly_conn
2 *15:2 *3:g 31.304344  // $poly_conn
3 *15 *15:3 0.122316  // $metal1_conn

*END

*D_NET *16 2.44787e-16

*CONN
*P *16 I *C 0.5000 0.4750 
*I *5:g B *C 0.5475 0.4425 
*I *18:g B *C 0.6225 1.1725 
*N *16:2 *C 0.5850 0.6150 

*CAP
0 *18:g 6.56715e-17
1 *5:g 3.56022e-17
2 *16:2 8.91702e-17
3 *16 5.43436e-17

*RES
0 *18:g *16:2 108.169128  // $poly_conn
1 *16:2 *5:g 18.425531  // $poly_conn
2 *16:2 *16 45.096439  // $metal1_conn

*END

*D_NET *13 2.19891e-16

*CONN
*P *13 I *C 0.9000 0.8550 
*I *6:g B *C 0.8825 0.4425 
*I *19:g B *C 0.8275 1.1725 
*N *13:2 *C 0.8550 0.6950 
*N *13:4 *C 0.8550 0.6950 
*N *13:5 *C 0.8775 0.6950 
*N *13:6 *C 0.8775 0.8550 

*CAP
0 *19:g 4.69007e-17
1 *6:g 3.31161e-17
2 *13:5 3.82088e-17
3 *13:2 5.01042e-17
4 *13 5.15607e-17

*RES
0 *6:g *13:2 37.640671  // $poly_conn
1 *13:2 *19:g 86.35862  // $poly_conn
2 *13:4 *13:5 0.003877  // $metal1_conn
3 *13:6 *13 0.003963  // $metal1_conn
4 *13:5 *13:6 0.081923  // $metal1_conn
5 *13:2 *13:4 45  // $metal1_conn

*END

*D_NET *4 1.59174e-16

*CONN
*P *4 O *C 1.3000 0.6650 
*I *7:d B *C 1.2300 0.3850 
*I *8:d B *C 1.2300 0.3850 
*I *1:d B *C 1.2950 1.2850 
*I *2:d B *C 1.2950 1.2850 

*CAP
0 *1:d 9.1776e-17
1 *7:d 1.82751e-17
2 *4 4.91233e-17

*RES
0 *1:d *4 21.055752  // $metal1_conn
1 *4 *7:d 75.182594  // $metal1_conn

*END

*D_NET *12 3.50713e-18

*CONN
*I *3:d B *C 0.4875 0.4425 
*I *5:s B *C 0.4875 0.4425 

*CAP
0 *3:d 3.50713e-18

*RES
0 *5:s *3:d 0.001  // $mwires

*END

*D_NET *11 3.88234e-16

*CONN
*I *5:d B *C 0.7150 0.4425 
*I *6:d B *C 0.7150 0.4425 
*I *7:g B *C 1.1275 0.3850 
*I *8:g B *C 1.3325 0.3850 
*I *19:d B *C 0.9200 1.1725 
*I *1:g B *C 1.1925 1.2850 
*I *2:g B *C 1.3975 1.2850 
*N *11:4 *C 1.0700 0.6400 

*CAP
0 *2:g 8.0817e-17
1 *19:d 6.98932e-17
2 *7:g 5.22466e-17
3 *5:d 5.58482e-17
4 *11:4 1.29429e-16

*RES
0 *7:g *11:4 47.215244  // $poly_conn
1 *2:g *7:g 106.20787  // $poly_conn
2 *11:4 *19:d 62.47411  // $metal1_conn
3 *5:d *11:4 75.291214  // $metal1_conn

*END

*D_NET *9 7.80366e-17

*CONN
*I *17:d B *C 0.3350 1.1725 
*I *18:d B *C 0.7250 1.1725 
*I *19:s B *C 0.7250 1.1725 

*CAP
0 *18:d 4.04002e-17
1 *17:d 3.76364e-17

*RES
0 *18:d *17:d 124.238663  // $metal1_conn

*END

