*SPEF "IEEE 1481-1999"
*DESIGN  "AO21X4"
*DATE "Mon Sep 27 08:51:56 2010"
*VENDOR "Cadence Design Systems"
*PROGRAM "Assura RCX"
*VERSION "3.2 Red Hat Linux release 7.2 (Enigma) - (09/09/2009-10:39)"
*DESIGN_FLOW "Physical Verification"
*DIVIDER /
*DELIMITER :
*BUS_DELIMITER []
*T_UNIT 1 PS
*C_UNIT 1e15 FF
*R_UNIT 1 OHM
*L_UNIT 1 MH
// DeviceFingerDelim "@"
// MATCHED
// caps2d version: 10

*NAME_MAP
*1 net100
*2 mp0
*3 net104
*4 mp1
*5 mp2
*6 mn0
*7 mp3
*8 mn1
*9 VSS
*10 mp3\@1
*11 mn2
*12 mp3\@2
*13 mn3
*14 A0
*15 mp3\@3
*16 mn3\@1
*17 A1
*18 mn3\@2
*19 mn3\@3
*20 Y
*21 B0
*22 VDD
*23 net88

*GROUND_NETS VSS

*PORTS
*22 I
*9 I
*14 I
*17 I
*21 I
*20 O

*D_NET *22 3.44892e-16

*CONN
*P *22 I *C 0.1000 1.7100 
*I *2:s B *C 0.4550 1.2750 
*I *4:s B *C 0.4550 1.2750 
*I *7:s B *C 1.0800 1.2050 
*I *10:s B *C 1.4600 1.2050 
*I *12:s B *C 1.4600 1.2050 
*I *15:s B *C 1.8600 1.2050 
*N *22:3 *C 1.0000 1.7100 
*N *22:5 *C 0.4550 1.7100 

*CAP
0 *15:s 1.85872e-16
1 *2:s 3.82573e-17
2 *22:5 1.90999e-17
3 *22:3 9.50262e-17
4 *22 6.6368e-18

*RES
0 *22:5 *22 0.17752  // $metal1_conn
1 *22:3 *15:s 7.5  // $metal1_conn
2 *22:5 *2:s 62.190861  // $metal1_conn
3 *15:s *22:5 0.273021  // $metal1_conn

*END

*D_NET *9 0

*CONN
*P *9 I *C 0.1000 0.0000 
*I *6:s B *C 0.2600 0.3600 
*I *11:s B *C 0.8450 0.3600 
*I *13:s B *C 0.8450 0.3600 
*I *16:s B *C 1.2550 0.3600 
*I *18:s B *C 1.2550 0.3600 
*I *19:s B *C 1.6550 0.3600 
*N *9:3 *C 1.0000 0.0000 
*N *9:6 *C 0.2500 0.0000 


*RES
0 *9:6 *9 0.074751  // $metal1_conn
1 *9:3 *19:s 6.2  // $metal1_conn
2 *9:6 *6:s 75.174225  // $metal1_conn
3 *19:s *9:6 0.297891  // $metal1_conn

*END

*D_NET *14 2.14851e-16

*CONN
*P *14 I *C 0.3000 0.6650 
*I *6:g B *C 0.3525 0.3600 
*I *2:g B *C 0.3525 1.2750 
*N *14:2 *C 0.3100 0.6500 
*N *14:4 *C 0.3050 0.6500 

*CAP
0 *2:g 5.18185e-17
1 *6:g 3.78225e-17
2 *14:4 1.72244e-17
3 *14:2 4.27158e-17
4 *14 6.52695e-17

*RES
0 *2:g *14:2 99.449959  // $poly_conn
1 *14:2 *6:g 30.219189  // $poly_conn
2 *14:4 *14 0.009328  // $metal1_conn
3 *14:2 *14:4 45  // $metal1_conn

*END

*D_NET *17 2.81547e-16

*CONN
*P *17 I *C 0.5000 0.8550 
*I *8:g B *C 0.5025 0.3600 
*I *4:g B *C 0.5575 1.2750 
*N *17:2 *C 0.5300 0.8500 

*CAP
0 *4:g 5.1949e-17
1 *8:g 6.06773e-17
2 *17:2 1.6892e-16

*RES
0 *4:g *17:2 50.461182  // $poly_conn
1 *17:2 *8:g 83.79451  // $poly_conn
2 *17:2 *17 45.003967  // $metal1_conn

*END

*D_NET *21 2.67202e-16

*CONN
*P *21 I *C 0.7000 0.8550 
*I *11:g B *C 0.7425 0.3600 
*I *5:g B *C 0.7625 1.2750 
*N *21:2 *C 0.7200 0.8500 

*CAP
0 *5:g 4.76672e-17
1 *11:g 4.96703e-17
2 *21:2 1.69865e-16

*RES
0 *5:g *21:2 48.280964  // $poly_conn
1 *21:2 *11:g 81.423462  // $poly_conn
2 *21:2 *21 45.002625  // $metal1_conn

*END

*D_NET *20 4.12243e-16

*CONN
*P *20 O *C 1.9000 0.6650 
*I *13:d B *C 1.0500 0.3600 
*I *16:d B *C 1.0500 0.3600 
*I *18:d B *C 1.4600 0.3600 
*I *19:d B *C 1.4600 0.3600 
*I *7:d B *C 1.2550 1.2050 
*I *10:d B *C 1.2550 1.2050 
*I *12:d B *C 1.6650 1.2050 
*I *15:d B *C 1.6650 1.2050 
*N *20:1 *C 1.6900 0.6300 

*CAP
0 *12:d 2.24474e-16
1 *13:d 1.19181e-16
2 *20:1 4.17483e-17
3 *20 2.684e-17

*RES
0 *20 *20:1 0.127881  // $metal1_conn
1 *20:1 *13:d 0.259346  // $metal1_conn
2 *20:1 *12:d 0.191429  // $metal1_conn

*END

*D_NET *3 0

*CONN
*I *6:d B *C 0.4275 0.3600 
*I *8:s B *C 0.4275 0.3600 


*RES
0 *8:s *6:d 0.001  // $mwires

*END

*D_NET *1 4.72523e-16

*CONN
*I *8:d B *C 0.6225 0.3600 
*I *11:d B *C 0.6225 0.3600 
*I *13:g B *C 0.9475 0.3600 
*I *16:g B *C 1.1525 0.3600 
*I *18:g B *C 1.3575 0.3600 
*I *19:g B *C 1.5625 0.3600 
*I *5:d B *C 0.9175 1.1400 
*I *7:g B *C 1.1525 1.2050 
*I *10:g B *C 1.3575 1.2050 
*I *12:g B *C 1.5625 1.2050 
*I *15:g B *C 1.7675 1.2050 
*N *1:16 *C 0.8900 0.6400 

*CAP
0 *15:g 3.24746e-16
1 *5:d 4.68094e-17
2 *8:d 3.73215e-17
3 *1:16 6.3646e-17

*RES
0 *15:g *1:16 0.151496  // $metal1_conn
1 *1:16 *5:d 62.371975  // $metal1_conn
2 *1:16 *8:d 75.281525  // $metal1_conn

*END

*D_NET *23 1.2134e-16

*CONN
*I *2:d B *C 0.2600 1.2750 
*I *4:d B *C 0.6600 1.2750 
*I *5:s B *C 0.6600 1.2750 

*CAP
0 *4:d 7.10798e-17
1 *2:d 5.02602e-17

*RES
0 *4:d *2:d 62.430447  // $metal1_conn

*END

