*SPEF "IEEE 1481-1999"
*DESIGN  "AO22X2"
*DATE "Mon Sep 27 08:53:04 2010"
*VENDOR "Cadence Design Systems"
*PROGRAM "Assura RCX"
*VERSION "3.2 Red Hat Linux release 7.2 (Enigma) - (09/09/2009-10:39)"
*DESIGN_FLOW "Physical Verification"
*DIVIDER /
*DELIMITER :
*BUS_DELIMITER []
*T_UNIT 1 PS
*C_UNIT 1e15 FF
*R_UNIT 1 OHM
*L_UNIT 1 MH
// DeviceFingerDelim "@"
// MATCHED
// caps2d version: 10

*NAME_MAP
*1 net124
*2 mp0
*3 net132
*4 mp1
*5 mp3
*6 mp2
*7 mp4
*8 A0
*9 mp4\@1
*10 A1
*11 VDD
*12 net128
*13 mn0
*14 net111
*15 mn1
*16 mn3
*17 mn2
*18 mn4
*19 mn4\@1
*20 B0
*21 B1
*22 Y
*23 VSS

*GROUND_NETS VSS

*PORTS
*11 I
*23 I
*8 I
*10 I
*20 I
*21 I
*22 O

*D_NET *11 2.77534e-16

*CONN
*P *11 I *C 0.1000 1.7100 
*I *2:s B *C 0.4200 1.2325 
*I *4:s B *C 0.4200 1.2325 
*I *7:s B *C 1.3200 1.2850 
*I *9:s B *C 1.6900 1.2850 
*N *11:3 *C 0.9000 1.7100 
*N *11:4 *C 0.9000 1.7100 
*N *11:5 *C 0.3350 1.7100 

*CAP
0 *9:s 8.7495e-17
1 *2:s 1.11511e-17
2 *11:5 1.19343e-17
3 *11:3 1.57795e-16
4 *11 9.15844e-18

*RES
0 *11:5 *11 0.117167  // $metal1_conn
1 *11:3 *11:4 8.333333  // $metal1_conn
2 *11:5 *2:s 62.073994  // $metal1_conn
3 *9:s *11:4 0.179977  // $metal1_conn
4 *11:4 *11:5 0.282576  // $metal1_conn

*END

*D_NET *23 0

*CONN
*P *23 I *C 0.1000 0.0000 
*I *13:s B *C 0.2700 0.4625 
*I *17:s B *C 1.2950 0.4050 
*I *18:s B *C 1.2950 0.4050 
*I *19:s B *C 1.6850 0.4050 
*N *23:3 *C 0.9000 0.0000 
*N *23:4 *C 0.9000 0.0000 
*N *23:5 *C 0.2600 0.0000 


*RES
0 *23:5 *23 0.079631  // $metal1_conn
1 *23:3 *23:4 6.888889  // $metal1_conn
2 *23:5 *13:s 75.279106  // $metal1_conn
3 *19:s *23:4 0.192489  // $metal1_conn
4 *23:4 *23:5 0.320112  // $metal1_conn

*END

*D_NET *8 2.45882e-16

*CONN
*P *8 I *C 0.1000 1.0450 
*I *13:g B *C 0.3625 0.4625 
*I *2:g B *C 0.2025 1.2325 
*N *8:2 *C 0.2025 1.0150 
*N *8:3 *C 0.1300 1.0150 

*CAP
0 *2:g 3.19467e-17
1 *13:g 7.22334e-17
2 *8:2 4.31565e-17
3 *8:3 1.18704e-17
4 *8 8.66748e-17

*RES
0 *13:g *8:2 149.673065  // $poly_conn
1 *8:2 *8:3 49.285572  // $poly_conn
2 *8:2 *2:g 16.307936  // $poly_conn
3 *8:3 *8 0.003958  // $metal1_conn

*END

*D_NET *10 2.68663e-16

*CONN
*P *10 I *C 0.3000 0.8550 
*I *15:g B *C 0.4675 0.4625 
*I *4:g B *C 0.4675 1.2325 
*N *10:2 *C 0.5050 0.8750 

*CAP
0 *4:g 4.61881e-17
1 *15:g 6.56423e-17
2 *10:2 1.1406e-16
3 *10 4.27727e-17

*RES
0 *4:g *10:2 54.61676  // $poly_conn
1 *10:2 *15:g 77.69368  // $poly_conn
2 *10:2 *10 45.113037  // $metal1_conn

*END

*D_NET *20 2.25003e-16

*CONN
*P *20 I *C 1.1000 1.0450 
*I *17:g B *C 0.9625 0.4625 
*I *6:g B *C 0.9625 1.2325 
*N *20:1 *C 1.0550 1.0150 
*N *20:2 *C 0.9625 1.0150 

*CAP
0 *6:g 3.02062e-17
1 *17:g 4.93218e-17
2 *20:2 2.42867e-17
3 *20:1 8.67474e-17
4 *20 3.44409e-17

*RES
0 *20:1 *20:2 48.73896  // $poly_conn
1 *20:2 *17:g 116.406532  // $poly_conn
2 *20:2 *6:g 21.534737  // $poly_conn
3 *20:1 *20 0.006295  // $metal1_conn

*END

*D_NET *21 2.40559e-16

*CONN
*P *21 I *C 0.7000 0.6650 
*I *16:g B *C 0.7625 0.4625 
*I *5:g B *C 0.7075 1.2325 
*N *21:2 *C 0.7350 0.6650 

*CAP
0 *5:g 4.90668e-17
1 *16:g 3.1235e-17
2 *21:2 4.34688e-17
3 *21 1.16789e-16

*RES
0 *16:g *21:2 24.820158  // $poly_conn
1 *21:2 *5:g 109.435547  // $poly_conn
2 *21:2 *21 45.020256  // $metal1_conn

*END

*D_NET *22 1.52479e-16

*CONN
*P *22 O *C 1.5000 1.0450 
*I *18:d B *C 1.4900 0.4050 
*I *19:d B *C 1.4900 0.4050 
*I *7:d B *C 1.4950 1.2850 
*I *9:d B *C 1.4950 1.2850 

*CAP
0 *7:d 5.50598e-17
1 *18:d 4.70141e-17
2 *22 5.04049e-17

*RES
0 *22 *7:d 20.816435  // $metal1_conn
1 *18:d *22 75.377144  // $metal1_conn

*END

*D_NET *3 6.05763e-18

*CONN
*I *16:s B *C 0.8625 0.4625 
*I *17:d B *C 0.8625 0.4625 

*CAP
0 *16:s 6.05763e-18

*RES
0 *17:d *16:s 0.001  // $mwires

*END

*D_NET *1 0

*CONN
*I *13:d B *C 0.4150 0.4625 
*I *15:s B *C 0.4150 0.4625 


*RES
0 *15:s *13:d 0.001  // $mwires

*END

*D_NET *14 1.70533e-16

*CONN
*I *2:d B *C 0.1100 1.2325 
*I *4:d B *C 0.5875 1.2325 
*I *5:s B *C 0.5875 1.2325 
*I *6:s B *C 1.0550 1.2325 
*N *14:3 *C 0.5700 1.2800 

*CAP
0 *6:s 6.31327e-17
1 *4:d 6.64884e-17
2 *2:d 4.09118e-17

*RES
0 *6:s *14:3 62.417267  // $metal1_conn
1 *14:3 *2:d 62.321274  // $metal1_conn
2 *4:d *14:3 62  // $metal1_conn

*END

*D_NET *12 4.46338e-16

*CONN
*I *15:d B *C 0.6150 0.4625 
*I *16:d B *C 0.6150 0.4625 
*I *18:g B *C 1.3875 0.4050 
*I *19:g B *C 1.5925 0.4050 
*I *5:d B *C 0.8350 1.2325 
*I *6:d B *C 0.8350 1.2325 
*I *7:g B *C 1.3925 1.2850 
*I *9:g B *C 1.5975 1.2850 
*N *12:4 *C 1.3300 0.6350 
*N *12:8 *C 0.8950 0.5300 

*CAP
0 *9:g 7.98509e-17
1 *5:d 9.41055e-17
2 *18:g 4.83623e-17
3 *15:d 3.48674e-17
4 *12:8 9.58739e-17
5 *12:4 9.32776e-17

*RES
0 *18:g *12:4 48.306717  // $poly_conn
1 *9:g *18:g 88.048141  // $poly_conn
2 *12:4 *12:8 0.36241  // $metal1_conn
3 *12:8 *5:d 62.474953  // $metal1_conn
4 *12:8 *15:d 75.208344  // $metal1_conn

*END

