*SPEF "IEEE 1481-1999"
*DESIGN  "AO22X4"
*DATE "Mon Sep 27 08:53:27 2010"
*VENDOR "Cadence Design Systems"
*PROGRAM "Assura RCX"
*VERSION "3.2 Red Hat Linux release 7.2 (Enigma) - (09/09/2009-10:39)"
*DESIGN_FLOW "Physical Verification"
*DIVIDER /
*DELIMITER :
*BUS_DELIMITER []
*T_UNIT 1 PS
*C_UNIT 1e15 FF
*R_UNIT 1 OHM
*L_UNIT 1 MH
// DeviceFingerDelim "@"
// MATCHED
// caps2d version: 10

*NAME_MAP
*1 mp1
*2 mn4\@3
*3 mp3
*4 mp2
*5 VDD
*6 mp4
*7 n1
*8 mp4\@1
*9 n2
*10 mp4\@2
*11 A0
*12 mp4\@3
*13 A1
*14 Y
*15 n3
*16 n0
*17 B0
*18 B1
*19 VSS
*20 mn0
*21 mn1
*22 mn3
*23 mn2
*24 mn4
*25 mn4\@1
*26 mp0
*27 mn4\@2

*GROUND_NETS VSS

*PORTS
*5 I
*19 I
*11 I
*13 I
*17 I
*18 I
*14 O

*D_NET *5 3.05292e-16

*CONN
*P *5 I *C 0.1000 1.7100 
*I *26:s B *C 0.4550 1.2050 
*I *1:s B *C 0.4550 1.2050 
*I *6:s B *C 1.3300 1.1100 
*I *8:s B *C 1.6850 1.1100 
*I *10:s B *C 1.6850 1.1100 
*I *12:s B *C 2.0850 1.1100 
*N *5:4 *C 1.1000 1.7100 
*N *5:5 *C 1.1000 1.7100 
*N *5:6 *C 0.4550 1.7100 

*CAP
0 *12:s 1.3686e-16
1 *26:s 4.50572e-17
2 *5:6 1.81452e-17
3 *5:4 9.87683e-17
4 *5 6.46169e-18

*RES
0 *5:6 *5 0.177491  // $metal1_conn
1 *5:4 *5:5 6.818182  // $metal1_conn
2 *5:6 *26:s 62.237103  // $metal1_conn
3 *12:s *5:5 0.072483  // $metal1_conn
4 *5:5 *5:6 0.323099  // $metal1_conn

*END

*D_NET *19 0

*CONN
*P *19 I *C 0.1000 0.0000 
*I *20:s B *C 0.2600 0.4300 
*I *23:s B *C 1.0875 0.4300 
*I *24:s B *C 1.0875 0.4300 
*I *25:s B *C 1.5250 0.4300 
*I *27:s B *C 1.5250 0.4300 
*I *2:s B *C 1.9475 0.4300 
*N *19:2 *C 1.1000 0.0000 
*N *19:4 *C 0.2500 0.0000 


*RES
0 *19:4 *19 0.074738  // $metal1_conn
1 *19:2 *2:s 5.636364  // $metal1_conn
2 *19:4 *20:s 75.22049  // $metal1_conn
3 *2:s *19:4 0.425851  // $metal1_conn

*END

*D_NET *11 1.92278e-16

*CONN
*P *11 I *C 0.3000 0.6650 
*I *20:g B *C 0.3525 0.4300 
*I *26:g B *C 0.3525 1.2050 
*N *11:2 *C 0.3100 0.6700 
*N *11:4 *C 0.3100 0.6700 

*CAP
0 *26:g 4.91468e-17
1 *20:g 2.49553e-17
2 *11:2 3.13732e-17
3 *11 8.68024e-17

*RES
0 *26:g *11:2 76.373032  // $poly_conn
1 *11:2 *20:g 17.398676  // $poly_conn
2 *11 *11:4 0.003108  // $metal1_conn
3 *11:2 *11:4 45  // $metal1_conn

*END

*D_NET *13 2.58734e-16

*CONN
*P *13 I *C 0.5000 0.8550 
*I *21:g B *C 0.5575 0.4300 
*I *1:g B *C 0.5575 1.2050 
*N *13:2 *C 0.5300 0.8500 

*CAP
0 *1:g 5.00497e-17
1 *21:g 5.42391e-17
2 *13:2 1.54446e-16

*RES
0 *1:g *13:2 32.512466  // $poly_conn
1 *13:2 *21:g 65.845802  // $poly_conn
2 *13:2 *13 45.003967  // $metal1_conn

*END

*D_NET *17 2.30985e-16

*CONN
*P *17 I *C 1.1000 1.0450 
*I *23:g B *C 0.9725 0.4300 
*I *4:g B *C 0.9725 1.2050 
*N *17:1 *C 1.0600 0.8450 
*N *17:2 *C 0.9725 0.8450 

*CAP
0 *4:g 4.77691e-17
1 *23:g 4.57361e-17
2 *17:2 2.45282e-17
3 *17:1 5.03052e-17
4 *17 6.26468e-17

*RES
0 *17:1 *17:2 48.890118  // $poly_conn
1 *17:2 *23:g 67.999382  // $poly_conn
2 *17:2 *4:g 37.230148  // $poly_conn
3 *17:1 *17 0.099924  // $metal1_conn

*END

*D_NET *18 2.79369e-16

*CONN
*P *18 I *C 0.7000 0.6650 
*I *22:g B *C 0.7625 0.4300 
*I *3:g B *C 0.7625 1.2050 
*N *18:2 *C 0.7625 0.6600 
*N *18:3 *C 0.7100 0.6600 

*CAP
0 *3:g 5.8912e-17
1 *22:g 3.77949e-17
2 *18:3 4.58737e-17
3 *18 1.36788e-16

*RES
0 *3:g *18:2 86.988899  // $poly_conn
1 *18:2 *18:3 45.294373  // $poly_conn
2 *18:2 *22:g 22.886339  // $poly_conn
3 *18:3 *18 0.003108  // $metal1_conn

*END

*D_NET *14 3.16502e-16

*CONN
*P *14 O *C 1.9000 0.6650 
*I *24:d B *C 1.3050 0.4300 
*I *25:d B *C 1.3050 0.4300 
*I *27:d B *C 1.7450 0.4300 
*I *2:d B *C 1.7450 0.4300 
*I *6:d B *C 1.4800 1.1100 
*I *8:d B *C 1.4800 1.1100 
*I *10:d B *C 1.8900 1.1100 
*I *12:d B *C 1.8900 1.1100 

*CAP
0 *10:d 1.6209e-16
1 *24:d 1.10679e-16
2 *14 4.37328e-17

*RES
0 *14 *24:d 0.194384  // $metal1_conn
1 *10:d *14 0.196798  // $metal1_conn

*END

*D_NET *9 6.34654e-18

*CONN
*I *22:s B *C 0.8675 0.4300 
*I *23:d B *C 0.8675 0.4300 

*CAP
0 *22:s 6.34654e-18

*RES
0 *23:d *22:s 0.001  // $mwires

*END

*D_NET *7 1.95858e-18

*CONN
*I *20:d B *C 0.4550 0.4300 
*I *21:s B *C 0.4550 0.4300 

*CAP
0 *20:d 1.95858e-18

*RES
0 *21:s *20:d 0.001  // $mwires

*END

*D_NET *16 5.21997e-16

*CONN
*I *21:d B *C 0.6600 0.4300 
*I *22:d B *C 0.6600 0.4300 
*I *24:g B *C 1.2025 0.4300 
*I *25:g B *C 1.4075 0.4300 
*I *27:g B *C 1.6425 0.4300 
*I *2:g B *C 1.8475 0.4300 
*I *3:d B *C 0.8675 1.2050 
*I *4:d B *C 0.8675 1.2050 
*I *6:g B *C 1.3775 1.1100 
*I *8:g B *C 1.5825 1.1100 
*I *10:g B *C 1.7875 1.1100 
*I *12:g B *C 1.9925 1.1100 
*N *16:15 *C 0.8700 0.6850 

*CAP
0 *12:g 2.97301e-16
1 *3:d 6.50583e-17
2 *21:d 5.72086e-17
3 *16:15 1.02429e-16

*RES
0 *12:g *16:15 0.385692  // $metal1_conn
1 *16:15 *3:d 62.346806  // $metal1_conn
2 *16:15 *21:d 75.36058  // $metal1_conn

*END

*D_NET *15 1.82261e-16

*CONN
*I *26:d B *C 0.2600 1.2050 
*I *1:d B *C 0.6600 1.2050 
*I *3:s B *C 0.6600 1.2050 
*I *4:s B *C 1.0650 1.2050 
*N *15:3 *C 0.6600 1.2600 

*CAP
0 *4:s 4.92525e-17
1 *1:d 8.08863e-17
2 *26:d 5.21222e-17

*RES
0 *4:s *15:3 62.351303  // $metal1_conn
1 *15:3 *26:d 31.435743  // $metal1_conn
2 *1:d *15:3 31  // $metal1_conn

*END

