*SPEF "IEEE 1481-1999"
*DESIGN  "AOI222X1"
*DATE "Mon Sep 27 08:58:40 2010"
*VENDOR "Cadence Design Systems"
*PROGRAM "Assura RCX"
*VERSION "3.2 Red Hat Linux release 7.2 (Enigma) - (09/09/2009-10:39)"
*DESIGN_FLOW "Physical Verification"
*DIVIDER /
*DELIMITER :
*BUS_DELIMITER []
*T_UNIT 1 PS
*C_UNIT 1e15 FF
*R_UNIT 1 OHM
*L_UNIT 1 MH
// DeviceFingerDelim "@"
// MATCHED
// caps2d version: 10

*NAME_MAP
*1 mp0
*2 mp1
*3 mp3
*4 mn0
*5 net122
*6 C0
*7 mp2
*8 mn1
*9 net118
*10 C1
*11 VSS
*12 mp4
*13 mn3
*14 net139
*15 mp5
*16 mn2
*17 net147
*18 A0
*19 mn4
*20 net155
*21 A1
*22 mn5
*23 Y
*24 B0
*25 B1
*26 VDD

*GROUND_NETS VSS

*PORTS
*26 I
*11 I
*18 I
*21 I
*24 I
*25 I
*6 I
*10 I
*23 O

*D_NET *26 2.79663e-16

*CONN
*P *26 I *C 0.1000 1.7100 
*I *1:s B *C 0.1900 1.2850 
*I *2:s B *C 0.5800 1.2850 
*N *26:1 *C 0.9000 1.7100 
*N *26:2 *C 0.5900 1.7100 
*N *26:3 *C 0.1800 1.7100 

*CAP
0 *2:s 4.0907e-17
1 *1:s 3.37275e-17
2 *26:3 8.86456e-18
3 *26:2 1.3111e-17
4 *26:1 1.83053e-16

*RES
0 *26:1 *26:2 8.488648  // $metal1_conn
1 *26:2 *26:3 0.205284  // $metal1_conn
2 *26:3 *26 0.039679  // $metal1_conn
3 *26:2 *2:s 62.185257  // $metal1_conn
4 *26:3 *1:s 20.946728  // $metal1_conn

*END

*D_NET *11 0

*CONN
*P *11 I *C 0.1000 0.0000 
*I *4:s B *C 0.2900 0.3700 
*I *16:s B *C 1.1550 0.3700 
*I *19:s B *C 1.1550 0.3700 
*N *11:2 *C 0.9000 0.0000 
*N *11:3 *C 0.9000 0.0000 
*N *11:4 *C 0.2800 0.0000 


*RES
0 *16:s *11:3 75.327614  // $metal1_conn
1 *11:3 *11:4 0.310827  // $metal1_conn
2 *11:4 *11 0.08985  // $metal1_conn
3 *11:4 *4:s 75.187859  // $metal1_conn
4 *11:2 *11:3 6.888889  // $metal1_conn

*END

*D_NET *18 2.17124e-16

*CONN
*P *18 I *C 0.3000 0.6650 
*I *4:g B *C 0.3825 0.3700 
*I *1:g B *C 0.2825 1.2850 
*N *18:2 *C 0.3100 0.6350 
*N *18:4 *C 0.3050 0.6350 

*CAP
0 *1:g 5.16326e-17
1 *4:g 4.99068e-17
2 *18:2 8.02867e-17
3 *18 3.52975e-17

*RES
0 *4:g *18:2 28.189922  // $poly_conn
1 *18:2 *1:g 104.991577  // $poly_conn
2 *18:4 *18 0.018693  // $metal1_conn
3 *18:2 *18:4 45  // $metal1_conn

*END

*D_NET *21 2.71e-16

*CONN
*P *21 I *C 0.5000 0.2850 
*I *8:g B *C 0.4875 0.3700 
*I *2:g B *C 0.4875 1.2850 
*N *21:2 *C 0.5150 0.6100 

*CAP
0 *2:g 6.62688e-17
1 *8:g 4.91503e-17
2 *21:2 1.18068e-16
3 *21 3.75127e-17

*RES
0 *2:g *21:2 114.563744  // $poly_conn
1 *21:2 *8:g 19.691952  // $poly_conn
2 *21 *21:2 45.189068  // $metal1_conn

*END

*D_NET *24 3.00976e-16

*CONN
*P *24 I *C 0.9000 0.8550 
*I *16:g B *C 1.0075 0.3700 
*I *7:g B *C 1.0975 1.2850 
*N *24:2 *C 1.0350 0.8900 

*CAP
0 *7:g 5.09968e-17
1 *16:g 7.27079e-17
2 *24:2 1.12486e-16
3 *24 6.47854e-17

*RES
0 *7:g *24:2 44.172569  // $poly_conn
1 *24:2 *16:g 89.193542  // $poly_conn
2 *24:2 *24 45.072662  // $metal1_conn

*END

*D_NET *25 2.9161e-16

*CONN
*P *25 I *C 0.7000 0.8550 
*I *13:g B *C 0.8925 0.3700 
*I *3:g B *C 0.8925 1.2850 
*N *25:2 *C 0.8925 0.6800 
*N *25:3 *C 0.7300 0.6800 
*N *25:5 *C 0.7150 0.6800 
*N *25:6 *C 0.7150 0.8550 

*CAP
0 *3:g 6.2774e-17
1 *13:g 5.16357e-17
2 *25:6 7.28395e-17
3 *25:5 3.00124e-17
4 *25:2 5.05734e-17
5 *25:3 2.37747e-17

*RES
0 *3:g *25:2 101.817162  // $poly_conn
1 *25:2 *25:3 54.879311  // $poly_conn
2 *25:2 *13:g 42.842808  // $poly_conn
3 *25:5 *25:3 0.002024  // $metal1_conn
4 *25 *25:6 0.001956  // $metal1_conn
5 *25:5 *25:6 0.096077  // $metal1_conn

*END

*D_NET *6 2.93973e-16

*CONN
*P *6 I *C 1.3000 0.8550 
*I *19:g B *C 1.3025 0.3700 
*I *12:g B *C 1.3025 1.2850 
*N *6:2 *C 1.2750 0.8500 
*N *6:4 *C 1.2750 0.8500 

*CAP
0 *12:g 5.24537e-17
1 *19:g 7.51404e-17
2 *6:2 1.66379e-16

*RES
0 *12:g *6:2 53.025284  // $poly_conn
1 *6:2 *19:g 81.230408  // $poly_conn
2 *6:4 *6 0.012337  // $metal1_conn
3 *6:2 *6:4 45  // $metal1_conn

*END

*D_NET *10 2.80649e-16

*CONN
*P *10 I *C 1.5000 0.8550 
*I *22:g B *C 1.4075 0.3700 
*I *15:g B *C 1.5075 1.2850 
*N *10:2 *C 1.4700 0.6800 
*N *10:4 *C 1.4700 0.6800 
*N *10:5 *C 1.4850 0.6800 
*N *10:6 *C 1.4850 0.8550 

*CAP
0 *15:g 5.20787e-17
1 *22:g 5.97056e-17
2 *10:6 8.26143e-17
3 *10:5 3.61311e-17
4 *10:2 5.01193e-17

*RES
0 *15:g *10:2 95.642395  // $poly_conn
1 *10:2 *22:g 49.784168  // $poly_conn
2 *10:4 *10:5 0.002024  // $metal1_conn
3 *10:6 *10 0.002091  // $metal1_conn
4 *10:5 *10:6 0.096077  // $metal1_conn
5 *10:2 *10:4 45  // $metal1_conn

*END

*D_NET *23 3.14787e-16

*CONN
*P *23 O *C 1.7000 1.0450 
*I *8:d B *C 0.6900 0.3700 
*I *13:d B *C 0.6900 0.3700 
*I *22:d B *C 1.5000 0.3700 
*I *12:d B *C 1.4050 1.2850 
*I *15:d B *C 1.4050 1.2850 
*N *23:3 *C 1.5100 0.4400 

*CAP
0 *12:d 6.00411e-17
1 *22:d 1.00567e-16
2 *8:d 7.19547e-17
3 *23 8.22241e-17

*RES
0 *8:d *23:3 75.488037  // $metal1_conn
1 *23:3 *23 0.507847  // $metal1_conn
2 *23 *12:d 62.299545  // $metal1_conn
3 *22:d *23:3 75  // $metal1_conn

*END

*D_NET *20 1.3325e-18

*CONN
*I *19:d B *C 1.3550 0.3700 
*I *22:s B *C 1.3550 0.3700 

*CAP
0 *19:d 1.3325e-18

*RES
0 *22:s *19:d 0.001  // $mwires

*END

*D_NET *17 1.55458e-18

*CONN
*I *13:s B *C 0.9500 0.3700 
*I *16:d B *C 0.9500 0.3700 

*CAP
0 *13:s 1.55458e-18

*RES
0 *16:d *13:s 0.001  // $mwires

*END

*D_NET *14 6.39449e-18

*CONN
*I *4:d B *C 0.4350 0.3700 
*I *8:s B *C 0.4350 0.3700 

*CAP
0 *4:d 6.39449e-18

*RES
0 *8:s *4:d 0.001  // $mwires

*END

*D_NET *9 1.92985e-16

*CONN
*I *3:d B *C 0.8000 1.2850 
*I *7:d B *C 1.2000 1.2850 
*I *12:s B *C 1.2000 1.2850 
*I *15:s B *C 1.6000 1.2850 
*N *9:3 *C 1.2000 1.4000 

*CAP
0 *15:s 5.52801e-17
1 *7:d 7.5269e-17
2 *3:d 6.24363e-17

*RES
0 *15:s *9:3 62.298332  // $metal1_conn
1 *9:3 *3:d 62.298332  // $metal1_conn
2 *7:d *9:3 62  // $metal1_conn

*END

*D_NET *5 1.71556e-16

*CONN
*I *1:d B *C 0.3850 1.2850 
*I *2:d B *C 0.3850 1.2850 
*I *3:s B *C 0.9950 1.2850 
*I *7:s B *C 0.9950 1.2850 

*CAP
0 *3:s 9.42495e-17
1 *1:d 7.73062e-17

*RES
0 *1:d *3:s 93.514885  // $metal1_conn

*END

