*SPEF "IEEE 1481-1999"
*DESIGN  "AOI222X4"
*DATE "Mon Sep 27 08:59:26 2010"
*VENDOR "Cadence Design Systems"
*PROGRAM "Assura RCX"
*VERSION "3.2 Red Hat Linux release 7.2 (Enigma) - (09/09/2009-10:39)"
*DESIGN_FLOW "Physical Verification"
*DIVIDER /
*DELIMITER :
*BUS_DELIMITER []
*T_UNIT 1 PS
*C_UNIT 1e15 FF
*R_UNIT 1 OHM
*L_UNIT 1 MH
// DeviceFingerDelim "@"
// MATCHED
// caps2d version: 10

*NAME_MAP
*1 mn1
*2 mn5
*3 mn5\@1
*4 mn4\@1
*5 mn4\@2
*6 mp5
*7 mn5\@2
*8 mp4
*9 mn5\@3
*10 mp4\@1
*11 mn4\@3
*12 mp5\@1
*13 mn2
*14 mp5\@2
*15 mn3
*16 mp4\@2
*17 mp2
*18 mp3
*19 mp3\@1
*20 VSS
*21 A0
*22 A1
*23 B0
*24 B1
*25 mp2\@1
*26 mp4\@3
*27 mp5\@3
*28 mp2\@2
*29 mp0
*30 mp1
*31 mp1\@1
*32 mp0\@1
*33 mp0\@2
*34 mp1\@2
*35 C0
*36 C1
*37 net130
*38 mp1\@3
*39 net122
*40 mp0\@3
*41 net147\@1
*42 mp2\@3
*43 net147\@2
*44 mp3\@2
*45 net147\@3
*46 mp3\@3
*47 net147
*48 net143\@2
*49 net143\@3
*50 net143
*51 net143\@1
*52 net139
*53 net139\@1
*54 net139\@2
*55 net139\@3
*56 VDD
*57 Y
*58 mn3\@1
*59 mn2\@1
*60 mn4
*61 mn0
*62 mn2\@2
*63 mn3\@2
*64 mn3\@3
*65 mn2\@3
*66 mn0\@1
*67 mn1\@1
*68 mn1\@2
*69 mn0\@2
*70 mn0\@3
*71 mn1\@3

*GROUND_NETS VSS

*PORTS
*56 I
*20 I
*21 I
*22 I
*23 I
*24 I
*35 I
*36 I
*57 O

*D_NET *56 7.6838e-16

*CONN
*P *56 I *C 0.1000 1.7100 
*I *29:s B *C 0.1750 1.2100 
*I *30:s B *C 0.5750 1.2100 
*I *31:s B *C 0.5750 1.2100 
*I *32:s B *C 0.9850 1.2100 
*I *33:s B *C 0.9850 1.2100 
*I *34:s B *C 1.3950 1.2100 
*I *38:s B *C 1.3950 1.2100 
*I *40:s B *C 1.7950 1.2100 
*N *56:1 *C 4.7000 1.7100 
*N *56:2 *C 2.9000 1.7100 

*CAP
0 *40:s 2.64411e-16
1 *56:1 5.0397e-16

*RES
0 *40:s *56 0.032127  // $metal1_conn
1 *56:1 *56:2 9.235551  // $metal1_conn
2 *56:1 *56:2 8.333333  // $metal1_conn
3 *56:1 *40:s 7.5  // $metal1_conn
4 *56:2 *40:s 0.56369  // $metal1_conn

*END

*D_NET *20 0

*CONN
*P *20 I *C 0.1000 0.0000 
*I *4:s B *C 4.3500 0.4350 
*I *5:s B *C 4.3500 0.4350 
*I *11:s B *C 4.9600 0.4350 
*I *13:s B *C 2.7150 0.4350 
*I *59:s B *C 3.6800 0.4350 
*I *60:s B *C 3.6800 0.4350 
*I *61:s B *C 1.8950 0.4350 
*I *62:s B *C 1.8950 0.4350 
*I *65:s B *C 2.7150 0.4350 
*I *66:s B *C 0.5200 0.4350 
*I *69:s B *C 1.1300 0.4350 
*I *70:s B *C 1.1300 0.4350 
*N *20:2 *C 4.7000 0.0000 
*N *20:3 *C 4.7000 0.0000 
*N *20:4 *C 4.3200 0.0000 
*N *20:5 *C 3.6500 0.0000 
*N *20:6 *C 2.9000 0.0000 
*N *20:7 *C 2.6850 0.0000 
*N *20:8 *C 1.7200 0.0000 
*N *20:9 *C 1.1000 0.0000 
*N *20:10 *C 1.0000 0.0000 
*N *20:11 *C 0.5100 0.0000 


*RES
0 *11:s *20:3 75.397629  // $metal1_conn
1 *20:3 *20:4 0.190272  // $metal1_conn
2 *20:4 *20:5 0.335433  // $metal1_conn
3 *20:5 *20:6 0.375728  // $metal1_conn
4 *20:6 *20:7 0.107785  // $metal1_conn
5 *20:7 *20:8 0.483297  // $metal1_conn
6 *20:8 *20:9 0.310372  // $metal1_conn
7 *20:9 *20:10 0.049927  // $metal1_conn
8 *20:10 *20:11 0.245408  // $metal1_conn
9 *20:11 *20 0.205058  // $metal1_conn
10 *20:4 *4:s 75.220154  // $metal1_conn
11 *20:5 *59:s 75.220154  // $metal1_conn
12 *20:7 *13:s 75.220154  // $metal1_conn
13 *20:8 *61:s 75.220154  // $metal1_conn
14 *20:9 *69:s 75.220154  // $metal1_conn
15 *20:11 *66:s 75.223816  // $metal1_conn
16 *20:2 *20:3 6.888889  // $metal1_conn
17 *20:2 *20:6 6.888889  // $metal1_conn
18 *20:2 *20:10 6.2  // $metal1_conn

*END

*D_NET *21 8.36736e-16

*CONN
*P *21 I *C 0.5000 0.6650 
*I *61:g B *C 1.6475 0.4350 
*I *66:g B *C 0.6125 0.4350 
*I *69:g B *C 1.0275 0.4350 
*I *70:g B *C 1.2325 0.4350 
*I *29:g B *C 0.2675 1.2100 
*I *32:g B *C 0.8825 1.2100 
*I *33:g B *C 1.0875 1.2100 
*I *40:g B *C 1.7025 1.2100 

*CAP
0 *70:g 6.27338e-17
1 *69:g 4.592e-17
2 *66:g 5.42048e-17
3 *61:g 4.90305e-17
4 *21 6.24847e-16

*RES
0 *21 *61:g 22.256054  // $poly_conn
1 *70:g *21 54.999603  // $poly_conn
2 *21 *69:g 22.131721  // $poly_conn
3 *66:g *21 43.574535  // $poly_conn

*END

*D_NET *22 6.73405e-16

*CONN
*P *22 I *C 0.7000 0.8550 
*I *67:g B *C 0.7175 0.4350 
*I *68:g B *C 0.9225 0.4350 
*I *71:g B *C 1.3375 0.4350 
*I *1:g B *C 1.5425 0.4350 
*I *30:g B *C 0.4725 1.2100 
*I *31:g B *C 0.6775 1.2100 
*I *34:g B *C 1.2925 1.2100 
*I *38:g B *C 1.4975 1.2100 
*N *22:2 *C 0.7450 0.6625 
*N *22:9 *C 1.3650 0.7775 

*CAP
0 *38:g 3.67571e-16
1 *1:g 6.07113e-17
2 *71:g 5.35312e-17
3 *68:g 6.44747e-17
4 *67:g 4.64245e-17
5 *22:9 3.12973e-17
6 *22:2 2.88709e-17
7 *22 2.05235e-17

*RES
0 *1:g *22:9 84.314346  // $poly_conn
1 *22:9 *71:g 51.239071  // $poly_conn
2 *68:g *22:2 54.827171  // $poly_conn
3 *22:2 *67:g 21.751892  // $poly_conn
4 *22:9 *38:g 4.315495  // $poly_conn
5 *22:2 *38:g 16.517624  // $poly_conn
6 *38:g *22 0.026653  // $metal1_conn

*END

*D_NET *23 8.35449e-16

*CONN
*P *23 I *C 2.3000 0.8550 
*I *13:g B *C 2.8175 0.4350 
*I *59:g B *C 3.5775 0.4350 
*I *62:g B *C 2.1425 0.4350 
*I *65:g B *C 2.6125 0.4350 
*I *17:g B *C 2.9625 1.2100 
*I *25:g B *C 3.5775 1.2100 
*I *28:g B *C 2.7575 1.2100 
*I *42:g B *C 2.1425 1.2100 

*CAP
0 *25:g 6.4582e-16
1 *65:g 6.37275e-17
2 *62:g 3.22677e-17
3 *59:g 3.73851e-17
4 *13:g 1.93617e-17
5 *23 3.68861e-17

*RES
0 *25:g *59:g 22.256054  // $poly_conn
1 *25:g *13:g 19.301718  // $poly_conn
2 *25:g *65:g 55.112999  // $poly_conn
3 *25:g *62:g 22.256054  // $poly_conn
4 *25:g *23 0.102995  // $metal1_conn

*END

*D_NET *24 6.01586e-16

*CONN
*P *24 I *C 2.7000 0.8550 
*I *15:g B *C 3.1675 0.4350 
*I *58:g B *C 3.3725 0.4350 
*I *63:g B *C 2.3025 0.4350 
*I *64:g B *C 2.5075 0.4350 
*I *18:g B *C 3.1675 1.2100 
*I *19:g B *C 3.3725 1.2100 
*I *44:g B *C 2.3475 1.2100 
*I *46:g B *C 2.5525 1.2100 
*N *24:3 *C 2.5025 0.6625 
*N *24:11 *C 3.1675 0.6625 

*CAP
0 *64:g 4.58973e-17
1 *63:g 4.72963e-17
2 *58:g 3.82353e-17
3 *15:g 1.82708e-17
4 *24:11 1.63252e-17
5 *24:3 2.57492e-17
6 *24 4.09812e-16

*RES
0 *24:11 *58:g 66.950577  // $poly_conn
1 *24:11 *15:g 23.847994  // $poly_conn
2 *24:3 *64:g 23.285049  // $poly_conn
3 *24:3 *63:g 64.843048  // $poly_conn
4 *24 *24:11 37.129688  // $poly_conn
5 *24 *24:3 32.130466  // $poly_conn

*END

*D_NET *35 8.54005e-16

*CONN
*P *35 I *C 4.9000 0.6650 
*I *4:g B *C 4.2475 0.4350 
*I *5:g B *C 4.4525 0.4350 
*I *11:g B *C 4.8675 0.4350 
*I *60:g B *C 3.7825 0.4350 
*I *8:g B *C 4.3975 1.2100 
*I *10:g B *C 4.6025 1.2100 
*I *16:g B *C 5.2175 1.2100 
*I *26:g B *C 3.7825 1.2100 

*CAP
0 *60:g 4.37855e-17
1 *11:g 6.62121e-17
2 *5:g 4.68447e-17
3 *4:g 6.32786e-17
4 *35 6.33884e-16

*RES
0 *35 *11:g 66.651459  // $poly_conn
1 *35 *5:g 19.301718  // $poly_conn
2 *35 *4:g 55.112999  // $poly_conn
3 *35 *60:g 19.962778  // $poly_conn

*END

*D_NET *36 6.91439e-16

*CONN
*P *36 I *C 4.7000 0.8550 
*I *2:g B *C 3.9375 0.4350 
*I *3:g B *C 4.1425 0.4350 
*I *7:g B *C 4.5575 0.4350 
*I *9:g B *C 4.7625 0.4350 
*I *6:g B *C 4.1925 1.2100 
*I *12:g B *C 4.8075 1.2100 
*I *14:g B *C 5.0125 1.2100 
*I *27:g B *C 3.9875 1.2100 
*N *36:3 *C 4.1150 0.7775 
*N *36:10 *C 4.7350 0.6625 

*CAP
0 *9:g 4.65538e-17
1 *7:g 6.49541e-17
2 *3:g 5.34524e-17
3 *2:g 4.61741e-17
4 *36:10 2.77811e-17
5 *36:3 6.10471e-17
6 *36 3.91476e-16

*RES
0 *36:10 *9:g 21.83713  // $poly_conn
1 *36:10 *7:g 54.784554  // $poly_conn
2 *36:3 *3:g 51.324306  // $poly_conn
3 *36:3 *2:g 84.271729  // $poly_conn
4 *36 *36:10 16.602861  // $poly_conn
5 *36 *36:3 4.400733  // $poly_conn

*END

*D_NET *57 1.39457e-15

*CONN
*P *57 O *C 1.9000 0.8550 
*I *2:d B *C 4.0400 0.4350 
*I *3:d B *C 4.0400 0.4350 
*I *7:d B *C 4.6600 0.4350 
*I *9:d B *C 4.6600 0.4350 
*I *15:d B *C 3.2700 0.4350 
*I *58:d B *C 3.2700 0.4350 
*I *63:d B *C 2.4050 0.4350 
*I *64:d B *C 2.4050 0.4350 
*I *67:d B *C 0.8200 0.4350 
*I *68:d B *C 0.8200 0.4350 
*I *71:d B *C 1.4400 0.4350 
*I *1:d B *C 1.4400 0.4350 
*I *6:d B *C 4.2950 1.2100 
*I *8:d B *C 4.2950 1.2100 
*I *10:d B *C 4.7050 1.2100 
*I *12:d B *C 4.7050 1.2100 
*I *14:d B *C 5.1150 1.2100 
*I *16:d B *C 5.1150 1.2100 
*I *26:d B *C 3.8850 1.2100 
*I *27:d B *C 3.8850 1.2100 
*N *57:2 *C 4.0400 0.5050 
*N *57:4 *C 3.2700 0.5050 
*N *57:6 *C 2.4050 0.5050 
*N *57:7 *C 1.9350 0.5150 
*N *57:9 *C 1.4400 0.5050 
*N *57:12 *C 1.9350 0.8550 

*CAP
0 *14:d 4.26165e-16
1 *71:d 1.07261e-16
2 *67:d 7.58106e-17
3 *63:d 1.26686e-16
4 *15:d 1.41882e-16
5 *7:d 6.90449e-17
6 *2:d 1.31809e-16
7 *57:12 2.43381e-16
8 *57:7 6.18561e-17
9 *57 1.06747e-17

*RES
0 *57:12 *57 0.002702  // $metal1_conn
1 *57:2 *7:d 75.468452  // $metal1_conn
2 *2:d *57:2 75  // $metal1_conn
3 *15:d *57:4 75  // $metal1_conn
4 *63:d *57:6 75  // $metal1_conn
5 *71:d *57:9 75  // $metal1_conn
6 *57:9 *67:d 75.475487  // $metal1_conn
7 *57:2 *57:4 0.567385  // $metal1_conn
8 *57:4 *57:6 0.649706  // $metal1_conn
9 *57:6 *57:7 0.352228  // $metal1_conn
10 *57:7 *57:9 0.37853  // $metal1_conn
11 *57:7 *57:12 0.247322  // $metal1_conn
12 *57:12 *14:d 1.607416  // $metal1_conn

*END

*D_NET *55 0

*CONN
*I *9:s B *C 4.8150 0.4350 
*I *11:d B *C 4.8150 0.4350 


*RES
0 *11:d *9:s 0.001  // $mwires

*END

*D_NET *54 2.25272e-18

*CONN
*I *5:d B *C 4.5050 0.4350 
*I *7:s B *C 4.5050 0.4350 

*CAP
0 *5:d 2.25272e-18

*RES
0 *7:s *5:d 0.001  // $mwires

*END

*D_NET *53 1.75543e-18

*CONN
*I *3:s B *C 4.1950 0.4350 
*I *4:d B *C 4.1950 0.4350 

*CAP
0 *3:s 1.75543e-18

*RES
0 *4:d *3:s 0.001  // $mwires

*END

*D_NET *52 3.0695e-18

*CONN
*I *2:s B *C 3.8600 0.4350 
*I *60:d B *C 3.8600 0.4350 

*CAP
0 *2:s 3.0695e-18

*RES
0 *60:d *2:s 0.001  // $mwires

*END

*D_NET *51 4.52192e-18

*CONN
*I *58:s B *C 3.4750 0.4350 
*I *59:d B *C 3.4750 0.4350 

*CAP
0 *58:s 4.52192e-18

*RES
0 *59:d *58:s 0.001  // $mwires

*END

*D_NET *50 8.92344e-18

*CONN
*I *13:d B *C 2.9925 0.4350 
*I *15:s B *C 2.9925 0.4350 

*CAP
0 *13:d 8.92344e-18

*RES
0 *15:s *13:d 0.001  // $mwires

*END

*D_NET *49 1.75543e-18

*CONN
*I *64:s B *C 2.5600 0.4350 
*I *65:d B *C 2.5600 0.4350 

*CAP
0 *64:s 1.75543e-18

*RES
0 *65:d *64:s 0.001  // $mwires

*END

*D_NET *48 3.07824e-18

*CONN
*I *62:d B *C 2.2225 0.4350 
*I *63:s B *C 2.2225 0.4350 

*CAP
0 *62:d 3.07824e-18

*RES
0 *63:s *62:d 0.001  // $mwires

*END

*D_NET *47 1.75543e-18

*CONN
*I *61:d B *C 1.5950 0.4350 
*I *1:s B *C 1.5950 0.4350 

*CAP
0 *61:d 1.75543e-18

*RES
0 *1:s *61:d 0.001  // $mwires

*END

*D_NET *45 1.75543e-18

*CONN
*I *70:d B *C 1.2850 0.4350 
*I *71:s B *C 1.2850 0.4350 

*CAP
0 *70:d 1.75543e-18

*RES
0 *71:s *70:d 0.001  // $mwires

*END

*D_NET *43 1.75543e-18

*CONN
*I *68:s B *C 0.9750 0.4350 
*I *69:d B *C 0.9750 0.4350 

*CAP
0 *68:s 1.75543e-18

*RES
0 *69:d *68:s 0.001  // $mwires

*END

*D_NET *41 0

*CONN
*I *66:d B *C 0.6650 0.4350 
*I *67:s B *C 0.6650 0.4350 


*RES
0 *67:s *66:d 0.001  // $mwires

*END

*D_NET *39 6.07999e-16

*CONN
*I *6:s B *C 4.0900 1.2100 
*I *8:s B *C 4.5000 1.2100 
*I *10:s B *C 4.5000 1.2100 
*I *12:s B *C 4.9100 1.2100 
*I *14:s B *C 4.9100 1.2100 
*I *16:s B *C 5.3100 1.2100 
*I *17:d B *C 2.8600 1.2100 
*I *18:d B *C 3.2700 1.2100 
*I *19:d B *C 3.2700 1.2100 
*I *25:d B *C 3.6800 1.2100 
*I *26:s B *C 3.6800 1.2100 
*I *27:s B *C 4.0900 1.2100 
*I *28:d B *C 2.8600 1.2100 
*I *42:d B *C 2.0500 1.2100 
*I *44:d B *C 2.4500 1.2100 
*I *46:d B *C 2.4500 1.2100 

*CAP
0 *16:s 6.07999e-16


*END

*D_NET *37 7.72533e-16

*CONN
*I *17:s B *C 3.0650 1.2100 
*I *18:s B *C 3.0650 1.2100 
*I *19:s B *C 3.4750 1.2100 
*I *25:s B *C 3.4750 1.2100 
*I *28:s B *C 2.6550 1.2100 
*I *29:d B *C 0.3700 1.2100 
*I *30:d B *C 0.3700 1.2100 
*I *31:d B *C 0.7800 1.2100 
*I *32:d B *C 0.7800 1.2100 
*I *33:d B *C 1.1900 1.2100 
*I *34:d B *C 1.1900 1.2100 
*I *38:d B *C 1.6000 1.2100 
*I *40:d B *C 1.6000 1.2100 
*I *42:s B *C 2.2450 1.2100 
*I *44:s B *C 2.2450 1.2100 
*I *46:s B *C 2.6550 1.2100 

*CAP
0 *38:d 3.72727e-16
1 *19:s 3.99806e-16

*RES
0 *19:s *38:d 0.463535  // $metal1_conn

*END

