*SPEF "IEEE 1481-1999"
*DESIGN  "AOI221X4"
*DATE "Mon Sep 27 08:57:56 2010"
*VENDOR "Cadence Design Systems"
*PROGRAM "Assura RCX"
*VERSION "3.2 Red Hat Linux release 7.2 (Enigma) - (09/09/2009-10:39)"
*DESIGN_FLOW "Physical Verification"
*DIVIDER /
*DELIMITER :
*BUS_DELIMITER []
*T_UNIT 1 PS
*C_UNIT 1e15 FF
*R_UNIT 1 OHM
*L_UNIT 1 MH
// DeviceFingerDelim "@"
// MATCHED
// caps2d version: 10

*NAME_MAP
*1 mn0\@1
*2 mn0\@2
*3 mn1\@2
*4 mn1\@3
*5 mn0\@3
*6 mn2\@3
*7 B0
*8 B1
*9 mn3\@3
*10 C0
*11 mp4\@3
*12 mp3\@3
*13 mp0
*14 mp1
*15 mp1\@1
*16 mp0\@1
*17 mp0\@2
*18 mp1\@2
*19 mp1\@3
*20 mp0\@3
*21 net107
*22 mp3
*23 net120
*24 mp2
*25 net120\@1
*26 mp2\@1
*27 net120\@2
*28 mp3\@1
*29 net120\@3
*30 mp3\@2
*31 net116\@3
*32 mp2\@2
*33 net116
*34 mp4
*35 net116\@1
*36 mp2\@3
*37 mp4\@1
*38 net116\@2
*39 mp4\@2
*40 VSS
*41 mn3
*42 mn2
*43 mn2\@1
*44 mn3\@1
*45 mn3\@2
*46 VDD
*47 mn2\@2
*48 mn4
*49 mn4\@1
*50 mn4\@2
*51 A0
*52 net104
*53 A1
*54 Y
*55 mn4\@3
*56 mn0
*57 mn1
*58 mn1\@1

*GROUND_NETS VSS

*PORTS
*46 I
*40 I
*51 I
*53 I
*7 I
*8 I
*10 I
*54 O

*D_NET *46 6.61548e-16

*CONN
*P *46 I *C 0.1000 1.7100 
*I *13:s B *C 0.1700 1.2100 
*I *14:s B *C 0.5700 1.2100 
*I *15:s B *C 0.5700 1.2100 
*I *16:s B *C 0.9800 1.2100 
*I *17:s B *C 0.9800 1.2100 
*I *18:s B *C 1.3900 1.2100 
*I *19:s B *C 1.3900 1.2100 
*I *20:s B *C 1.7900 1.2100 
*N *46:1 *C 3.5000 1.7100 

*CAP
0 *20:s 2.73988e-16
1 *46:1 3.8756e-16

*RES
0 *20:s *46 0.029637  // $metal1_conn
1 *46:1 *20:s 7.685551  // $metal1_conn
2 *46:1 *20:s 6.25  // $metal1_conn

*END

*D_NET *40 0

*CONN
*P *40 I *C 0.1000 0.0000 
*I *42:s B *C 2.8400 0.4050 
*I *43:s B *C 2.8400 0.4050 
*I *47:s B *C 3.5225 0.4050 
*I *48:s B *C 3.5225 0.4050 
*I *49:s B *C 3.9550 0.4050 
*I *50:s B *C 3.9550 0.4050 
*I *55:s B *C 4.3700 0.4050 
*I *56:s B *C 0.5200 0.4050 
*I *1:s B *C 1.1300 0.4050 
*I *2:s B *C 1.1300 0.4050 
*I *5:s B *C 1.8850 0.4050 
*I *6:s B *C 1.8850 0.4050 
*N *40:3 *C 3.5000 0.0000 
*N *40:5 *C 2.8100 0.0000 
*N *40:6 *C 1.7200 0.0000 
*N *40:7 *C 1.2000 0.0000 
*N *40:8 *C 1.1000 0.0000 
*N *40:9 *C 0.5100 0.0000 


*RES
0 *40:9 *40 0.205161  // $metal1_conn
1 *40:3 *55:s 5.636364  // $metal1_conn
2 *40:3 *40:7 5.166667  // $metal1_conn
3 *40:5 *42:s 75.201073  // $metal1_conn
4 *40:6 *5:s 75.201073  // $metal1_conn
5 *40:8 *1:s 75.201073  // $metal1_conn
6 *40:9 *56:s 75.20475  // $metal1_conn
7 *55:s *40:5 0.345827  // $metal1_conn
8 *40:5 *40:6 0.546224  // $metal1_conn
9 *40:6 *40:7 0.260575  // $metal1_conn
10 *40:7 *40:8 0.049952  // $metal1_conn
11 *40:8 *40:9 0.295483  // $metal1_conn

*END

*D_NET *51 8.2833e-16

*CONN
*P *51 I *C 0.3000 0.6650 
*I *56:g B *C 0.6125 0.4050 
*I *1:g B *C 1.0275 0.4050 
*I *2:g B *C 1.2325 0.4050 
*I *5:g B *C 1.6475 0.4050 
*I *13:g B *C 0.2625 1.2100 
*I *16:g B *C 0.8775 1.2100 
*I *17:g B *C 1.0825 1.2100 
*I *20:g B *C 1.6975 1.2100 

*CAP
0 *5:g 5.01391e-17
1 *2:g 6.36516e-17
2 *1:g 4.6492e-17
3 *56:g 7.42304e-17
4 *51 5.93816e-16

*RES
0 *51 *5:g 25.090984  // $poly_conn
1 *2:g *51 55.112999  // $poly_conn
2 *51 *1:g 24.065475  // $poly_conn
3 *56:g *51 93.574539  // $poly_conn

*END

*D_NET *53 6.68588e-16

*CONN
*P *53 I *C 0.9000 0.8550 
*I *57:g B *C 0.7175 0.4050 
*I *58:g B *C 0.9225 0.4050 
*I *3:g B *C 1.3375 0.4050 
*I *4:g B *C 1.5425 0.4050 
*I *14:g B *C 0.4675 1.2100 
*I *15:g B *C 0.6725 1.2100 
*I *18:g B *C 1.2875 1.2100 
*I *19:g B *C 1.4925 1.2100 
*N *53:2 *C 0.7450 0.6325 
*N *53:9 *C 1.3650 0.7775 

*CAP
0 *4:g 6.29685e-17
1 *3:g 5.52067e-17
2 *58:g 6.50458e-17
3 *57:g 4.59561e-17
4 *53:9 3.33605e-17
5 *53:2 3.38469e-17
6 *53 3.72204e-16

*RES
0 *4:g *53:9 92.006653  // $poly_conn
1 *53:9 *3:g 58.931377  // $poly_conn
2 *58:g *53:2 54.827171  // $poly_conn
3 *53:2 *57:g 21.751892  // $poly_conn
4 *53:9 *53 4.315495  // $poly_conn
5 *53:2 *53 19.709112  // $poly_conn

*END

*D_NET *7 8.02677e-16

*CONN
*P *7 I *C 3.5000 0.8550 
*I *42:g B *C 2.7375 0.4050 
*I *43:g B *C 2.9425 0.4050 
*I *47:g B *C 3.4125 0.4050 
*I *6:g B *C 2.1225 0.4050 
*I *24:g B *C 2.7375 1.2100 
*I *26:g B *C 2.9425 1.2100 
*I *32:g B *C 3.5575 1.2100 
*I *36:g B *C 2.1225 1.2100 

*CAP
0 *32:g 6.12391e-16
1 *6:g 2.94315e-17
2 *47:g 5.49797e-17
3 *43:g 4.46779e-17
4 *42:g 2.58658e-17
5 *7 3.53314e-17

*RES
0 *32:g *47:g 32.036076  // $poly_conn
1 *32:g *43:g 58.959152  // $poly_conn
2 *32:g *42:g 27.411629  // $poly_conn
3 *32:g *6:g 29.94836  // $poly_conn
4 *7 *32:g 0.118434  // $metal1_conn

*END

*D_NET *8 5.92697e-16

*CONN
*P *8 I *C 2.7000 0.8550 
*I *41:g B *C 2.5325 0.4050 
*I *44:g B *C 3.0925 0.4050 
*I *45:g B *C 3.2975 0.4050 
*I *9:g B *C 2.3275 0.4050 
*I *22:g B *C 2.5325 1.2100 
*I *28:g B *C 3.1475 1.2100 
*I *30:g B *C 3.3525 1.2100 
*I *12:g B *C 2.3275 1.2100 
*N *8:4 *C 2.5325 0.6325 

*CAP
0 *9:g 3.74317e-17
1 *45:g 5.87407e-17
2 *44:g 4.03612e-17
3 *41:g 2.47569e-17
4 *8:4 1.87034e-17
5 *8 4.12703e-16

*RES
0 *8 *45:g 99.984795  // $poly_conn
1 *8 *44:g 68.437271  // $poly_conn
2 *8:4 *41:g 23.847994  // $poly_conn
3 *8:4 *9:g 66.950577  // $poly_conn
4 *8 *8:4 44.821999  // $poly_conn

*END

*D_NET *10 3.25505e-16

*CONN
*P *10 I *C 3.9000 0.6650 
*I *48:g B *C 3.6325 0.4050 
*I *49:g B *C 3.8375 0.4050 
*I *50:g B *C 4.0725 0.4050 
*I *55:g B *C 4.2775 0.4050 
*I *34:g B *C 3.7625 1.2100 
*I *37:g B *C 3.9675 1.2100 
*I *39:g B *C 4.1725 1.2100 
*I *11:g B *C 4.3775 1.2100 

*CAP
0 *10 3.25505e-16


*END

*D_NET *54 1.08494e-15

*CONN
*P *54 O *C 1.9000 0.6650 
*I *41:d B *C 2.4300 0.4050 
*I *44:d B *C 3.1950 0.4050 
*I *45:d B *C 3.1950 0.4050 
*I *48:d B *C 3.7350 0.4050 
*I *49:d B *C 3.7350 0.4050 
*I *50:d B *C 4.1750 0.4050 
*I *55:d B *C 4.1750 0.4050 
*I *57:d B *C 0.8200 0.4050 
*I *58:d B *C 0.8200 0.4050 
*I *3:d B *C 1.4400 0.4050 
*I *4:d B *C 1.4400 0.4050 
*I *9:d B *C 2.4300 0.4050 
*I *34:d B *C 3.8650 1.2100 
*I *37:d B *C 3.8650 1.2100 
*I *39:d B *C 4.2750 1.2100 
*I *11:d B *C 4.2750 1.2100 
*N *54:4 *C 3.1950 0.4750 
*N *54:6 *C 2.4300 0.4750 
*N *54:7 *C 1.9350 0.4850 
*N *54:9 *C 1.4400 0.4750 
*N *54:12 *C 1.9350 0.6650 

*CAP
0 *39:d 3.04411e-16
1 *3:d 9.85152e-17
2 *57:d 6.89345e-17
3 *48:d 1.31477e-16
4 *44:d 1.0719e-16
5 *41:d 9.82316e-17
6 *54:12 2.07981e-16
7 *54:7 5.5926e-17
8 *54 1.22778e-17

*RES
0 *54:12 *54 0.002707  // $metal1_conn
1 *48:d *54:4 0.401311  // $metal1_conn
2 *44:d *54:4 75  // $metal1_conn
3 *41:d *54:6 75  // $metal1_conn
4 *3:d *54:9 75  // $metal1_conn
5 *54:9 *57:d 75.477509  // $metal1_conn
6 *54:4 *54:6 0.578332  // $metal1_conn
7 *54:6 *54:7 0.37375  // $metal1_conn
8 *54:7 *54:9 0.385335  // $metal1_conn
9 *54:7 *54:12 0.133408  // $metal1_conn
10 *54:12 *39:d 1.721322  // $metal1_conn

*END

*D_NET *38 2.07007e-18

*CONN
*I *45:s B *C 3.3550 0.4050 
*I *47:d B *C 3.3550 0.4050 

*CAP
0 *45:s 2.07007e-18

*RES
0 *47:d *45:s 0.001  // $mwires

*END

*D_NET *35 3.10511e-18

*CONN
*I *43:d B *C 3.0175 0.4050 
*I *44:s B *C 3.0175 0.4050 

*CAP
0 *43:d 3.10511e-18

*RES
0 *44:s *43:d 0.001  // $mwires

*END

*D_NET *33 4.75847e-18

*CONN
*I *41:s B *C 2.6350 0.4050 
*I *42:d B *C 2.6350 0.4050 

*CAP
0 *41:s 4.75847e-18

*RES
0 *42:d *41:s 0.001  // $mwires

*END

*D_NET *31 4.49345e-18

*CONN
*I *6:d B *C 2.2250 0.4050 
*I *9:s B *C 2.2250 0.4050 

*CAP
0 *6:d 4.49345e-18

*RES
0 *9:s *6:d 0.001  // $mwires

*END

*D_NET *29 1.7621e-18

*CONN
*I *4:s B *C 1.5950 0.4050 
*I *5:d B *C 1.5950 0.4050 

*CAP
0 *4:s 1.7621e-18

*RES
0 *5:d *4:s 0.001  // $mwires

*END

*D_NET *27 1.7621e-18

*CONN
*I *2:d B *C 1.2850 0.4050 
*I *3:s B *C 1.2850 0.4050 

*CAP
0 *2:d 1.7621e-18

*RES
0 *3:s *2:d 0.001  // $mwires

*END

*D_NET *25 1.7621e-18

*CONN
*I *58:s B *C 0.9750 0.4050 
*I *1:d B *C 0.9750 0.4050 

*CAP
0 *58:s 1.7621e-18

*RES
0 *1:d *58:s 0.001  // $mwires

*END

*D_NET *23 0

*CONN
*I *56:d B *C 0.6650 0.4050 
*I *57:s B *C 0.6650 0.4050 


*RES
0 *57:s *56:d 0.001  // $mwires

*END

*D_NET *21 7.63246e-16

*CONN
*I *22:s B *C 2.6350 1.2100 
*I *24:s B *C 2.6350 1.2100 
*I *26:s B *C 3.0450 1.2100 
*I *28:s B *C 3.0450 1.2100 
*I *30:s B *C 3.4550 1.2100 
*I *32:s B *C 3.4550 1.2100 
*I *12:s B *C 2.2250 1.2100 
*I *13:d B *C 0.3650 1.2100 
*I *14:d B *C 0.3650 1.2100 
*I *15:d B *C 0.7750 1.2100 
*I *16:d B *C 0.7750 1.2100 
*I *17:d B *C 1.1850 1.2100 
*I *18:d B *C 1.1850 1.2100 
*I *19:d B *C 1.5950 1.2100 
*I *20:d B *C 1.5950 1.2100 
*I *36:s B *C 2.2250 1.2100 

*CAP
0 *19:d 3.64816e-16
1 *30:s 3.9843e-16

*RES
0 *19:d *30:s 0.45402  // $metal1_conn

*END

*D_NET *52 5.01743e-16

*CONN
*I *22:d B *C 2.4300 1.2100 
*I *24:d B *C 2.8400 1.2100 
*I *26:d B *C 2.8400 1.2100 
*I *28:d B *C 3.2500 1.2100 
*I *30:d B *C 3.2500 1.2100 
*I *32:d B *C 3.6600 1.2100 
*I *34:s B *C 3.6600 1.2100 
*I *37:s B *C 4.0700 1.2100 
*I *39:s B *C 4.0700 1.2100 
*I *11:s B *C 4.4700 1.2100 
*I *12:d B *C 2.4300 1.2100 
*I *36:d B *C 2.0300 1.2100 

*CAP
0 *11:s 5.01743e-16


*END

