*SPEF "IEEE 1481-1999"
*DESIGN  "AOI22X2"
*DATE "Mon Sep 27 09:00:33 2010"
*VENDOR "Cadence Design Systems"
*PROGRAM "Assura RCX"
*VERSION "3.2 Red Hat Linux release 7.2 (Enigma) - (09/09/2009-10:39)"
*DESIGN_FLOW "Physical Verification"
*DIVIDER /
*DELIMITER :
*BUS_DELIMITER []
*T_UNIT 1 PS
*C_UNIT 1e15 FF
*R_UNIT 1 OHM
*L_UNIT 1 MH
// DeviceFingerDelim "@"
// MATCHED
// caps2d version: 10

*NAME_MAP
*1 mp1
*2 mn2\@1
*3 mp1\@1
*4 mp0\@1
*5 VDD
*6 mp2
*7 net98\@1
*8 mp3
*9 net106
*10 mp3\@1
*11 net106\@1
*12 A0
*13 mp2\@1
*14 A1
*15 Y
*16 net89
*17 net98
*18 B0
*19 B1
*20 VSS
*21 mn0
*22 mn1
*23 mn1\@1
*24 mn0\@1
*25 mn2
*26 mn3
*27 mp0
*28 mn3\@1

*GROUND_NETS VSS

*PORTS
*5 I
*20 I
*12 I
*14 I
*18 I
*19 I
*15 O

*D_NET *5 2.17449e-16

*CONN
*P *5 I *C 0.1000 1.7100 
*I *27:s B *C 0.3750 1.1200 
*I *1:s B *C 0.3750 1.1200 
*I *3:s B *C 0.8300 1.1200 
*I *4:s B *C 0.8300 1.1200 
*N *5:1 *C 1.1000 1.7100 

*CAP
0 *3:s 9.54463e-17
1 *5:1 1.16028e-16
2 *5 5.97474e-18

*RES
0 *3:s *5 0.137369  // $metal1_conn
1 *5:1 *3:s 6.974898  // $metal1_conn

*END

*D_NET *20 0

*CONN
*P *20 I *C 0.1000 0.0000 
*I *21:s B *C 0.4700 0.4450 
*I *24:s B *C 1.2525 0.4450 
*I *25:s B *C 1.2525 0.4450 
*I *2:s B *C 1.9650 0.4450 
*N *20:2 *C 1.1000 0.0000 
*N *20:3 *C 1.1000 0.0000 
*N *20:4 *C 0.4600 0.0000 


*RES
0 *2:s *20:3 75.701256  // $metal1_conn
1 *20:3 *20:4 0.320539  // $metal1_conn
2 *20:4 *20 0.179967  // $metal1_conn
3 *20:3 *24:s 75.18026  // $metal1_conn
4 *20:4 *21:s 75.230133  // $metal1_conn
5 *20:2 *20:3 5.636364  // $metal1_conn

*END

*D_NET *12 4.32103e-16

*CONN
*P *12 I *C 0.3000 0.6650 
*I *21:g B *C 0.5625 0.4450 
*I *24:g B *C 0.9775 0.4450 
*I *27:g B *C 0.2725 1.1200 
*I *4:g B *C 0.9775 1.1200 

*CAP
0 *4:g 3.0418e-16
1 *24:g 5.73628e-17
2 *21:g 4.81858e-17
3 *12 2.2374e-17

*RES
0 *4:g *24:g 19.691952  // $poly_conn
1 *21:g *4:g 20.656593  // $poly_conn
2 *4:g *12 0.12821  // $metal1_conn

*END

*D_NET *14 2.98303e-16

*CONN
*P *14 I *C 0.7000 0.8550 
*I *22:g B *C 0.6675 0.4450 
*I *23:g B *C 0.8725 0.4450 
*I *1:g B *C 0.4775 1.1200 
*I *3:g B *C 0.6825 1.1200 
*N *14:2 *C 0.7100 0.7225 
*N *14:7 *C 0.7050 0.8150 
*N *14:8 *C 0.7100 0.8150 
*N *14:9 *C 0.7050 0.8550 

*CAP
0 *3:g 9.56324e-17
1 *23:g 5.57825e-17
2 *22:g 5.08611e-17
3 *14:9 3.40892e-17
4 *14:7 2.65214e-17
5 *14:2 3.54161e-17

*RES
0 *23:g *14:2 63.982693  // $poly_conn
1 *14:2 *22:g 34.439434  // $poly_conn
2 *14:2 *3:g 7.02714  // $poly_conn
3 *14 *14:9 0.001164  // $metal1_conn
4 *3:g *14:8 45  // $metal1_conn
5 *14:7 *14:8 0.001293  // $metal1_conn
6 *14:7 *14:9 0.02268  // $metal1_conn

*END

*D_NET *18 4.18857e-16

*CONN
*P *18 I *C 2.1000 0.8550 
*I *25:g B *C 1.3575 0.4450 
*I *2:g B *C 1.8725 0.4450 
*I *6:g B *C 1.3575 1.1200 
*I *13:g B *C 1.9725 1.1200 

*CAP
0 *13:g 3.05917e-16
1 *2:g 3.51121e-17
2 *25:g 4.01675e-17
3 *18 3.76609e-17

*RES
0 *13:g *2:g 16.530039  // $poly_conn
1 *13:g *25:g 19.691952  // $poly_conn
2 *18 *13:g 0.181562  // $metal1_conn

*END

*D_NET *19 2.63803e-16

*CONN
*P *19 I *C 1.7000 0.8550 
*I *26:g B *C 1.5225 0.4450 
*I *28:g B *C 1.7275 0.4450 
*I *8:g B *C 1.5625 1.1200 
*I *10:g B *C 1.7675 1.1200 
*N *19:3 *C 1.6900 0.6725 
*N *19:7 *C 1.6900 0.8000 
*N *19:8 *C 1.6950 0.8000 
*N *19:9 *C 1.6950 0.8550 

*CAP
0 *10:g 9.74932e-17
1 *28:g 3.40119e-17
2 *26:g 4.6179e-17
3 *19:8 2.61404e-17
4 *19:3 1.74851e-17
5 *19 4.24938e-17

*RES
0 *19:3 *28:g 21.479137  // $poly_conn
1 *19:3 *26:g 50.137512  // $poly_conn
2 *10:g *19:3 9.057502  // $poly_conn
3 *19:9 *19 0.001206  // $metal1_conn
4 *10:g *19:7 45  // $metal1_conn
5 *19:7 *19:8 0.001097  // $metal1_conn
6 *19:8 *19:9 0.034169  // $metal1_conn

*END

*D_NET *15 4.37963e-16

*CONN
*P *15 O *C 1.1000 0.8550 
*I *22:d B *C 0.7700 0.4450 
*I *23:d B *C 0.7700 0.4450 
*I *26:d B *C 1.6250 0.4450 
*I *28:d B *C 1.6250 0.4450 
*I *6:d B *C 1.4600 1.1200 
*I *8:d B *C 1.4600 1.1200 
*I *10:d B *C 1.8700 1.1200 
*I *13:d B *C 1.8700 1.1200 
*N *15:4 *C 1.1950 0.8550 
*N *15:5 *C 1.1950 0.4450 

*CAP
0 *10:d 1.8347e-16
1 *26:d 5.15728e-17
2 *22:d 5.42308e-17
3 *15:5 7.02989e-17
4 *15:4 4.37441e-17
5 *15 3.46459e-17

*RES
0 *15:4 *15 0.061486  // $metal1_conn
1 *15:5 *26:d 75.306938  // $metal1_conn
2 *15:5 *22:d 75.320694  // $metal1_conn
3 *10:d *15:4 0.27471  // $metal1_conn
4 *15:4 *15:5 0.254737  // $metal1_conn

*END

*D_NET *11 0

*CONN
*I *28:s B *C 1.8000 0.4450 
*I *2:d B *C 1.8000 0.4450 


*RES
0 *2:d *28:s 0.001  // $mwires

*END

*D_NET *9 3.4033e-18

*CONN
*I *25:d B *C 1.4400 0.4450 
*I *26:s B *C 1.4400 0.4450 

*CAP
0 *25:d 3.4033e-18

*RES
0 *26:s *25:d 0.001  // $mwires

*END

*D_NET *7 1.596e-18

*CONN
*I *23:s B *C 0.9250 0.4450 
*I *24:d B *C 0.9250 0.4450 

*CAP
0 *23:s 1.596e-18

*RES
0 *24:d *23:s 0.001  // $mwires

*END

*D_NET *17 0

*CONN
*I *21:d B *C 0.6150 0.4450 
*I *22:s B *C 0.6150 0.4450 


*RES
0 *22:s *21:d 0.001  // $mwires

*END

*D_NET *16 3.7169e-16

*CONN
*I *27:d B *C 0.1800 1.1200 
*I *1:d B *C 0.5800 1.1200 
*I *3:d B *C 0.5800 1.1200 
*I *4:d B *C 1.1675 1.1200 
*I *6:s B *C 1.1675 1.1200 
*I *8:s B *C 1.6650 1.1200 
*I *10:s B *C 1.6650 1.1200 
*I *13:s B *C 2.0650 1.1200 

*CAP
0 *13:s 2.26836e-16
1 *8:s 1.12031e-16
2 *1:d 3.28236e-17

*RES
0 *8:s *13:s 62  // $metal1_conn
1 *13:s *1:d 31.064091  // $metal1_conn

*END

