*SPEF "IEEE 1481-1999"
*DESIGN  "AOI211X1"
*DATE "Mon Sep 27 08:54:13 2010"
*VENDOR "Cadence Design Systems"
*PROGRAM "Assura RCX"
*VERSION "3.2 Red Hat Linux release 7.2 (Enigma) - (09/09/2009-10:39)"
*DESIGN_FLOW "Physical Verification"
*DIVIDER /
*DELIMITER :
*BUS_DELIMITER []
*T_UNIT 1 PS
*C_UNIT 1e15 FF
*R_UNIT 1 OHM
*L_UNIT 1 MH
// DeviceFingerDelim "@"
// MATCHED
// caps2d version: 10

*NAME_MAP
*1 A0
*2 A1
*3 mp0
*4 mp1
*5 mp2
*6 mp3
*7 VSS
*8 C0
*9 net91
*10 net82
*11 net95
*12 mn0
*13 mn1
*14 VDD
*15 mn2
*16 Y
*17 B0
*18 mn3

*GROUND_NETS VSS

*PORTS
*14 I
*7 I
*1 I
*2 I
*17 I
*8 I
*16 O

*D_NET *14 1.74666e-16

*CONN
*P *14 I *C 0.1000 1.7100 
*I *3:s B *C 0.4800 1.2850 
*I *4:s B *C 0.4800 1.2850 
*N *14:1 *C 0.7000 1.7100 
*N *14:2 *C 0.4800 1.7100 

*CAP
0 *3:s 3.92553e-17
1 *14:2 1.11947e-17
2 *14:1 1.17199e-16
3 *14 7.01733e-18

*RES
0 *14:1 *14:2 10.824545  // $metal1_conn
1 *14:2 *14 0.189421  // $metal1_conn
2 *14:2 *3:s 62.182652  // $metal1_conn

*END

*D_NET *7 0

*CONN
*P *7 I *C 0.1000 0.0000 
*I *12:s B *C 0.2850 0.4200 
*I *15:s B *C 0.8525 0.4200 
*I *18:s B *C 0.8525 0.4200 
*N *7:2 *C 0.2750 0.0000 
*N *7:3 *C 0.7000 0.0000 
*N *7:4 *C 0.7000 0.0000 


*RES
0 *12:s *7:2 75.212555  // $metal1_conn
1 *7:2 *7 0.086583  // $metal1_conn
2 *7:2 *7:4 0.211745  // $metal1_conn
3 *7:4 *15:s 75.304504  // $metal1_conn
4 *7:3 *7:4 8.857142  // $metal1_conn

*END

*D_NET *1 2.57553e-16

*CONN
*P *1 I *C 0.3000 0.6650 
*I *12:g B *C 0.3775 0.4200 
*I *3:g B *C 0.3775 1.2850 
*N *1:2 *C 0.3775 0.6600 
*N *1:3 *C 0.3100 0.6600 

*CAP
0 *3:g 5.84121e-17
1 *12:g 4.91849e-17
2 *1:2 4.76575e-17
3 *1:3 1.07712e-17
4 *1 9.15276e-17

*RES
0 *3:g *1:2 106.945374  // $poly_conn
1 *1:2 *1:3 46.611767  // $poly_conn
2 *1:2 *12:g 24.894089  // $poly_conn
3 *1:3 *1 0.003093  // $metal1_conn

*END

*D_NET *2 3.07257e-16

*CONN
*P *2 I *C 0.5000 0.8550 
*I *13:g B *C 0.4825 0.4200 
*I *4:g B *C 0.5825 1.2850 
*N *2:2 *C 0.5100 0.9550 

*CAP
0 *4:g 4.71964e-17
1 *13:g 8.31661e-17
2 *2:2 1.17658e-16
3 *2 5.92365e-17

*RES
0 *4:g *2:2 28.189922  // $poly_conn
1 *2:2 *13:g 92.171066  // $poly_conn
2 *2 *2:2 45.059704  // $metal1_conn

*END

*D_NET *17 2.56123e-16

*CONN
*P *17 I *C 0.7000 0.8550 
*I *15:g B *C 0.7425 0.4200 
*I *5:g B *C 0.7875 1.2850 
*N *17:2 *C 0.7600 0.6700 

*CAP
0 *5:g 6.94726e-17
1 *15:g 3.32817e-17
2 *17:2 1.0142e-16
3 *17 5.19491e-17

*RES
0 *5:g *17:2 96.885857  // $poly_conn
1 *17:2 *15:g 19.962778  // $poly_conn
2 *17 *17:2 45.105221  // $metal1_conn

*END

*D_NET *8 2.16804e-16

*CONN
*P *8 I *C 1.1000 0.8550 
*I *18:g B *C 0.9625 0.4200 
*I *6:g B *C 0.9625 1.2850 
*N *8:2 *C 0.9900 0.7000 

*CAP
0 *6:g 5.44727e-17
1 *18:g 3.18763e-17
2 *8:2 6.31874e-17
3 *8 6.72672e-17

*RES
0 *6:g *8:2 91.486824  // $poly_conn
1 *8:2 *18:g 29.94836  // $poly_conn
2 *8:2 *8 45.130882  // $metal1_conn

*END

*D_NET *16 2.35628e-16

*CONN
*P *16 O *C 1.1000 0.4750 
*I *13:d B *C 0.6125 0.4200 
*I *15:d B *C 0.6125 0.4200 
*I *18:d B *C 1.0675 0.4200 
*I *6:d B *C 1.0550 1.2850 
*N *16:2 *C 1.0900 0.4700 

*CAP
0 *6:d 8.56077e-17
1 *13:d 5.77037e-17
2 *16 9.23164e-17

*RES
0 *16 *16:2 0.005068  // $metal1_conn
1 *16:2 *13:d 75.333633  // $metal1_conn
2 *16 *6:d 21.452858  // $metal1_conn
3 *18:d *16:2 75  // $metal1_conn

*END

*D_NET *11 0

*CONN
*I *12:d B *C 0.4300 0.4200 
*I *13:s B *C 0.4300 0.4200 


*RES
0 *13:s *12:d 0.001  // $mwires

*END

*D_NET *10 0

*CONN
*I *5:d B *C 0.8750 1.2850 
*I *6:s B *C 0.8750 1.2850 


*RES
0 *6:s *5:d 0.001  // $mwires

*END

*D_NET *9 1.27741e-16

*CONN
*I *3:d B *C 0.2850 1.2850 
*I *4:d B *C 0.6850 1.2850 
*I *5:s B *C 0.6850 1.2850 

*CAP
0 *4:d 6.57823e-17
1 *3:d 6.19591e-17

*RES
0 *4:d *3:d 62.423973  // $metal1_conn

*END

