*SPEF "IEEE 1481-1999"
*DESIGN  "AOI21XL"
*DATE "Mon Sep 27 08:56:49 2010"
*VENDOR "Cadence Design Systems"
*PROGRAM "Assura RCX"
*VERSION "3.2 Red Hat Linux release 7.2 (Enigma) - (09/09/2009-10:39)"
*DESIGN_FLOW "Physical Verification"
*DIVIDER /
*DELIMITER :
*BUS_DELIMITER []
*T_UNIT 1 PS
*C_UNIT 1e15 FF
*R_UNIT 1 OHM
*L_UNIT 1 MH
// DeviceFingerDelim "@"
// MATCHED
// caps2d version: 10

*NAME_MAP
*1 mp1
*2 mn2
*3 VDD
*4 mp2
*5 net70
*6 Y
*7 net74
*8 B0
*9 A0
*10 mn0
*11 A1
*12 VSS
*13 mp0
*14 mn1

*GROUND_NETS VSS

*PORTS
*3 I
*12 I
*9 I
*11 I
*8 I
*6 O

*D_NET *3 1.71345e-16

*CONN
*P *3 I *C 0.1000 1.7100 
*I *13:s B *C 0.5150 1.3425 
*I *1:s B *C 0.5150 1.3425 
*N *3:1 *C 0.5000 1.7100 
*N *3:2 *C 0.4300 1.7100 

*CAP
0 *13:s 2.35886e-17
1 *3:2 3.27311e-17
2 *3:1 1.03031e-16
3 *3 1.1994e-17

*RES
0 *3:1 *3:2 15.034943  // $metal1_conn
1 *3:2 *3 0.16485  // $metal1_conn
2 *3:2 *13:s 62.074097  // $metal1_conn

*END

*D_NET *12 0

*CONN
*P *12 I *C 0.1000 0.0000 
*I *10:s B *C 0.2850 0.4525 
*I *2:s B *C 0.8650 0.4525 
*N *12:2 *C 0.2750 0.0000 
*N *12:3 *C 0.5000 0.0000 
*N *12:4 *C 0.5000 0.0000 


*RES
0 *10:s *12:2 75.289291  // $metal1_conn
1 *12:2 *12 0.0868  // $metal1_conn
2 *12:2 *12:4 0.112095  // $metal1_conn
3 *12:4 *2:s 75.454727  // $metal1_conn
4 *12:3 *12:4 12.4  // $metal1_conn

*END

*D_NET *9 2.12812e-16

*CONN
*P *9 I *C 0.1000 0.6650 
*I *10:g B *C 0.3775 0.4525 
*I *13:g B *C 0.2975 1.3425 
*N *9:2 *C 0.2700 0.6600 

*CAP
0 *13:g 5.69721e-17
1 *10:g 3.9763e-17
2 *9:2 7.71556e-17
3 *9 3.89211e-17

*RES
0 *10:g *9:2 37.16428  // $poly_conn
1 *9:2 *13:g 135.760803  // $poly_conn
2 *9:2 *9 45.094498  // $metal1_conn

*END

*D_NET *11 2.92506e-16

*CONN
*P *11 I *C 0.5000 0.2850 
*I *14:g B *C 0.4825 0.4525 
*I *1:g B *C 0.5625 1.3425 
*N *11:2 *C 0.5100 0.6350 

*CAP
0 *1:g 7.00762e-17
1 *14:g 3.99048e-17
2 *11:2 1.33347e-16
3 *11 4.91772e-17

*RES
0 *1:g *11:2 145.903336  // $poly_conn
1 *11:2 *14:g 17.398676  // $poly_conn
2 *11 *11:2 45.209366  // $metal1_conn

*END

*D_NET *8 2.17835e-16

*CONN
*P *8 I *C 0.7000 0.8550 
*I *2:g B *C 0.7725 0.4525 
*I *4:g B *C 0.7675 1.3425 
*N *8:2 *C 0.7700 0.7900 
*N *8:3 *C 0.7100 0.7900 

*CAP
0 *4:g 4.44747e-17
1 *2:g 2.51078e-17
2 *8:3 7.90205e-17
3 *8 6.92318e-17

*RES
0 *2:g *8:2 65.659286  // $poly_conn
1 *8:2 *8:3 46.326286  // $poly_conn
2 *8:2 *4:g 112.157394  // $poly_conn
3 *8:3 *8 0.040348  // $metal1_conn

*END

*D_NET *6 2.01827e-16

*CONN
*P *6 O *C 0.9000 0.6650 
*I *14:d B *C 0.6275 0.4525 
*I *2:d B *C 0.6275 0.4525 
*I *4:d B *C 0.8600 1.3425 

*CAP
0 *4:d 5.61336e-17
1 *14:d 7.38491e-17
2 *6 7.1844e-17

*RES
0 *14:d *6 75.288261  // $metal1_conn
1 *6 *4:d 62.396362  // $metal1_conn

*END

*D_NET *7 0

*CONN
*I *10:d B *C 0.4300 0.4525 
*I *14:s B *C 0.4300 0.4525 


*RES
0 *14:s *10:d 0.001  // $mwires

*END

*D_NET *5 8.9409e-17

*CONN
*I *13:d B *C 0.2050 1.3425 
*I *1:d B *C 0.6650 1.3425 
*I *4:s B *C 0.6650 1.3425 

*CAP
0 *1:d 5.44378e-17
1 *13:d 3.49712e-17

*RES
0 *13:d *1:d 124.27565  // $metal1_conn

*END

