*SPEF "IEEE 1481-1999"
*DESIGN  "AOI222XL"
*DATE "Mon Sep 27 08:59:48 2010"
*VENDOR "Cadence Design Systems"
*PROGRAM "Assura RCX"
*VERSION "3.2 Red Hat Linux release 7.2 (Enigma) - (09/09/2009-10:39)"
*DESIGN_FLOW "Physical Verification"
*DIVIDER /
*DELIMITER :
*BUS_DELIMITER []
*T_UNIT 1 PS
*C_UNIT 1e15 FF
*R_UNIT 1 OHM
*L_UNIT 1 MH
// DeviceFingerDelim "@"
// MATCHED
// caps2d version: 10

*NAME_MAP
*1 net134
*2 mp0
*3 net122
*4 mp1
*5 net139
*6 mp3
*7 net147
*8 mp2
*9 net155
*10 mp4
*11 A0
*12 mp5
*13 A1
*14 VDD
*15 C0
*16 C1
*17 mn0
*18 mn1
*19 mn3
*20 mn2
*21 mn4
*22 mn5
*23 B0
*24 B1
*25 Y
*26 VSS

*GROUND_NETS VSS

*PORTS
*14 I
*26 I
*11 I
*13 I
*23 I
*24 I
*15 I
*16 I
*25 O

*D_NET *14 2.29066e-16

*CONN
*P *14 I *C 0.1000 1.7100 
*I *2:s B *C 0.2000 1.5700 
*I *4:s B *C 0.6250 1.5700 
*N *14:1 *C 1.0000 1.7100 
*N *14:2 *C 0.6000 1.7100 
*N *14:3 *C 0.1750 1.7100 

*CAP
0 *4:s 6.36698e-18
1 *2:s 3.37636e-18
2 *14:3 6.15792e-18
3 *14:2 8.08794e-18
4 *14:1 2.02677e-16
5 *14 2.40032e-18

*RES
0 *14:1 *14:2 7.700297  // $metal1_conn
1 *14:2 *14:3 0.212632  // $metal1_conn
2 *14:3 *14 0.037138  // $metal1_conn
3 *14:2 *4:s 62.074306  // $metal1_conn
4 *14:3 *2:s 62.074306  // $metal1_conn

*END

*D_NET *26 0

*CONN
*P *26 I *C 0.1000 0.0000 
*I *17:s B *C 0.2200 0.3125 
*I *20:s B *C 1.4350 0.3125 
*I *21:s B *C 1.4350 0.3125 
*N *26:2 *C 1.0000 0.0000 
*N *26:3 *C 1.0000 0.0000 
*N *26:4 *C 0.2100 0.0000 


*RES
0 *20:s *26:3 75.251167  // $metal1_conn
1 *26:3 *26:4 0.395777  // $metal1_conn
2 *26:4 *26 0.054689  // $metal1_conn
3 *26:4 *17:s 75.180626  // $metal1_conn
4 *26:2 *26:3 6.2  // $metal1_conn

*END

*D_NET *11 1.89425e-16

*CONN
*P *11 I *C 0.1000 0.8550 
*I *17:g B *C 0.3125 0.3125 
*I *2:g B *C 0.2375 1.0325 
*N *11:2 *C 0.2750 0.6450 

*CAP
0 *2:g 3.24365e-17
1 *17:g 4.05317e-17
2 *11:2 7.49443e-17
3 *11 4.15123e-17

*RES
0 *17:g *11:2 59.451172  // $poly_conn
1 *11:2 *2:g 64.579376  // $poly_conn
2 *11:2 *11 45.185272  // $metal1_conn

*END

*D_NET *13 2.10376e-16

*CONN
*P *13 I *C 0.5000 0.8550 
*I *18:g B *C 0.4675 0.3125 
*I *4:g B *C 0.4675 1.0325 
*N *13:2 *C 0.4950 0.4950 

*CAP
0 *4:g 4.67355e-17
1 *18:g 2.91672e-17
2 *13:2 7.36276e-17
3 *13 6.08455e-17

*RES
0 *4:g *13:2 101.743233  // $poly_conn
1 *13:2 *18:g 19.691952  // $poly_conn
2 *13:2 *13 45.177799  // $metal1_conn

*END

*D_NET *23 2.70025e-16

*CONN
*P *23 I *C 1.3000 0.6650 
*I *20:g B *C 1.2175 0.3125 
*I *8:g B *C 1.2275 1.1825 
*N *23:2 *C 1.2550 0.7750 

*CAP
0 *8:g 4.44119e-17
1 *20:g 5.20422e-17
2 *23:2 1.3869e-16
3 *23 3.48811e-17

*RES
0 *8:g *23:2 65.247986  // $poly_conn
1 *23:2 *20:g 89.73555  // $poly_conn
2 *23 *23:2 45.066525  // $metal1_conn

*END

*D_NET *24 2.33098e-16

*CONN
*P *24 I *C 0.9000 0.8550 
*I *19:g B *C 1.0225 0.3125 
*I *6:g B *C 1.0225 1.1825 
*N *24:2 *C 0.9950 0.6350 

*CAP
0 *6:g 5.23221e-17
1 *19:g 3.43416e-17
2 *24:2 8.2785e-17
3 *24 6.36498e-17

*RES
0 *6:g *24:2 104.307335  // $poly_conn
1 *24:2 *19:g 55.58939  // $poly_conn
2 *24:2 *24 45.070782  // $metal1_conn

*END

*D_NET *15 2.88356e-16

*CONN
*P *15 I *C 1.5000 0.6650 
*I *21:g B *C 1.4825 0.3125 
*I *10:g B *C 1.4825 1.1825 
*N *15:2 *C 1.5100 0.4950 

*CAP
0 *10:g 6.13635e-17
1 *21:g 3.72343e-17
2 *15:2 1.01731e-16
3 *15 8.80272e-17

*RES
0 *10:g *15:2 140.204773  // $poly_conn
1 *15:2 *21:g 19.691952  // $poly_conn
2 *15 *15:2 45.098751  // $metal1_conn

*END

*D_NET *16 2.56959e-16

*CONN
*P *16 I *C 1.7000 0.6650 
*I *22:g B *C 1.6425 0.3125 
*I *12:g B *C 1.7175 1.1825 
*N *16:2 *C 1.6800 0.8600 

*CAP
0 *12:g 3.19877e-17
1 *22:g 5.92579e-17
2 *16:2 1.02506e-16
3 *16 6.32081e-17

*RES
0 *12:g *16:2 47.912708  // $poly_conn
1 *16:2 *22:g 114.579376  // $poly_conn
2 *16 *16:2 45.111393  // $metal1_conn

*END

*D_NET *25 3.37857e-16

*CONN
*P *25 O *C 1.9000 0.4750 
*I *18:d B *C 0.7450 0.3125 
*I *19:d B *C 0.7450 0.3125 
*I *22:d B *C 1.7350 0.3125 
*I *10:d B *C 1.6000 1.1825 
*I *12:d B *C 1.6000 1.1825 
*N *25:3 *C 1.7450 0.3000 

*CAP
0 *10:d 9.00039e-17
1 *22:d 8.38364e-17
2 *18:d 7.26784e-17
3 *25 9.13384e-17

*RES
0 *10:d *25 62.653725  // $metal1_conn
1 *25 *25:3 0.209889  // $metal1_conn
2 *25:3 *18:d 75.599571  // $metal1_conn
3 *22:d *25:3 75  // $metal1_conn

*END

*D_NET *9 3.98484e-18

*CONN
*I *21:d B *C 1.5625 0.3125 
*I *22:s B *C 1.5625 0.3125 

*CAP
0 *21:d 3.98484e-18

*RES
0 *22:s *21:d 0.001  // $mwires

*END

*D_NET *7 5.70603e-18

*CONN
*I *19:s B *C 1.1200 0.3125 
*I *20:d B *C 1.1200 0.3125 

*CAP
0 *19:s 5.70603e-18

*RES
0 *20:d *19:s 0.001  // $mwires

*END

*D_NET *5 0

*CONN
*I *17:d B *C 0.3900 0.3125 
*I *18:s B *C 0.3900 0.3125 


*RES
0 *18:s *17:d 0.001  // $mwires

*END

*D_NET *3 1.82023e-16

*CONN
*I *6:d B *C 0.9300 1.1825 
*I *8:d B *C 1.3550 1.1825 
*I *10:s B *C 1.3550 1.1825 
*I *12:s B *C 1.8100 1.1825 
*N *3:2 *C 1.3300 1.3250 
*N *3:4 *C 1.8200 1.2300 

*CAP
0 *12:s 5.70117e-17
1 *8:d 1.72365e-17
2 *6:d 6.04173e-17
3 *3:2 4.73574e-17

*RES
0 *8:d *3:2 62.050503  // $metal1_conn
1 *3:2 *3:4 0.369828  // $metal1_conn
2 *3:2 *6:d 62.32333  // $metal1_conn
3 *12:s *3:4 62  // $metal1_conn

*END

*D_NET *1 1.58249e-16

*CONN
*I *2:d B *C 0.3525 1.0325 
*I *4:d B *C 0.3525 1.0325 
*I *6:s B *C 1.1250 1.1825 
*I *8:s B *C 1.1250 1.1825 

*CAP
0 *6:s 1.07185e-16
1 *2:d 5.10633e-17

*RES
0 *6:s *2:d 124.477173  // $metal1_conn

*END

