*SPEF "IEEE 1481-1999"
*DESIGN  "AOI2BB2X4"
*DATE "Mon Sep 27 09:03:51 2010"
*VENDOR "Cadence Design Systems"
*PROGRAM "Assura RCX"
*VERSION "3.2 Red Hat Linux release 7.2 (Enigma) - (09/09/2009-10:39)"
*DESIGN_FLOW "Physical Verification"
*DIVIDER /
*DELIMITER :
*BUS_DELIMITER []
*T_UNIT 1 PS
*C_UNIT 1e15 FF
*R_UNIT 1 OHM
*L_UNIT 1 MH
// DeviceFingerDelim "@"
// MATCHED
// caps2d version: 10

*NAME_MAP
*1 Y
*2 VDD
*3 VSS
*4 A0N
*5 B0
*6 B1
*7 net148
*8 net144
*9 A1N
*10 mn3
*11 mn2
*12 mn4
*13 mp3
*14 mn5
*15 mp1
*16 mn5\@1
*17 mp0
*18 mp2
*19 mn4\@1
*20 mp2\@1
*21 mp4
*22 mn4\@2
*23 mp3\@1
*24 mp5
*25 mn4\@3
*26 mn5\@2
*27 mp3\@2
*28 mp5\@1
*29 mn1
*30 mn5\@3
*31 mp2\@2
*32 mp4\@1
*33 mn0
*34 mp2\@3
*35 mp4\@2
*36 mn2\@1
*37 mp3\@3
*38 mp5\@2
*39 mn3\@1
*40 mp5\@3
*41 mn3\@2
*42 mp4\@3
*43 mn2\@2
*44 mn2\@3
*45 mn3\@3
*46 net127
*47 net160\@1
*48 net160\@2
*49 net160\@3
*50 net160
*51 net152
*52 net152\@1
*53 net152\@2
*54 net152\@3

*GROUND_NETS VSS

*PORTS
*2 I
*3 I
*4 I
*9 I
*5 I
*6 I
*1 O

*D_NET *2 5.60318e-16

*CONN
*P *2 I *C 0.1000 1.7100 
*I *18:s B *C 2.2850 1.1500 
*I *13:s B *C 2.2850 1.1500 
*I *15:s B *C 0.4350 1.2200 
*I *17:s B *C 0.4350 1.2200 
*I *20:s B *C 1.0550 1.1500 
*I *23:s B *C 1.0550 1.1500 
*I *27:s B *C 1.4650 1.1500 
*I *31:s B *C 1.4650 1.1500 
*I *34:s B *C 1.8750 1.1500 
*I *37:s B *C 1.8750 1.1500 
*N *2:1 *C 3.3000 1.7100 
*N *2:6 *C 0.4350 1.7100 

*CAP
0 *15:s 3.101e-17
1 *18:s 2.56162e-16
2 *2:6 1.09185e-17
3 *2:1 2.48706e-16
4 *2 1.3521e-17

*RES
0 *2:6 *2 0.16755  // $metal1_conn
1 *2:1 *18:s 7.342035  // $metal1_conn
2 *2:1 *18:s 6.818182  // $metal1_conn
3 *2:6 *15:s 62.222542  // $metal1_conn
4 *18:s *2:6 0.33329  // $metal1_conn

*END

*D_NET *3 0

*CONN
*P *3 I *C 0.1000 0.0000 
*I *11:s B *C 2.4900 0.4050 
*I *12:d B *C 2.4900 0.4050 
*I *19:d B *C 3.3100 0.4050 
*I *22:d B *C 3.3100 0.4050 
*I *25:d B *C 4.0650 0.4050 
*I *29:s B *C 0.3975 0.4450 
*I *33:s B *C 0.3975 0.4450 
*I *36:s B *C 1.1600 0.4050 
*I *43:s B *C 1.7700 0.4050 
*I *44:s B *C 1.7700 0.4050 
*N *3:2 *C 3.3000 0.0000 
*N *3:3 *C 3.3000 0.0000 
*N *3:4 *C 2.4600 0.0000 
*N *3:5 *C 1.7400 0.0000 
*N *3:6 *C 1.1000 0.0000 
*N *3:7 *C 0.3600 0.0000 


*RES
0 *25:d *3:3 75.635994  // $metal1_conn
1 *3:3 *3:4 0.421254  // $metal1_conn
2 *3:4 *3:5 0.360676  // $metal1_conn
3 *3:5 *3:6 0.321367  // $metal1_conn
4 *3:6 *3:7 0.370901  // $metal1_conn
5 *3:7 *3 0.129939  // $metal1_conn
6 *3:3 *19:d 75.224632  // $metal1_conn
7 *3:4 *11:s 75.201073  // $metal1_conn
8 *3:5 *43:s 75.201073  // $metal1_conn
9 *3:6 *36:s 75.214478  // $metal1_conn
10 *3:7 *29:s 75.237373  // $metal1_conn
11 *3:2 *3:3 5.636364  // $metal1_conn
12 *3:2 *3:6 5.636364  // $metal1_conn

*END

*D_NET *4 2.31787e-16

*CONN
*P *4 I *C 0.5000 1.0450 
*I *33:g B *C 0.5375 0.4450 
*I *17:g B *C 0.5375 1.2200 
*N *4:2 *C 0.5100 0.7550 

*CAP
0 *17:g 4.63349e-17
1 *33:g 3.11544e-17
2 *4:2 8.55998e-17
3 *4 6.86977e-17

*RES
0 *17:g *4:2 60.71759  // $poly_conn
1 *4:2 *33:g 37.640671  // $poly_conn
2 *4 *4:2 45.174026  // $metal1_conn

*END

*D_NET *9 2.40378e-16

*CONN
*P *9 I *C 0.3000 0.8550 
*I *29:g B *C 0.2575 0.4450 
*I *15:g B *C 0.3325 1.2200 
*N *9:2 *C 0.2950 0.7550 

*CAP
0 *15:g 4.37723e-17
1 *29:g 2.8064e-17
2 *9:2 7.22604e-17
3 *9 9.62814e-17

*RES
0 *15:g *9:2 62.01527  // $poly_conn
1 *9:2 *29:g 38.938351  // $poly_conn
2 *9 *9:2 45.060009  // $metal1_conn

*END

*D_NET *5 7.95026e-16

*CONN
*P *5 I *C 2.7000 0.6650 
*I *12:g B *C 2.5925 0.4050 
*I *19:g B *C 3.2075 0.4050 
*I *22:g B *C 3.4125 0.4050 
*I *25:g B *C 3.9725 0.4050 
*I *21:g B *C 2.5925 1.1500 
*I *32:g B *C 3.2075 1.1500 
*I *35:g B *C 3.4125 1.1500 
*I *42:g B *C 4.0275 1.1500 

*CAP
0 *25:g 3.24485e-17
1 *22:g 3.67936e-17
2 *19:g 2.73597e-17
3 *12:g 3.5594e-17
4 *5 6.6283e-16

*RES
0 *5 *25:g 26.102209  // $poly_conn
1 *5 *22:g 27.694149  // $poly_conn
2 *5 *19:g 26.411629  // $poly_conn
3 *5 *12:g 24.098839  // $poly_conn

*END

*D_NET *6 5.81731e-16

*CONN
*P *6 I *C 3.1000 0.8550 
*I *14:g B *C 2.8275 0.4050 
*I *16:g B *C 3.0325 0.4050 
*I *26:g B *C 3.5375 0.4050 
*I *30:g B *C 3.8225 0.4050 
*I *24:g B *C 2.7975 1.1500 
*I *28:g B *C 3.0025 1.1500 
*I *38:g B *C 3.6175 1.1500 
*I *40:g B *C 3.8225 1.1500 
*N *6:2 *C 3.0175 0.6325 

*CAP
0 *30:g 4.58143e-17
1 *26:g 5.03755e-17
2 *16:g 2.80729e-17
3 *14:g 4.05078e-17
4 *6:2 2.27887e-17
5 *6 3.94172e-16

*RES
0 *6 *30:g 68.719788  // $poly_conn
1 *6 *26:g 68.680725  // $poly_conn
2 *16:g *6:2 22.471228  // $poly_conn
3 *6:2 *14:g 60.475601  // $poly_conn
4 *6:2 *6 25.511904  // $poly_conn

*END

*D_NET *1 7.30589e-16

*CONN
*P *1 O *C 2.7000 1.0450 
*I *10:d B *C 2.0800 0.4050 
*I *14:s B *C 2.9300 0.4050 
*I *16:s B *C 2.9300 0.4050 
*I *26:s B *C 3.6800 0.4050 
*I *30:s B *C 3.6800 0.4050 
*I *39:d B *C 1.4600 0.4050 
*I *41:d B *C 1.4600 0.4050 
*I *45:d B *C 2.0800 0.4050 
*I *21:d B *C 2.6950 1.1500 
*I *24:d B *C 2.6950 1.1500 
*I *28:d B *C 3.1050 1.1500 
*I *32:d B *C 3.1050 1.1500 
*I *35:d B *C 3.5150 1.1500 
*I *38:d B *C 3.5150 1.1500 
*I *40:d B *C 3.9250 1.1500 
*I *42:d B *C 3.9250 1.1500 
*N *1:10 *C 2.5050 0.4950 
*N *1:12 *C 2.0800 0.4750 

*CAP
0 *39:d 7.68148e-17
1 *26:s 8.34338e-17
2 *14:s 4.78687e-17
3 *10:d 8.78322e-17
4 *1:10 8.9553e-17
5 *1 3.45087e-16

*RES
0 *26:s *1 75.385994  // $metal1_conn
1 *1:10 *14:s 75.294876  // $metal1_conn
2 *10:d *1:12 75  // $metal1_conn
3 *1:12 *39:d 75.477509  // $metal1_conn
4 *1 *1:10 0.482029  // $metal1_conn
5 *1:10 *1:12 0.299628  // $metal1_conn

*END

*D_NET *54 1.07571e-17

*CONN
*I *30:d B *C 3.8975 0.4050 
*I *25:s B *C 3.8975 0.4050 

*CAP
0 *30:d 1.07571e-17

*RES
0 *25:s *30:d 0.001  // $mwires

*END

*D_NET *53 8.84087e-19

*CONN
*I *22:s B *C 3.4750 0.4050 
*I *26:d B *C 3.4750 0.4050 

*CAP
0 *22:s 8.84087e-19

*RES
0 *26:d *22:s 0.001  // $mwires

*END

*D_NET *52 0

*CONN
*I *16:d B *C 3.1200 0.4050 
*I *19:s B *C 3.1200 0.4050 


*RES
0 *19:s *16:d 0.001  // $mwires

*END

*D_NET *51 5.43037e-18

*CONN
*I *12:s B *C 2.7100 0.4050 
*I *14:d B *C 2.7100 0.4050 

*CAP
0 *12:s 5.43037e-18

*RES
0 *14:d *12:s 0.001  // $mwires

*END

*D_NET *50 4.83714e-18

*CONN
*I *10:s B *C 2.2850 0.4050 
*I *11:d B *C 2.2850 0.4050 

*CAP
0 *10:s 4.83714e-18

*RES
0 *11:d *10:s 0.001  // $mwires

*END

*D_NET *49 1.73025e-18

*CONN
*I *44:d B *C 1.9250 0.4050 
*I *45:s B *C 1.9250 0.4050 

*CAP
0 *44:d 1.73025e-18

*RES
0 *45:s *44:d 0.001  // $mwires

*END

*D_NET *48 1.73025e-18

*CONN
*I *41:s B *C 1.6150 0.4050 
*I *43:d B *C 1.6150 0.4050 

*CAP
0 *41:s 1.73025e-18

*RES
0 *43:d *41:s 0.001  // $mwires

*END

*D_NET *47 0

*CONN
*I *36:d B *C 1.3050 0.4050 
*I *39:s B *C 1.3050 0.4050 


*RES
0 *39:s *36:d 0.001  // $mwires

*END

*D_NET *46 7.03653e-16

*CONN
*I *18:d B *C 2.4900 1.1500 
*I *21:s B *C 2.4900 1.1500 
*I *24:s B *C 2.9000 1.1500 
*I *28:s B *C 2.9000 1.1500 
*I *32:s B *C 3.3100 1.1500 
*I *35:s B *C 3.3100 1.1500 
*I *38:s B *C 3.7200 1.1500 
*I *40:s B *C 3.7200 1.1500 
*I *42:s B *C 4.1200 1.1500 
*I *13:d B *C 2.0800 1.1500 
*I *20:d B *C 0.8800 1.1500 
*I *23:d B *C 1.2600 1.1500 
*I *27:d B *C 1.2600 1.1500 
*I *31:d B *C 1.6700 1.1500 
*I *34:d B *C 1.6700 1.1500 
*I *37:d B *C 2.0800 1.1500 

*CAP
0 *42:s 7.03653e-16


*END

*D_NET *8 1.05278e-15

*CONN
*I *10:g B *C 2.1825 0.4050 
*I *29:d B *C 0.1650 0.4450 
*I *39:g B *C 1.3575 0.4050 
*I *41:g B *C 1.5625 0.4050 
*I *45:g B *C 1.9775 0.4050 
*I *13:g B *C 2.1825 1.1500 
*I *15:d B *C 0.2400 1.2200 
*I *23:g B *C 1.1575 1.1500 
*I *27:g B *C 1.3625 1.1500 
*I *37:g B *C 1.9775 1.1500 
*N *8:15 *C 0.1550 0.5150 

*CAP
0 *15:d 8.90842e-17
1 *13:g 5.90092e-16
2 *45:g 4.44056e-17
3 *41:g 6.06707e-17
4 *39:g 4.60257e-17
5 *29:d 1.98507e-16
6 *10:g 2.39899e-17

*RES
0 *13:g *10:g 20.001841  // $poly_conn
1 *13:g *45:g 19.719322  // $poly_conn
2 *41:g *13:g 55.112999  // $poly_conn
3 *13:g *39:g 19.301718  // $poly_conn
4 *8:15 *15:d 62.655807  // $metal1_conn
5 *29:d *8:15 75  // $metal1_conn
6 *13:g *8:15 1.243297  // $metal1_conn

*END

*D_NET *7 1.00891e-15

*CONN
*I *11:g B *C 2.3875 0.4050 
*I *33:d B *C 0.6500 0.4450 
*I *36:g B *C 1.2525 0.4050 
*I *43:g B *C 1.6675 0.4050 
*I *44:g B *C 1.8725 0.4050 
*I *18:g B *C 2.3875 1.1500 
*I *17:d B *C 0.6950 1.0850 
*I *20:g B *C 0.9525 1.1500 
*I *31:g B *C 1.5675 1.1500 
*I *34:g B *C 1.7725 1.1500 
*N *7:16 *C 0.6800 0.8150 

*CAP
0 *17:d 5.49074e-17
1 *18:g 6.3148e-16
2 *44:g 6.07455e-17
3 *43:g 5.69086e-17
4 *36:g 7.39112e-17
5 *33:d 4.44003e-17
6 *11:g 4.70071e-17
7 *7:16 3.95527e-17

*RES
0 *18:g *11:g 68.483833  // $poly_conn
1 *44:g *18:g 83.006393  // $poly_conn
2 *18:g *43:g 60.988419  // $poly_conn
3 *36:g *18:g 110.053429  // $poly_conn
4 *7:16 *17:d 62.217327  // $metal1_conn
5 *7:16 *33:d 75.215843  // $metal1_conn
6 *18:g *7:16 0.209574  // $metal1_conn

*END

