*SPEF "IEEE 1481-1999"
*DESIGN  "AOI31X1"
*DATE "Mon Sep 27 09:04:35 2010"
*VENDOR "Cadence Design Systems"
*PROGRAM "Assura RCX"
*VERSION "3.2 Red Hat Linux release 7.2 (Enigma) - (09/09/2009-10:39)"
*DESIGN_FLOW "Physical Verification"
*DIVIDER /
*DELIMITER :
*BUS_DELIMITER []
*T_UNIT 1 PS
*C_UNIT 1e15 FF
*R_UNIT 1 OHM
*L_UNIT 1 MH
// DeviceFingerDelim "@"
// MATCHED
// caps2d version: 10

*NAME_MAP
*1 A0
*2 A1
*3 A2
*4 mp0
*5 mp1
*6 mp2
*7 mp3
*8 VSS
*9 net81
*10 net97
*11 net93
*12 mn0
*13 mn1
*14 VDD
*15 mn2
*16 Y
*17 B0
*18 mn3

*GROUND_NETS VSS

*PORTS
*14 I
*8 I
*1 I
*2 I
*3 I
*17 I
*16 O

*D_NET *14 2.14397e-16

*CONN
*P *14 I *C 0.1000 1.7100 
*I *4:s B *C 0.1950 1.2850 
*I *5:s B *C 0.5950 1.2850 
*I *6:s B *C 0.5950 1.2850 
*N *14:2 *C 0.6000 1.7100 
*N *14:3 *C 0.6000 1.7100 
*N *14:4 *C 0.1850 1.7100 

*CAP
0 *5:s 5.9409e-17
1 *4:s 3.78478e-17
2 *14:4 1.01642e-17
3 *14:2 1.06976e-16

*RES
0 *5:s *14:3 31.219843  // $metal1_conn
1 *14:3 *14:4 0.207919  // $metal1_conn
2 *14:4 *14 0.042172  // $metal1_conn
3 *14:4 *4:s 20.94593  // $metal1_conn
4 *14:2 *14:3 12.5  // $metal1_conn

*END

*D_NET *8 0

*CONN
*P *8 I *C 0.1000 0.0000 
*I *12:s B *C 0.2950 0.3600 
*I *18:s B *C 0.9550 0.3600 
*N *8:2 *C 0.6000 0.0000 
*N *8:3 *C 0.6000 0.0000 
*N *8:4 *C 0.2850 0.0000 


*RES
0 *18:s *8:3 37.925869  // $metal1_conn
1 *8:3 *8:4 0.157771  // $metal1_conn
2 *8:4 *8 0.092328  // $metal1_conn
3 *8:4 *12:s 37.71476  // $metal1_conn
4 *8:2 *8:3 10.333333  // $metal1_conn

*END

*D_NET *1 2.51933e-16

*CONN
*P *1 I *C 0.3000 0.5900 
*I *12:g B *C 0.3875 0.3600 
*I *4:g B *C 0.2875 1.2850 
*N *1:2 *C 0.3100 0.8500 

*CAP
0 *4:g 4.12695e-17
1 *12:g 7.03966e-17
2 *1:2 9.68381e-17
3 *1 4.34287e-17

*RES
0 *12:g *1:2 92.173897  // $poly_conn
1 *1:2 *4:g 52.052654  // $poly_conn
2 *1 *1:2 45.156025  // $metal1_conn

*END

*D_NET *2 3.42367e-16

*CONN
*P *2 I *C 0.5000 0.7350 
*I *13:g B *C 0.4925 0.3600 
*I *5:g B *C 0.4925 1.2850 
*N *2:2 *C 0.5200 0.6000 

*CAP
0 *5:g 7.17296e-17
1 *13:g 6.39211e-17
2 *2:2 1.08474e-16
3 *2 9.82425e-17

*RES
0 *5:g *2:2 117.127853  // $poly_conn
1 *2:2 *13:g 19.691952  // $poly_conn
2 *2:2 *2 45.078831  // $metal1_conn

*END

*D_NET *3 2.89444e-16

*CONN
*P *3 I *C 0.7000 0.8800 
*I *15:g B *C 0.6525 0.3600 
*I *6:g B *C 0.6975 1.2850 
*N *3:2 *C 0.6900 0.7650 

*CAP
0 *6:g 5.80203e-17
1 *15:g 5.87629e-17
2 *3:2 1.01139e-16
3 *3 7.15215e-17

*RES
0 *6:g *3:2 73.847527  // $poly_conn
1 *3:2 *15:g 61.027016  // $poly_conn
2 *3 *3:2 45.064854  // $metal1_conn

*END

*D_NET *17 2.30653e-16

*CONN
*P *17 I *C 0.8800 1.0200 
*I *18:g B *C 0.8625 0.3600 
*I *7:g B *C 0.9175 1.2850 
*N *17:2 *C 0.8900 0.7650 

*CAP
0 *7:g 4.52907e-17
1 *18:g 3.72271e-17
2 *17:2 9.89958e-17
3 *17 4.91391e-17

*RES
0 *7:g *17:2 74.820152  // $poly_conn
1 *17:2 *18:g 61.999645  // $poly_conn
2 *17 *17:2 45.161079  // $metal1_conn

*END

*D_NET *16 2.22168e-16

*CONN
*P *16 O *C 1.0300 1.1900 
*I *15:d B *C 0.7575 0.3600 
*I *18:d B *C 0.7575 0.3600 
*I *7:d B *C 1.0100 1.2850 

*CAP
0 *7:d 2.75294e-17
1 *15:d 1.1521e-16
2 *16 7.94289e-17

*RES
0 *7:d *16 20.734138  // $metal1_conn
1 *16 *15:d 38.254356  // $metal1_conn

*END

*D_NET *11 0

*CONN
*I *12:d B *C 0.4400 0.3600 
*I *13:s B *C 0.4400 0.3600 


*RES
0 *13:s *12:d 0.001  // $mwires

*END

*D_NET *10 0

*CONN
*I *13:d B *C 0.5725 0.3600 
*I *15:s B *C 0.5725 0.3600 


*RES
0 *15:s *13:d 0.001  // $mwires

*END

*D_NET *9 1.79695e-16

*CONN
*I *4:d B *C 0.3900 1.2850 
*I *5:d B *C 0.3900 1.2850 
*I *6:d B *C 0.8075 1.2850 
*I *7:s B *C 0.8075 1.2850 

*CAP
0 *6:d 9.14319e-17
1 *4:d 8.82629e-17

*RES
0 *4:d *6:d 62.578724  // $metal1_conn

*END

