*SPEF "IEEE 1481-1999"
*DESIGN  "AOI32X4"
*DATE "Mon Sep 27 09:06:55 2010"
*VENDOR "Cadence Design Systems"
*PROGRAM "Assura RCX"
*VERSION "3.2 Red Hat Linux release 7.2 (Enigma) - (09/09/2009-10:39)"
*DESIGN_FLOW "Physical Verification"
*DIVIDER /
*DELIMITER :
*BUS_DELIMITER []
*T_UNIT 1 PS
*C_UNIT 1e15 FF
*R_UNIT 1 OHM
*L_UNIT 1 MH
// DeviceFingerDelim "@"
// MATCHED
// caps2d version: 10

*NAME_MAP
*1 mn2\@2
*2 mn1\@2
*3 mn0\@2
*4 mn0\@3
*5 mn1\@3
*6 mn2\@3
*7 B0
*8 B1
*9 mn2
*10 mp3\@3
*11 mp0\@1
*12 mp1\@1
*13 mp2
*14 mp2\@1
*15 mp1\@2
*16 mp0\@2
*17 mp0\@3
*18 mp1\@3
*19 mp2\@2
*20 net122\@2
*21 mp1
*22 net122\@3
*23 mp0
*24 net122\@4
*25 mp3
*26 net122\@5
*27 mp4
*28 net122\@6
*29 mp4\@1
*30 net122\@7
*31 mp3\@1
*32 net122\@1
*33 mp3\@2
*34 net122
*35 mp2\@3
*36 mp4\@2
*37 net118
*38 mp4\@3
*39 net118\@1
*40 net118\@2
*41 net118\@3
*42 VSS
*43 mn1
*44 mn0
*45 mn3
*46 mn4
*47 mn4\@1
*48 VDD
*49 mn3\@1
*50 mn3\@2
*51 mn4\@2
*52 mn4\@3
*53 A0
*54 net106
*55 A1
*56 A2
*57 Y
*58 mn3\@3
*59 mn0\@1
*60 mn1\@1
*61 mn2\@1

*GROUND_NETS VSS

*PORTS
*48 I
*42 I
*53 I
*55 I
*56 I
*7 I
*8 I
*57 O

*D_NET *48 5.65462e-16

*CONN
*P *48 I *C 0.1000 1.7100 
*I *21:s B *C 2.4500 1.1700 
*I *23:s B *C 2.4500 1.1700 
*I *11:s B *C 0.3650 1.1700 
*I *12:s B *C 0.3650 1.1700 
*I *13:s B *C 0.7750 1.1700 
*I *14:s B *C 0.7750 1.1700 
*I *15:s B *C 1.2125 1.1700 
*I *16:s B *C 1.2125 1.1700 
*I *17:s B *C 1.6300 1.1700 
*I *18:s B *C 1.6300 1.1700 
*I *19:s B *C 2.0400 1.1700 
*I *35:s B *C 2.0400 1.1700 
*N *48:1 *C 3.5000 1.7100 

*CAP
0 *21:s 3.19294e-16
1 *48:1 2.39176e-16
2 *48 6.99203e-18

*RES
0 *21:s *48 0.132402  // $metal1_conn
1 *48:1 *21:s 7.344367  // $metal1_conn
2 *48:1 *21:s 6.25  // $metal1_conn

*END

*D_NET *42 0

*CONN
*P *42 I *C 0.1000 0.0000 
*I *44:s B *C 2.7500 0.4050 
*I *45:s B *C 2.7500 0.4050 
*I *49:s B *C 3.5300 0.4050 
*I *50:s B *C 3.5300 0.4050 
*I *58:s B *C 4.0850 0.4050 
*I *59:s B *C 0.3700 0.4050 
*I *3:s B *C 1.4800 0.4050 
*I *4:s B *C 1.4800 0.4050 
*N *42:2 *C 3.5000 0.0000 
*N *42:3 *C 3.5000 0.0000 
*N *42:4 *C 2.6400 0.0000 
*N *42:5 *C 1.3950 0.0000 
*N *42:6 *C 1.2000 0.0000 
*N *42:7 *C 0.3300 0.0000 


*RES
0 *58:s *42:3 75.54493  // $metal1_conn
1 *42:3 *42:4 0.429986  // $metal1_conn
2 *42:4 *42:5 0.621847  // $metal1_conn
3 *42:5 *42:6 0.096611  // $metal1_conn
4 *42:6 *42:7 0.435948  // $metal1_conn
5 *42:7 *42 0.114856  // $metal1_conn
6 *42:3 *49:s 75.060997  // $metal1_conn
7 *42:4 *44:s 75.045799  // $metal1_conn
8 *42:5 *3:s 75.045799  // $metal1_conn
9 *42:7 *59:s 75.2005  // $metal1_conn
10 *42:2 *42:3 5.636364  // $metal1_conn
11 *42:2 *42:6 5.166667  // $metal1_conn

*END

*D_NET *53 1.02371e-15

*CONN
*P *53 I *C 2.5000 0.6650 
*I *44:g B *C 2.5075 0.4050 
*I *59:g B *C 0.4625 0.4050 
*I *3:g B *C 1.2625 0.4050 
*I *4:g B *C 1.5275 0.4050 
*I *23:g B *C 2.5525 1.1700 
*I *11:g B *C 0.2625 1.1700 
*I *16:g B *C 1.3225 1.1700 
*I *17:g B *C 1.5275 1.1700 

*CAP
0 *4:g 3.34247e-17
1 *3:g 5.12719e-17
2 *59:g 4.70028e-17
3 *44:g 4.47781e-17
4 *53 8.47231e-16

*RES
0 *53 *44:g 26.786449  // $poly_conn
1 *53 *4:g 16.15522  // $poly_conn
2 *53 *3:g 65.568573  // $poly_conn
3 *59:g *53 20.156593  // $poly_conn

*END

*D_NET *55 1.0539e-15

*CONN
*P *55 I *C 0.7000 0.8550 
*I *43:g B *C 2.3475 0.4050 
*I *60:g B *C 0.5675 0.4050 
*I *2:g B *C 1.1025 0.4050 
*I *5:g B *C 1.6775 0.4050 
*I *21:g B *C 2.3475 1.1700 
*I *12:g B *C 0.4675 1.1700 
*I *15:g B *C 1.1025 1.1700 
*I *18:g B *C 1.7325 1.1700 

*CAP
0 *21:g 8.0728e-16
1 *5:g 4.75092e-17
2 *2:g 6.91378e-17
3 *60:g 6.29335e-17
4 *43:g 4.48792e-17
5 *55 2.21632e-17

*RES
0 *21:g *43:g 35.150497  // $poly_conn
1 *21:g *5:g 37.640671  // $poly_conn
2 *21:g *2:g 29.94836  // $poly_conn
3 *60:g *21:g 29.948362  // $poly_conn
4 *21:g *55 0.083906  // $metal1_conn

*END

*D_NET *56 6.6917e-16

*CONN
*P *56 I *C 1.1000 0.8550 
*I *61:g B *C 0.7925 0.4050 
*I *1:g B *C 0.9975 0.4050 
*I *6:g B *C 1.9225 0.4050 
*I *9:g B *C 2.1275 0.4050 
*I *13:g B *C 0.6725 1.1700 
*I *14:g B *C 0.8775 1.1700 
*I *19:g B *C 1.9375 1.1700 
*I *35:g B *C 2.1425 1.1700 
*N *56:2 *C 0.8775 0.6325 
*N *56:9 *C 1.9225 0.6325 

*CAP
0 *9:g 4.07732e-17
1 *6:g 2.27052e-17
2 *1:g 5.58217e-17
3 *61:g 2.68138e-17
4 *56:9 2.12886e-17
5 *56:2 3.79006e-17
6 *56 4.63867e-16

*RES
0 *56:9 *9:g 66.950577  // $poly_conn
1 *56:9 *6:g 23.847994  // $poly_conn
2 *1:g *56:2 48.703209  // $poly_conn
3 *56:2 *61:g 39.728855  // $poly_conn
4 *56 *56:9 51.541676  // $poly_conn
5 *56:2 *56 41.583908  // $poly_conn

*END

*D_NET *7 7.77628e-16

*CONN
*P *7 I *C 3.1000 0.6650 
*I *45:g B *C 2.8225 0.4050 
*I *49:g B *C 3.3125 0.4050 
*I *50:g B *C 3.5775 0.4050 
*I *58:g B *C 3.9925 0.4050 
*I *25:g B *C 2.7975 1.1700 
*I *31:g B *C 3.4125 1.1700 
*I *33:g B *C 3.6175 1.1700 
*I *10:g B *C 4.2325 1.1700 

*CAP
0 *58:g 6.95746e-17
1 *50:g 5.12615e-17
2 *49:g 6.86301e-17
3 *45:g 4.13999e-17
4 *7 5.46761e-16

*RES
0 *7 *58:g 65.369408  // $poly_conn
1 *7 *50:g 24.847527  // $poly_conn
2 *7 *49:g 71.779663  // $poly_conn
3 *45:g *7 21.283424  // $poly_conn

*END

*D_NET *8 6.60036e-16

*CONN
*P *8 I *C 3.3000 0.8550 
*I *46:g B *C 3.0025 0.4050 
*I *47:g B *C 3.2075 0.4050 
*I *51:g B *C 3.6825 0.4050 
*I *52:g B *C 3.8875 0.4050 
*I *27:g B *C 3.0025 1.1700 
*I *29:g B *C 3.2075 1.1700 
*I *36:g B *C 3.8225 1.1700 
*I *38:g B *C 4.0275 1.1700 
*N *8:3 *C 3.1800 0.7725 
*N *8:9 *C 3.7950 0.6325 

*CAP
0 *52:g 4.74574e-17
1 *51:g 4.92952e-17
2 *47:g 5.53628e-17
3 *46:g 4.50267e-17
4 *8:9 4.22521e-17
5 *8:3 4.9433e-17
6 *8 3.71209e-16

*RES
0 *8:9 *52:g 37.726391  // $poly_conn
1 *8:9 *51:g 42.854599  // $poly_conn
2 *8:3 *47:g 57.73457  // $poly_conn
3 *8:3 *46:g 90.681992  // $poly_conn
4 *8 *8:9 17.18799  // $poly_conn
5 *8 *8:3 4.900733  // $poly_conn

*END

*D_NET *57 8.71181e-16

*CONN
*P *57 O *C 2.9000 0.8550 
*I *46:d B *C 3.1050 0.4050 
*I *47:d B *C 3.1050 0.4050 
*I *51:d B *C 3.7850 0.4050 
*I *52:d B *C 3.7850 0.4050 
*I *61:d B *C 0.8950 0.4050 
*I *1:d B *C 0.8950 0.4050 
*I *6:d B *C 2.0250 0.4050 
*I *9:d B *C 2.0250 0.4050 
*I *25:d B *C 2.9000 1.1700 
*I *27:d B *C 2.9000 1.1700 
*I *29:d B *C 3.3100 1.1700 
*I *31:d B *C 3.3100 1.1700 
*I *33:d B *C 3.7200 1.1700 
*I *36:d B *C 3.7200 1.1700 
*I *38:d B *C 4.1300 1.1700 
*I *10:d B *C 4.1300 1.1700 
*N *57:3 *C 3.1050 0.3650 
*N *57:4 *C 2.6700 0.3650 
*N *57:6 *C 2.0250 0.3650 

*CAP
0 *38:d 2.66828e-16
1 *6:d 1.60668e-16
2 *61:d 1.314e-16
3 *51:d 5.94711e-17
4 *46:d 7.04866e-17
5 *57:4 1.07147e-16
6 *57 7.51813e-17

*RES
0 *57:4 *57 0.465282  // $metal1_conn
1 *57 *38:d 0.112872  // $metal1_conn
2 *51:d *57:3 75.4599  // $metal1_conn
3 *46:d *57:3 75  // $metal1_conn
4 *6:d *57:6 75  // $metal1_conn
5 *57:6 *61:d 75.844719  // $metal1_conn
6 *57:3 *57:4 0.300216  // $metal1_conn
7 *57:4 *57:6 0.48026  // $metal1_conn

*END

*D_NET *41 0

*CONN
*I *52:s B *C 3.9400 0.4050 
*I *58:d B *C 3.9400 0.4050 


*RES
0 *58:d *52:s 0.001  // $mwires

*END

*D_NET *40 2.05789e-18

*CONN
*I *50:d B *C 3.6300 0.4050 
*I *51:s B *C 3.6300 0.4050 

*CAP
0 *50:d 2.05789e-18

*RES
0 *51:s *50:d 0.001  // $mwires

*END

*D_NET *39 1.90394e-18

*CONN
*I *47:s B *C 3.2600 0.4050 
*I *49:d B *C 3.2600 0.4050 

*CAP
0 *47:s 1.90394e-18

*RES
0 *49:d *47:s 0.001  // $mwires

*END

*D_NET *37 3.65788e-18

*CONN
*I *45:d B *C 2.9125 0.4050 
*I *46:s B *C 2.9125 0.4050 

*CAP
0 *45:d 3.65788e-18

*RES
0 *46:s *45:d 0.001  // $mwires

*END

*D_NET *34 4.16191e-18

*CONN
*I *43:s B *C 2.4275 0.4050 
*I *44:d B *C 2.4275 0.4050 

*CAP
0 *43:s 4.16191e-18

*RES
0 *44:d *43:s 0.001  // $mwires

*END

*D_NET *32 6.36415e-18

*CONN
*I *43:d B *C 2.2375 0.4050 
*I *9:s B *C 2.2375 0.4050 

*CAP
0 *43:d 6.36415e-18

*RES
0 *9:s *43:d 0.001  // $mwires

*END

*D_NET *30 7.38647e-18

*CONN
*I *5:s B *C 1.8000 0.4050 
*I *6:s B *C 1.8000 0.4050 

*CAP
0 *5:s 7.38647e-18

*RES
0 *6:s *5:s 0.001  // $mwires

*END

*D_NET *28 3.93582e-18

*CONN
*I *4:d B *C 1.6025 0.4050 
*I *5:d B *C 1.6025 0.4050 

*CAP
0 *4:d 3.93582e-18

*RES
0 *5:d *4:d 0.001  // $mwires

*END

*D_NET *26 4.21889e-18

*CONN
*I *2:s B *C 1.1825 0.4050 
*I *3:d B *C 1.1825 0.4050 

*CAP
0 *2:s 4.21889e-18

*RES
0 *3:d *2:s 0.001  // $mwires

*END

*D_NET *24 2.24904e-18

*CONN
*I *1:s B *C 1.0500 0.4050 
*I *2:d B *C 1.0500 0.4050 

*CAP
0 *1:s 2.24904e-18

*RES
0 *2:d *1:s 0.001  // $mwires

*END

*D_NET *22 4.06732e-18

*CONN
*I *60:s B *C 0.6800 0.4050 
*I *61:s B *C 0.6800 0.4050 

*CAP
0 *60:s 4.06732e-18

*RES
0 *61:s *60:s 0.001  // $mwires

*END

*D_NET *20 1.36221e-18

*CONN
*I *59:d B *C 0.5150 0.4050 
*I *60:d B *C 0.5150 0.4050 

*CAP
0 *59:d 1.36221e-18

*RES
0 *60:d *59:d 0.001  // $mwires

*END

*D_NET *54 7.78962e-16

*CONN
*I *21:d B *C 2.2450 1.1700 
*I *23:d B *C 2.6750 1.1700 
*I *25:s B *C 2.6750 1.1700 
*I *27:s B *C 3.1050 1.1700 
*I *29:s B *C 3.1050 1.1700 
*I *31:s B *C 3.5150 1.1700 
*I *33:s B *C 3.5150 1.1700 
*I *36:s B *C 3.9250 1.1700 
*I *38:s B *C 3.9250 1.1700 
*I *10:s B *C 4.3250 1.1700 
*I *11:d B *C 0.1700 1.1700 
*I *12:d B *C 0.5700 1.1700 
*I *13:d B *C 0.5700 1.1700 
*I *14:d B *C 0.9900 1.1700 
*I *15:d B *C 0.9900 1.1700 
*I *16:d B *C 1.4250 1.1700 
*I *17:d B *C 1.4250 1.1700 
*I *18:d B *C 1.8350 1.1700 
*I *19:d B *C 1.8350 1.1700 
*I *35:d B *C 2.2450 1.1700 

*CAP
0 *10:s 7.78962e-16


*END

