*SPEF "IEEE 1481-1999"
*DESIGN  "AOI33XL"
*DATE "Mon Sep 27 09:08:45 2010"
*VENDOR "Cadence Design Systems"
*PROGRAM "Assura RCX"
*VERSION "3.2 Red Hat Linux release 7.2 (Enigma) - (09/09/2009-10:39)"
*DESIGN_FLOW "Physical Verification"
*DIVIDER /
*DELIMITER :
*BUS_DELIMITER []
*T_UNIT 1 PS
*C_UNIT 1e15 FF
*R_UNIT 1 OHM
*L_UNIT 1 MH
// DeviceFingerDelim "@"
// MATCHED
// caps2d version: 10

*NAME_MAP
*1 net124
*2 mp0
*3 net149
*4 mp1
*5 net153
*6 mp2
*7 net141
*8 mp5
*9 net137
*10 mp4
*11 A0
*12 mp3
*13 A1
*14 VDD
*15 A2
*16 mn0
*17 mn1
*18 mn2
*19 mn5
*20 mn4
*21 mn3
*22 B0
*23 B1
*24 B2
*25 Y
*26 VSS

*GROUND_NETS VSS

*PORTS
*14 I
*26 I
*11 I
*13 I
*15 I
*22 I
*23 I
*24 I
*25 O

*D_NET *14 1.86812e-16

*CONN
*P *14 I *C 0.1000 1.7100 
*I *2:s B *C 0.1250 1.5700 
*I *4:s B *C 0.5250 1.2525 
*I *6:s B *C 0.5250 1.2525 
*N *14:1 *C 0.7000 1.7100 
*N *14:2 *C 0.4400 1.7100 

*CAP
0 *4:s 1.27014e-17
1 *14:2 7.61199e-18
2 *14:1 1.60743e-16
3 *14 5.75625e-18

*RES
0 *14:1 *14:2 10.844519  // $metal1_conn
1 *14:2 *14 0.170416  // $metal1_conn
2 *14 *2:s 62.084423  // $metal1_conn
3 *14:2 *4:s 62.074837  // $metal1_conn

*END

*D_NET *26 0

*CONN
*P *26 I *C 0.1000 0.0000 
*I *16:s B *C 0.1450 0.3625 
*I *21:d B *C 1.2250 0.2975 
*N *26:2 *C 0.1350 0.0000 
*N *26:3 *C 0.7000 0.0000 
*N *26:4 *C 0.7000 0.0000 


*RES
0 *16:s *26:2 75.215591  // $metal1_conn
1 *26:2 *26 0.016697  // $metal1_conn
2 *26:2 *26:4 0.282825  // $metal1_conn
3 *26:4 *21:d 75.371368  // $metal1_conn
4 *26:3 *26:4 8.857142  // $metal1_conn

*END

*D_NET *11 2.07865e-16

*CONN
*P *11 I *C 0.1900 1.0600 
*I *16:g B *C 0.2375 0.3625 
*I *2:g B *C 0.1625 1.2525 
*N *11:2 *C 0.2000 0.6600 

*CAP
0 *2:g 4.11059e-17
1 *16:g 4.33632e-17
2 *11:2 9.02901e-17
3 *11 3.31053e-17

*RES
0 *16:g *11:2 50.476807  // $poly_conn
1 *11:2 *2:g 117.143478  // $poly_conn
2 *11 *11:2 45.240345  // $metal1_conn

*END

*D_NET *13 2.75539e-16

*CONN
*P *13 I *C 0.3950 0.9200 
*I *17:g B *C 0.3775 0.3625 
*I *4:g B *C 0.3775 1.2525 
*N *13:2 *C 0.4050 0.5450 

*CAP
0 *4:g 6.9174e-17
1 *17:g 3.91702e-17
2 *13:2 1.17141e-16
3 *13 5.00539e-17

*RES
0 *4:g *13:2 145.332977  // $poly_conn
1 *13:2 *17:g 19.691952  // $poly_conn
2 *13 *13:2 45.225323  // $metal1_conn

*END

*D_NET *15 2.99795e-16

*CONN
*P *15 I *C 0.5900 0.7800 
*I *18:g B *C 0.5725 0.3625 
*I *6:g B *C 0.5725 1.2525 
*N *15:2 *C 0.6000 1.0350 

*CAP
0 *6:g 4.05269e-17
1 *18:g 7.10334e-17
2 *15:2 1.06559e-16
3 *15 8.16751e-17

*RES
0 *6:g *15:2 19.691952  // $poly_conn
1 *15:2 *18:g 145.332977  // $poly_conn
2 *15 *15:2 45.161285  // $metal1_conn

*END

*D_NET *22 2.82127e-16

*CONN
*P *22 I *C 1.1100 0.5500 
*I *21:g B *C 1.0925 0.3625 
*I *12:g B *C 1.1875 1.2525 
*N *22:2 *C 1.1200 0.8500 

*CAP
0 *12:g 3.80408e-17
1 *21:g 5.88666e-17
2 *22:2 1.36644e-16
3 *22 4.85749e-17

*RES
0 *12:g *22:2 68.948212  // $poly_conn
1 *22:2 *21:g 95.603798  // $poly_conn
2 *22 *22:2 45.18026  // $metal1_conn

*END

*D_NET *23 3.21181e-16

*CONN
*P *23 I *C 0.9100 0.8350 
*I *20:g B *C 0.9825 0.3625 
*I *10:g B *C 0.9825 1.2525 
*N *23:2 *C 0.9400 0.5700 

*CAP
0 *10:g 6.30256e-17
1 *20:g 4.71781e-17
2 *23:2 1.43056e-16
3 *23 6.79216e-17

*RES
0 *10:g *23:2 136.629456  // $poly_conn
1 *23:2 *20:g 23.808931  // $poly_conn
2 *23 *23:2 45.156872  // $metal1_conn

*END

*D_NET *24 3.06062e-16

*CONN
*P *24 I *C 0.7400 0.6400 
*I *19:g B *C 0.7775 0.3625 
*I *8:g B *C 0.7775 1.2525 
*N *24:2 *C 0.7500 0.6600 
*N *24:5 *C 0.7450 0.6600 

*CAP
0 *8:g 5.87035e-17
1 *19:g 4.1155e-17
2 *24:5 1.0767e-16
3 *24:2 5.83893e-17
4 *24 4.01445e-17

*RES
0 *8:g *24:2 115.845802  // $poly_conn
1 *24:2 *19:g 49.179131  // $poly_conn
2 *24 *24:5 0.013095  // $metal1_conn
3 *24:2 *24:5 45  // $metal1_conn

*END

*D_NET *25 3.12835e-16

*CONN
*P *25 O *C 1.3100 1.2350 
*I *18:d B *C 0.6750 0.3625 
*I *19:d B *C 0.6750 0.3625 
*I *8:d B *C 0.8800 1.2525 
*I *10:d B *C 0.8800 1.2525 
*I *12:d B *C 1.2800 1.2525 
*N *25:2 *C 1.2900 1.1400 
*N *25:5 *C 1.2900 1.2300 

*CAP
0 *8:d 5.80359e-17
1 *18:d 1.23612e-16
2 *25:2 1.1663e-16
3 *25 1.45576e-17

*RES
0 *8:d *25:2 62.322758  // $metal1_conn
1 *25:2 *18:d 75.985176  // $metal1_conn
2 *25:2 *25:5 0.067101  // $metal1_conn
3 *25:5 *25 0.002823  // $metal1_conn
4 *12:d *25:5 62  // $metal1_conn

*END

*D_NET *9 2.49504e-18

*CONN
*I *20:d B *C 1.0375 0.3625 
*I *21:s B *C 1.0375 0.3625 

*CAP
0 *20:d 2.49504e-18

*RES
0 *21:s *20:d 0.001  // $mwires

*END

*D_NET *7 5.86439e-18

*CONN
*I *19:s B *C 0.8800 0.3625 
*I *20:s B *C 0.8800 0.3625 

*CAP
0 *19:s 5.86439e-18

*RES
0 *20:s *19:s 0.001  // $mwires

*END

*D_NET *5 1.22763e-19

*CONN
*I *17:d B *C 0.4750 0.3625 
*I *18:s B *C 0.4750 0.3625 

*CAP
0 *17:d 1.22763e-19

*RES
0 *18:s *17:d 0.001  // $mwires

*END

*D_NET *3 0

*CONN
*I *16:d B *C 0.3075 0.3625 
*I *17:s B *C 0.3075 0.3625 


*RES
0 *17:s *16:d 0.001  // $mwires

*END

*D_NET *1 1.62279e-16

*CONN
*I *2:d B *C 0.2700 1.2525 
*I *4:d B *C 0.2700 1.2525 
*I *6:d B *C 0.6750 1.2525 
*I *8:s B *C 0.6750 1.2525 
*I *10:s B *C 1.0850 1.2525 
*I *12:s B *C 1.0850 1.2525 
*N *1:3 *C 0.6750 1.3000 

*CAP
0 *10:s 6.91779e-17
1 *6:d 5.76625e-17
2 *2:d 3.54386e-17

*RES
0 *2:d *1:3 62.273632  // $metal1_conn
1 *1:3 *10:s 62.364983  // $metal1_conn
2 *6:d *1:3 62  // $metal1_conn

*END

