*SPEF "IEEE 1481-1999"
*DESIGN  "AOI31X4"
*DATE "Mon Sep 27 09:05:23 2010"
*VENDOR "Cadence Design Systems"
*PROGRAM "Assura RCX"
*VERSION "3.2 Red Hat Linux release 7.2 (Enigma) - (09/09/2009-10:39)"
*DESIGN_FLOW "Physical Verification"
*DIVIDER /
*DELIMITER :
*BUS_DELIMITER []
*T_UNIT 1 PS
*C_UNIT 1e15 FF
*R_UNIT 1 OHM
*L_UNIT 1 MH
// DeviceFingerDelim "@"
// MATCHED
// caps2d version: 10

*NAME_MAP
*1 VDD
*2 Y
*3 mp2
*4 mp2\@1
*5 net101
*6 mp2\@2
*7 net97
*8 mp2\@3
*9 mp3
*10 mp3\@1
*11 mp3\@2
*12 mp3\@3
*13 mp0\@1
*14 mp0
*15 mp0\@2
*16 mp0\@3
*17 mp1
*18 mp1\@1
*19 mp1\@2
*20 mp1\@3
*21 mn0\@1
*22 mn0\@2
*23 mn0\@3
*24 mn1
*25 mn1\@1
*26 mn1\@2
*27 mn1\@3
*28 VSS
*29 A0
*30 A1
*31 A2
*32 net89
*33 mn2
*34 mn2\@1
*35 B0
*36 mn2\@2
*37 mn2\@3
*38 mn3
*39 mn3\@1
*40 mn3\@2
*41 mn3\@3
*42 mn0

*GROUND_NETS VSS

*PORTS
*1 I
*28 I
*29 I
*30 I
*31 I
*35 I
*2 O

*D_NET *1 4.74406e-16

*CONN
*P *1 I *C 0.1000 1.7100 
*I *3:s B *C 2.1550 1.1500 
*I *4:s B *C 2.1550 1.1500 
*I *6:s B *C 2.5650 1.1500 
*I *8:s B *C 2.5650 1.1500 
*I *14:s B *C 0.5150 1.1500 
*I *13:s B *C 0.5150 1.1500 
*I *15:s B *C 0.9250 1.1500 
*I *16:s B *C 0.9250 1.1500 
*I *17:s B *C 1.3350 1.1500 
*I *18:s B *C 1.3350 1.1500 
*I *19:s B *C 1.7450 1.1500 
*I *20:s B *C 1.7450 1.1500 
*N *1:1 *C 2.9000 1.7100 
*N *1:6 *C 1.0000 1.7100 

*CAP
0 *19:s 9.63739e-17
1 *15:s 1.0214e-16
2 *6:s 9.99326e-17
3 *1:1 1.72035e-16
4 *1 3.92552e-18

*RES
0 *15:s *1 0.207565  // $metal1_conn
1 *1:1 *6:s 8.50105  // $metal1_conn
2 *1:1 *1:6 7.5  // $metal1_conn
3 *6:s *19:s 0.205113  // $metal1_conn
4 *19:s *1:6 0.167717  // $metal1_conn
5 *1:6 *15:s 0.037471  // $metal1_conn

*END

*D_NET *28 0

*CONN
*P *28 I *C 0.1000 0.0000 
*I *38:s B *C 2.9650 0.5250 
*I *39:s B *C 2.9650 0.5250 
*I *40:s B *C 3.3750 0.5250 
*I *41:s B *C 3.3750 0.5250 
*I *42:s B *C 0.3050 0.4450 
*I *21:s B *C 0.3050 0.4450 
*I *22:s B *C 0.7150 0.4450 
*I *23:s B *C 0.7150 0.4450 
*N *28:3 *C 2.9000 0.0000 
*N *28:4 *C 2.9000 0.0000 
*N *28:5 *C 1.0000 0.0000 


*RES
0 *22:s *28 0.102306  // $metal1_conn
1 *28:3 *28:4 6.888889  // $metal1_conn
2 *28:3 *28:5 6.2  // $metal1_conn
3 *40:s *28:4 0.032378  // $metal1_conn
4 *28:4 *28:5 0.95234  // $metal1_conn
5 *28:5 *22:s 0.142655  // $metal1_conn

*END

*D_NET *29 3.30731e-16

*CONN
*P *29 I *C 0.5000 0.8550 
*I *42:g B *C 0.2025 0.4450 
*I *21:g B *C 0.4075 0.4450 
*I *22:g B *C 0.6125 0.4450 
*I *23:g B *C 0.8175 0.4450 
*I *14:g B *C 0.4125 1.1500 
*I *13:g B *C 0.6175 1.1500 
*I *15:g B *C 0.8225 1.1500 
*I *16:g B *C 1.0275 1.1500 

*CAP
0 *29 3.30731e-16


*END

*D_NET *30 3.55608e-16

*CONN
*P *30 I *C 1.3000 0.8550 
*I *24:g B *C 1.0225 0.4450 
*I *25:g B *C 1.2275 0.4450 
*I *26:g B *C 1.4325 0.4450 
*I *27:g B *C 1.6375 0.4450 
*I *17:g B *C 1.2325 1.1500 
*I *18:g B *C 1.4375 1.1500 
*I *19:g B *C 1.6425 1.1500 
*I *20:g B *C 1.8475 1.1500 

*CAP
0 *30 3.55608e-16


*END

*D_NET *31 3.45739e-16

*CONN
*P *31 I *C 2.1000 0.8550 
*I *33:g B *C 2.0425 0.5250 
*I *34:g B *C 2.2475 0.5250 
*I *36:g B *C 2.4525 0.5250 
*I *37:g B *C 2.6575 0.5250 
*I *3:g B *C 2.0525 1.1500 
*I *4:g B *C 2.2575 1.1500 
*I *6:g B *C 2.4625 1.1500 
*I *8:g B *C 2.6675 1.1500 

*CAP
0 *8:g 3.18552e-16
1 *31 2.71876e-17

*RES
0 *8:g *31 0.0566  // $metal1_conn

*END

*D_NET *35 3.31283e-16

*CONN
*P *35 I *C 3.1000 0.8545 
*I *38:g B *C 2.8625 0.5250 
*I *39:g B *C 3.0675 0.5250 
*I *40:g B *C 3.2725 0.5250 
*I *41:g B *C 3.4775 0.5250 
*I *9:g B *C 2.8725 1.1500 
*I *10:g B *C 3.0775 1.1500 
*I *11:g B *C 3.3375 1.1500 
*I *12:g B *C 3.5425 1.1500 

*CAP
0 *35 3.31283e-16


*END

*D_NET *2 4.54509e-16

*CONN
*P *2 O *C 3.5000 1.0450 
*I *33:d B *C 1.9500 0.5250 
*I *34:d B *C 2.3500 0.5250 
*I *36:d B *C 2.3500 0.5250 
*I *37:d B *C 2.7600 0.5250 
*I *38:d B *C 2.7600 0.5250 
*I *39:d B *C 3.1700 0.5250 
*I *40:d B *C 3.1700 0.5250 
*I *41:d B *C 3.5700 0.5250 
*I *9:d B *C 2.9750 1.1500 
*I *10:d B *C 2.9750 1.1500 
*I *11:d B *C 3.4400 1.1500 
*I *12:d B *C 3.4400 1.1500 

*CAP
0 *11:d 1.45813e-16
1 *33:d 3.08696e-16

*RES
0 *33:d *2 0.27508  // $metal1_conn
1 *2 *11:d 0.007383  // $metal1_conn

*END

*D_NET *32 6.6604e-16

*CONN
*I *3:d B *C 1.9500 1.1500 
*I *4:d B *C 2.3600 1.1500 
*I *6:d B *C 2.3600 1.1500 
*I *8:d B *C 2.7700 1.1500 
*I *9:s B *C 2.7700 1.1500 
*I *10:s B *C 3.2075 1.1500 
*I *11:s B *C 3.2075 1.1500 
*I *12:s B *C 3.6475 1.1500 
*I *14:d B *C 0.3200 1.1500 
*I *13:d B *C 0.7200 1.1500 
*I *15:d B *C 0.7200 1.1500 
*I *16:d B *C 1.1300 1.1500 
*I *17:d B *C 1.1300 1.1500 
*I *18:d B *C 1.5400 1.1500 
*I *19:d B *C 1.5400 1.1500 
*I *20:d B *C 1.9500 1.1500 

*CAP
0 *12:s 6.6604e-16


*END

*D_NET *7 2.95571e-16

*CONN
*I *42:d B *C 0.1100 0.4450 
*I *21:d B *C 0.5100 0.4450 
*I *22:d B *C 0.5100 0.4450 
*I *23:d B *C 0.9200 0.4450 
*I *24:s B *C 0.9200 0.4450 
*I *25:s B *C 1.3300 0.4450 
*I *26:s B *C 1.3300 0.4450 
*I *27:s B *C 1.7300 0.4450 

*CAP
0 *27:s 2.95571e-16


*END

*D_NET *5 2.96082e-16

*CONN
*I *33:s B *C 2.1450 0.5250 
*I *34:s B *C 2.1450 0.5250 
*I *36:s B *C 2.5550 0.5250 
*I *37:s B *C 2.5550 0.5250 
*I *24:d B *C 1.1250 0.4450 
*I *25:d B *C 1.1250 0.4450 
*I *26:d B *C 1.5350 0.4450 
*I *27:d B *C 1.5350 0.4450 

*CAP
0 *26:d 1.52148e-16
1 *36:s 1.43935e-16

*RES
0 *36:s *26:d 0.41945  // $metal1_conn

*END

