*SPEF "IEEE 1481-1999"
*DESIGN  "AOI32X2"
*DATE "Mon Sep 27 09:06:30 2010"
*VENDOR "Cadence Design Systems"
*PROGRAM "Assura RCX"
*VERSION "3.2 Red Hat Linux release 7.2 (Enigma) - (09/09/2009-10:39)"
*DESIGN_FLOW "Physical Verification"
*DIVIDER /
*DELIMITER :
*BUS_DELIMITER []
*T_UNIT 1 PS
*C_UNIT 1e15 FF
*R_UNIT 1 OHM
*L_UNIT 1 MH
// DeviceFingerDelim "@"
// MATCHED
// caps2d version: 10

*NAME_MAP
*1 VDD
*2 mn0
*3 mn1
*4 B0
*5 mn2
*6 B1
*7 mn2\@1
*8 mn1\@1
*9 VSS
*10 mp3\@1
*11 mn0\@1
*12 mn3
*13 mn4
*14 mn4\@1
*15 net75
*16 net75\@1
*17 net75\@2
*18 net75\@3
*19 net83
*20 net83\@1
*21 Y
*22 mp0
*23 net47
*24 mp1
*25 mp2
*26 A0
*27 mp2\@1
*28 A1
*29 mp1\@1
*30 A2
*31 mp0\@1
*32 mp3
*33 mp4
*34 mp4\@1
*35 mn3\@1

*GROUND_NETS VSS

*PORTS
*1 I
*9 I
*26 I
*28 I
*30 I
*4 I
*6 I
*21 O

*D_NET *1 3.42242e-16

*CONN
*P *1 I *C 0.1000 1.7000 
*I *22:s B *C 0.4500 1.2400 
*I *24:s B *C 0.4500 1.2400 
*I *25:s B *C 0.8600 1.2400 
*I *27:s B *C 0.8600 1.2400 
*I *29:s B *C 1.2700 1.2400 
*I *31:s B *C 1.2700 1.2400 
*N *1:1 *C 2.0000 1.7100 

*CAP
0 *29:s 1.03892e-16
1 *25:s 3.75037e-17
2 *1:1 1.97079e-16
3 *1 3.76729e-18

*RES
0 *29:s *1 0.159948  // $metal1_conn
1 *1:1 *29:s 12.88074  // $metal1_conn
2 *1:1 *29:s 10.714286  // $metal1_conn
3 *29:s *25:s 62.201378  // $metal1_conn

*END

*D_NET *9 0

*CONN
*P *9 I *C 0.1000 0.0000 
*I *2:s B *C 0.3550 0.5300 
*I *11:s B *C 1.6075 0.5300 
*I *12:s B *C 1.6075 0.5300 
*I *35:s B *C 2.4600 0.5300 
*N *9:2 *C 2.0000 0.0000 
*N *9:3 *C 2.0000 0.0000 
*N *9:4 *C 1.4500 0.0000 
*N *9:5 *C 0.7000 0.0000 
*N *9:6 *C 0.3150 0.0000 


*RES
0 *35:s *9:3 75.537804  // $metal1_conn
1 *9:3 *9:4 0.275482  // $metal1_conn
2 *9:4 *9:5 0.375728  // $metal1_conn
3 *9:5 *9:6 0.192778  // $metal1_conn
4 *9:6 *9 0.107512  // $metal1_conn
5 *9:4 *11:s 75.09716  // $metal1_conn
6 *9:6 *2:s 75.283279  // $metal1_conn
7 *9:2 *9:3 10.333333  // $metal1_conn
8 *9:2 *9:5 8.857142  // $metal1_conn

*END

*D_NET *26 5.02394e-16

*CONN
*P *26 I *C 1.3000 0.6650 
*I *2:g B *C 0.4475 0.5300 
*I *11:g B *C 1.3475 0.5300 
*I *22:g B *C 0.3475 1.2400 
*I *31:g B *C 1.3725 1.2400 

*CAP
0 *11:g 3.23535e-17
1 *2:g 4.49866e-17
2 *26 4.25054e-16

*RES
0 *26 *11:g 18.790585  // $poly_conn
1 *2:g *26 20.156593  // $poly_conn

*END

*D_NET *28 4.82842e-16

*CONN
*P *28 I *C 1.1000 0.8550 
*I *3:g B *C 0.5525 0.5300 
*I *8:g B *C 1.0825 0.5300 
*I *24:g B *C 0.5525 1.2400 
*I *29:g B *C 1.1675 1.2400 

*CAP
0 *29:g 3.4594e-16
1 *8:g 5.85458e-17
2 *3:g 6.07292e-17
3 *28 1.76264e-17

*RES
0 *29:g *8:g 28.937136  // $poly_conn
1 *29:g *3:g 23.538105  // $poly_conn
2 *28 *29:g 0.023958  // $metal1_conn

*END

*D_NET *30 3.0398e-16

*CONN
*P *30 I *C 0.5000 1.0450 
*I *5:g B *C 0.7725 0.5300 
*I *7:g B *C 0.9775 0.5300 
*I *25:g B *C 0.7575 1.2400 
*I *27:g B *C 0.9625 1.2400 
*N *30:2 *C 0.8325 0.7575 

*CAP
0 *27:g 1.26294e-16
1 *7:g 6.29624e-17
2 *5:g 2.58567e-17
3 *30:2 1.79025e-17
4 *30 7.0965e-17

*RES
0 *7:g *30:2 55.113464  // $poly_conn
1 *30:2 *5:g 33.318596  // $poly_conn
2 *30:2 *27:g 32.671108  // $poly_conn
3 *27:g *30 45.201393  // $metal1_conn

*END

*D_NET *4 3.92495e-16

*CONN
*P *4 I *C 1.9000 0.6650 
*I *12:g B *C 1.6975 0.5300 
*I *35:g B *C 2.3675 0.5300 
*I *32:g B *C 1.6575 1.2400 
*I *10:g B *C 2.3675 1.2400 

*CAP
0 *35:g 1.78486e-17
1 *12:g 4.01255e-17
2 *4 3.3452e-16

*RES
0 *4 *35:g 21.534737  // $poly_conn
1 *12:g *4 16.530041  // $poly_conn

*END

*D_NET *6 2.67242e-16

*CONN
*P *6 I *C 2.1000 0.9400 
*I *13:g B *C 1.8625 0.5300 
*I *14:g B *C 2.0675 0.5300 
*I *33:g B *C 1.8625 1.2400 
*I *34:g B *C 2.0675 1.2400 
*N *6:3 *C 2.0400 0.7575 

*CAP
0 *34:g 1.29925e-16
1 *14:g 2.12577e-17
2 *13:g 4.53654e-17
3 *6:3 1.94235e-17
4 *6 5.12699e-17

*RES
0 *6:3 *14:g 21.83713  // $poly_conn
1 *6:3 *13:g 54.784554  // $poly_conn
2 *34:g *6:3 16.070948  // $poly_conn
3 *6 *34:g 45.029274  // $metal1_conn

*END

*D_NET *21 4.30989e-16

*CONN
*P *21 O *C 1.5000 1.0450 
*I *5:d B *C 0.8750 0.5300 
*I *7:d B *C 0.8750 0.5300 
*I *13:d B *C 1.9650 0.5300 
*I *14:d B *C 1.9650 0.5300 
*I *32:d B *C 1.7600 1.2400 
*I *33:d B *C 1.7600 1.2400 
*I *34:d B *C 2.2175 1.2400 
*I *10:d B *C 2.2175 1.2400 
*N *21:2 *C 1.5350 0.4650 
*N *21:4 *C 1.5350 1.0450 

*CAP
0 *34:d 1.38429e-16
1 *13:d 5.12834e-17
2 *5:d 7.88988e-17
3 *21:4 4.32594e-17
4 *21:2 9.77251e-17
5 *21 2.13933e-17

*RES
0 *21:4 *21 0.024234  // $metal1_conn
1 *13:d *21:2 75.318619  // $metal1_conn
2 *21:2 *5:d 75.483627  // $metal1_conn
3 *21:2 *21:4 0.388281  // $metal1_conn
4 *21:4 *34:d 0.241342  // $metal1_conn

*END

*D_NET *20 6.32374e-18

*CONN
*I *14:s B *C 2.2175 0.5300 
*I *35:d B *C 2.2175 0.5300 

*CAP
0 *14:s 6.32374e-18

*RES
0 *35:d *14:s 0.001  // $mwires

*END

*D_NET *19 4.62478e-18

*CONN
*I *12:d B *C 1.7800 0.5300 
*I *13:s B *C 1.7800 0.5300 

*CAP
0 *12:d 4.62478e-18

*RES
0 *13:s *12:d 0.001  // $mwires

*END

*D_NET *18 9.7907e-18

*CONN
*I *8:s B *C 1.2150 0.5300 
*I *11:d B *C 1.2150 0.5300 

*CAP
0 *8:s 9.7907e-18

*RES
0 *11:d *8:s 0.001  // $mwires

*END

*D_NET *17 2.77956e-18

*CONN
*I *7:s B *C 1.0300 0.5300 
*I *8:d B *C 1.0300 0.5300 

*CAP
0 *7:s 2.77956e-18

*RES
0 *8:d *7:s 0.001  // $mwires

*END

*D_NET *16 5.28128e-18

*CONN
*I *3:s B *C 0.6625 0.5300 
*I *5:s B *C 0.6625 0.5300 

*CAP
0 *3:s 5.28128e-18

*RES
0 *5:s *3:s 0.001  // $mwires

*END

*D_NET *15 1.90698e-18

*CONN
*I *2:d B *C 0.5000 0.5300 
*I *3:d B *C 0.5000 0.5300 

*CAP
0 *2:d 1.90698e-18

*RES
0 *3:d *2:d 0.001  // $mwires

*END

*D_NET *23 4.24876e-16

*CONN
*I *22:d B *C 0.2550 1.2400 
*I *24:d B *C 0.6550 1.2400 
*I *25:d B *C 0.6550 1.2400 
*I *27:d B *C 1.0650 1.2400 
*I *29:d B *C 1.0650 1.2400 
*I *31:d B *C 1.5150 1.2400 
*I *32:s B *C 1.5150 1.2400 
*I *33:s B *C 1.9650 1.2400 
*I *34:s B *C 1.9650 1.2400 
*I *10:s B *C 2.4600 1.2400 

*CAP
0 *10:s 3.34489e-16
1 *33:s 9.03874e-17

*RES
0 *33:s *10:s 62  // $metal1_conn

*END

