*SPEF "IEEE 1481-1999"
*DESIGN  "BMXIX2"
*DATE "Mon Sep 27 09:09:08 2010"
*VENDOR "Cadence Design Systems"
*PROGRAM "Assura RCX"
*VERSION "3.2 Red Hat Linux release 7.2 (Enigma) - (09/09/2009-10:39)"
*DESIGN_FLOW "Physical Verification"
*DIVIDER /
*DELIMITER :
*BUS_DELIMITER []
*T_UNIT 1 PS
*C_UNIT 1e15 FF
*R_UNIT 1 OHM
*L_UNIT 1 MH
// DeviceFingerDelim "@"
// MATCHED
// caps2d version: 10

*NAME_MAP
*1 mp2
*2 mp13
*3 mp13\@1
*4 mp1
*5 mp0
*6 mp3
*7 n5
*8 mp4
*9 n9
*10 n7
*11 S
*12 X2
*13 VDD
*14 PPN
*15 M0
*16 mn1
*17 M1
*18 mn6
*19 mn11
*20 mn5
*21 mn12
*22 mn9
*23 mn2
*24 mn10
*25 mn13
*26 mn8
*27 mn13\@1
*28 mn7
*29 mn0
*30 mn3
*31 mn4
*32 X2b
*33 net293
*34 M0b
*35 M1b
*36 n1
*37 n0
*38 A
*39 mp6
*40 n4
*41 mp5
*42 n6
*43 mp9
*44 n10
*45 VSS
*46 mp10
*47 n8
*48 mp8
*49 n3
*50 mp7
*51 mp11
*52 mp12

*GROUND_NETS VSS

*PORTS
*13 I
*45 I
*38 I
*15 I
*17 I
*11 I
*12 I
*14 O

*D_NET *13 6.6531e-16

*CONN
*P *13 I *C 0.1000 1.7100 
*I *1:s B *C 3.9150 1.0950 
*I *2:s B *C 3.9150 1.0950 
*I *3:s B *C 4.2850 1.0950 
*I *4:s B *C 2.2100 1.0525 
*I *5:s B *C 0.4400 1.2325 
*I *6:s B *C 0.4400 1.2325 
*I *41:s B *C 1.3300 1.2325 
*I *43:s B *C 1.3300 1.2325 
*I *50:s B *C 2.2100 1.0525 
*N *13:3 *C 3.3000 1.7100 
*N *13:4 *C 3.3000 1.7100 
*N *13:5 *C 2.1250 1.7100 
*N *13:6 *C 1.2450 1.7100 
*N *13:7 *C 1.1000 1.7100 
*N *13:8 *C 0.4400 1.7100 

*CAP
0 *41:s 2.20305e-17
1 *5:s 4.84371e-17
2 *4:s 1.61425e-17
3 *3:s 1.13174e-16
4 *13:8 1.77448e-17
5 *13:6 2.21511e-17
6 *13:5 4.69968e-17
7 *13:3 3.69851e-16
8 *13 8.78243e-18

*RES
0 *13:8 *13 0.170171  // $metal1_conn
1 *13:3 *13:4 6.818182  // $metal1_conn
2 *13:3 *13:7 6.818182  // $metal1_conn
3 *13:5 *4:s 62.045849  // $metal1_conn
4 *13:6 *41:s 62.045849  // $metal1_conn
5 *13:8 *5:s 62.281609  // $metal1_conn
6 *3:s *13:4 0.275804  // $metal1_conn
7 *13:4 *13:5 0.58849  // $metal1_conn
8 *13:5 *13:6 0.439307  // $metal1_conn
9 *13:6 *13:7 0.071617  // $metal1_conn
10 *13:7 *13:8 0.331004  // $metal1_conn

*END

*D_NET *45 0

*CONN
*P *45 I *C 0.1000 0.0000 
*I *16:s B *C 2.2100 0.5375 
*I *23:s B *C 3.9400 0.5300 
*I *25:s B *C 3.9400 0.5300 
*I *27:s B *C 4.2850 0.5300 
*I *29:s B *C 0.3650 0.5075 
*I *30:s B *C 0.3650 0.5075 
*I *20:s B *C 1.1950 0.5075 
*I *22:s B *C 1.1950 0.5075 
*I *28:s B *C 2.2100 0.5375 
*N *45:3 *C 3.3000 0.0000 
*N *45:4 *C 3.3000 0.0000 
*N *45:5 *C 2.1250 0.0000 
*N *45:6 *C 1.1950 0.0000 
*N *45:7 *C 1.1000 0.0000 
*N *45:8 *C 0.3650 0.0000 


*RES
0 *45:8 *45 0.132535  // $metal1_conn
1 *45:3 *45:4 5.636364  // $metal1_conn
2 *45:3 *45:7 5.636364  // $metal1_conn
3 *45:5 *16:s 75.045845  // $metal1_conn
4 *45:6 *20:s 75.325607  // $metal1_conn
5 *45:8 *29:s 75.328865  // $metal1_conn
6 *27:s *45:4 0.277363  // $metal1_conn
7 *45:4 *45:5 0.58849  // $metal1_conn
8 *45:5 *45:6 0.465348  // $metal1_conn
9 *45:6 *45:7 0.047477  // $metal1_conn
10 *45:7 *45:8 0.36864  // $metal1_conn

*END

*D_NET *38 2.98575e-16

*CONN
*P *38 I *C 1.3000 0.8550 
*I *20:g B *C 1.0925 0.5075 
*I *22:g B *C 1.2975 0.5075 
*I *41:g B *C 1.1125 1.2325 
*I *43:g B *C 1.3775 1.2325 
*N *38:2 *C 1.2250 0.9300 
*N *38:3 *C 1.2525 0.6775 

*CAP
0 *43:g 3.38041e-17
1 *41:g 5.51937e-17
2 *22:g 1.55751e-17
3 *20:g 2.90237e-17
4 *38:3 1.52798e-17
5 *38:2 9.99166e-17
6 *38 4.97823e-17

*RES
0 *43:g *38:2 64.087357  // $poly_conn
1 *38:2 *38:3 48.560371  // $poly_conn
2 *38:3 *20:g 58.576847  // $poly_conn
3 *38:2 *41:g 53.830952  // $poly_conn
4 *38:3 *22:g 29.089668  // $poly_conn
5 *38 *38:2 45.025642  // $metal1_conn

*END

*D_NET *15 3.80553e-16

*CONN
*P *15 I *C 0.3000 0.8550 
*I *29:g B *C 0.2625 0.5075 
*I *18:g B *C 0.8175 0.5075 
*I *5:g B *C 0.3375 1.2325 
*I *8:g B *C 0.6775 1.2325 
*N *15:2 *C 0.3000 0.8750 
*N *15:5 *C 0.7150 0.8750 

*CAP
0 *8:g 4.76445e-17
1 *5:g 3.59802e-17
2 *18:g 4.67868e-17
3 *29:g 3.4023e-17
4 *15:2 4.11821e-17
5 *15:5 1.13545e-16
6 *15 6.13918e-17

*RES
0 *5:g *15:2 56.88707  // $poly_conn
1 *15:2 *29:g 68.425529  // $poly_conn
2 *18:g *15:5 73.264168  // $poly_conn
3 *15:5 *8:g 56.88707  // $poly_conn
4 *15:5 *15 45.245895  // $metal1_conn
5 *15 *15:2 45.000244  // $metal1_conn

*END

*D_NET *17 4.03853e-16

*CONN
*P *17 I *C 1.9000 0.8550 
*I *16:g B *C 2.2575 0.5375 
*I *24:g B *C 1.6825 0.5075 
*I *4:g B *C 2.2575 1.0525 
*I *48:g B *C 1.8025 1.2025 
*N *17:2 *C 1.8400 0.8450 
*N *17:5 *C 2.2200 0.8450 

*CAP
0 *48:g 6.77133e-17
1 *4:g 3.84472e-17
2 *24:g 5.29815e-17
3 *16:g 3.69154e-17
4 *17:2 9.99575e-17
5 *17:5 7.51101e-17
6 *17 3.27284e-17

*RES
0 *48:g *17:2 54.61676  // $poly_conn
1 *17:2 *24:g 81.50943  // $poly_conn
2 *4:g *17:5 16.15522  // $poly_conn
3 *17:5 *16:g 50.770603  // $poly_conn
4 *17:5 *17 45.192223  // $metal1_conn
5 *17 *17:2 45.0364  // $metal1_conn

*END

*D_NET *11 6.6226e-16

*CONN
*P *11 I *C 0.5000 1.0450 
*I *30:g B *C 0.4675 0.5075 
*I *28:g B *C 1.9925 0.5075 
*I *6:g B *C 0.5425 1.2325 
*I *50:g B *C 1.9925 1.2025 
*N *11:2 *C 0.5050 1.0250 
*N *11:5 *C 1.9450 1.4100 
*N *11:7 *C 0.5050 1.0250 

*CAP
0 *50:g 6.10763e-17
1 *6:g 3.96068e-17
2 *28:g 9.64199e-17
3 *30:g 7.88047e-17
4 *11:2 6.2989e-17
5 *11:5 1.74876e-16
6 *11 1.48488e-16

*RES
0 *6:g *11:2 18.425531  // $poly_conn
1 *11:2 *30:g 106.88707  // $poly_conn
2 *50:g *11:5 61.833908  // $poly_conn
3 *50:g *28:g 132.051285  // $poly_conn
4 *11:5 *11:7 1.224722  // $metal1_conn
5 *11:7 *11 0.003775  // $metal1_conn
6 *11:2 *11:7 45  // $metal1_conn

*END

*D_NET *12 3.38983e-16

*CONN
*P *12 I *C 3.7000 0.6650 
*I *19:g B *C 2.9925 0.5875 
*I *23:g B *C 3.6725 0.5875 
*I *52:g B *C 3.1975 1.1325 
*I *1:g B *C 3.7475 1.1075 
*N *12:2 *C 3.7100 0.9000 
*N *12:3 *C 3.1975 0.9275 

*CAP
0 *1:g 2.94549e-17
1 *52:g 2.8363e-17
2 *23:g 3.57283e-17
3 *19:g 4.36306e-17
4 *12:3 6.21214e-17
5 *12:2 9.06981e-17
6 *12 4.89863e-17

*RES
0 *1:g *12:2 16.565342  // $poly_conn
1 *12:2 *12:3 119.451805  // $poly_conn
2 *12:3 *19:g 102.259789  // $poly_conn
3 *12:2 *23:g 50.832165  // $poly_conn
4 *12:3 *52:g 20.300484  // $poly_conn
5 *12 *12:2 45.141384  // $metal1_conn

*END

*D_NET *14 1.25536e-16

*CONN
*P *14 O *C 4.1000 0.8550 
*I *25:d B *C 4.0900 0.5300 
*I *27:d B *C 4.0900 0.5300 
*I *2:d B *C 4.0900 1.0950 
*I *3:d B *C 4.0900 1.0950 

*CAP
0 *2:d 7.41514e-17
1 *25:d 3.26167e-17
2 *14 1.8768e-17

*RES
0 *14 *2:d 20.811058  // $metal1_conn
1 *14 *25:d 75.153419  // $metal1_conn

*END

*D_NET *10 0

*CONN
*I *26:s B *C 1.9400 0.5075 
*I *28:d B *C 1.9400 0.5075 


*RES
0 *28:d *26:s 0.001  // $mwires

*END

*D_NET *9 0

*CONN
*I *22:d B *C 1.4900 0.5075 
*I *24:s B *C 1.4900 0.5075 


*RES
0 *24:s *22:d 0.001  // $mwires

*END

*D_NET *7 3.23132e-18

*CONN
*I *18:s B *C 0.9550 0.5075 
*I *20:d B *C 0.9550 0.5075 

*CAP
0 *18:s 3.23132e-18

*RES
0 *20:d *18:s 0.001  // $mwires

*END

*D_NET *49 7.26019e-19

*CONN
*I *30:d B *C 0.5200 0.5075 
*I *31:s B *C 0.5200 0.5075 

*CAP
0 *30:d 7.26019e-19

*RES
0 *31:s *30:d 0.001  // $mwires

*END

*D_NET *47 3.32261e-18

*CONN
*I *48:s B *C 1.8975 1.2025 
*I *50:d B *C 1.8975 1.2025 

*CAP
0 *48:s 3.32261e-18

*RES
0 *50:d *48:s 0.001  // $mwires

*END

*D_NET *44 5.64045e-19

*CONN
*I *43:d B *C 1.4875 1.2325 
*I *46:s B *C 1.4875 1.2325 

*CAP
0 *43:d 5.64045e-19

*RES
0 *46:s *43:d 0.001  // $mwires

*END

*D_NET *42 0

*CONN
*I *39:s B *C 1.0600 1.2325 
*I *41:d B *C 1.0600 1.2325 


*RES
0 *41:d *39:s 0.001  // $mwires

*END

*D_NET *40 2.24473e-18

*CONN
*I *6:d B *C 0.6100 1.2325 
*I *8:s B *C 0.6100 1.2325 

*CAP
0 *6:d 2.24473e-18

*RES
0 *8:s *6:d 0.001  // $mwires

*END

*D_NET *37 6.11389e-16

*CONN
*I *19:s B *C 2.8425 0.5875 
*I *31:d B *C 0.6950 0.5075 
*I *18:d B *C 0.6950 0.5075 
*I *51:s B *C 2.8400 1.1325 
*I *8:d B *C 0.8425 1.2325 
*I *39:d B *C 0.8425 1.2325 
*N *37:2 *C 2.7050 1.0850 
*N *37:3 *C 0.8750 1.0900 

*CAP
0 *8:d 2.00819e-17
1 *51:s 3.28267e-18
2 *31:d 9.13374e-17
3 *19:s 6.67361e-17
4 *37:3 1.81088e-16
5 *37:2 2.48863e-16

*RES
0 *51:s *37:2 62.0201  // $metal1_conn
1 *37:2 *37:3 1.482847  // $metal1_conn
2 *37:3 *31:d 75.530113  // $metal1_conn
3 *37:2 *19:s 75.404144  // $metal1_conn
4 *37:3 *8:d 62.068344  // $metal1_conn

*END

*D_NET *36 8.47538e-16

*CONN
*I *21:d B *C 3.2900 0.5875 
*I *24:d B *C 1.7850 0.5075 
*I *26:d B *C 1.7850 0.5075 
*I *52:d B *C 3.2900 1.1325 
*I *46:d B *C 1.7500 1.2025 
*I *48:d B *C 1.7500 1.2025 
*N *36:2 *C 3.3000 1.0850 
*N *36:3 *C 2.9350 1.2750 

*CAP
0 *46:d 1.6316e-16
1 *52:d 1.03636e-16
2 *24:d 1.74693e-16
3 *21:d 7.28181e-17
4 *36:3 3.33231e-16

*RES
0 *36:2 *36:3 0.424181  // $metal1_conn
1 *36:3 *46:d 63.037811  // $metal1_conn
2 *36:2 *21:d 75.427841  // $metal1_conn
3 *36:3 *24:d 76.585205  // $metal1_conn
4 *52:d *36:2 62  // $metal1_conn

*END

*D_NET *35 5.10702e-16

*CONN
*I *16:d B *C 2.3500 0.5375 
*I *26:g B *C 1.8875 0.5075 
*I *4:d B *C 2.4125 1.0525 
*I *46:g B *C 1.5975 1.2325 
*N *35:2 *C 1.5700 0.8250 
*N *35:4 *C 1.8500 0.6850 
*N *35:6 *C 2.5150 0.6850 

*CAP
0 *46:g 5.59465e-17
1 *4:d 4.98443e-17
2 *26:g 6.23741e-17
3 *16:d 4.76443e-17
4 *35:6 6.05874e-17
5 *35:2 8.79899e-17
6 *35:4 1.46316e-16

*RES
0 *46:g *35:2 113.409897  // $poly_conn
1 *26:g *35:4 62.437271  // $poly_conn
2 *4:d *35:6 62.256218  // $metal1_conn
3 *35:6 *35:4 0.478125  // $metal1_conn
4 *35:4 *35:2 0.297953  // $metal1_conn
5 *35:6 *16:d 75.24456  // $metal1_conn

*END

*D_NET *34 6.05146e-16

*CONN
*I *29:d B *C 0.1700 0.5075 
*I *31:g B *C 0.5725 0.5075 
*I *5:d B *C 0.2450 1.2325 
*I *39:g B *C 1.0075 1.2325 
*N *34:2 *C 0.6100 0.6850 
*N *34:4 *C 1.0350 0.8250 
*N *34:5 *C 0.5250 0.6850 
*N *34:6 *C 0.1600 0.6850 

*CAP
0 *39:g 6.40841e-17
1 *5:d 4.62133e-17
2 *31:g 5.74829e-17
3 *29:d 1.74614e-17
4 *34:6 5.67817e-17
5 *34:5 1.21773e-16
6 *34:2 6.5723e-17
7 *34:4 1.75627e-16

*RES
0 *31:g *34:2 62.437271  // $poly_conn
1 *39:g *34:4 113.409897  // $poly_conn
2 *34:4 *34:5 0.939901  // $metal1_conn
3 *34:5 *34:6 0.28908  // $metal1_conn
4 *34:6 *29:d 75.09243  // $metal1_conn
5 *34:5 *34:2 0.069432  // $metal1_conn
6 *34:6 *5:d 62.48003  // $metal1_conn

*END

*D_NET *33 4.64229e-16

*CONN
*I *19:d B *C 3.0950 0.5875 
*I *21:s B *C 3.0950 0.5875 
*I *25:g B *C 3.9875 0.5300 
*I *27:g B *C 4.1925 0.5300 
*I *51:d B *C 3.0925 1.1325 
*I *52:s B *C 3.0925 1.1325 
*I *2:g B *C 3.9875 1.0950 
*I *3:g B *C 4.1925 1.0950 
*N *33:4 *C 3.9300 0.7600 
*N *33:9 *C 3.0950 0.5750 

*CAP
0 *3:g 1.14667e-16
1 *51:d 7.21701e-17
2 *19:d 1.54516e-16
3 *33:4 1.22876e-16

*RES
0 *3:g *33:4 48.256718  // $poly_conn
1 *33:4 *33:9 1.005262  // $metal1_conn
2 *19:d *33:9 75  // $metal1_conn
3 *33:9 *51:d 62.427841  // $metal1_conn

*END

*D_NET *32 4.41877e-16

*CONN
*I *21:g B *C 3.1975 0.5875 
*I *23:d B *C 3.5450 0.5875 
*I *51:g B *C 2.9875 1.1325 
*I *1:d B *C 3.6550 1.1075 
*N *32:2 *C 3.0550 1.4350 
*N *32:4 *C 3.4600 0.7950 
*N *32:6 *C 3.4600 1.1550 

*CAP
0 *1:d 2.65998e-17
1 *51:g 4.671e-17
2 *23:d 3.85279e-17
3 *21:g 5.0008e-17
4 *32:6 8.17994e-17
5 *32:2 9.35631e-17
6 *32:4 1.04668e-16

*RES
0 *51:g *32:2 96.176895  // $poly_conn
1 *21:g *32:4 125.444603  // $poly_conn
2 *1:d *32:6 62.121475  // $metal1_conn
3 *32:6 *32:4 0.288962  // $metal1_conn
4 *32:6 *32:2 0.50072  // $metal1_conn
5 *32:4 *23:d 75.147659  // $metal1_conn

*END

