*SPEF "IEEE 1481-1999"
*DESIGN  "BMXIX4"
*DATE "Mon Sep 27 09:09:30 2010"
*VENDOR "Cadence Design Systems"
*PROGRAM "Assura RCX"
*VERSION "3.2 Red Hat Linux release 7.2 (Enigma) - (09/09/2009-10:39)"
*DESIGN_FLOW "Physical Verification"
*DIVIDER /
*DELIMITER :
*BUS_DELIMITER []
*T_UNIT 1 PS
*C_UNIT 1e15 FF
*R_UNIT 1 OHM
*L_UNIT 1 MH
// DeviceFingerDelim "@"
// MATCHED
// caps2d version: 10

*NAME_MAP
*1 S
*2 mp4
*3 mp6
*4 mp5
*5 mp9
*6 mp10
*7 mp8
*8 mp7
*9 mp1
*10 VDD
*11 M0
*12 M1
*13 mn11
*14 mn12
*15 mn2
*16 mn13
*17 mn13\@1
*18 VSS
*19 mn13\@2
*20 mp11
*21 mn13\@3
*22 mp12
*23 mn0
*24 mp2
*25 mn3
*26 mp13
*27 mp13\@1
*28 mp13\@2
*29 M1b
*30 mp13\@3
*31 M0b
*32 mp0
*33 net293
*34 mp3
*35 n1
*36 n0
*37 n4
*38 n6
*39 n10
*40 n8
*41 X2
*42 n3
*43 n5
*44 n9
*45 n7
*46 A
*47 mn4
*48 PPN
*49 mn6
*50 mn5
*51 mn9
*52 mn10
*53 mn8
*54 mn7
*55 mn1
*56 X2b

*GROUND_NETS VSS

*PORTS
*10 I
*18 I
*46 I
*11 I
*12 I
*1 I
*41 I
*48 O

*D_NET *10 6.56642e-16

*CONN
*P *10 I *C 0.1000 1.7100 
*I *24:s B *C 4.1350 1.0950 
*I *26:s B *C 4.1350 1.0950 
*I *27:s B *C 4.4900 1.0950 
*I *28:s B *C 4.4900 1.0950 
*I *30:s B *C 4.8900 1.0950 
*I *32:s B *C 0.4950 1.0325 
*I *34:s B *C 0.4950 1.0325 
*I *4:s B *C 1.3400 1.5700 
*I *5:s B *C 1.3400 1.5700 
*I *8:s B *C 2.3175 1.0325 
*I *9:s B *C 2.3175 1.0325 
*N *10:3 *C 4.2000 1.7100 
*N *10:6 *C 2.6000 1.7100 
*N *10:7 *C 2.1950 1.7100 
*N *10:8 *C 1.3150 1.7100 
*N *10:9 *C 0.9000 1.7100 
*N *10:10 *C 0.3600 1.7100 

*CAP
0 *8:s 1.86183e-17
1 *4:s 1.44847e-17
2 *32:s 1.12118e-17
3 *30:s 1.95376e-16
4 *10:10 1.5573e-17
5 *10:8 2.16708e-17
6 *10:7 2.22468e-17
7 *10:3 3.54003e-16
8 *10 3.45739e-18

*RES
0 *10:10 *10 0.129032  // $metal1_conn
1 *10:3 *30:s 9.375  // $metal1_conn
2 *10:3 *10:6 9.375  // $metal1_conn
3 *10:3 *10:9 8.333333  // $metal1_conn
4 *10:7 *8:s 62.045834  // $metal1_conn
5 *10:8 *4:s 62.045834  // $metal1_conn
6 *10:10 *32:s 62.045834  // $metal1_conn
7 *30:s *10:6 0.727197  // $metal1_conn
8 *10:6 *10:7 0.202022  // $metal1_conn
9 *10:7 *10:8 0.43916  // $metal1_conn
10 *10:8 *10:9 0.207039  // $metal1_conn
11 *10:9 *10:10 0.269745  // $metal1_conn

*END

*D_NET *18 0

*CONN
*P *18 I *C 0.1000 0.0000 
*I *15:s B *C 4.1100 0.5300 
*I *16:s B *C 4.1100 0.5300 
*I *17:s B *C 4.4900 0.5300 
*I *19:s B *C 4.4900 0.5300 
*I *21:s B *C 4.8900 0.5300 
*I *23:s B *C 0.3300 0.3325 
*I *25:s B *C 0.3300 0.3325 
*I *50:s B *C 1.2300 0.3325 
*I *51:s B *C 1.2300 0.3325 
*I *54:s B *C 2.3850 0.5875 
*I *55:s B *C 2.3850 0.5875 
*N *18:3 *C 4.2000 0.0000 
*N *18:6 *C 2.6000 0.0000 
*N *18:7 *C 2.3700 0.0000 
*N *18:8 *C 1.2300 0.0000 
*N *18:9 *C 0.9000 0.0000 
*N *18:10 *C 0.3300 0.0000 


*RES
0 *18:10 *18 0.114933  // $metal1_conn
1 *18:3 *21:s 7.75  // $metal1_conn
2 *18:3 *18:6 7.75  // $metal1_conn
3 *18:3 *18:9 6.888889  // $metal1_conn
4 *18:7 *54:s 75.074837  // $metal1_conn
5 *18:8 *50:s 75.136131  // $metal1_conn
6 *18:10 *23:s 75.197472  // $metal1_conn
7 *21:s *18:6 0.742247  // $metal1_conn
8 *18:6 *18:7 0.115183  // $metal1_conn
9 *18:7 *18:8 0.571271  // $metal1_conn
10 *18:8 *18:9 0.164399  // $metal1_conn
11 *18:9 *18:10 0.285745  // $metal1_conn

*END

*D_NET *46 2.59988e-16

*CONN
*P *46 I *C 1.3000 0.8550 
*I *50:g B *C 1.1275 0.3325 
*I *51:g B *C 1.3325 0.3325 
*I *4:g B *C 1.1825 1.0325 
*I *5:g B *C 1.3775 1.0325 
*N *46:2 *C 1.3050 0.7900 
*N *46:3 *C 1.3050 0.6925 

*CAP
0 *5:g 2.08218e-17
1 *4:g 5.24022e-17
2 *51:g 2.81653e-17
3 *50:g 2.62049e-17
4 *46:3 2.8098e-17
5 *46:2 7.49006e-17
6 *46 2.93953e-17

*RES
0 *5:g *46:2 28.189922  // $poly_conn
1 *46:2 *46:3 7.560308  // $poly_conn
2 *46:3 *50:g 103.502502  // $poly_conn
3 *46:2 *4:g 41.010433  // $poly_conn
4 *46:3 *51:g 70.555077  // $poly_conn
5 *46 *46:2 45.039055  // $metal1_conn

*END

*D_NET *11 4.45638e-16

*CONN
*P *11 I *C 0.3000 1.2350 
*I *23:g B *C 0.2275 0.3325 
*I *49:g B *C 0.8725 0.3325 
*I *32:g B *C 0.2275 1.0325 
*I *2:g B *C 0.8725 1.0325 
*N *11:2 *C 0.2650 0.8250 
*N *11:6 *C 0.9000 1.4000 

*CAP
0 *2:g 6.07525e-17
1 *32:g 2.31499e-17
2 *49:g 5.67947e-17
3 *23:g 4.17368e-17
4 *11:2 8.61319e-17
5 *11:6 9.93309e-17
6 *11 7.77411e-17

*RES
0 *32:g *11:2 16.15522  // $poly_conn
1 *11:2 *23:g 98.206505  // $poly_conn
2 *2:g *49:g 133.333328  // $poly_conn
3 *2:g *11:6 103.153488  // $poly_conn
4 *11:6 *11 0.521032  // $metal1_conn
5 *11 *11:2 45.260094  // $metal1_conn

*END

*D_NET *12 5.8978e-16

*CONN
*P *12 I *C 1.9000 0.6650 
*I *52:g B *C 1.5525 0.3325 
*I *55:g B *C 2.4325 0.5875 
*I *7:g B *C 1.8825 1.0325 
*I *9:g B *C 2.4025 1.0325 
*N *12:2 *C 1.5900 0.1600 
*N *12:4 *C 1.8450 0.7950 
*N *12:6 *C 2.3750 0.7950 

*CAP
0 *9:g 2.9057e-17
1 *7:g 7.34172e-17
2 *55:g 3.15118e-17
3 *52:g 4.60934e-17
4 *12:2 1.17098e-16
5 *12:4 1.27517e-16
6 *12:6 1.0588e-16
7 *12 5.92042e-17

*RES
0 *52:g *12:2 61.15522  // $poly_conn
1 *7:g *12:4 68.847527  // $poly_conn
2 *55:g *12:6 29.659531  // $poly_conn
3 *12:6 *9:g 21.658245  // $poly_conn
4 *12:6 *12 45.360077  // $metal1_conn
5 *12 *12:4 0.015321  // $metal1_conn
6 *12:4 *12:2 0.662052  // $metal1_conn

*END

*D_NET *1 7.61388e-16

*CONN
*P *1 I *C 0.7000 1.0450 
*I *25:g B *C 0.4325 0.3325 
*I *54:g B *C 2.2375 0.3325 
*I *34:g B *C 0.5925 1.0325 
*I *8:g B *C 1.9875 1.0325 
*N *1:2 *C 0.4600 0.7900 
*N *1:6 *C 2.0250 1.3050 

*CAP
0 *8:g 1.15044e-16
1 *34:g 2.60845e-17
2 *54:g 8.5911e-17
3 *25:g 7.5079e-17
4 *1:2 1.03635e-16
5 *1:6 1.7172e-16
6 *1 1.83914e-16

*RES
0 *34:g *1:2 43.574535  // $poly_conn
1 *1:2 *25:g 87.042862  // $poly_conn
2 *54:g *8:g 185.60788  // $poly_conn
3 *8:g *1:6 77.821884  // $poly_conn
4 *1:6 *1 1.146814  // $metal1_conn
5 *1 *1:2 45.338036  // $metal1_conn

*END

*D_NET *41 4.91545e-16

*CONN
*P *41 I *C 3.5000 1.4250 
*I *13:g B *C 3.0475 0.5100 
*I *15:g B *C 3.9775 0.5875 
*I *22:g B *C 3.4575 1.1150 
*I *24:g B *C 3.9775 1.0075 
*N *41:1 *C 3.1050 0.7950 
*N *41:4 *C 3.9775 0.8225 
*N *41:7 *C 3.4950 1.4150 

*CAP
0 *24:g 3.14147e-17
1 *22:g 6.81803e-17
2 *15:g 3.40987e-17
3 *13:g 3.87839e-17
4 *41:4 5.0514e-17
5 *41:1 1.61206e-16
6 *41:7 1.9064e-17
7 *41 8.82835e-17

*RES
0 *41:1 *13:g 77.861496  // $poly_conn
1 *24:g *41:4 18.71979  // $poly_conn
2 *41:4 *22:g 147.719803  // $poly_conn
3 *41:4 *15:g 40.514664  // $poly_conn
4 *22:g *41:7 62.437271  // $poly_conn
5 *41:1 *41:7 0.679435  // $metal1_conn
6 *41:7 *41 0.003681  // $metal1_conn

*END

*D_NET *48 2.46133e-16

*CONN
*P *48 O *C 4.3000 0.6650 
*I *16:d B *C 4.2850 0.5300 
*I *17:d B *C 4.2850 0.5300 
*I *19:d B *C 4.6950 0.5300 
*I *21:d B *C 4.6950 0.5300 
*I *26:d B *C 4.2850 1.0950 
*I *27:d B *C 4.2850 1.0950 
*I *28:d B *C 4.6950 1.0950 
*I *30:d B *C 4.6950 1.0950 

*CAP
0 *48 2.46133e-16


*END

*D_NET *45 0

*CONN
*I *53:s B *C 2.1475 0.3325 
*I *54:d B *C 2.1475 0.3325 


*RES
0 *54:d *53:s 0.001  // $mwires

*END

*D_NET *44 0

*CONN
*I *51:d B *C 1.4425 0.3325 
*I *52:s B *C 1.4425 0.3325 


*RES
0 *52:s *51:d 0.001  // $mwires

*END

*D_NET *43 2.33978e-18

*CONN
*I *49:s B *C 1.0000 0.3325 
*I *50:d B *C 1.0000 0.3325 

*CAP
0 *49:s 2.33978e-18

*RES
0 *50:d *49:s 0.001  // $mwires

*END

*D_NET *42 0

*CONN
*I *25:d B *C 0.4850 0.3325 
*I *47:s B *C 0.4850 0.3325 


*RES
0 *47:s *25:d 0.001  // $mwires

*END

*D_NET *40 1.39476e-18

*CONN
*I *7:s B *C 1.9350 1.0325 
*I *8:d B *C 1.9350 1.0325 

*CAP
0 *7:s 1.39476e-18

*RES
0 *8:d *7:s 0.001  // $mwires

*END

*D_NET *39 6.92973e-18

*CONN
*I *5:d B *C 1.5275 1.0325 
*I *6:s B *C 1.5275 1.0325 

*CAP
0 *5:d 6.92973e-18

*RES
0 *6:s *5:d 0.001  // $mwires

*END

*D_NET *38 1.86493e-18

*CONN
*I *3:s B *C 1.1300 1.0325 
*I *4:d B *C 1.1300 1.0325 

*CAP
0 *3:s 1.86493e-18

*RES
0 *4:d *3:s 0.001  // $mwires

*END

*D_NET *37 2.52684e-18

*CONN
*I *34:d B *C 0.7325 1.0325 
*I *2:s B *C 0.7325 1.0325 

*CAP
0 *34:d 2.52684e-18

*RES
0 *2:s *34:d 0.001  // $mwires

*END

*D_NET *36 7.7853e-16

*CONN
*I *13:s B *C 2.9550 0.5100 
*I *47:d B *C 0.7050 0.3325 
*I *49:d B *C 0.7050 0.3325 
*I *20:s B *C 3.1025 1.1150 
*I *2:d B *C 0.9750 1.0325 
*I *3:d B *C 0.9750 1.0325 
*N *36:3 *C 3.0350 1.0150 
*N *36:4 *C 3.0350 1.2500 
*N *36:6 *C 0.9750 1.0800 

*CAP
0 *2:d 3.07396e-16
1 *20:s 2.90154e-16
2 *47:d 1.12555e-16
3 *13:s 6.84244e-17

*RES
0 *13:s *36:3 75.365219  // $metal1_conn
1 *36:3 *36:4 0.157264  // $metal1_conn
2 *36:4 *36:6 1.682989  // $metal1_conn
3 *36:6 *47:d 75.684509  // $metal1_conn
4 *20:s *36:3 62  // $metal1_conn
5 *20:s *36:4 62  // $metal1_conn
6 *2:d *36:6 62  // $metal1_conn

*END

*D_NET *35 7.4282e-16

*CONN
*I *14:d B *C 3.4025 0.4400 
*I *52:d B *C 1.8050 0.3325 
*I *53:d B *C 1.8050 0.3325 
*I *22:d B *C 3.5500 1.1150 
*I *6:d B *C 1.7800 1.0325 
*I *7:d B *C 1.7800 1.0325 
*N *35:3 *C 1.7800 0.9850 
*N *35:5 *C 3.3700 0.4400 

*CAP
0 *6:d 3.10441e-16
1 *22:d 9.27009e-17
2 *52:d 9.37163e-17
3 *14:d 2.45961e-16

*RES
0 *52:d *35:3 75.525948  // $metal1_conn
1 *35:3 *35:5 1.872302  // $metal1_conn
2 *35:5 *22:d 62.510353  // $metal1_conn
3 *6:d *35:3 62  // $metal1_conn
4 *14:d *35:5 75  // $metal1_conn

*END

*D_NET *33 5.62356e-16

*CONN
*I *13:d B *C 3.1500 0.5100 
*I *14:s B *C 3.1500 0.5100 
*I *16:g B *C 4.1825 0.5300 
*I *17:g B *C 4.3875 0.5300 
*I *19:g B *C 4.5925 0.5300 
*I *21:g B *C 4.7975 0.5300 
*I *20:d B *C 3.3550 1.1150 
*I *22:s B *C 3.3550 1.1150 
*I *26:g B *C 4.1825 1.0950 
*I *27:g B *C 4.3875 1.0950 
*I *28:g B *C 4.5925 1.0950 
*I *30:g B *C 4.7975 1.0950 
*N *33:6 *C 4.1250 0.8000 
*N *33:15 *C 3.3550 1.0600 

*CAP
0 *30:g 1.91184e-16
1 *20:d 1.6089e-16
2 *13:d 8.38815e-17
3 *33:6 1.26401e-16

*RES
0 *30:g *33:6 48.120373  // $poly_conn
1 *33:6 *33:15 0.785172  // $metal1_conn
2 *20:d *33:15 31  // $metal1_conn
3 *33:15 *13:d 75.472153  // $metal1_conn

*END

*D_NET *31 6.05246e-16

*CONN
*I *23:d B *C 0.1250 0.3325 
*I *47:g B *C 0.5375 0.3325 
*I *32:d B *C 0.1250 1.0325 
*I *3:g B *C 1.0775 1.0325 
*N *31:2 *C 0.6900 0.5400 
*N *31:4 *C 1.0400 0.8250 
*N *31:5 *C 0.5800 0.5400 
*N *31:6 *C 0.1050 0.5400 

*CAP
0 *3:g 7.4368e-17
1 *32:d 4.49616e-17
2 *47:g 6.31343e-17
3 *23:d 2.01822e-17
4 *31:6 3.91847e-17
5 *31:5 1.33803e-16
6 *31:2 5.00424e-17
7 *31:4 1.7957e-16

*RES
0 *47:g *31:2 93.702744  // $poly_conn
1 *3:g *31:4 61.15522  // $poly_conn
2 *31:4 *31:5 1.049805  // $metal1_conn
3 *31:5 *31:6 0.317885  // $metal1_conn
4 *31:6 *23:d 75.14093  // $metal1_conn
5 *31:5 *31:2 0.081874  // $metal1_conn
6 *31:6 *32:d 62.322418  // $metal1_conn

*END

*D_NET *29 3.57244e-16

*CONN
*I *53:g B *C 2.0575 0.3325 
*I *55:d B *C 2.5250 0.5875 
*I *6:g B *C 1.6775 1.0325 
*I *9:d B *C 2.5250 1.0325 
*N *29:2 *C 2.0950 0.6350 
*N *29:5 *C 2.5350 0.5750 

*CAP
0 *9:d 6.00241e-17
1 *6:g 7.75532e-17
2 *55:d 5.8779e-17
3 *53:g 3.11345e-17
4 *29:2 1.29753e-16

*RES
0 *53:g *29:2 49.488552  // $poly_conn
1 *29:2 *6:g 157.39505  // $poly_conn
2 *29:5 *29:2 45.308239  // $metal1_conn
3 *29:5 *9:d 62.280727  // $metal1_conn
4 *55:d *29:5 75  // $metal1_conn

*END

*D_NET *56 2.67859e-16

*CONN
*I *14:g B *C 3.2525 0.5100 
*I *15:d B *C 3.8850 0.5875 
*I *20:g B *C 3.2525 1.1150 
*I *24:d B *C 3.8850 1.0075 
*N *56:1 *C 3.7050 0.6900 
*N *56:2 *C 3.2525 0.7175 
*N *56:6 *C 3.8650 0.7000 

*CAP
0 *24:d 3.68969e-17
1 *20:g 4.71791e-17
2 *15:d 2.56584e-17
3 *14:g 3.27809e-17
4 *56:6 2.24703e-17
5 *56:2 3.09475e-17
6 *56:1 7.19262e-17

*RES
0 *56:1 *56:2 148.004333  // $poly_conn
1 *56:2 *14:g 18.337015  // $poly_conn
2 *56:2 *20:g 50.388298  // $poly_conn
3 *24:d *56:6 62.159935  // $metal1_conn
4 *56:6 *56:1 0.080185  // $metal1_conn
5 *56:6 *15:d 75.063957  // $metal1_conn

*END

