*SPEF "IEEE 1481-1999"
*DESIGN  "BUFX3"
*DATE "Mon Sep 27 09:11:23 2010"
*VENDOR "Cadence Design Systems"
*PROGRAM "Assura RCX"
*VERSION "3.2 Red Hat Linux release 7.2 (Enigma) - (09/09/2009-10:39)"
*DESIGN_FLOW "Physical Verification"
*DIVIDER /
*DELIMITER :
*BUS_DELIMITER []
*T_UNIT 1 PS
*C_UNIT 1e15 FF
*R_UNIT 1 OHM
*L_UNIT 1 MH
// DeviceFingerDelim "@"
// MATCHED
// caps2d version: 10

*NAME_MAP
*1 mp1
*2 mp1\@1
*3 mp1\@2
*4 mp0
*5 n0
*6 VSS
*7 mn1
*8 mn1\@1
*9 A
*10 VDD
*11 mn1\@2
*12 Y
*13 mn0

*GROUND_NETS VSS

*PORTS
*10 I
*6 I
*9 I
*12 O

*D_NET *10 2.54822e-16

*CONN
*P *10 I *C 0.1000 1.7100 
*I *1:s B *C 0.3050 1.2450 
*I *2:s B *C 0.3050 1.2450 
*I *3:s B *C 0.7150 1.2450 
*I *4:s B *C 0.7150 1.2450 
*N *10:2 *C 0.6000 1.7100 

*CAP
0 *3:s 1.55517e-16
1 *10:2 9.1236e-17
2 *10 8.06892e-18

*RES
0 *3:s *10 0.10234  // $metal1_conn
1 *10:2 *3:s 12.5  // $metal1_conn

*END

*D_NET *6 0

*CONN
*P *6 I *C 0.1000 0.0000 
*I *7:d B *C 0.3050 0.4700 
*I *8:d B *C 0.3050 0.4700 
*I *11:d B *C 0.7150 0.4700 
*I *13:d B *C 0.7150 0.4700 
*N *6:2 *C 0.6000 0.0000 


*RES
0 *11:d *6 0.10234  // $metal1_conn
1 *6:2 *11:d 10.333333  // $metal1_conn

*END

*D_NET *9 2.08442e-16

*CONN
*P *9 I *C 0.9050 0.8200 
*I *13:g B *C 0.8175 0.4700 
*I *4:g B *C 0.8175 1.2450 
*N *9:2 *C 0.8550 0.7800 

*CAP
0 *4:g 4.53181e-17
1 *13:g 3.56707e-17
2 *9:2 1.00174e-16
3 *9 2.72796e-17

*RES
0 *4:g *9:2 59.744961  // $poly_conn
1 *9:2 *13:g 36.668037  // $poly_conn
2 *9:2 *9 45.024437  // $metal1_conn

*END

*D_NET *12 3.01661e-16

*CONN
*P *12 O *C 0.0900 0.8200 
*I *7:s B *C 0.1100 0.4700 
*I *8:s B *C 0.5100 0.4700 
*I *11:s B *C 0.5100 0.4700 
*I *1:d B *C 0.1100 1.2450 
*I *2:d B *C 0.5100 1.2450 
*I *3:d B *C 0.5100 1.2450 

*CAP
0 *12 3.01661e-16


*END

*D_NET *5 4.4139e-16

*CONN
*I *7:g B *C 0.2025 0.4700 
*I *8:g B *C 0.4075 0.4700 
*I *11:g B *C 0.6125 0.4700 
*I *13:s B *C 0.9100 0.4700 
*I *1:g B *C 0.2025 1.2450 
*I *2:g B *C 0.4075 1.2450 
*I *3:g B *C 0.6125 1.2450 
*I *4:d B *C 0.9100 1.2450 
*N *5:7 *C 0.6650 0.8000 

*CAP
0 *4:d 7.56238e-17
1 *3:g 2.00493e-16
2 *13:s 6.74246e-17
3 *5:7 9.78479e-17

*RES
0 *3:g *5:7 47.586723  // $poly_conn
1 *4:d *5:7 21.180359  // $metal1_conn
2 *5:7 *13:s 37.934776  // $metal1_conn

*END

