*SPEF "IEEE 1481-1999"
*DESIGN  "BUFX12"
*DATE "Mon Sep 27 09:09:52 2010"
*VENDOR "Cadence Design Systems"
*PROGRAM "Assura RCX"
*VERSION "3.2 Red Hat Linux release 7.2 (Enigma) - (09/09/2009-10:39)"
*DESIGN_FLOW "Physical Verification"
*DIVIDER /
*DELIMITER :
*BUS_DELIMITER []
*T_UNIT 1 PS
*C_UNIT 1e15 FF
*R_UNIT 1 OHM
*L_UNIT 1 MH
// DeviceFingerDelim "@"
// MATCHED
// caps2d version: 10

*NAME_MAP
*1 n0
*2 A
*3 mn1
*4 mn1\@1
*5 mn1\@2
*6 mp1
*7 mn0
*8 mp1\@1
*9 mn0\@1
*10 mp1\@2
*11 mn0\@2
*12 mp0
*13 mn1\@3
*14 mp0\@1
*15 mn1\@4
*16 mp0\@2
*17 mn1\@5
*18 mp1\@3
*19 mp1\@4
*20 mp1\@5
*21 mp1\@6
*22 Y
*23 mp1\@7
*24 mp1\@8
*25 mp1\@9
*26 VDD
*27 mn1\@6
*28 mn1\@7
*29 mn1\@8
*30 mn1\@9
*31 VSS

*GROUND_NETS VSS

*PORTS
*26 I
*31 I
*2 I
*22 O

*D_NET *26 6.5274e-16

*CONN
*P *26 I *C 0.1000 1.7100 
*I *6:s B *C 1.7450 1.2150 
*I *8:s B *C 1.7450 1.2150 
*I *10:s B *C 2.2050 1.2550 
*I *12:s B *C 2.2050 1.2550 
*I *14:s B *C 2.5650 1.2550 
*I *16:s B *C 2.5650 1.2550 
*I *18:s B *C 1.3350 1.2150 
*I *19:s B *C 0.1150 1.2150 
*I *20:s B *C 0.5150 1.2150 
*I *21:s B *C 0.5150 1.2150 
*I *23:s B *C 0.9250 1.2150 
*I *24:s B *C 0.9250 1.2150 
*I *25:s B *C 1.3350 1.2150 

*CAP
0 *26 6.5274e-16


*END

*D_NET *2 3.04996e-16

*CONN
*P *2 I *C 2.6750 0.8350 
*I *7:g B *C 2.2575 0.4350 
*I *9:g B *C 2.4625 0.4350 
*I *11:g B *C 2.6675 0.4350 
*I *12:g B *C 2.2575 1.2550 
*I *14:g B *C 2.4625 1.2550 
*I *16:g B *C 2.6675 1.2550 

*CAP
0 *16:g 2.65356e-16
1 *2 3.96393e-17

*RES
0 *2 *16:g 45.103333  // $metal1_conn

*END

*D_NET *22 1.14337e-15

*CONN
*P *22 O *C 0.2550 0.8400 
*I *3:s B *C 1.5400 0.4100 
*I *4:s B *C 1.9500 0.4100 
*I *5:s B *C 1.9500 0.4100 
*I *13:s B *C 1.5400 0.4100 
*I *15:s B *C 0.3100 0.4100 
*I *17:s B *C 0.3100 0.4100 
*I *27:s B *C 0.7200 0.4100 
*I *28:s B *C 0.7200 0.4100 
*I *29:s B *C 1.1300 0.4100 
*I *30:s B *C 1.1300 0.4100 
*I *6:d B *C 1.5400 1.2150 
*I *8:d B *C 1.9500 1.2150 
*I *10:d B *C 1.9500 1.2150 
*I *18:d B *C 1.5400 1.2150 
*I *19:d B *C 0.3100 1.2150 
*I *20:d B *C 0.3100 1.2150 
*I *21:d B *C 0.7200 1.2150 
*I *23:d B *C 0.7200 1.2150 
*I *24:d B *C 1.1300 1.2150 
*I *25:d B *C 1.1300 1.2150 

*CAP
0 *8:d 5.07986e-16
1 *3:s 6.158e-16
2 *22 1.95849e-17

*RES
0 *8:d *22 0.156845  // $metal1_conn
1 *22 *3:s 0.167303  // $metal1_conn

*END

*D_NET *1 1.2124e-15

*CONN
*I *3:g B *C 1.6425 0.4100 
*I *4:g B *C 1.8475 0.4100 
*I *5:g B *C 2.0525 0.4100 
*I *7:s B *C 2.3600 0.4350 
*I *9:s B *C 2.3600 0.4350 
*I *11:s B *C 2.7600 0.4350 
*I *13:g B *C 1.4375 0.4100 
*I *15:g B *C 0.2075 0.4100 
*I *17:g B *C 0.4125 0.4100 
*I *27:g B *C 0.6175 0.4100 
*I *28:g B *C 0.8225 0.4100 
*I *29:g B *C 1.0275 0.4100 
*I *30:g B *C 1.2325 0.4100 
*I *6:g B *C 1.6425 1.2150 
*I *8:g B *C 1.8475 1.2150 
*I *10:g B *C 2.0525 1.2150 
*I *12:d B *C 2.3600 1.2550 
*I *14:d B *C 2.3600 1.2550 
*I *16:d B *C 2.7600 1.2550 
*I *18:g B *C 1.4375 1.2150 
*I *19:g B *C 0.2075 1.2150 
*I *20:g B *C 0.4125 1.2150 
*I *21:g B *C 0.6175 1.2150 
*I *23:g B *C 0.8225 1.2150 
*I *24:g B *C 1.0275 1.2150 
*I *25:g B *C 1.2325 1.2150 
*N *1:33 *C 2.3600 0.7550 

*CAP
0 *16:d 1.60557e-16
1 *10:g 8.54866e-16
2 *7:s 1.58592e-16
3 *1:33 3.83862e-17

*RES
0 *1:33 *10:g 0.330262  // $metal1_conn
1 *16:d *1:33 0.220322  // $metal1_conn
2 *1:33 *7:s 0.082581  // $metal1_conn

*END

