*SPEF "IEEE 1481-1999"
*DESIGN  "CLKAND2X6"
*DATE "Mon Sep 27 09:14:23 2010"
*VENDOR "Cadence Design Systems"
*PROGRAM "Assura RCX"
*VERSION "3.2 Red Hat Linux release 7.2 (Enigma) - (09/09/2009-10:39)"
*DESIGN_FLOW "Physical Verification"
*DIVIDER /
*DELIMITER :
*BUS_DELIMITER []
*T_UNIT 1 PS
*C_UNIT 1e15 FF
*R_UNIT 1 OHM
*L_UNIT 1 MH
// DeviceFingerDelim "@"
// MATCHED
// caps2d version: 10

*NAME_MAP
*1 A
*2 net61
*3 B
*4 net69\@1
*5 net69\@2
*6 net69\@3
*7 mn0
*8 mn2
*9 mn2\@1
*10 mp0
*11 mn2\@2
*12 mp2
*13 mn2\@3
*14 mp2\@1
*15 mn2\@4
*16 mp2\@2
*17 mn0\@1
*18 mp2\@3
*19 mn1\@1
*20 mp2\@4
*21 mn1\@2
*22 mp1
*23 mp0\@1
*24 mp1\@1
*25 mp1\@2
*26 Y
*27 mp0\@2
*28 mp0\@3
*29 mp1\@3
*30 VDD
*31 mn0\@2
*32 mn0\@3
*33 mn1\@3
*34 mn1
*35 net69
*36 VSS

*GROUND_NETS VSS

*PORTS
*30 I
*36 I
*1 I
*3 I
*26 O

*D_NET *30 3.80621e-16

*CONN
*P *30 I *C 0.1000 1.7100 
*I *10:s B *C 1.7300 1.1350 
*I *12:s B *C 1.7300 1.1350 
*I *14:s B *C 2.0850 1.1350 
*I *16:s B *C 2.0850 1.1350 
*I *18:s B *C 2.4950 1.1350 
*I *20:s B *C 2.4950 1.1350 
*I *22:s B *C 1.3150 1.0125 
*I *23:s B *C 0.1250 1.3400 
*I *24:s B *C 0.5250 1.3400 
*I *25:s B *C 0.5250 1.3400 
*I *27:s B *C 0.9250 1.3400 
*I *28:s B *C 0.9250 1.3400 
*I *29:s B *C 1.3150 1.0125 

*CAP
0 *30 3.80621e-16


*END

*D_NET *36 0

*CONN
*P *36 I *C 0.1000 0.0000 
*I *7:s B *C 1.6500 0.4300 
*I *8:s B *C 1.6500 0.4300 
*I *9:s B *C 2.0300 0.4300 
*I *11:s B *C 2.0300 0.4300 
*I *13:s B *C 2.4400 0.4300 
*I *15:s B *C 2.4400 0.4300 
*I *17:s B *C 0.1700 0.4050 
*I *31:s B *C 0.8600 0.4050 
*I *32:s B *C 0.8600 0.4050 
*N *36:2 *C 2.1000 0.0000 
*N *36:6 *C 0.8300 0.0000 
*N *36:7 *C 0.7000 0.0000 
*N *36:8 *C 0.1600 0.0000 


*RES
0 *36:8 *36 0.029627  // $metal1_conn
1 *36:2 *13:s 8.857142  // $metal1_conn
2 *36:2 *36:7 8.857142  // $metal1_conn
3 *36:6 *31:s 75.2005  // $metal1_conn
4 *36:8 *17:s 75.20417  // $metal1_conn
5 *13:s *36:6 0.355542  // $metal1_conn
6 *36:6 *36:7 0.064975  // $metal1_conn
7 *36:7 *36:8 0.270514  // $metal1_conn

*END

*D_NET *1 7.19215e-16

*CONN
*P *1 I *C 0.3000 0.6650 
*I *7:g B *C 1.4675 0.4050 
*I *17:g B *C 0.2625 0.4050 
*I *31:g B *C 0.7575 0.4050 
*I *32:g B *C 0.9625 0.4050 
*I *10:g B *C 1.5675 1.0125 
*I *23:g B *C 0.1625 1.0125 
*I *27:g B *C 0.7675 1.0125 
*I *28:g B *C 0.9625 1.0125 

*CAP
0 *32:g 2.85579e-17
1 *31:g 4.72883e-17
2 *17:g 3.17108e-17
3 *7:g 6.49752e-17
4 *1 5.46683e-16

*RES
0 *1 *7:g 28.975733  // $poly_conn
1 *1 *32:g 39.232613  // $poly_conn
2 *1 *31:g 19.094141  // $poly_conn
3 *17:g *1 24.222349  // $poly_conn

*END

*D_NET *3 5.4828e-16

*CONN
*P *3 I *C 0.7000 0.8550 
*I *19:g B *C 0.4475 0.4050 
*I *21:g B *C 0.6525 0.4050 
*I *33:g B *C 1.1575 0.4050 
*I *34:g B *C 1.3625 0.4050 
*I *22:g B *C 1.3625 1.0125 
*I *24:g B *C 0.3675 1.0125 
*I *25:g B *C 0.5625 1.0125 
*I *29:g B *C 1.1675 1.0125 

*CAP
0 *34:g 4.42672e-17
1 *33:g 2.50443e-17
2 *21:g 5.6017e-17
3 *19:g 3.4712e-17
4 *3 3.88239e-16

*RES
0 *3 *34:g 18.71979  // $poly_conn
1 *3 *33:g 17.881908  // $poly_conn
2 *21:g *3 67.280045  // $poly_conn
3 *3 *19:g 60.044071  // $poly_conn

*END

*D_NET *26 4.86056e-16

*CONN
*P *26 O *C 2.5000 0.8550 
*I *8:d B *C 1.8250 0.4300 
*I *9:d B *C 1.8250 0.4300 
*I *11:d B *C 2.2350 0.4300 
*I *13:d B *C 2.2350 0.4300 
*I *15:d B *C 2.6350 0.4300 
*I *12:d B *C 1.8800 1.1350 
*I *14:d B *C 1.8800 1.1350 
*I *16:d B *C 2.2900 1.1350 
*I *18:d B *C 2.2900 1.1350 
*I *20:d B *C 2.6900 1.1350 

*CAP
0 *20:d 2.8118e-16
1 *8:d 1.93053e-16
2 *26 1.18233e-17

*RES
0 *20:d *26 0.002997  // $metal1_conn
1 *26 *8:d 0.17181  // $metal1_conn

*END

*D_NET *35 1.73025e-18

*CONN
*I *7:d B *C 1.4150 0.4050 
*I *34:s B *C 1.4150 0.4050 

*CAP
0 *7:d 1.73025e-18

*RES
0 *34:s *7:d 0.001  // $mwires

*END

*D_NET *6 4.73936e-18

*CONN
*I *32:d B *C 1.0600 0.4050 
*I *33:s B *C 1.0600 0.4050 

*CAP
0 *32:d 4.73936e-18

*RES
0 *33:s *32:d 0.001  // $mwires

*END

*D_NET *5 1.73025e-18

*CONN
*I *21:s B *C 0.7050 0.4050 
*I *31:d B *C 0.7050 0.4050 

*CAP
0 *21:s 1.73025e-18

*RES
0 *31:d *21:s 0.001  // $mwires

*END

*D_NET *4 0

*CONN
*I *17:d B *C 0.3550 0.4050 
*I *19:s B *C 0.3550 0.4050 


*RES
0 *19:s *17:d 0.001  // $mwires

*END

*D_NET *2 8.38926e-16

*CONN
*I *8:g B *C 1.7225 0.4300 
*I *9:g B *C 1.9275 0.4300 
*I *11:g B *C 2.1325 0.4300 
*I *13:g B *C 2.3375 0.4300 
*I *15:g B *C 2.5425 0.4300 
*I *19:d B *C 0.5500 0.4050 
*I *21:d B *C 0.5500 0.4050 
*I *33:d B *C 1.2600 0.4050 
*I *34:d B *C 1.2600 0.4050 
*I *10:d B *C 1.4650 1.0125 
*I *12:g B *C 1.7775 1.1350 
*I *14:g B *C 1.9825 1.1350 
*I *16:g B *C 2.1875 1.1350 
*I *18:g B *C 2.3925 1.1350 
*I *20:g B *C 2.5975 1.1350 
*I *22:d B *C 1.4650 1.0125 
*I *23:d B *C 0.2650 1.0125 
*I *24:d B *C 0.2650 1.0125 
*I *25:d B *C 0.6650 1.0125 
*I *27:d B *C 0.6650 1.0125 
*I *28:d B *C 1.0650 1.0125 
*I *29:d B *C 1.0650 1.0125 
*N *2:18 *C 1.6650 0.7300 
*N *2:27 *C 1.2600 0.4750 

*CAP
0 *20:g 3.63079e-16
1 *10:d 2.01898e-16
2 *33:d 1.22125e-16
3 *19:d 8.36278e-17
4 *2:18 6.81964e-17

*RES
0 *20:g *2:18 0.201864  // $metal1_conn
1 *33:d *2:27 75  // $metal1_conn
2 *2:27 *19:d 75.542702  // $metal1_conn
3 *2:18 *10:d 0.344829  // $metal1_conn
4 *2:18 *2:27 0.502328  // $metal1_conn

*END

