*SPEF "IEEE 1481-1999"
*DESIGN  "CLKAND2X4"
*DATE "Mon Sep 27 09:14:00 2010"
*VENDOR "Cadence Design Systems"
*PROGRAM "Assura RCX"
*VERSION "3.2 Red Hat Linux release 7.2 (Enigma) - (09/09/2009-10:39)"
*DESIGN_FLOW "Physical Verification"
*DIVIDER /
*DELIMITER :
*BUS_DELIMITER []
*T_UNIT 1 PS
*C_UNIT 1e15 FF
*R_UNIT 1 OHM
*L_UNIT 1 MH
// DeviceFingerDelim "@"
// MATCHED
// caps2d version: 10

*NAME_MAP
*1 mp1
*2 mn2\@3
*3 mp1\@1
*4 mp0\@1
*5 VDD
*6 mp2
*7 mp2\@1
*8 mp2\@2
*9 mp2\@3
*10 Y
*11 net61
*12 net69
*13 net69\@1
*14 A
*15 B
*16 VSS
*17 mn0
*18 mn1
*19 mn1\@1
*20 mn0\@1
*21 mn2
*22 mn2\@1
*23 mp0
*24 mn2\@2

*GROUND_NETS VSS

*PORTS
*5 I
*16 I
*14 I
*15 I
*10 O

*D_NET *5 2.58082e-16

*CONN
*P *5 I *C 0.1000 1.7100 
*I *23:s B *C 0.2350 1.5700 
*I *1:s B *C 0.6300 1.0425 
*I *3:s B *C 0.6300 1.0425 
*I *4:s B *C 1.1150 1.1400 
*I *6:s B *C 1.1150 1.1400 
*I *7:s B *C 1.4700 1.1400 
*I *8:s B *C 1.4700 1.1400 
*I *9:s B *C 1.8700 1.1400 
*N *5:3 *C 1.0000 1.7100 

*CAP
0 *9:s 1.59556e-16
1 *1:s 7.26605e-18
2 *5:3 9.12598e-17

*RES
0 *9:s *5 0.054471  // $metal1_conn
1 *5:3 *9:s 7.5  // $metal1_conn
2 *9:s *1:s 62.073681  // $metal1_conn

*END

*D_NET *16 0

*CONN
*P *16 I *C 0.1000 0.0000 
*I *17:s B *C 0.2800 0.4150 
*I *20:s B *C 0.9250 0.4150 
*I *21:s B *C 0.9250 0.4150 
*I *22:s B *C 1.3700 0.4150 
*I *24:s B *C 1.3700 0.4150 
*I *2:s B *C 1.7700 0.4150 
*N *16:3 *C 1.0000 0.0000 
*N *16:6 *C 0.2700 0.0000 


*RES
0 *16:6 *16 0.084425  // $metal1_conn
1 *16:3 *2:s 6.2  // $metal1_conn
2 *16:6 *17:s 75.208748  // $metal1_conn
3 *2:s *16:6 0.294156  // $metal1_conn

*END

*D_NET *14 4.21791e-16

*CONN
*P *14 I *C 0.5000 0.6650 
*I *17:g B *C 0.3725 0.4150 
*I *20:g B *C 0.7875 0.4150 
*I *23:g B *C 0.2725 1.0425 
*I *4:g B *C 0.8875 1.0425 

*CAP
0 *20:g 5.47201e-17
1 *17:g 4.98723e-17
2 *14 3.17199e-16

*RES
0 *14 *20:g 19.094141  // $poly_conn
1 *17:g *14 19.094143  // $poly_conn

*END

*D_NET *15 3.49399e-16

*CONN
*P *15 I *C 0.7000 0.8550 
*I *18:g B *C 0.4775 0.4150 
*I *19:g B *C 0.6825 0.4150 
*I *1:g B *C 0.4775 1.0425 
*I *3:g B *C 0.6825 1.0425 

*CAP
0 *3:g 1.87066e-16
1 *19:g 5.87894e-17
2 *18:g 5.92677e-17
3 *15 4.42763e-17

*RES
0 *3:g *19:g 74.168388  // $poly_conn
1 *3:g *18:g 67.437271  // $poly_conn
2 *15 *3:g 45.115501  // $metal1_conn

*END

*D_NET *10 3.23436e-16

*CONN
*P *10 O *C 1.7000 0.8550 
*I *21:d B *C 1.1650 0.4150 
*I *22:d B *C 1.1650 0.4150 
*I *24:d B *C 1.5750 0.4150 
*I *2:d B *C 1.5750 0.4150 
*I *6:d B *C 1.2650 1.1400 
*I *7:d B *C 1.2650 1.1400 
*I *8:d B *C 1.6750 1.1400 
*I *9:d B *C 1.6750 1.1400 

*CAP
0 *8:d 1.76679e-16
1 *21:d 1.26136e-16
2 *10 2.06211e-17

*RES
0 *21:d *10 0.282213  // $metal1_conn
1 *10 *8:d 0.074322  // $metal1_conn

*END

*D_NET *13 2.0482e-18

*CONN
*I *19:s B *C 0.7350 0.4150 
*I *20:d B *C 0.7350 0.4150 

*CAP
0 *19:s 2.0482e-18

*RES
0 *20:d *19:s 0.001  // $mwires

*END

*D_NET *12 1.56937e-19

*CONN
*I *17:d B *C 0.4250 0.4150 
*I *18:s B *C 0.4250 0.4150 

*CAP
0 *17:d 1.56937e-19

*RES
0 *18:s *17:d 0.001  // $mwires

*END

*D_NET *11 5.3948e-16

*CONN
*I *18:d B *C 0.5800 0.4150 
*I *19:d B *C 0.5800 0.4150 
*I *21:g B *C 1.0625 0.4150 
*I *22:g B *C 1.2675 0.4150 
*I *24:g B *C 1.4725 0.4150 
*I *2:g B *C 1.6775 0.4150 
*I *23:d B *C 0.3750 1.0425 
*I *1:d B *C 0.3750 1.0425 
*I *3:d B *C 0.7850 1.0425 
*I *4:d B *C 0.7850 1.0425 
*I *6:g B *C 1.1625 1.1400 
*I *7:g B *C 1.3675 1.1400 
*I *8:g B *C 1.5725 1.1400 
*I *9:g B *C 1.7775 1.1400 
*N *11:15 *C 1.0050 0.6950 

*CAP
0 *9:g 2.91774e-16
1 *3:d 1.05167e-16
2 *18:d 6.87341e-17
3 *11:15 7.38055e-17

*RES
0 *9:g *11:15 0.190271  // $metal1_conn
1 *11:15 *18:d 75.450974  // $metal1_conn
2 *11:15 *3:d 0.367794  // $metal1_conn

*END

