*SPEF "IEEE 1481-1999"
*DESIGN  "CLKAND2X12"
*DATE "Mon Sep 27 09:12:51 2010"
*VENDOR "Cadence Design Systems"
*PROGRAM "Assura RCX"
*VERSION "3.2 Red Hat Linux release 7.2 (Enigma) - (09/09/2009-10:39)"
*DESIGN_FLOW "Physical Verification"
*DIVIDER /
*DELIMITER :
*BUS_DELIMITER []
*T_UNIT 1 PS
*C_UNIT 1e15 FF
*R_UNIT 1 OHM
*L_UNIT 1 MH
// DeviceFingerDelim "@"
// MATCHED
// caps2d version: 10

*NAME_MAP
*1 mn1\@1
*2 mn1\@2
*3 mn0\@2
*4 mn0\@3
*5 mn1\@3
*6 mn1\@4
*7 mn0\@4
*8 mp2\@9
*9 mp1
*10 mp0
*11 mp0\@1
*12 mp1\@1
*13 mp1\@2
*14 mp0\@2
*15 mp0\@3
*16 mp1\@3
*17 mp1\@4
*18 net69\@3
*19 mp2
*20 net69\@4
*21 mp2\@1
*22 mp2\@2
*23 mp2\@3
*24 mp2\@4
*25 mp2\@5
*26 mp2\@6
*27 mp0\@4
*28 mp2\@7
*29 mp2\@8
*30 VSS
*31 A
*32 B
*33 mn2
*34 mn2\@1
*35 mn2\@2
*36 mn2\@3
*37 mn2\@4
*38 VDD
*39 mn2\@5
*40 mn2\@6
*41 net61
*42 mn2\@7
*43 net69
*44 mn2\@8
*45 net69\@1
*46 net69\@2
*47 Y
*48 mn2\@9
*49 mn1
*50 mn0
*51 mn0\@1

*GROUND_NETS VSS

*PORTS
*38 I
*30 I
*31 I
*32 I
*47 O

*D_NET *38 6.98156e-16

*CONN
*P *38 I *C 0.1000 1.7100 
*I *19:s B *C 2.2750 1.1350 
*I *21:s B *C 2.6300 1.1350 
*I *22:s B *C 2.6300 1.1350 
*I *23:s B *C 3.0400 1.1350 
*I *24:s B *C 3.0400 1.1350 
*I *25:s B *C 3.4500 1.1350 
*I *26:s B *C 3.4500 1.1350 
*I *28:s B *C 3.8600 1.1350 
*I *29:s B *C 3.8600 1.1350 
*I *8:s B *C 4.2600 1.1350 
*I *9:s B *C 0.1600 1.1675 
*I *10:s B *C 0.6150 1.5700 
*I *11:s B *C 0.6150 1.5700 
*I *12:s B *C 1.0150 1.5700 
*I *13:s B *C 1.0150 1.5700 
*I *14:s B *C 1.4150 1.5700 
*I *15:s B *C 1.4150 1.5700 
*I *16:s B *C 1.8150 1.5700 
*I *17:s B *C 1.8150 1.5700 
*I *27:s B *C 2.2750 1.1350 
*N *38:4 *C 3.3000 1.7100 

*CAP
0 *8:s 4.93126e-16
1 *38:4 2.0503e-16

*RES
0 *8:s *38 0.024623  // $metal1_conn
1 *38:4 *8:s 6.818182  // $metal1_conn
2 *38:4 *8:s 6.818182  // $metal1_conn

*END

*D_NET *30 0

*CONN
*P *30 I *C 0.1000 0.0000 
*I *33:s B *C 2.5400 0.5050 
*I *34:s B *C 2.5400 0.5050 
*I *35:s B *C 2.9500 0.5050 
*I *36:s B *C 2.9500 0.5050 
*I *37:s B *C 3.3600 0.5050 
*I *39:s B *C 3.3600 0.5050 
*I *40:s B *C 3.7700 0.5050 
*I *42:s B *C 3.7700 0.5050 
*I *44:s B *C 4.2050 0.5050 
*I *48:s B *C 2.0950 0.5050 
*I *50:s B *C 0.5850 0.5050 
*I *51:s B *C 0.5850 0.5050 
*I *3:s B *C 1.2850 0.5050 
*I *4:s B *C 1.2850 0.5050 
*I *7:s B *C 2.0950 0.5050 
*N *30:4 *C 3.3000 0.0000 
*N *30:9 *C 1.2850 0.0000 
*N *30:10 *C 1.1000 0.0000 
*N *30:11 *C 0.5850 0.0000 


*RES
0 *30:11 *30 0.242772  // $metal1_conn
1 *30:4 *44:s 5.636364  // $metal1_conn
2 *30:4 *30:10 5.636364  // $metal1_conn
3 *30:9 *3:s 75.254799  // $metal1_conn
4 *30:11 *50:s 75.254799  // $metal1_conn
5 *44:s *30:9 0.388257  // $metal1_conn
6 *30:9 *30:10 0.092578  // $metal1_conn
7 *30:10 *30:11 0.258068  // $metal1_conn

*END

*D_NET *31 8.74058e-16

*CONN
*P *31 I *C 1.9000 0.8550 
*I *50:g B *C 0.4825 0.5050 
*I *51:g B *C 0.6875 0.5050 
*I *3:g B *C 1.1825 0.5050 
*I *4:g B *C 1.3875 0.5050 
*I *7:g B *C 1.9575 0.5050 
*I *10:g B *C 0.4575 1.1675 
*I *11:g B *C 0.6525 1.1675 
*I *14:g B *C 1.2575 1.1675 
*I *15:g B *C 1.4525 1.1675 
*I *27:g B *C 2.0575 1.1675 

*CAP
0 *7:g 6.58554e-17
1 *4:g 3.33197e-17
2 *3:g 3.98863e-17
3 *51:g 5.06611e-17
4 *50:g 4.18483e-17
5 *31 6.42487e-16

*RES
0 *31 *7:g 35.760807  // $poly_conn
1 *31 *4:g 62.608177  // $poly_conn
2 *31 *3:g 65.283295  // $poly_conn
3 *51:g *31 22.333546  // $poly_conn
4 *31 *50:g 23.933537  // $poly_conn

*END

*D_NET *32 8.35786e-16

*CONN
*P *32 I *C 0.5000 0.8550 
*I *49:g B *C 0.3525 0.5050 
*I *1:g B *C 0.7925 0.5050 
*I *2:g B *C 0.9975 0.5050 
*I *5:g B *C 1.6475 0.5050 
*I *6:g B *C 1.8525 0.5050 
*I *9:g B *C 0.2525 1.1675 
*I *12:g B *C 0.8575 1.1675 
*I *13:g B *C 1.0525 1.1675 
*I *16:g B *C 1.6575 1.1675 
*I *17:g B *C 1.8525 1.1675 

*CAP
0 *17:g 6.08267e-16
1 *6:g 5.55629e-17
2 *5:g 2.3993e-17
3 *2:g 2.86154e-17
4 *1:g 5.50733e-17
5 *49:g 5.03572e-17
6 *32 1.39165e-17

*RES
0 *17:g *6:g 39.232613  // $poly_conn
1 *17:g *5:g 23.847527  // $poly_conn
2 *17:g *2:g 16.530039  // $poly_conn
3 *17:g *1:g 47.421162  // $poly_conn
4 *49:g *17:g 29.350555  // $poly_conn
5 *17:g *32 0.024521  // $metal1_conn

*END

*D_NET *47 1.06537e-15

*CONN
*P *47 O *C 4.1000 0.8550 
*I *33:d B *C 2.3350 0.5050 
*I *34:d B *C 2.7450 0.5050 
*I *35:d B *C 2.7450 0.5050 
*I *36:d B *C 3.1550 0.5050 
*I *37:d B *C 3.1550 0.5050 
*I *39:d B *C 3.5650 0.5050 
*I *40:d B *C 3.5650 0.5050 
*I *42:d B *C 3.9750 0.5050 
*I *44:d B *C 3.9750 0.5050 
*I *48:d B *C 2.3350 0.5050 
*I *19:d B *C 2.4250 1.1350 
*I *21:d B *C 2.4250 1.1350 
*I *22:d B *C 2.8350 1.1350 
*I *23:d B *C 2.8350 1.1350 
*I *24:d B *C 3.2450 1.1350 
*I *25:d B *C 3.2450 1.1350 
*I *26:d B *C 3.6550 1.1350 
*I *28:d B *C 3.6550 1.1350 
*I *29:d B *C 4.0650 1.1350 
*I *8:d B *C 4.0650 1.1350 

*CAP
0 *29:d 5.87316e-16
1 *33:d 4.59932e-16
2 *47 1.81195e-17

*RES
0 *33:d *47 0.250034  // $metal1_conn
1 *47 *29:d 0.053541  // $metal1_conn

*END

*D_NET *20 1.92814e-18

*CONN
*I *6:s B *C 1.9050 0.5050 
*I *7:d B *C 1.9050 0.5050 

*CAP
0 *6:s 1.92814e-18

*RES
0 *7:d *6:s 0.001  // $mwires

*END

*D_NET *18 6.48613e-18

*CONN
*I *4:d B *C 1.5175 0.5050 
*I *5:s B *C 1.5175 0.5050 

*CAP
0 *4:d 6.48613e-18

*RES
0 *5:s *4:d 0.001  // $mwires

*END

*D_NET *46 4.12669e-18

*CONN
*I *2:s B *C 1.0900 0.5050 
*I *3:d B *C 1.0900 0.5050 

*CAP
0 *2:s 4.12669e-18

*RES
0 *3:d *2:s 0.001  // $mwires

*END

*D_NET *45 1.81486e-18

*CONN
*I *51:d B *C 0.7400 0.5050 
*I *1:s B *C 0.7400 0.5050 

*CAP
0 *51:d 1.81486e-18

*RES
0 *1:s *51:d 0.001  // $mwires

*END

*D_NET *43 2.61087e-18

*CONN
*I *49:s B *C 0.4175 0.5050 
*I *50:d B *C 0.4175 0.5050 

*CAP
0 *49:s 2.61087e-18

*RES
0 *50:d *49:s 0.001  // $mwires

*END

*D_NET *41 1.44715e-15

*CONN
*I *33:g B *C 2.4375 0.5050 
*I *34:g B *C 2.6425 0.5050 
*I *35:g B *C 2.8475 0.5050 
*I *36:g B *C 3.0525 0.5050 
*I *37:g B *C 3.2575 0.5050 
*I *39:g B *C 3.4625 0.5050 
*I *40:g B *C 3.6675 0.5050 
*I *42:g B *C 3.8725 0.5050 
*I *44:g B *C 4.0775 0.5050 
*I *48:g B *C 2.2325 0.5050 
*I *49:d B *C 0.2600 0.5050 
*I *1:d B *C 0.8950 0.5050 
*I *2:d B *C 0.8950 0.5050 
*I *5:d B *C 1.7500 0.5050 
*I *6:d B *C 1.7500 0.5050 
*I *19:g B *C 2.3225 1.1350 
*I *21:g B *C 2.5275 1.1350 
*I *22:g B *C 2.7325 1.1350 
*I *23:g B *C 2.9375 1.1350 
*I *24:g B *C 3.1425 1.1350 
*I *25:g B *C 3.3475 1.1350 
*I *26:g B *C 3.5525 1.1350 
*I *28:g B *C 3.7575 1.1350 
*I *29:g B *C 3.9625 1.1350 
*I *8:g B *C 4.1675 1.1350 
*I *9:d B *C 0.3550 1.1675 
*I *10:d B *C 0.3550 1.1675 
*I *11:d B *C 0.7550 1.1675 
*I *12:d B *C 0.7550 1.1675 
*I *13:d B *C 1.1550 1.1675 
*I *14:d B *C 1.1550 1.1675 
*I *15:d B *C 1.5550 1.1675 
*I *16:d B *C 1.5550 1.1675 
*I *17:d B *C 1.9550 1.1675 
*I *27:d B *C 1.9550 1.1675 
*N *41:37 *C 2.1750 0.7850 
*N *41:38 *C 1.7500 0.6000 
*N *41:40 *C 0.8950 0.5700 

*CAP
0 *17:d 2.90095e-16
1 *8:g 7.7173e-16
2 *5:d 2.41732e-17
3 *1:d 1.4403e-16
4 *49:d 6.58909e-17
5 *41:38 8.87958e-17
6 *41:37 6.24372e-17

*RES
0 *41:38 *5:d 37.559452  // $metal1_conn
1 *1:d *41:40 75  // $metal1_conn
2 *41:40 *49:d 37.962803  // $metal1_conn
3 *8:g *41:37 0.114854  // $metal1_conn
4 *41:37 *41:38 0.432543  // $metal1_conn
5 *41:37 *17:d 0.389926  // $metal1_conn
6 *41:38 *41:40 0.636237  // $metal1_conn

*END

