*SPEF "IEEE 1481-1999"
*DESIGN  "CLKBUFX12"
*DATE "Mon Sep 27 09:15:09 2010"
*VENDOR "Cadence Design Systems"
*PROGRAM "Assura RCX"
*VERSION "3.2 Red Hat Linux release 7.2 (Enigma) - (09/09/2009-10:39)"
*DESIGN_FLOW "Physical Verification"
*DIVIDER /
*DELIMITER :
*BUS_DELIMITER []
*T_UNIT 1 PS
*C_UNIT 1e15 FF
*R_UNIT 1 OHM
*L_UNIT 1 MH
// DeviceFingerDelim "@"
// MATCHED
// caps2d version: 10

*NAME_MAP
*1 net44
*2 A
*3 mn1
*4 mn1\@1
*5 mn1\@2
*6 mp1
*7 mn0
*8 mp1\@1
*9 mn0\@1
*10 mp1\@2
*11 mn0\@2
*12 mp0
*13 mn1\@3
*14 mp0\@1
*15 mn1\@4
*16 mp0\@2
*17 mn1\@5
*18 mp1\@3
*19 mp1\@4
*20 mp1\@5
*21 mp1\@6
*22 Y
*23 mp1\@7
*24 mp1\@8
*25 mp1\@9
*26 VDD
*27 mn1\@6
*28 mn1\@7
*29 mn1\@8
*30 mn1\@9
*31 VSS

*GROUND_NETS VSS

*PORTS
*26 I
*31 I
*2 I
*22 O

*D_NET *26 6.04852e-16

*CONN
*P *26 I *C 0.1000 1.7100 
*I *6:s B *C 1.7450 1.2150 
*I *8:s B *C 1.7450 1.2150 
*I *10:s B *C 2.2300 1.2550 
*I *12:s B *C 2.2300 1.2550 
*I *14:s B *C 2.6950 1.2550 
*I *16:s B *C 2.6950 1.2550 
*I *18:s B *C 0.1150 1.2150 
*I *19:s B *C 0.5150 1.2150 
*I *20:s B *C 0.5150 1.2150 
*I *21:s B *C 0.9250 1.2150 
*I *23:s B *C 0.9250 1.2150 
*I *24:s B *C 1.3350 1.2150 
*I *25:s B *C 1.3350 1.2150 

*CAP
0 *26 6.04852e-16


*END

*D_NET *2 3.12564e-16

*CONN
*P *2 I *C 2.3000 1.0450 
*I *7:g B *C 2.3075 0.4350 
*I *9:g B *C 2.5925 0.4350 
*I *11:g B *C 2.7975 0.4350 
*I *12:g B *C 2.3075 1.2550 
*I *14:g B *C 2.5925 1.2550 
*I *16:g B *C 2.7975 1.2550 

*CAP
0 *16:g 2.62944e-16
1 *2 4.96195e-17

*RES
0 *2 *16:g 45.129021  // $metal1_conn

*END

*D_NET *22 9.35464e-16

*CONN
*P *22 O *C 0.3000 1.0450 
*I *3:d B *C 1.5400 0.4100 
*I *4:d B *C 1.9500 0.4100 
*I *5:d B *C 1.9500 0.4100 
*I *13:d B *C 0.3100 0.4100 
*I *15:d B *C 0.3100 0.4100 
*I *17:d B *C 0.7200 0.4100 
*I *27:d B *C 0.7200 0.4100 
*I *28:d B *C 1.1300 0.4100 
*I *29:d B *C 1.1300 0.4100 
*I *30:d B *C 1.5400 0.4100 
*I *6:d B *C 1.5400 1.2150 
*I *8:d B *C 1.9500 1.2150 
*I *10:d B *C 1.9500 1.2150 
*I *18:d B *C 0.3100 1.2150 
*I *19:d B *C 0.3100 1.2150 
*I *20:d B *C 0.7200 1.2150 
*I *21:d B *C 0.7200 1.2150 
*I *23:d B *C 1.1300 1.2150 
*I *24:d B *C 1.1300 1.2150 
*I *25:d B *C 1.5400 1.2150 

*CAP
0 *3:d 4.52256e-16
1 *22 4.83208e-16

*RES
0 *22 *3:d 0.544293  // $metal1_conn

*END

*D_NET *1 1.01699e-15

*CONN
*I *3:g B *C 1.6425 0.4100 
*I *4:g B *C 1.8475 0.4100 
*I *5:g B *C 2.0525 0.4100 
*I *7:d B *C 2.4500 0.4350 
*I *9:d B *C 2.4500 0.4350 
*I *11:d B *C 2.8900 0.4350 
*I *13:g B *C 0.2075 0.4100 
*I *15:g B *C 0.4125 0.4100 
*I *17:g B *C 0.6175 0.4100 
*I *27:g B *C 0.8225 0.4100 
*I *28:g B *C 1.0275 0.4100 
*I *29:g B *C 1.2325 0.4100 
*I *30:g B *C 1.4375 0.4100 
*I *6:g B *C 1.6425 1.2150 
*I *8:g B *C 1.8475 1.2150 
*I *10:g B *C 2.0525 1.2150 
*I *12:d B *C 2.4500 1.2550 
*I *14:d B *C 2.4500 1.2550 
*I *16:d B *C 2.8900 1.2550 
*I *18:g B *C 0.2075 1.2150 
*I *19:g B *C 0.4125 1.2150 
*I *20:g B *C 0.6175 1.2150 
*I *21:g B *C 0.8225 1.2150 
*I *23:g B *C 1.0275 1.2150 
*I *24:g B *C 1.2325 1.2150 
*I *25:g B *C 1.4375 1.2150 

*CAP
0 *16:d 1.34429e-16
1 *10:g 7.70835e-16
2 *7:d 1.11724e-16

*RES
0 *7:d *10:g 0.447719  // $metal1_conn
1 *16:d *7:d 0.288386  // $metal1_conn

*END

