*SPEF "IEEE 1481-1999"
*DESIGN  "CLKBUFX20"
*DATE "Mon Sep 27 09:16:17 2010"
*VENDOR "Cadence Design Systems"
*PROGRAM "Assura RCX"
*VERSION "3.2 Red Hat Linux release 7.2 (Enigma) - (09/09/2009-10:39)"
*DESIGN_FLOW "Physical Verification"
*DIVIDER /
*DELIMITER :
*BUS_DELIMITER []
*T_UNIT 1 PS
*C_UNIT 1e15 FF
*R_UNIT 1 OHM
*L_UNIT 1 MH
// DeviceFingerDelim "@"
// MATCHED
// caps2d version: 10

*NAME_MAP
*1 mp0\@3
*2 mn1\@15
*3 mp0\@4
*4 mn1\@16
*5 mp1\@6
*6 mp1\@7
*7 mp1\@8
*8 mp1\@9
*9 mp1\@10
*10 mp1\@11
*11 mp1\@12
*12 mp1\@13
*13 mp1\@14
*14 mp1\@15
*15 mp1\@16
*16 VDD
*17 mn1
*18 mn1\@1
*19 mn1\@2
*20 mn1\@3
*21 mn1\@4
*22 mn1\@5
*23 mn0
*24 mp1
*25 mn0\@1
*26 mp1\@1
*27 mn0\@2
*28 mp1\@2
*29 mp1\@3
*30 mp1\@4
*31 mp1\@5
*32 mp0
*33 mp0\@1
*34 mp0\@2
*35 A
*36 mn0\@3
*37 mn0\@4
*38 mn1\@6
*39 mn1\@7
*40 mn1\@8
*41 mn1\@9
*42 net44
*43 VSS
*44 mn1\@10
*45 Y
*46 mn1\@11
*47 mn1\@12
*48 mn1\@13
*49 mn1\@14

*GROUND_NETS VSS

*PORTS
*16 I
*43 I
*35 I
*45 O

*D_NET *16 9.58013e-16

*CONN
*P *16 I *C 0.1000 1.7100 
*I *24:s B *C 2.3550 1.1300 
*I *26:s B *C 2.7650 1.1300 
*I *28:s B *C 2.7650 1.1300 
*I *29:s B *C 3.1750 1.1300 
*I *30:s B *C 3.1750 1.1300 
*I *31:s B *C 3.6350 1.1650 
*I *32:s B *C 3.6350 1.1650 
*I *33:s B *C 3.9950 1.1650 
*I *34:s B *C 3.9950 1.1650 
*I *1:s B *C 4.4050 1.1650 
*I *3:s B *C 4.4050 1.1650 
*I *5:s B *C 0.3350 1.1300 
*I *6:s B *C 0.3350 1.1300 
*I *7:s B *C 0.7150 1.1300 
*I *8:s B *C 0.7150 1.1300 
*I *9:s B *C 1.1250 1.1300 
*I *10:s B *C 1.1250 1.1300 
*I *11:s B *C 1.5350 1.1300 
*I *12:s B *C 1.5350 1.1300 
*I *13:s B *C 1.9450 1.1300 
*I *14:s B *C 1.9450 1.1300 
*I *15:s B *C 2.3550 1.1300 
*N *16:3 *C 3.6000 1.7100 

*CAP
0 *1:s 8.05958e-16
1 *16:3 1.4362e-16
2 *16 8.43494e-18

*RES
0 *1:s *16 0.10246  // $metal1_conn
1 *16:3 *1:s 6.25  // $metal1_conn
2 *16:3 *1:s 6.25  // $metal1_conn

*END

*D_NET *43 0

*CONN
*P *43 I *C 0.1000 0.0000 
*I *17:s B *C 2.3550 0.5075 
*I *18:s B *C 2.7650 0.5075 
*I *19:s B *C 2.7650 0.5075 
*I *20:s B *C 3.1750 0.5075 
*I *21:s B *C 3.1750 0.5075 
*I *22:s B *C 3.6350 0.5300 
*I *23:s B *C 3.6350 0.5300 
*I *25:s B *C 3.9950 0.5300 
*I *27:s B *C 3.9950 0.5300 
*I *36:s B *C 4.4050 0.5300 
*I *37:s B *C 4.4050 0.5300 
*I *38:s B *C 0.3050 0.5075 
*I *39:s B *C 0.3050 0.5075 
*I *40:s B *C 0.7150 0.5075 
*I *41:s B *C 0.7150 0.5075 
*I *44:s B *C 1.1250 0.5075 
*I *46:s B *C 1.1250 0.5075 
*I *47:s B *C 1.5350 0.5075 
*I *48:s B *C 1.5350 0.5075 
*I *49:s B *C 1.9450 0.5075 
*I *2:s B *C 1.9450 0.5075 
*I *4:s B *C 2.3550 0.5075 
*N *43:3 *C 3.6000 0.0000 


*RES
0 *36:s *43 0.10246  // $metal1_conn
1 *43:3 *36:s 5.166667  // $metal1_conn
2 *43:3 *36:s 5.166667  // $metal1_conn

*END

*D_NET *35 3.84083e-16

*CONN
*P *35 I *C 4.1000 0.8550 
*I *23:g B *C 3.6875 0.5300 
*I *25:g B *C 3.8925 0.5300 
*I *27:g B *C 4.0975 0.5300 
*I *36:g B *C 4.3025 0.5300 
*I *37:g B *C 4.5075 0.5300 
*I *32:g B *C 3.6875 1.1650 
*I *33:g B *C 3.8925 1.1650 
*I *34:g B *C 4.0975 1.1650 
*I *1:g B *C 4.3025 1.1650 
*I *3:g B *C 4.5075 1.1650 

*CAP
0 *35 3.84083e-16


*END

*D_NET *45 1.83862e-15

*CONN
*P *45 O *C 0.1000 0.6650 
*I *17:d B *C 2.5600 0.5075 
*I *18:d B *C 2.5600 0.5075 
*I *19:d B *C 2.9700 0.5075 
*I *20:d B *C 2.9700 0.5075 
*I *21:d B *C 3.3800 0.5075 
*I *22:d B *C 3.3800 0.5075 
*I *38:d B *C 0.1100 0.5075 
*I *39:d B *C 0.5100 0.5075 
*I *40:d B *C 0.5100 0.5075 
*I *41:d B *C 0.9200 0.5075 
*I *44:d B *C 0.9200 0.5075 
*I *46:d B *C 1.3300 0.5075 
*I *47:d B *C 1.3300 0.5075 
*I *48:d B *C 1.7400 0.5075 
*I *49:d B *C 1.7400 0.5075 
*I *2:d B *C 2.1500 0.5075 
*I *4:d B *C 2.1500 0.5075 
*I *24:d B *C 2.5600 1.1300 
*I *26:d B *C 2.5600 1.1300 
*I *28:d B *C 2.9700 1.1300 
*I *29:d B *C 2.9700 1.1300 
*I *30:d B *C 3.3800 1.1300 
*I *31:d B *C 3.3800 1.1300 
*I *5:d B *C 0.1100 1.1325 
*I *6:d B *C 0.5100 1.1300 
*I *7:d B *C 0.5100 1.1300 
*I *8:d B *C 0.9200 1.1300 
*I *9:d B *C 0.9200 1.1300 
*I *10:d B *C 1.3300 1.1300 
*I *11:d B *C 1.3300 1.1300 
*I *12:d B *C 1.7400 1.1300 
*I *13:d B *C 1.7400 1.1300 
*I *14:d B *C 2.1500 1.1300 
*I *15:d B *C 2.1500 1.1300 

*CAP
0 *30:d 1.03362e-15
1 *17:d 7.89195e-16
2 *45 1.58127e-17

*RES
0 *45 *17:d 0.100401  // $metal1_conn
1 *30:d *45 0.171348  // $metal1_conn

*END

*D_NET *42 1.7462e-15

*CONN
*I *17:g B *C 2.4575 0.5075 
*I *18:g B *C 2.6625 0.5075 
*I *19:g B *C 2.8675 0.5075 
*I *20:g B *C 3.0725 0.5075 
*I *21:g B *C 3.2775 0.5075 
*I *22:g B *C 3.4825 0.5075 
*I *23:d B *C 3.7900 0.5300 
*I *25:d B *C 3.7900 0.5300 
*I *27:d B *C 4.2000 0.5300 
*I *36:d B *C 4.2000 0.5300 
*I *37:d B *C 4.6000 0.5300 
*I *38:g B *C 0.2025 0.5075 
*I *39:g B *C 0.4075 0.5075 
*I *40:g B *C 0.6125 0.5075 
*I *41:g B *C 0.8175 0.5075 
*I *44:g B *C 1.0225 0.5075 
*I *46:g B *C 1.2275 0.5075 
*I *47:g B *C 1.4325 0.5075 
*I *48:g B *C 1.6375 0.5075 
*I *49:g B *C 1.8425 0.5075 
*I *2:g B *C 2.0475 0.5075 
*I *4:g B *C 2.2525 0.5075 
*I *24:g B *C 2.4575 1.1300 
*I *26:g B *C 2.6625 1.1300 
*I *28:g B *C 2.8675 1.1300 
*I *29:g B *C 3.0725 1.1300 
*I *30:g B *C 3.2775 1.1300 
*I *31:g B *C 3.4825 1.1300 
*I *32:d B *C 3.7900 1.1650 
*I *33:d B *C 3.7900 1.1650 
*I *34:d B *C 4.2000 1.1650 
*I *1:d B *C 4.2000 1.1650 
*I *3:d B *C 4.6000 1.1650 
*I *5:g B *C 0.2025 1.1325 
*I *6:g B *C 0.4075 1.1300 
*I *7:g B *C 0.6125 1.1300 
*I *8:g B *C 0.8175 1.1300 
*I *9:g B *C 1.0225 1.1300 
*I *10:g B *C 1.2275 1.1300 
*I *11:g B *C 1.4325 1.1300 
*I *12:g B *C 1.6375 1.1300 
*I *13:g B *C 1.8425 1.1300 
*I *14:g B *C 2.0475 1.1300 
*I *15:g B *C 2.2525 1.1300 
*N *42:55 *C 3.7450 0.7850 

*CAP
0 *3:d 2.16284e-16
1 *31:g 1.37421e-15
2 *23:d 1.335e-16
3 *42:55 2.21997e-17

*RES
0 *42:55 *31:g 0.14185  // $metal1_conn
1 *42:55 *23:d 0.130245  // $metal1_conn
2 *3:d *42:55 0.226848  // $metal1_conn

*END

