*SPEF "IEEE 1481-1999"
*DESIGN  "CLKBUFX6"
*DATE "Mon Sep 27 09:17:28 2010"
*VENDOR "Cadence Design Systems"
*PROGRAM "Assura RCX"
*VERSION "3.2 Red Hat Linux release 7.2 (Enigma) - (09/09/2009-10:39)"
*DESIGN_FLOW "Physical Verification"
*DIVIDER /
*DELIMITER :
*BUS_DELIMITER []
*T_UNIT 1 PS
*C_UNIT 1e15 FF
*R_UNIT 1 OHM
*L_UNIT 1 MH
// DeviceFingerDelim "@"
// MATCHED
// caps2d version: 10

*NAME_MAP
*1 mp1
*2 mp1\@1
*3 mp1\@2
*4 mn1
*5 mp1\@3
*6 mn1\@1
*7 VSS
*8 mp1\@4
*9 mn1\@2
*10 mp0
*11 mn1\@3
*12 mp0\@1
*13 mn1\@4
*14 mn0
*15 mn0\@1
*16 Y
*17 A
*18 VDD
*19 net44

*GROUND_NETS VSS

*PORTS
*18 I
*7 I
*17 I
*16 O

*D_NET *18 3.54564e-16

*CONN
*P *18 I *C 0.1000 1.7100 
*I *1:s B *C 0.3050 1.1350 
*I *2:s B *C 0.3050 1.1350 
*I *3:s B *C 0.7150 1.1350 
*I *5:s B *C 0.7150 1.1350 
*I *8:s B *C 1.1750 1.0950 
*I *10:s B *C 1.1750 1.0950 
*I *12:s B *C 1.5250 1.0950 
*N *18:3 *C 0.9000 1.7100 

*CAP
0 *12:s 2.90459e-16
1 *18:3 5.5491e-17
2 *18 8.61321e-18

*RES
0 *12:s *18 0.102391  // $metal1_conn
1 *18:3 *12:s 8.333333  // $metal1_conn

*END

*D_NET *7 0

*CONN
*P *7 I *C 0.1000 0.0000 
*I *4:s B *C 0.3050 0.5050 
*I *6:s B *C 0.3050 0.5050 
*I *9:s B *C 0.7150 0.5050 
*I *11:s B *C 0.7150 0.5050 
*I *13:s B *C 1.1750 0.4800 
*I *14:s B *C 1.1750 0.4800 
*I *15:s B *C 1.5250 0.4800 
*N *7:3 *C 0.9000 0.0000 


*RES
0 *15:s *7 0.102391  // $metal1_conn
1 *7:3 *15:s 6.888889  // $metal1_conn

*END

*D_NET *17 2.42491e-16

*CONN
*P *17 I *C 1.5000 0.6650 
*I *14:g B *C 1.2275 0.4800 
*I *15:g B *C 1.4325 0.4800 
*I *10:g B *C 1.2275 1.0950 
*I *12:g B *C 1.4325 1.0950 
*N *17:6 *C 1.4900 0.7150 

*CAP
0 *12:g 1.27635e-16
1 *17:6 7.97637e-17
2 *17 3.50924e-17

*RES
0 *12:g *17:6 48.256718  // $poly_conn
1 *17 *17:6 0.031155  // $metal1_conn

*END

*D_NET *16 5.20782e-16

*CONN
*P *16 O *C 0.1000 0.8550 
*I *4:d B *C 0.1100 0.5050 
*I *6:d B *C 0.5100 0.5050 
*I *9:d B *C 0.5100 0.5050 
*I *11:d B *C 0.9200 0.5050 
*I *13:d B *C 0.9200 0.5050 
*I *1:d B *C 0.1100 1.1350 
*I *2:d B *C 0.5100 1.1350 
*I *3:d B *C 0.5100 1.1350 
*I *5:d B *C 0.9200 1.1350 
*I *8:d B *C 0.9200 1.1350 

*CAP
0 *5:d 2.86451e-16
1 *4:d 2.22685e-16
2 *16 1.16452e-17

*RES
0 *16 *4:d 0.232781  // $metal1_conn
1 *5:d *16 0.056745  // $metal1_conn

*END

*D_NET *19 5.63093e-16

*CONN
*I *4:g B *C 0.2025 0.5050 
*I *6:g B *C 0.4075 0.5050 
*I *9:g B *C 0.6125 0.5050 
*I *11:g B *C 0.8175 0.5050 
*I *13:g B *C 1.0225 0.5050 
*I *14:d B *C 1.3300 0.4800 
*I *15:d B *C 1.3300 0.4800 
*I *1:g B *C 0.2025 1.1350 
*I *2:g B *C 0.4075 1.1350 
*I *3:g B *C 0.6125 1.1350 
*I *5:g B *C 0.8175 1.1350 
*I *8:g B *C 1.0225 1.1350 
*I *10:d B *C 1.3300 1.0950 
*I *12:d B *C 1.3300 1.0950 
*N *19:17 *C 1.3300 0.7850 

*CAP
0 *10:d 7.45352e-17
1 *8:g 4.02849e-16
2 *14:d 2.58821e-17
3 *19:17 5.98265e-17

*RES
0 *19:17 *8:g 0.571009  // $metal1_conn
1 *10:d *19:17 20.920172  // $metal1_conn
2 *19:17 *14:d 75.181847  // $metal1_conn

*END

