*SPEF "IEEE 1481-1999"
*DESIGN  "CLKBUFX2"
*DATE "Mon Sep 27 09:15:54 2010"
*VENDOR "Cadence Design Systems"
*PROGRAM "Assura RCX"
*VERSION "3.2 Red Hat Linux release 7.2 (Enigma) - (09/09/2009-10:39)"
*DESIGN_FLOW "Physical Verification"
*DIVIDER /
*DELIMITER :
*BUS_DELIMITER []
*T_UNIT 1 PS
*C_UNIT 1e15 FF
*R_UNIT 1 OHM
*L_UNIT 1 MH
// DeviceFingerDelim "@"
// MATCHED
// caps2d version: 10

*NAME_MAP
*1 mp1\@1
*2 mn0
*3 VDD
*4 mp0
*5 net44
*6 Y
*7 A
*8 mn1
*9 VSS
*10 mp1
*11 mn1\@1

*GROUND_NETS VSS

*PORTS
*3 I
*9 I
*7 I
*6 O

*D_NET *3 1.49812e-16

*CONN
*P *3 I *C 0.1000 1.7100 
*I *10:s B *C 0.1850 1.1250 
*I *1:s B *C 0.6350 1.1975 
*I *4:s B *C 0.6350 1.1975 
*N *3:2 *C 0.5000 1.7100 

*CAP
0 *1:s 7.81748e-17
1 *3:2 7.16374e-17

*RES
0 *1:s *3 0.037113  // $metal1_conn
1 *3:2 *1:s 15  // $metal1_conn

*END

*D_NET *9 0

*CONN
*P *9 I *C 0.1000 0.0000 
*I *8:s B *C 0.1850 0.5100 
*I *11:s B *C 0.6350 0.4525 
*I *2:s B *C 0.6350 0.4525 
*N *9:2 *C 0.5000 0.0000 


*RES
0 *11:s *9 0.037113  // $metal1_conn
1 *9:2 *11:s 12.4  // $metal1_conn

*END

*D_NET *7 2.24733e-16

*CONN
*P *7 I *C 0.7000 1.0450 
*I *2:g B *C 0.6875 0.4525 
*I *4:g B *C 0.6875 1.1975 
*N *7:2 *C 0.7150 0.8200 

*CAP
0 *4:g 4.14853e-17
1 *2:g 3.84905e-17
2 *7:2 8.26643e-17
3 *7 6.20927e-17

*RES
0 *4:g *7:2 60.71759  // $poly_conn
1 *7:2 *2:g 67.127846  // $poly_conn
2 *7:2 *7 45.120049  // $metal1_conn

*END

*D_NET *6 1.50866e-16

*CONN
*P *6 O *C 0.3000 0.6650 
*I *8:d B *C 0.3800 0.5100 
*I *11:d B *C 0.3800 0.5100 
*I *10:d B *C 0.3800 1.1250 
*I *1:d B *C 0.3800 1.1250 
*N *6:2 *C 0.3575 0.6650 
*N *6:4 *C 0.3800 0.5550 

*CAP
0 *10:d 6.79207e-17
1 *8:d 2.10325e-17
2 *6:2 5.0069e-17
3 *6 1.18441e-17

*RES
0 *6:2 *6 0.002176  // $metal1_conn
1 *10:d *6:2 21.091801  // $metal1_conn
2 *8:d *6:4 75  // $metal1_conn
3 *6:2 *6:4 0.106617  // $metal1_conn

*END

*D_NET *5 3.07156e-16

*CONN
*I *8:g B *C 0.2775 0.5100 
*I *11:g B *C 0.4825 0.5100 
*I *2:d B *C 0.8325 0.4525 
*I *10:g B *C 0.2775 1.1250 
*I *1:g B *C 0.4825 1.1250 
*I *4:d B *C 0.8325 1.1975 
*N *5:8 *C 0.8950 0.6300 

*CAP
0 *4:d 4.52195e-17
1 *1:g 1.99774e-16
2 *2:d 1.27693e-17
3 *5:8 4.93936e-17

*RES
0 *5:8 *1:g 45.289707  // $metal1_conn
1 *4:d *5:8 62.379192  // $metal1_conn
2 *5:8 *2:d 75.112701  // $metal1_conn

*END

