*SPEF "IEEE 1481-1999"
*DESIGN  "CLKBUFX3"
*DATE "Mon Sep 27 09:16:40 2010"
*VENDOR "Cadence Design Systems"
*PROGRAM "Assura RCX"
*VERSION "3.2 Red Hat Linux release 7.2 (Enigma) - (09/09/2009-10:39)"
*DESIGN_FLOW "Physical Verification"
*DIVIDER /
*DELIMITER :
*BUS_DELIMITER []
*T_UNIT 1 PS
*C_UNIT 1e15 FF
*R_UNIT 1 OHM
*L_UNIT 1 MH
// DeviceFingerDelim "@"
// MATCHED
// caps2d version: 10

*NAME_MAP
*1 mp1
*2 mp1\@1
*3 mp1\@2
*4 mp0
*5 net44
*6 VSS
*7 mn1
*8 mn1\@1
*9 A
*10 VDD
*11 mn1\@2
*12 Y
*13 mn0

*GROUND_NETS VSS

*PORTS
*10 I
*6 I
*9 I
*12 O

*D_NET *10 1.83486e-16

*CONN
*P *10 I *C 0.1000 1.7100 
*I *1:s B *C 0.4500 1.2450 
*I *2:s B *C 0.4500 1.2450 
*I *3:s B *C 0.8600 1.2450 
*I *4:s B *C 0.8600 1.2450 
*N *10:2 *C 0.6000 1.7100 

*CAP
0 *3:s 9.79629e-17
1 *10:2 7.96756e-17
2 *10 5.84726e-18

*RES
0 *3:s *10 0.174868  // $metal1_conn
1 *10:2 *3:s 12.5  // $metal1_conn

*END

*D_NET *6 0

*CONN
*P *6 I *C 0.1000 0.0000 
*I *7:s B *C 0.4100 0.4700 
*I *8:s B *C 0.4100 0.4700 
*I *11:s B *C 0.8325 0.4700 
*I *13:s B *C 0.8325 0.4700 
*N *6:2 *C 0.6000 0.0000 


*RES
0 *11:s *6 0.154832  // $metal1_conn
1 *6:2 *11:s 10.333333  // $metal1_conn

*END

*D_NET *9 2.29509e-16

*CONN
*P *9 I *C 0.9000 0.8550 
*I *13:g B *C 0.9475 0.4700 
*I *4:g B *C 0.9625 1.2450 
*N *9:2 *C 0.9100 0.7800 
*N *9:4 *C 0.9050 0.7800 

*CAP
0 *4:g 4.22762e-17
1 *13:g 3.38273e-17
2 *9:4 3.42102e-17
3 *9:2 4.24071e-17
4 *9 7.67879e-17

*RES
0 *4:g *9:2 59.744961  // $poly_conn
1 *9:2 *13:g 31.552074  // $poly_conn
2 *9:4 *9 0.046555  // $metal1_conn
3 *9:2 *9:4 45  // $metal1_conn

*END

*D_NET *12 2.32241e-16

*CONN
*P *12 O *C 0.3000 1.0450 
*I *7:d B *C 0.2150 0.4700 
*I *8:d B *C 0.6150 0.4700 
*I *11:d B *C 0.6150 0.4700 
*I *1:d B *C 0.2550 1.2450 
*I *2:d B *C 0.6550 1.2450 
*I *3:d B *C 0.6550 1.2450 

*CAP
0 *2:d 1.09651e-16
1 *7:d 1.03682e-16
2 *12 1.89078e-17

*RES
0 *2:d *12 0.002991  // $metal1_conn
1 *12 *7:d 0.268072  // $metal1_conn

*END

*D_NET *5 3.80065e-16

*CONN
*I *7:g B *C 0.3075 0.4700 
*I *8:g B *C 0.5125 0.4700 
*I *11:g B *C 0.7175 0.4700 
*I *13:d B *C 1.0400 0.4700 
*I *1:g B *C 0.3475 1.2450 
*I *2:g B *C 0.5525 1.2450 
*I *3:g B *C 0.7575 1.2450 
*I *4:d B *C 1.0575 1.2450 
*N *5:13 *C 1.0500 0.5400 

*CAP
0 *4:d 7.74649e-17
1 *3:g 1.01397e-16
2 *13:d 5.5161e-17
3 *7:g 1.46043e-16

*RES
0 *3:g *7:g 22.98584  // $poly_conn
1 *5:13 *7:g 45.315315  // $metal1_conn
2 *4:d *5:13 21.179314  // $metal1_conn
3 *13:d *5:13 75  // $metal1_conn

*END

