*SPEF "IEEE 1481-1999"
*DESIGN  "CLKINVX2"
*DATE "Mon Sep 27 09:19:19 2010"
*VENDOR "Cadence Design Systems"
*PROGRAM "Assura RCX"
*VERSION "3.2 Red Hat Linux release 7.2 (Enigma) - (09/09/2009-10:39)"
*DESIGN_FLOW "Physical Verification"
*DIVIDER /
*DELIMITER :
*BUS_DELIMITER []
*T_UNIT 1 PS
*C_UNIT 1e15 FF
*R_UNIT 1 OHM
*L_UNIT 1 MH
// DeviceFingerDelim "@"
// MATCHED
// caps2d version: 10

*NAME_MAP
*1 mn0\@1
*2 Y
*3 VSS
*4 VDD
*5 mp0
*6 mp0\@1
*7 mn0
*8 A

*GROUND_NETS VSS

*PORTS
*4 I
*3 I
*8 I
*2 O

*D_NET *4 1.28757e-16

*CONN
*P *4 I *C 0.1000 1.7100 
*I *5:s B *C 0.2950 1.0950 
*I *6:s B *C 0.6850 1.0950 
*N *4:2 *C 0.4000 1.7100 

*CAP
0 *6:s 9.78093e-17
1 *4:2 2.78465e-17
2 *4 3.10162e-18

*RES
0 *6:s *4 0.09222  // $metal1_conn
1 *4:2 *6:s 18.75  // $metal1_conn

*END

*D_NET *3 0

*CONN
*P *3 I *C 0.1000 0.0000 
*I *7:s B *C 0.2950 0.5100 
*I *1:s B *C 0.6850 0.5100 
*N *3:2 *C 0.4000 0.0000 


*RES
0 *1:s *3 0.09222  // $metal1_conn
1 *3:2 *1:s 15.5  // $metal1_conn

*END

*D_NET *8 1.76131e-16

*CONN
*P *8 I *C 0.1000 0.6650 
*I *7:g B *C 0.3875 0.5100 
*I *1:g B *C 0.5925 0.5100 
*I *5:g B *C 0.3875 1.0950 
*I *6:g B *C 0.5925 1.0950 
*N *8:4 *C 0.3300 0.7400 

*CAP
0 *6:g 8.84973e-17
1 *8:4 6.25934e-17
2 *8 2.50403e-17

*RES
0 *6:g *8:4 48.256718  // $poly_conn
1 *8 *8:4 0.141095  // $metal1_conn

*END

*D_NET *2 1.24628e-16

*CONN
*P *2 O *C 0.5000 0.6650 
*I *7:d B *C 0.4900 0.5100 
*I *1:d B *C 0.4900 0.5100 
*I *5:d B *C 0.4900 1.0950 
*I *6:d B *C 0.4900 1.0950 

*CAP
0 *5:d 8.83066e-17
1 *7:d 1.21928e-17
2 *2 2.41291e-17

*RES
0 *2 *5:d 20.923885  // $metal1_conn
1 *2 *7:d 75.050842  // $metal1_conn

*END

