*SPEF "IEEE 1481-1999"
*DESIGN  "CLKINVX6"
*DATE "Mon Sep 27 09:20:52 2010"
*VENDOR "Cadence Design Systems"
*PROGRAM "Assura RCX"
*VERSION "3.2 Red Hat Linux release 7.2 (Enigma) - (09/09/2009-10:39)"
*DESIGN_FLOW "Physical Verification"
*DIVIDER /
*DELIMITER :
*BUS_DELIMITER []
*T_UNIT 1 PS
*C_UNIT 1e15 FF
*R_UNIT 1 OHM
*L_UNIT 1 MH
// DeviceFingerDelim "@"
// MATCHED
// caps2d version: 10

*NAME_MAP
*1 mp0
*2 mp0\@1
*3 mp0\@2
*4 mp0\@3
*5 mp0\@4
*6 VSS
*7 mn0
*8 mn0\@1
*9 A
*10 VDD
*11 mn0\@2
*12 Y
*13 mn0\@3
*14 mn0\@4

*GROUND_NETS VSS

*PORTS
*10 I
*6 I
*9 I
*12 O

*D_NET *10 2.00568e-16

*CONN
*P *10 I *C 0.1000 1.7100 
*I *1:s B *C 0.1100 1.1350 
*I *2:s B *C 0.5150 1.1350 
*I *3:s B *C 0.5150 1.1350 
*I *4:s B *C 0.9300 1.1350 
*I *5:s B *C 0.9300 1.1350 
*N *10:2 *C 0.7000 1.7100 

*CAP
0 *10:2 5.57049e-17
1 *10 1.44863e-16

*RES
0 *10:2 *10 10.714286  // $metal1_conn

*END

*D_NET *6 0

*CONN
*P *6 I *C 0.1000 0.0000 
*I *7:s B *C 0.1100 0.4000 
*I *8:s B *C 0.5200 0.4000 
*I *11:s B *C 0.5200 0.4000 
*I *13:s B *C 0.9300 0.4000 
*I *14:s B *C 0.9300 0.4000 
*N *6:2 *C 0.7000 0.0000 


*RES
0 *6:2 *6 8.857142  // $metal1_conn

*END

*D_NET *9 3.29418e-16

*CONN
*P *9 I *C 0.5000 0.6650 
*I *7:g B *C 0.2025 0.4000 
*I *8:g B *C 0.4175 0.4000 
*I *11:g B *C 0.6225 0.4000 
*I *13:g B *C 0.8275 0.4000 
*I *14:g B *C 1.0325 0.4000 
*I *1:g B *C 0.2025 1.1350 
*I *2:g B *C 0.4075 1.1350 
*I *3:g B *C 0.6225 1.1350 
*I *4:g B *C 0.8275 1.1350 
*I *5:g B *C 1.0325 1.1350 

*CAP
0 *9 3.29418e-16


*END

*D_NET *12 4.05195e-16

*CONN
*P *12 O *C 0.9000 0.8550 
*I *7:d B *C 0.3100 0.4000 
*I *8:d B *C 0.3100 0.4000 
*I *11:d B *C 0.7250 0.4000 
*I *13:d B *C 0.7250 0.4000 
*I *14:d B *C 1.1250 0.4000 
*I *1:d B *C 0.3050 1.1350 
*I *2:d B *C 0.3050 1.1350 
*I *3:d B *C 0.7250 1.1350 
*I *4:d B *C 0.7250 1.1350 
*I *5:d B *C 1.1250 1.1350 

*CAP
0 *5:d 1.95692e-16
1 *7:d 1.91536e-16
2 *12 1.79677e-17

*RES
0 *5:d *12 0.026953  // $metal1_conn
1 *12 *7:d 0.208121  // $metal1_conn

*END

