*SPEF "IEEE 1481-1999"
*DESIGN  "CLKINVX8"
*DATE "Mon Sep 27 09:21:15 2010"
*VENDOR "Cadence Design Systems"
*PROGRAM "Assura RCX"
*VERSION "3.2 Red Hat Linux release 7.2 (Enigma) - (09/09/2009-10:39)"
*DESIGN_FLOW "Physical Verification"
*DIVIDER /
*DELIMITER :
*BUS_DELIMITER []
*T_UNIT 1 PS
*C_UNIT 1e15 FF
*R_UNIT 1 OHM
*L_UNIT 1 MH
// DeviceFingerDelim "@"
// MATCHED
// caps2d version: 10

*NAME_MAP
*1 mp0
*2 mp0\@1
*3 mp0\@2
*4 mn0
*5 mp0\@3
*6 mn0\@1
*7 VSS
*8 mp0\@4
*9 mn0\@2
*10 mp0\@5
*11 mn0\@3
*12 mp0\@6
*13 mn0\@4
*14 mn0\@5
*15 mn0\@6
*16 Y
*17 A
*18 VDD

*GROUND_NETS VSS

*PORTS
*18 I
*7 I
*17 I
*16 O

*D_NET *18 2.50442e-16

*CONN
*P *18 I *C 0.1000 1.7100 
*I *1:s B *C 0.1600 1.1225 
*I *2:s B *C 0.5600 1.1225 
*I *3:s B *C 0.5600 1.1225 
*I *5:s B *C 0.9700 1.1225 
*I *8:s B *C 0.9700 1.1225 
*I *10:s B *C 1.3800 1.1225 
*I *12:s B *C 1.3800 1.1225 
*N *18:3 *C 0.9000 1.7100 

*CAP
0 *10:s 1.93529e-16
1 *18:3 5.69131e-17

*RES
0 *10:s *18 0.024573  // $metal1_conn
1 *18:3 *10:s 8.333333  // $metal1_conn

*END

*D_NET *7 0

*CONN
*P *7 I *C 0.1000 0.0000 
*I *4:s B *C 0.1600 0.5125 
*I *6:s B *C 0.5600 0.5125 
*I *9:s B *C 0.5600 0.5125 
*I *11:s B *C 0.9700 0.5125 
*I *13:s B *C 0.9700 0.5125 
*I *14:s B *C 1.3800 0.5125 
*I *15:s B *C 1.3800 0.5125 
*N *7:3 *C 0.9000 0.0000 


*RES
0 *14:s *7 0.024573  // $metal1_conn
1 *7:3 *14:s 6.888889  // $metal1_conn

*END

*D_NET *17 3.89811e-16

*CONN
*P *17 I *C 0.5000 0.8550 
*I *4:g B *C 0.2525 0.5125 
*I *6:g B *C 0.4575 0.5125 
*I *9:g B *C 0.6625 0.5125 
*I *11:g B *C 0.8675 0.5125 
*I *13:g B *C 1.0725 0.5125 
*I *14:g B *C 1.2775 0.5125 
*I *15:g B *C 1.4825 0.5125 
*I *1:g B *C 0.2525 1.1225 
*I *2:g B *C 0.4575 1.1225 
*I *3:g B *C 0.6625 1.1225 
*I *5:g B *C 0.8675 1.1225 
*I *8:g B *C 1.0725 1.1225 
*I *10:g B *C 1.2775 1.1225 
*I *12:g B *C 1.4825 1.1225 

*CAP
0 *12:g 3.67598e-16
1 *17 2.22134e-17

*RES
0 *12:g *17 0.026587  // $metal1_conn

*END

*D_NET *16 4.49316e-16

*CONN
*P *16 O *C 1.3000 0.6650 
*I *4:d B *C 0.3550 0.5125 
*I *6:d B *C 0.3550 0.5125 
*I *9:d B *C 0.7650 0.5125 
*I *11:d B *C 0.7650 0.5125 
*I *13:d B *C 1.1750 0.5125 
*I *14:d B *C 1.1750 0.5125 
*I *15:d B *C 1.5750 0.5125 
*I *1:d B *C 0.3550 1.1225 
*I *2:d B *C 0.3550 1.1225 
*I *3:d B *C 0.7650 1.1225 
*I *5:d B *C 0.7650 1.1225 
*I *8:d B *C 1.1750 1.1225 
*I *10:d B *C 1.1750 1.1225 
*I *12:d B *C 1.5750 1.1225 

*CAP
0 *12:d 2.71379e-16
1 *4:d 1.63119e-16
2 *16 1.48176e-17

*RES
0 *12:d *16 0.205489  // $metal1_conn
1 *16 *4:d 0.013574  // $metal1_conn

*END

