*SPEF "IEEE 1481-1999"
*DESIGN  "CLKMX2X12"
*DATE "Mon Sep 27 09:21:38 2010"
*VENDOR "Cadence Design Systems"
*PROGRAM "Assura RCX"
*VERSION "3.2 Red Hat Linux release 7.2 (Enigma) - (09/09/2009-10:39)"
*DESIGN_FLOW "Physical Verification"
*DIVIDER /
*DELIMITER :
*BUS_DELIMITER []
*T_UNIT 1 PS
*C_UNIT 1e15 FF
*R_UNIT 1 OHM
*L_UNIT 1 MH
// DeviceFingerDelim "@"
// MATCHED
// caps2d version: 10

*NAME_MAP
*1 mp5\@2
*2 mp5\@3
*3 mp5\@4
*4 mp5\@5
*5 mp5\@6
*6 mp5\@7
*7 mp0
*8 Y
*9 VDD
*10 mn5
*11 mn1
*12 mn5\@1
*13 mn2
*14 mn5\@2
*15 mn4
*16 mn5\@3
*17 mn3
*18 mn5\@4
*19 mn5\@8
*20 mn5\@5
*21 mn5\@9
*22 mn5\@6
*23 mn5\@7
*24 mn0
*25 n0
*26 S0b
*27 net123
*28 net115
*29 net148
*30 net140
*31 A
*32 mp1
*33 B
*34 mp2
*35 mp4
*36 VSS
*37 mp3
*38 mp5\@8
*39 mp5\@9
*40 mp5
*41 mp5\@1
*42 S0

*GROUND_NETS VSS

*PORTS
*9 I
*36 I
*31 I
*33 I
*42 I
*8 O

*D_NET *9 7.8925e-16

*CONN
*P *9 I *C 0.1000 1.7100 
*I *40:s B *C 1.8700 1.2450 
*I *41:s B *C 2.2800 1.2450 
*I *1:s B *C 2.2800 1.2450 
*I *2:s B *C 2.6900 1.2450 
*I *3:s B *C 2.6900 1.2450 
*I *4:s B *C 3.1000 1.2450 
*I *5:s B *C 3.1000 1.2450 
*I *6:s B *C 3.5000 1.2450 
*I *7:s B *C 0.5050 1.3250 
*I *32:s B *C 0.5050 1.3250 
*I *37:s B *C 1.4900 1.2450 
*I *38:s B *C 1.4900 1.2450 
*I *39:s B *C 1.8700 1.2450 
*N *9:3 *C 2.9000 1.7100 
*N *9:9 *C 1.0000 1.7100 
*N *9:10 *C 0.4550 1.7100 

*CAP
0 *7:s 3.60947e-17
1 *6:s 5.01217e-16
2 *9:10 1.87878e-17
3 *9:3 2.18645e-16
4 *9 1.4506e-17

*RES
0 *9:10 *9 0.177609  // $metal1_conn
1 *9:3 *6:s 8.333333  // $metal1_conn
2 *9:3 *9:9 7.5  // $metal1_conn
3 *9:10 *7:s 62.179424  // $metal1_conn
4 *6:s *9:9 0.230525  // $metal1_conn
5 *9:9 *9:10 0.273158  // $metal1_conn

*END

*D_NET *36 0

*CONN
*P *36 I *C 0.1000 0.0000 
*I *10:s B *C 1.8000 0.4550 
*I *12:s B *C 2.2350 0.4550 
*I *14:s B *C 2.2350 0.4550 
*I *16:s B *C 2.6450 0.4550 
*I *18:s B *C 2.6450 0.4550 
*I *20:s B *C 3.0550 0.4550 
*I *22:s B *C 3.0550 0.4550 
*I *23:s B *C 3.4550 0.4550 
*I *24:s B *C 0.5050 0.4025 
*I *11:s B *C 0.5050 0.4025 
*I *17:s B *C 1.3950 0.4550 
*I *19:s B *C 1.3950 0.4550 
*I *21:s B *C 1.8000 0.4550 
*N *36:3 *C 2.9000 0.0000 
*N *36:9 *C 1.0000 0.0000 
*N *36:10 *C 0.4550 0.0000 


*RES
0 *36:10 *36 0.177609  // $metal1_conn
1 *36:3 *23:s 6.888889  // $metal1_conn
2 *36:3 *36:9 6.2  // $metal1_conn
3 *36:10 *24:s 75.221748  // $metal1_conn
4 *23:s *36:9 0.165321  // $metal1_conn
5 *36:9 *36:10 0.273158  // $metal1_conn

*END

*D_NET *31 3.0063e-16

*CONN
*P *31 I *C 0.5000 0.8550 
*I *11:g B *C 0.5575 0.4025 
*I *32:g B *C 0.5575 1.3250 
*N *31:2 *C 0.5300 0.9250 
*N *31:4 *C 0.5150 0.8550 
*N *31:5 *C 0.5150 0.9250 
*N *31:6 *C 0.5300 0.9250 

*CAP
0 *32:g 6.89132e-17
1 *11:g 9.33191e-17
2 *31:5 4.70663e-17
3 *31:4 3.77153e-17
4 *31:2 5.36159e-17

*RES
0 *32:g *31:2 54.307335  // $poly_conn
1 *31:2 *11:g 99.179131  // $poly_conn
2 *31 *31:4 0.002332  // $metal1_conn
3 *31:5 *31:6 0.002413  // $metal1_conn
4 *31:4 *31:5 0.03842  // $metal1_conn
5 *31:2 *31:6 45  // $metal1_conn

*END

*D_NET *33 2.17814e-16

*CONN
*P *33 I *C 1.3000 1.0450 
*I *17:g B *C 1.2275 0.4025 
*I *37:g B *C 1.2275 1.3250 
*N *33:2 *C 1.2550 1.0500 

*CAP
0 *37:g 3.62947e-17
1 *17:g 5.37772e-17
2 *33:2 9.4323e-17
3 *33 3.34187e-17

*RES
0 *37:g *33:2 22.256054  // $poly_conn
1 *33:2 *17:g 131.230423  // $poly_conn
2 *33:2 *33 45.01265  // $metal1_conn

*END

*D_NET *42 4.89743e-16

*CONN
*P *42 I *C 0.3000 1.0450 
*I *24:g B *C 0.3525 0.4300 
*I *15:g B *C 0.8675 0.4025 
*I *7:g B *C 0.3525 1.2850 
*I *34:g B *C 0.7075 1.3250 
*N *42:2 *C 0.3100 0.9800 
*N *42:5 *C 0.7450 1.0650 

*CAP
0 *34:g 4.35948e-17
1 *7:g 4.69044e-17
2 *15:g 6.02049e-17
3 *24:g 5.19492e-17
4 *42:2 7.40859e-17
5 *42:5 1.52144e-16
6 *42 6.086e-17

*RES
0 *7:g *42:2 17.398676  // $poly_conn
1 *42:2 *24:g 96.885857  // $poly_conn
2 *15:g *42:5 146.341095  // $poly_conn
3 *42:5 *34:g 19.707582  // $poly_conn
4 *42 *42:2 45.039032  // $metal1_conn
5 *42 *42:5 45.40604  // $metal1_conn

*END

*D_NET *8 9.02718e-16

*CONN
*P *8 O *C 1.7000 0.8550 
*I *10:d B *C 2.0300 0.4550 
*I *12:d B *C 2.0300 0.4550 
*I *14:d B *C 2.4400 0.4550 
*I *16:d B *C 2.4400 0.4550 
*I *18:d B *C 2.8500 0.4550 
*I *20:d B *C 2.8500 0.4550 
*I *22:d B *C 3.2600 0.4550 
*I *23:d B *C 3.2600 0.4550 
*I *19:d B *C 1.5700 0.4550 
*I *21:d B *C 1.5700 0.4550 
*I *40:d B *C 2.0750 1.2450 
*I *41:d B *C 2.0750 1.2450 
*I *1:d B *C 2.4850 1.2450 
*I *2:d B *C 2.4850 1.2450 
*I *3:d B *C 2.8950 1.2450 
*I *4:d B *C 2.8950 1.2450 
*I *5:d B *C 3.3050 1.2450 
*I *6:d B *C 3.3050 1.2450 
*I *38:d B *C 1.6650 1.2450 
*I *39:d B *C 1.6650 1.2450 

*CAP
0 *8 9.02718e-16


*END

*D_NET *30 8.56299e-18

*CONN
*I *15:s B *C 1.0475 0.4025 
*I *17:d B *C 1.0475 0.4025 

*CAP
0 *15:s 8.56299e-18

*RES
0 *17:d *15:s 0.001  // $mwires

*END

*D_NET *29 0

*CONN
*I *11:d B *C 0.6100 0.4025 
*I *13:s B *C 0.6100 0.4025 


*RES
0 *13:s *11:d 0.001  // $mwires

*END

*D_NET *28 4.99216e-18

*CONN
*I *35:s B *C 1.1000 1.3250 
*I *37:d B *C 1.1000 1.3250 

*CAP
0 *35:s 4.99216e-18

*RES
0 *37:d *35:s 0.001  // $mwires

*END

*D_NET *27 3.58658e-18

*CONN
*I *32:d B *C 0.6325 1.3250 
*I *34:s B *C 0.6325 1.3250 

*CAP
0 *32:d 3.58658e-18

*RES
0 *34:s *32:d 0.001  // $mwires

*END

*D_NET *26 5.21933e-16

*CONN
*I *24:d B *C 0.2600 0.4300 
*I *13:g B *C 0.6625 0.4025 
*I *7:d B *C 0.2600 1.2850 
*I *35:g B *C 0.9725 1.3250 
*N *26:1 *C 0.7200 0.6350 
*N *26:4 *C 0.9350 1.0550 
*N *26:6 *C 0.2500 0.5000 

*CAP
0 *35:g 3.47322e-17
1 *7:d 9.52e-17
2 *13:g 6.46961e-17
3 *24:d 8.63266e-17
4 *26:1 1.32306e-16
5 *26:4 1.08673e-16

*RES
0 *26:1 *13:g 73.424377  // $poly_conn
1 *35:g *26:4 65.001373  // $poly_conn
2 *26:4 *26:1 0.420621  // $metal1_conn
3 *26:1 *26:6 0.352709  // $metal1_conn
4 *26:6 *7:d 62.731735  // $metal1_conn
5 *24:d *26:6 75  // $metal1_conn

*END

*D_NET *25 8.31021e-16

*CONN
*I *10:g B *C 1.9275 0.4550 
*I *12:g B *C 2.1325 0.4550 
*I *14:g B *C 2.3375 0.4550 
*I *16:g B *C 2.5425 0.4550 
*I *18:g B *C 2.7475 0.4550 
*I *20:g B *C 2.9525 0.4550 
*I *22:g B *C 3.1575 0.4550 
*I *23:g B *C 3.3625 0.4550 
*I *13:d B *C 0.7650 0.4025 
*I *15:d B *C 0.7650 0.4025 
*I *19:g B *C 1.4675 0.4550 
*I *21:g B *C 1.6725 0.4550 
*I *40:g B *C 1.9725 1.2450 
*I *41:g B *C 2.1775 1.2450 
*I *1:g B *C 2.3825 1.2450 
*I *2:g B *C 2.5875 1.2450 
*I *3:g B *C 2.7925 1.2450 
*I *4:g B *C 2.9975 1.2450 
*I *5:g B *C 3.2025 1.2450 
*I *6:g B *C 3.4075 1.2450 
*I *34:d B *C 0.8400 1.3250 
*I *35:d B *C 0.8400 1.3250 
*I *38:g B *C 1.5625 1.2450 
*I *39:g B *C 1.7675 1.2450 
*N *25:40 *C 1.0950 0.6650 

*CAP
0 *34:d 9.5327e-17
1 *6:g 5.63899e-16
2 *13:d 5.66315e-17
3 *25:40 1.15164e-16

*RES
0 *25:40 *34:d 62.575397  // $metal1_conn
1 *25:40 *13:d 75.406105  // $metal1_conn
2 *6:g *25:40 45.31422  // $metal1_conn

*END

