*SPEF "IEEE 1481-1999"
*DESIGN  "CLKMX2X3"
*DATE "Mon Sep 27 09:22:23 2010"
*VENDOR "Cadence Design Systems"
*PROGRAM "Assura RCX"
*VERSION "3.2 Red Hat Linux release 7.2 (Enigma) - (09/09/2009-10:39)"
*DESIGN_FLOW "Physical Verification"
*DIVIDER /
*DELIMITER :
*BUS_DELIMITER []
*T_UNIT 1 PS
*C_UNIT 1e15 FF
*R_UNIT 1 OHM
*L_UNIT 1 MH
// DeviceFingerDelim "@"
// MATCHED
// caps2d version: 10

*NAME_MAP
*1 mp1
*2 mn5\@2
*3 mp2
*4 mp4
*5 VDD
*6 mp3
*7 net115
*8 mp5
*9 net148
*10 mp5\@1
*11 net140
*12 mp5\@2
*13 Y
*14 n0
*15 S0b
*16 net123
*17 S0
*18 A
*19 B
*20 VSS
*21 mn0
*22 mn1
*23 mn2
*24 mn4
*25 mn3
*26 mn5
*27 mp0
*28 mn5\@1

*GROUND_NETS VSS

*PORTS
*5 I
*20 I
*18 I
*19 I
*17 I
*13 O

*D_NET *5 3.2418e-16

*CONN
*P *5 I *C 0.1000 1.7100 
*I *27:s B *C 0.7200 1.1700 
*I *1:s B *C 0.7200 1.1700 
*I *6:s B *C 1.5050 1.1700 
*I *8:s B *C 1.5050 1.1700 
*I *10:s B *C 1.9950 1.1700 
*I *12:s B *C 1.9950 1.1700 
*N *5:4 *C 1.2000 1.7100 
*N *5:5 *C 1.2000 1.7100 
*N *5:6 *C 0.6800 1.7100 

*CAP
0 *10:s 1.3927e-16
1 *27:s 4.92895e-17
2 *5:6 1.11701e-17
3 *5:4 1.16034e-16
4 *5 8.4161e-18

*RES
0 *5:6 *5 0.289832  // $metal1_conn
1 *5:4 *5:5 6.25  // $metal1_conn
2 *5:6 *27:s 62.245686  // $metal1_conn
3 *10:s *5:5 0.152451  // $metal1_conn
4 *5:5 *5:6 0.260054  // $metal1_conn

*END

*D_NET *20 0

*CONN
*P *20 I *C 0.1000 0.0000 
*I *21:s B *C 0.6550 0.4300 
*I *22:s B *C 0.6550 0.4300 
*I *25:s B *C 1.5050 0.4300 
*I *26:s B *C 1.5050 0.4300 
*I *28:s B *C 1.9950 0.4300 
*I *2:s B *C 1.9950 0.4300 
*N *20:3 *C 1.2000 0.0000 
*N *20:4 *C 1.2000 0.0000 
*N *20:5 *C 0.3850 0.0000 


*RES
0 *20:5 *20 0.142191  // $metal1_conn
1 *20:3 *20:4 5.166667  // $metal1_conn
2 *20:5 *21:s 75.294914  // $metal1_conn
3 *28:s *20:4 0.152451  // $metal1_conn
4 *20:4 *20:5 0.407696  // $metal1_conn

*END

*D_NET *18 2.94506e-16

*CONN
*P *18 I *C 0.7000 0.8550 
*I *22:g B *C 0.7275 0.4300 
*I *1:g B *C 0.8125 1.1700 
*N *18:2 *C 0.7000 0.8200 

*CAP
0 *1:g 5.6072e-17
1 *22:g 7.20544e-17
2 *18:2 1.03892e-16
3 *18 6.24878e-17

*RES
0 *1:g *18:2 43.574535  // $poly_conn
1 *18:2 *22:g 54.991577  // $poly_conn
2 *18 *18:2 45.000355  // $metal1_conn

*END

*D_NET *19 2.4615e-16

*CONN
*P *19 I *C 1.5000 0.8550 
*I *25:g B *C 1.4025 0.4300 
*I *6:g B *C 1.4025 1.1700 
*N *19:1 *C 1.4650 0.8750 
*N *19:2 *C 1.4025 0.8750 

*CAP
0 *6:g 4.32842e-17
1 *25:g 4.52556e-17
2 *19:2 4.54882e-17
3 *19:1 5.18227e-17
4 *19 6.02993e-17

*RES
0 *19:1 *19:2 46.294373  // $poly_conn
1 *19:2 *25:g 75.691689  // $poly_conn
2 *19:2 *6:g 20.563484  // $poly_conn
3 *19:1 *19 0.007285  // $metal1_conn

*END

*D_NET *17 4.84706e-16

*CONN
*P *17 I *C 0.3000 0.8550 
*I *21:g B *C 0.2825 0.4825 
*I *24:g B *C 1.0375 0.4300 
*I *27:g B *C 0.3375 1.0825 
*I *3:g B *C 0.9925 1.1700 
*N *17:2 *C 0.3100 0.8500 
*N *17:5 *C 1.0125 0.8700 
*N *17:6 *C 0.9550 0.8700 

*CAP
0 *3:g 4.68418e-17
1 *27:g 2.41213e-17
2 *24:g 5.77955e-17
3 *21:g 2.9571e-17
4 *17:2 1.44013e-16
5 *17:6 1.82363e-16

*RES
0 *27:g *17:2 23.538105  // $poly_conn
1 *17:2 *21:g 67.127846  // $poly_conn
2 *24:g *17:5 95.905006  // $poly_conn
3 *17:5 *17:6 45.794373  // $poly_conn
4 *17:5 *3:g 46.265839  // $poly_conn
5 *17:6 *17 0.823263  // $metal1_conn
6 *17 *17:2 45.003307  // $metal1_conn

*END

*D_NET *13 2.28125e-16

*CONN
*P *13 O *C 1.9000 0.8550 
*I *26:d B *C 1.7500 0.4300 
*I *28:d B *C 1.7500 0.4300 
*I *2:d B *C 2.1900 0.4300 
*I *8:d B *C 1.7500 1.1700 
*I *10:d B *C 1.7500 1.1700 
*I *12:d B *C 2.1900 1.1700 

*CAP
0 *12:d 1.38034e-16
1 *26:d 7.08401e-17
2 *13 1.9251e-17

*RES
0 *12:d *13 0.017946  // $metal1_conn
1 *13 *26:d 0.206486  // $metal1_conn

*END

*D_NET *11 1.02853e-17

*CONN
*I *24:s B *C 1.2200 0.4300 
*I *25:d B *C 1.2200 0.4300 

*CAP
0 *24:s 1.02853e-17

*RES
0 *25:d *24:s 0.001  // $mwires

*END

*D_NET *9 0

*CONN
*I *22:d B *C 0.7800 0.4300 
*I *23:s B *C 0.7800 0.4300 


*RES
0 *23:s *22:d 0.001  // $mwires

*END

*D_NET *7 4.39067e-18

*CONN
*I *4:s B *C 1.3000 1.1700 
*I *6:d B *C 1.3000 1.1700 

*CAP
0 *4:s 4.39067e-18

*RES
0 *6:d *4:s 0.001  // $mwires

*END

*D_NET *16 4.8206e-18

*CONN
*I *1:d B *C 0.9025 1.1700 
*I *3:s B *C 0.9025 1.1700 

*CAP
0 *1:d 4.8206e-18

*RES
0 *3:s *1:d 0.001  // $mwires

*END

*D_NET *15 5.28847e-16

*CONN
*I *21:d B *C 0.1900 0.4825 
*I *23:g B *C 0.8325 0.4300 
*I *27:d B *C 0.2025 1.0825 
*I *4:g B *C 1.1975 1.1700 
*N *15:2 *C 0.8700 0.6600 
*N *15:4 *C 1.1450 0.8400 
*N *15:5 *C 0.1800 0.6600 

*CAP
0 *4:g 5.22572e-17
1 *27:d 6.04264e-17
2 *23:g 7.04856e-17
3 *21:d 1.78523e-17
4 *15:5 8.70822e-17
5 *15:2 1.34917e-16
6 *15:4 1.05827e-16

*RES
0 *23:g *15:2 61.15522  // $poly_conn
1 *4:g *15:4 79.227493  // $poly_conn
2 *15:4 *15:2 0.338024  // $metal1_conn
3 *15:2 *15:5 0.503638  // $metal1_conn
4 *15:5 *27:d 62.352276  // $metal1_conn
5 *15:5 *21:d 75.091957  // $metal1_conn

*END

*D_NET *14 4.95485e-16

*CONN
*I *23:d B *C 0.9350 0.4300 
*I *24:d B *C 0.9350 0.4300 
*I *26:g B *C 1.6075 0.4300 
*I *28:g B *C 1.8925 0.4300 
*I *2:g B *C 2.0975 0.4300 
*I *3:d B *C 1.0950 1.1700 
*I *4:d B *C 1.0950 1.1700 
*I *8:g B *C 1.6075 1.1700 
*I *10:g B *C 1.8925 1.1700 
*I *12:g B *C 2.0975 1.1700 
*N *14:10 *C 1.3050 0.6600 

*CAP
0 *12:g 2.51661e-16
1 *3:d 9.45061e-17
2 *23:d 5.72617e-17
3 *14:10 9.2056e-17

*RES
0 *14:10 *3:d 21.199068  // $metal1_conn
1 *14:10 *23:d 75.373764  // $metal1_conn
2 *12:g *14:10 45.227837  // $metal1_conn

*END

