*SPEF "IEEE 1481-1999"
*DESIGN  "CLKMX2X4"
*DATE "Mon Sep 27 09:22:46 2010"
*VENDOR "Cadence Design Systems"
*PROGRAM "Assura RCX"
*VERSION "3.2 Red Hat Linux release 7.2 (Enigma) - (09/09/2009-10:39)"
*DESIGN_FLOW "Physical Verification"
*DIVIDER /
*DELIMITER :
*BUS_DELIMITER []
*T_UNIT 1 PS
*C_UNIT 1e15 FF
*R_UNIT 1 OHM
*L_UNIT 1 MH
// DeviceFingerDelim "@"
// MATCHED
// caps2d version: 10

*NAME_MAP
*1 mp2
*2 mp4
*3 mp3
*4 mp5
*5 Y
*6 mp5\@1
*7 mp5\@2
*8 mp5\@3
*9 mn0
*10 mn1
*11 mn2
*12 mn4
*13 mn3
*14 mn5
*15 mn5\@1
*16 mn5\@2
*17 mn5\@3
*18 VDD
*19 A
*20 B
*21 n0
*22 S0b
*23 net123
*24 VSS
*25 net115
*26 net148
*27 net140
*28 S0
*29 mp0
*30 mp1

*GROUND_NETS VSS

*PORTS
*18 I
*24 I
*19 I
*20 I
*28 I
*5 O

*D_NET *18 4.2132e-16

*CONN
*P *18 I *C 0.1000 1.7100 
*I *29:s B *C 0.4850 1.3250 
*I *30:s B *C 0.4850 1.3250 
*I *3:s B *C 1.2800 1.2850 
*I *4:s B *C 1.2800 1.2850 
*I *6:s B *C 1.7600 1.2850 
*I *7:s B *C 1.7600 1.2850 
*I *8:s B *C 2.1600 1.2850 
*N *18:4 *C 1.2000 1.7100 
*N *18:5 *C 1.2000 1.7100 
*N *18:6 *C 0.4550 1.7100 

*CAP
0 *8:s 1.67909e-16
1 *29:s 3.66268e-17
2 *18:6 2.12691e-17
3 *18:4 1.82161e-16
4 *18 1.33541e-17

*RES
0 *18:6 *18 0.176542  // $metal1_conn
1 *18:4 *18:5 6.25  // $metal1_conn
2 *18:6 *29:s 62.120979  // $metal1_conn
3 *8:s *18:5 0.034883  // $metal1_conn
4 *18:5 *18:6 0.372273  // $metal1_conn

*END

*D_NET *24 0

*CONN
*P *24 I *C 0.1000 0.0000 
*I *9:s B *C 0.4800 0.3525 
*I *10:s B *C 0.4800 0.3525 
*I *13:s B *C 1.3000 0.3800 
*I *14:s B *C 1.3000 0.3800 
*I *15:s B *C 1.7600 0.3800 
*I *16:s B *C 1.7600 0.3800 
*I *17:s B *C 2.1600 0.3800 
*N *24:3 *C 1.2000 0.0000 
*N *24:5 *C 0.4700 0.0000 


*RES
0 *24:5 *24 0.185009  // $metal1_conn
1 *24:3 *17:s 5.166667  // $metal1_conn
2 *24:5 *9:s 75.187263  // $metal1_conn
3 *17:s *24:5 0.365703  // $metal1_conn

*END

*D_NET *19 2.96674e-16

*CONN
*P *19 I *C 0.5000 0.8550 
*I *10:g B *C 0.5725 0.3525 
*I *30:g B *C 0.5575 1.3250 
*N *19:2 *C 0.5100 0.8500 
*N *19:4 *C 0.5100 0.8500 

*CAP
0 *30:g 7.26597e-17
1 *10:g 5.64338e-17
2 *19:2 1.6758e-16

*RES
0 *10:g *19:2 89.519379  // $poly_conn
1 *19:2 *30:g 77.923157  // $poly_conn
2 *19:4 *19 0.003108  // $metal1_conn
3 *19:2 *19:4 45  // $metal1_conn

*END

*D_NET *20 3.05817e-16

*CONN
*P *20 I *C 1.3000 0.8550 
*I *13:g B *C 1.1675 0.3525 
*I *3:g B *C 1.1375 1.3250 
*N *20:2 *C 1.1750 0.9800 
*N *20:4 *C 1.2400 0.9800 

*CAP
0 *3:g 5.34325e-17
1 *13:g 7.05648e-17
2 *20:2 4.92362e-17
3 *20:4 7.0223e-17
4 *20 6.23609e-17

*RES
0 *13:g *20:2 124.931763  // $poly_conn
1 *20:2 *3:g 48.791496  // $poly_conn
2 *20:2 *20:4 48.800945  // $poly_conn
3 *20:4 *20 0.066161  // $metal1_conn

*END

*D_NET *28 5.76982e-16

*CONN
*P *28 I *C 0.3000 1.0450 
*I *9:g B *C 0.3375 0.3825 
*I *12:g B *C 1.0025 0.3525 
*I *29:g B *C 0.3375 1.3725 
*I *1:g B *C 0.7375 1.3250 
*N *28:2 *C 0.3100 1.0400 
*N *28:5 *C 0.7000 0.9400 
*N *28:7 *C 0.3100 1.0400 

*CAP
0 *1:g 5.09498e-17
1 *29:g 4.00215e-17
2 *12:g 8.94037e-17
3 *9:g 5.11432e-17
4 *28:2 5.77244e-17
5 *28:5 1.80118e-16
6 *28 1.07622e-16

*RES
0 *29:g *28:2 49.179131  // $poly_conn
1 *28:2 *9:g 141.486816  // $poly_conn
2 *12:g *28:5 177.907883  // $poly_conn
3 *28:5 *1:g 49.488552  // $poly_conn
4 *28:7 *28 0.003108  // $metal1_conn
5 *28 *28:5 45.628448  // $metal1_conn
6 *28:2 *28:7 45  // $metal1_conn

*END

*D_NET *5 2.65998e-16

*CONN
*P *5 O *C 1.7000 1.0450 
*I *14:d B *C 1.5150 0.3800 
*I *15:d B *C 1.5150 0.3800 
*I *16:d B *C 1.9650 0.3800 
*I *17:d B *C 1.9650 0.3800 
*I *4:d B *C 1.5150 1.2850 
*I *6:d B *C 1.5150 1.2850 
*I *7:d B *C 1.9650 1.2850 
*I *8:d B *C 1.9650 1.2850 

*CAP
0 *7:d 1.41457e-16
1 *14:d 8.39938e-17
2 *5 4.05474e-17

*RES
0 *7:d *5 0.00172  // $metal1_conn
1 *5 *14:d 0.360496  // $metal1_conn

*END

*D_NET *27 1.93143e-18

*CONN
*I *12:s B *C 1.0850 0.3525 
*I *13:d B *C 1.0850 0.3525 

*CAP
0 *12:s 1.93143e-18

*RES
0 *13:d *12:s 0.001  // $mwires

*END

*D_NET *26 0

*CONN
*I *10:d B *C 0.6850 0.3525 
*I *11:s B *C 0.6850 0.3525 


*RES
0 *11:s *10:d 0.001  // $mwires

*END

*D_NET *25 3.63977e-18

*CONN
*I *2:s B *C 1.0400 1.3250 
*I *3:d B *C 1.0400 1.3250 

*CAP
0 *2:s 3.63977e-18

*RES
0 *3:d *2:s 0.001  // $mwires

*END

*D_NET *23 3.9716e-18

*CONN
*I *30:d B *C 0.6475 1.3250 
*I *1:s B *C 0.6475 1.3250 

*CAP
0 *30:d 3.9716e-18

*RES
0 *1:s *30:d 0.001  // $mwires

*END

*D_NET *22 5.4173e-16

*CONN
*I *9:d B *C 0.2450 0.3825 
*I *11:g B *C 0.7975 0.3525 
*I *29:d B *C 0.2450 1.3725 
*I *2:g B *C 0.9425 1.3250 
*N *22:1 *C 0.8600 0.6300 
*N *22:4 *C 0.8900 1.0450 
*N *22:5 *C 0.2350 0.5000 

*CAP
0 *2:g 4.62171e-17
1 *29:d 1.00156e-16
2 *11:g 4.15034e-17
3 *9:d 1.30961e-17
4 *22:5 9.68723e-17
5 *22:1 1.36188e-16
6 *22:4 1.07697e-16

*RES
0 *22:1 *11:g 85.462837  // $poly_conn
1 *2:g *22:4 72.536453  // $poly_conn
2 *22:4 *22:1 0.312652  // $metal1_conn
3 *22:1 *22:5 0.493166  // $metal1_conn
4 *22:5 *9:d 75.055878  // $metal1_conn
5 *22:5 *29:d 62.779003  // $metal1_conn

*END

*D_NET *21 5.88214e-16

*CONN
*I *11:d B *C 0.9000 0.3525 
*I *12:d B *C 0.9000 0.3525 
*I *14:g B *C 1.3725 0.3800 
*I *15:g B *C 1.6575 0.3800 
*I *16:g B *C 1.8625 0.3800 
*I *17:g B *C 2.0675 0.3800 
*I *1:d B *C 0.8400 1.3250 
*I *2:d B *C 0.8400 1.3250 
*I *4:g B *C 1.3725 1.2850 
*I *6:g B *C 1.6575 1.2850 
*I *7:g B *C 1.8625 1.2850 
*I *8:g B *C 2.0675 1.2850 
*N *21:14 *C 1.0500 0.6850 

*CAP
0 *8:g 3.49701e-16
1 *1:d 8.22753e-17
2 *11:d 5.22108e-17
3 *21:14 1.04027e-16

*RES
0 *21:14 *1:d 62.566048  // $metal1_conn
1 *21:14 *11:d 75.350281  // $metal1_conn
2 *8:g *21:14 45.23951  // $metal1_conn

*END

