*SPEF "IEEE 1481-1999"
*DESIGN  "CLKXOR2X8"
*DATE "Mon Sep 27 09:25:04 2010"
*VENDOR "Cadence Design Systems"
*PROGRAM "Assura RCX"
*VERSION "3.2 Red Hat Linux release 7.2 (Enigma) - (09/09/2009-10:39)"
*DESIGN_FLOW "Physical Verification"
*DIVIDER /
*DELIMITER :
*BUS_DELIMITER []
*T_UNIT 1 PS
*C_UNIT 1e15 FF
*R_UNIT 1 OHM
*L_UNIT 1 MH
// DeviceFingerDelim "@"
// MATCHED
// caps2d version: 10

*NAME_MAP
*1 VDD
*2 A
*3 B
*4 mp5\@4
*5 mp5\@5
*6 mp5\@6
*7 net139
*8 Y
*9 n1
*10 n2
*11 n0
*12 net130
*13 VSS
*14 mp0
*15 mp4
*16 mp3
*17 mp2
*18 mp1
*19 mp5
*20 mp5\@1
*21 mn0
*22 mp5\@2
*23 mn4
*24 mp5\@3
*25 mn3
*26 mn2
*27 mn1
*28 mn5
*29 mn5\@1
*30 mn5\@4
*31 mn5\@2
*32 mn5\@5
*33 mn5\@3
*34 mn5\@6

*GROUND_NETS VSS

*PORTS
*1 I
*13 I
*2 I
*3 I
*8 O

*D_NET *1 4.79463e-16

*CONN
*P *1 I *C 0.1000 1.7100 
*I *14:s B *C 1.8275 1.0575 
*I *17:s B *C 3.0350 1.0575 
*I *18:s B *C 3.0350 1.0575 
*I *19:s B *C 0.4950 1.1375 
*I *20:s B *C 0.4950 1.1375 
*I *22:s B *C 0.9050 1.1375 
*I *24:s B *C 0.9050 1.1375 
*I *4:s B *C 1.3150 1.1375 
*I *5:s B *C 1.3150 1.1375 
*I *6:s B *C 1.8275 1.0575 
*N *1:2 *C 2.6000 1.7100 
*N *1:3 *C 2.6000 1.7100 

*CAP
0 *17:s 2.53685e-17
1 *14:s 2.80482e-16
2 *1:2 1.69715e-16
3 *1 3.89821e-18

*RES
0 *14:s *1 0.19754  // $metal1_conn
1 *1:2 *1:3 9.375  // $metal1_conn
2 *1:2 *14:s 8.333333  // $metal1_conn
3 *17:s *1:3 62.527153  // $metal1_conn
4 *1:3 *14:s 0.453419  // $metal1_conn

*END

*D_NET *13 0

*CONN
*P *13 I *C 0.1000 0.0000 
*I *21:s B *C 1.8250 0.3625 
*I *26:s B *C 3.0900 0.3025 
*I *27:s B *C 3.0900 0.3025 
*I *28:s B *C 0.4900 0.4225 
*I *29:s B *C 0.4900 0.4225 
*I *31:s B *C 0.9000 0.4225 
*I *33:s B *C 0.9000 0.4225 
*I *30:s B *C 1.3100 0.4225 
*I *32:s B *C 1.3100 0.4225 
*I *34:s B *C 1.8250 0.3625 
*N *13:2 *C 2.6000 0.0000 
*N *13:3 *C 2.6000 0.0000 


*RES
0 *21:s *13 0.195034  // $metal1_conn
1 *13:2 *13:3 7.75  // $metal1_conn
2 *13:2 *21:s 6.888889  // $metal1_conn
3 *26:s *13:3 75.416374  // $metal1_conn
4 *13:3 *21:s 0.455925  // $metal1_conn

*END

*D_NET *2 2.09602e-16

*CONN
*P *2 I *C 1.9000 0.6650 
*I *21:g B *C 1.8925 0.3625 
*I *14:g B *C 1.8925 1.0575 
*N *2:2 *C 1.8650 0.6850 

*CAP
0 *14:g 3.49027e-17
1 *21:g 3.48852e-17
2 *2:2 5.6765e-17
3 *2 8.30489e-17

*RES
0 *14:g *2:2 59.435539  // $poly_conn
1 *2:2 *21:g 55.58939  // $poly_conn
2 *2 *2:2 45.017796  // $metal1_conn

*END

*D_NET *3 4.30013e-16

*CONN
*P *3 I *C 3.1000 0.8550 
*I *25:g B *C 2.5775 0.3325 
*I *27:g B *C 3.1575 0.3025 
*I *15:g B *C 2.4775 1.1050 
*I *18:g B *C 3.0825 1.0575 
*N *3:2 *C 2.5775 0.6400 
*N *3:4 *C 2.7800 0.6400 
*N *3:6 *C 3.1200 0.8200 
*N *3:8 *C 3.1200 0.8200 

*CAP
0 *18:g 3.44599e-17
1 *15:g 5.11164e-17
2 *27:g 4.32739e-17
3 *25:g 3.54696e-17
4 *3:2 5.78213e-17
5 *3:4 9.72312e-17
6 *3:6 8.64619e-17
7 *3 2.41793e-17

*RES
0 *25:g *3:2 42.792469  // $poly_conn
1 *3:2 *15:g 92.428032  // $poly_conn
2 *3:2 *3:4 63.645283  // $poly_conn
3 *27:g *3:6 106.88707  // $poly_conn
4 *3:6 *18:g 26.11784  // $poly_conn
5 *3:4 *3:8 0.28018  // $metal1_conn
6 *3:8 *3 0.017901  // $metal1_conn
7 *3:6 *3:8 45  // $metal1_conn

*END

*D_NET *8 5.15812e-16

*CONN
*P *8 O *C 0.3000 0.6650 
*I *28:d B *C 0.2950 0.4225 
*I *29:d B *C 0.6950 0.4225 
*I *31:d B *C 0.6950 0.4225 
*I *33:d B *C 1.1050 0.4225 
*I *30:d B *C 1.1050 0.4225 
*I *32:d B *C 1.5150 0.4225 
*I *34:d B *C 1.5150 0.4225 
*I *19:d B *C 0.3000 1.1375 
*I *20:d B *C 0.7000 1.1375 
*I *22:d B *C 0.7000 1.1375 
*I *24:d B *C 1.1100 1.1375 
*I *4:d B *C 1.1100 1.1375 
*I *5:d B *C 1.5200 1.1375 
*I *6:d B *C 1.5200 1.1375 

*CAP
0 *5:d 3.26317e-16
1 *28:d 1.73893e-16
2 *8 1.5602e-17

*RES
0 *8 *28:d 0.108306  // $metal1_conn
1 *5:d *8 0.198557  // $metal1_conn

*END

*D_NET *7 0

*CONN
*I *25:s B *C 2.7500 0.3325 
*I *26:d B *C 2.7500 0.3325 


*RES
0 *26:d *25:s 0.001  // $mwires

*END

*D_NET *12 3.49731e-18

*CONN
*I *16:s B *C 2.7650 1.1050 
*I *17:d B *C 2.7650 1.1050 

*CAP
0 *16:s 3.49731e-18

*RES
0 *17:d *16:s 0.001  // $mwires

*END

*D_NET *11 8.21745e-16

*CONN
*I *23:d B *C 2.4750 0.3325 
*I *25:d B *C 2.4750 0.3325 
*I *28:g B *C 0.3875 0.4225 
*I *29:g B *C 0.5925 0.4225 
*I *31:g B *C 0.7975 0.4225 
*I *33:g B *C 1.0025 0.4225 
*I *30:g B *C 1.2075 0.4225 
*I *32:g B *C 1.4125 0.4225 
*I *34:g B *C 1.6175 0.4225 
*I *15:d B *C 2.5800 1.1050 
*I *16:d B *C 2.5800 1.1050 
*I *19:g B *C 0.3925 1.1375 
*I *20:g B *C 0.5975 1.1375 
*I *22:g B *C 0.8025 1.1375 
*I *24:g B *C 1.0075 1.1375 
*I *4:g B *C 1.2125 1.1375 
*I *5:g B *C 1.4175 1.1375 
*I *6:g B *C 1.6225 1.1375 
*N *11:24 *C 1.7050 0.6850 

*CAP
0 *6:g 3.87339e-16
1 *15:d 1.05851e-16
2 *23:d 1.10031e-16
3 *11:24 2.18524e-16

*RES
0 *15:d *11:24 62.990398  // $metal1_conn
1 *11:24 *23:d 75.93631  // $metal1_conn
2 *11:24 *6:g 45.360424  // $metal1_conn

*END

*D_NET *10 4.75342e-16

*CONN
*I *23:g B *C 2.3725 0.3325 
*I *27:d B *C 3.2700 0.3025 
*I *16:g B *C 2.6825 1.1050 
*I *18:d B *C 3.1750 1.0575 
*N *10:2 *C 2.3450 0.6650 
*N *10:4 *C 2.6100 0.8200 
*N *10:6 *C 3.3050 0.4800 
*N *10:7 *C 2.5800 0.6350 

*CAP
0 *18:d 5.43139e-17
1 *16:g 4.84509e-17
2 *27:d 1.93789e-17
3 *23:g 3.97099e-17
4 *10:7 7.19458e-17
5 *10:6 9.35114e-17
6 *10:2 6.53567e-17
7 *10:4 8.26742e-17

*RES
0 *23:g *10:2 95.461182  // $poly_conn
1 *16:g *10:4 71.639526  // $poly_conn
2 *27:d *10:6 75.11097  // $metal1_conn
3 *10:6 *10:7 0.614382  // $metal1_conn
4 *10:7 *10:2 0.138596  // $metal1_conn
5 *10:6 *18:d 62.487686  // $metal1_conn
6 *10:7 *10:4 0.131858  // $metal1_conn

*END

*D_NET *9 4.24111e-16

*CONN
*I *21:d B *C 2.3000 0.3325 
*I *23:s B *C 2.3000 0.3325 
*I *26:g B *C 2.9225 0.3325 
*I *14:d B *C 2.4050 1.1050 
*I *15:s B *C 2.4050 1.1050 
*I *17:g B *C 2.8475 1.1050 
*N *9:2 *C 2.8850 0.8500 
*N *9:5 *C 2.1850 1.0100 

*CAP
0 *17:g 4.99363e-17
1 *14:d 1.21269e-16
2 *26:g 5.43273e-17
3 *21:d 6.61443e-17
4 *9:2 1.32434e-16

*RES
0 *26:g *9:2 99.194763  // $poly_conn
1 *9:2 *17:g 18.425531  // $poly_conn
2 *9:2 *9:5 45.589405  // $metal1_conn
3 *9:5 *21:d 75.427139  // $metal1_conn
4 *14:d *9:5 62  // $metal1_conn

*END

