*SPEF "IEEE 1481-1999"
*DESIGN  "CLKXOR2X4"
*DATE "Mon Sep 27 09:24:41 2010"
*VENDOR "Cadence Design Systems"
*PROGRAM "Assura RCX"
*VERSION "3.2 Red Hat Linux release 7.2 (Enigma) - (09/09/2009-10:39)"
*DESIGN_FLOW "Physical Verification"
*DIVIDER /
*DELIMITER :
*BUS_DELIMITER []
*T_UNIT 1 PS
*C_UNIT 1e15 FF
*R_UNIT 1 OHM
*L_UNIT 1 MH
// DeviceFingerDelim "@"
// MATCHED
// caps2d version: 10

*NAME_MAP
*1 mp5\@2
*2 mp5\@3
*3 mp0
*4 mp4
*5 Y
*6 mp3
*7 mp2
*8 mp1
*9 mn5
*10 mn5\@1
*11 mn5\@2
*12 mn5\@3
*13 mn0
*14 mn4
*15 mn3
*16 mn2
*17 mn1
*18 VDD
*19 A
*20 B
*21 n1
*22 n2
*23 n0
*24 net130
*25 VSS
*26 net139
*27 mp5
*28 mp5\@1

*GROUND_NETS VSS

*PORTS
*18 I
*25 I
*19 I
*20 I
*5 O

*D_NET *18 3.483e-16

*CONN
*P *18 I *C 0.1000 1.7100 
*I *27:s B *C 0.1100 1.0950 
*I *28:s B *C 0.5100 1.0950 
*I *1:s B *C 0.5100 1.0950 
*I *2:s B *C 1.0350 1.0725 
*I *3:s B *C 1.0350 1.0725 
*I *7:s B *C 2.2550 1.1675 
*I *8:s B *C 2.2550 1.1675 
*N *18:2 *C 2.0000 1.7100 
*N *18:3 *C 2.0000 1.7100 

*CAP
0 *7:s 3.08841e-17
1 *18:2 1.48844e-16
2 *18 1.68572e-16

*RES
0 *18:2 *18:3 12.5  // $metal1_conn
1 *18:2 *18 10.714286  // $metal1_conn
2 *7:s *18:3 62.439987  // $metal1_conn
3 *18:3 *18 0.541586  // $metal1_conn

*END

*D_NET *25 0

*CONN
*P *25 I *C 0.1000 0.0000 
*I *9:s B *C 0.1100 0.4250 
*I *10:s B *C 0.5100 0.4250 
*I *11:s B *C 0.5100 0.4250 
*I *12:s B *C 1.0000 0.3675 
*I *13:s B *C 1.0000 0.3675 
*I *16:s B *C 2.2550 0.3075 
*I *17:s B *C 2.2550 0.3075 
*N *25:2 *C 2.0000 0.0000 
*N *25:3 *C 2.0000 0.0000 


*RES
0 *25:2 *25:3 10.333333  // $metal1_conn
1 *25:2 *25 8.857142  // $metal1_conn
2 *16:s *25:3 75.31395  // $metal1_conn
3 *25:3 *25 0.541586  // $metal1_conn

*END

*D_NET *19 2.17686e-16

*CONN
*P *19 I *C 1.1000 0.8550 
*I *13:g B *C 1.0825 0.3675 
*I *3:g B *C 1.0825 1.0725 
*N *19:2 *C 1.0550 0.7050 

*CAP
0 *3:g 3.44072e-17
1 *13:g 3.00026e-17
2 *19:2 1.18669e-16
3 *19 3.46078e-17

*RES
0 *3:g *19:2 58.153492  // $poly_conn
1 *19:2 *13:g 59.435539  // $poly_conn
2 *19 *19:2 45.042255  // $metal1_conn

*END

*D_NET *20 4.61857e-16

*CONN
*P *20 I *C 2.3000 0.8550 
*I *15:g B *C 1.9425 0.3375 
*I *17:g B *C 2.3075 0.3075 
*I *4:g B *C 1.7725 1.1200 
*I *8:g B *C 2.3075 1.1675 
*N *20:2 *C 1.9600 0.6450 
*N *20:5 *C 2.2900 0.6750 
*N *20:7 *C 2.2900 0.6750 

*CAP
0 *8:g 4.67602e-17
1 *4:g 5.17831e-17
2 *17:g 3.78193e-17
3 *15:g 4.73226e-17
4 *20:2 1.30351e-16
5 *20:5 1.03053e-16
6 *20 4.4768e-17

*RES
0 *15:g *20:2 43.078297  // $poly_conn
1 *20:2 *4:g 105.487816  // $poly_conn
2 *8:g *20:5 87.911491  // $poly_conn
3 *20:5 *17:g 64.834572  // $poly_conn
4 *20 *20:7 0.108156  // $metal1_conn
5 *20:7 *20:2 45.199169  // $metal1_conn
6 *20:5 *20:7 45  // $metal1_conn

*END

*D_NET *5 2.84798e-16

*CONN
*P *5 O *C 0.3000 0.8550 
*I *9:d B *C 0.3050 0.4250 
*I *10:d B *C 0.3050 0.4250 
*I *11:d B *C 0.7150 0.4250 
*I *12:d B *C 0.7150 0.4250 
*I *27:d B *C 0.3050 1.0950 
*I *28:d B *C 0.3050 1.0950 
*I *1:d B *C 0.7150 1.0950 
*I *2:d B *C 0.7150 1.0950 

*CAP
0 *1:d 1.622e-16
1 *9:d 1.0821e-16
2 *5 1.43884e-17

*RES
0 *5 *9:d 0.227928  // $metal1_conn
1 *1:d *5 0.047386  // $metal1_conn

*END

*D_NET *26 0

*CONN
*I *15:s B *C 2.0225 0.3375 
*I *16:d B *C 2.0225 0.3375 


*RES
0 *16:d *15:s 0.001  // $mwires

*END

*D_NET *24 2.2278e-18

*CONN
*I *6:s B *C 2.0400 1.1200 
*I *7:d B *C 2.0400 1.1200 

*CAP
0 *6:s 2.2278e-18

*RES
0 *7:d *6:s 0.001  // $mwires

*END

*D_NET *23 7.31367e-16

*CONN
*I *9:g B *C 0.2025 0.4250 
*I *10:g B *C 0.4075 0.4250 
*I *11:g B *C 0.6125 0.4250 
*I *12:g B *C 0.8175 0.4250 
*I *14:d B *C 1.8400 0.3375 
*I *15:d B *C 1.8400 0.3375 
*I *27:g B *C 0.2025 1.0950 
*I *28:g B *C 0.4075 1.0950 
*I *1:g B *C 0.6125 1.0950 
*I *2:g B *C 0.8175 1.0950 
*I *4:d B *C 1.8750 1.1200 
*I *6:d B *C 1.8750 1.1200 
*N *23:14 *C 0.8300 0.7050 

*CAP
0 *4:d 1.10602e-16
1 *2:g 2.30759e-16
2 *14:d 1.44262e-16
3 *23:14 2.45744e-16

*RES
0 *4:d *23:14 63.071899  // $metal1_conn
1 *23:14 *14:d 76.137062  // $metal1_conn
2 *23:14 *2:g 45.114059  // $metal1_conn

*END

*D_NET *22 5.31532e-16

*CONN
*I *14:g B *C 1.7375 0.3375 
*I *17:d B *C 2.4000 0.3075 
*I *6:g B *C 1.9775 1.1200 
*I *8:d B *C 2.4000 1.1675 
*N *22:2 *C 1.6100 0.5700 
*N *22:4 *C 1.9400 0.8250 
*N *22:6 *C 2.4100 0.4850 
*N *22:7 *C 1.7700 0.6000 

*CAP
0 *8:d 6.22953e-17
1 *6:g 5.86967e-17
2 *17:d 1.78643e-17
3 *14:g 3.26101e-17
4 *22:7 7.90189e-17
5 *22:6 1.02178e-16
6 *22:2 6.68994e-17
7 *22:4 1.11969e-16

*RES
0 *14:g *22:2 89.547165  // $poly_conn
1 *6:g *22:4 71.411629  // $poly_conn
2 *17:d *22:6 75.093544  // $metal1_conn
3 *22:6 *22:7 0.56842  // $metal1_conn
4 *22:7 *22:2 0.083235  // $metal1_conn
5 *22:6 *8:d 62.506905  // $metal1_conn
6 *22:7 *22:4 0.29136  // $metal1_conn

*END

*D_NET *21 4.93494e-16

*CONN
*I *13:d B *C 1.6650 0.3375 
*I *14:s B *C 1.6650 0.3375 
*I *16:g B *C 2.1025 0.3375 
*I *3:d B *C 1.7000 1.1200 
*I *4:s B *C 1.7000 1.1200 
*I *7:g B *C 2.1025 1.1200 
*N *21:2 *C 2.1300 0.8550 
*N *21:5 *C 1.4500 1.0250 

*CAP
0 *7:g 6.28309e-17
1 *3:d 1.14955e-16
2 *16:g 7.25013e-17
3 *13:d 9.14624e-17
4 *21:2 1.51744e-16

*RES
0 *7:g *21:2 19.691952  // $poly_conn
1 *21:2 *16:g 97.897079  // $poly_conn
2 *21:2 *21:5 45.584087  // $metal1_conn
3 *21:5 *13:d 75.436874  // $metal1_conn
4 *3:d *21:5 62  // $metal1_conn

*END

