*SPEF "IEEE 1481-1999"
*DESIGN  "DFFHQX8"
*DATE "Mon Sep 27 09:26:36 2010"
*VENDOR "Cadence Design Systems"
*PROGRAM "Assura RCX"
*VERSION "3.2 Red Hat Linux release 7.2 (Enigma) - (09/09/2009-10:39)"
*DESIGN_FLOW "Physical Verification"
*DIVIDER /
*DELIMITER :
*BUS_DELIMITER []
*T_UNIT 1 PS
*C_UNIT 1e15 FF
*R_UNIT 1 OHM
*L_UNIT 1 MH
// DeviceFingerDelim "@"
// MATCHED
// caps2d version: 10

*NAME_MAP
*1 mn55\@4
*2 mn55\@5
*3 mn55\@6
*4 mn45
*5 mn45\@1
*6 mn45\@2
*7 mn21
*8 mp55
*9 mp55\@1
*10 mp55\@2
*11 mp55\@3
*12 mp55\@4
*13 mp55\@5
*14 mp55\@6
*15 mp45
*16 mp45\@1
*17 mp45\@2
*18 CKbb
*19 mp50
*20 CKb
*21 mp51
*22 net123
*23 mp40
*24 net147
*25 mp30
*26 n22
*27 mp35
*28 net172
*29 mp36
*30 net192
*31 mp26
*32 n21
*33 mp21
*34 mp25
*35 mp20
*36 CK
*37 VSS
*38 D
*39 mn50
*40 mn51
*41 mn40
*42 mn30
*43 Q
*44 mn35
*45 VDD
*46 mn36
*47 mn26
*48 mout
*49 mn25
*50 n20
*51 mn20
*52 n30
*53 qbint
*54 mn55
*55 mn55\@1
*56 mn55\@2
*57 mn55\@3

*GROUND_NETS VSS

*PORTS
*45 I
*37 I
*36 I
*38 I
*43 O

*D_NET *45 8.62711e-16

*CONN
*P *45 I *C 0.1000 1.7100 
*I *19:s B *C 2.7600 1.1350 
*I *25:s B *C 3.9750 1.1350 
*I *27:s B *C 3.9750 1.1350 
*I *34:s B *C 4.8550 1.0875 
*I *35:s B *C 4.8550 1.0875 
*I *8:s B *C 0.3150 1.1225 
*I *9:s B *C 0.3150 1.1225 
*I *10:s B *C 0.7250 1.1225 
*I *11:s B *C 0.7250 1.1225 
*I *12:s B *C 1.1350 1.1225 
*I *13:s B *C 1.1350 1.1225 
*I *14:s B *C 1.5950 1.1500 
*I *15:s B *C 1.5950 1.1500 
*I *16:s B *C 2.0700 1.1500 
*I *17:s B *C 2.0700 1.1500 
*I *33:s B *C 2.7600 1.1350 
*N *45:2 *C 2.7000 1.7100 
*N *45:3 *C 2.7000 1.7100 
*N *45:10 *C 3.8600 1.7100 
*N *45:17 *C 4.5000 1.7100 

*CAP
0 *16:s 4.15051e-16
1 *34:s 5.78262e-17
2 *25:s 3.34808e-17
3 *19:s 1.80652e-17
4 *45:10 3.3146e-17
5 *45:2 2.97921e-16
6 *45 7.22048e-18

*RES
0 *16:s *45 0.107542  // $metal1_conn
1 *45:2 *45:3 8.333333  // $metal1_conn
2 *45:2 *16:s 8.333333  // $metal1_conn
3 *45:2 *45:17 8.333333  // $metal1_conn
4 *45:17 *34:s 62.400925  // $metal1_conn
5 *45:10 *25:s 62.187725  // $metal1_conn
6 *19:s *45:3 62.071461  // $metal1_conn
7 *45:3 *16:s 0.374279  // $metal1_conn
8 *45:3 *45:10 0.581882  // $metal1_conn
9 *45:10 *45:17 0.320753  // $metal1_conn

*END

*D_NET *37 0

*CONN
*P *37 I *C 0.1000 0.0000 
*I *39:s B *C 2.7600 0.3925 
*I *42:s B *C 3.9750 0.3925 
*I *44:s B *C 3.9750 0.3925 
*I *49:s B *C 4.9150 0.3625 
*I *51:s B *C 4.9150 0.3625 
*I *54:s B *C 0.3150 0.5125 
*I *55:s B *C 0.3150 0.5125 
*I *56:s B *C 0.7250 0.5125 
*I *57:s B *C 0.7250 0.5125 
*I *1:s B *C 1.1350 0.5125 
*I *2:s B *C 1.1350 0.5125 
*I *3:s B *C 1.5950 0.5300 
*I *4:s B *C 1.5950 0.5300 
*I *5:s B *C 1.9550 0.5300 
*I *6:s B *C 1.9550 0.5300 
*I *7:s B *C 2.7600 0.3925 
*N *37:2 *C 4.5000 0.0000 
*N *37:3 *C 4.5000 0.0000 
*N *37:4 *C 3.8600 0.0000 
*N *37:5 *C 2.7000 0.0000 


*RES
0 *5:s *37 0.107542  // $metal1_conn
1 *37:2 *37:3 6.888889  // $metal1_conn
2 *37:2 *37:5 6.888889  // $metal1_conn
3 *37:2 *5:s 6.888889  // $metal1_conn
4 *49:s *37:3 75.372261  // $metal1_conn
5 *37:4 *42:s 75.190689  // $metal1_conn
6 *37:5 *39:s 75.230217  // $metal1_conn
7 *37:3 *37:4 0.320753  // $metal1_conn
8 *37:4 *37:5 0.582036  // $metal1_conn
9 *37:5 *5:s 0.373511  // $metal1_conn

*END

*D_NET *36 1.55083e-16

*CONN
*P *36 I *C 5.1000 0.8550 
*I *51:g B *C 5.0975 0.3625 
*I *35:g B *C 5.0425 1.0875 
*N *36:2 *C 5.0700 0.7300 
*N *36:4 *C 5.0700 0.7300 
*N *36:5 *C 5.0850 0.7300 
*N *36:6 *C 5.0850 0.8550 

*CAP
0 *35:g 3.19963e-17
1 *51:g 2.78122e-17
2 *36:5 2.51391e-17
3 *36:2 2.75433e-17
4 *36 4.25923e-17

*RES
0 *51:g *36:2 67.127846  // $poly_conn
1 *36:2 *35:g 55.58939  // $poly_conn
2 *36:4 *36:5 0.003538  // $metal1_conn
3 *36:6 *36 0.003656  // $metal1_conn
4 *36:5 *36:6 0.048387  // $metal1_conn
5 *36:2 *36:4 45  // $metal1_conn

*END

*D_NET *38 2.77604e-16

*CONN
*P *38 I *C 4.9000 0.8550 
*I *49:g B *C 4.6325 0.3925 
*I *34:g B *C 4.5275 1.1350 
*N *38:2 *C 4.6600 0.8450 

*CAP
0 *34:g 4.53372e-17
1 *49:g 6.76417e-17
2 *38:2 1.08345e-16
3 *38 5.62805e-17

*RES
0 *49:g *38:2 78.068497  // $poly_conn
1 *38:2 *34:g 43.574535  // $poly_conn
2 *38 *38:2 45.100765  // $metal1_conn

*END

*D_NET *43 4.72991e-16

*CONN
*P *43 O *C 0.1000 0.6650 
*I *54:d B *C 0.1200 0.5125 
*I *55:d B *C 0.5200 0.5125 
*I *56:d B *C 0.5200 0.5125 
*I *57:d B *C 0.9300 0.5125 
*I *1:d B *C 0.9300 0.5125 
*I *2:d B *C 1.3400 0.5125 
*I *3:d B *C 1.3400 0.5125 
*I *8:d B *C 0.1200 1.1225 
*I *9:d B *C 0.5200 1.1225 
*I *10:d B *C 0.5200 1.1225 
*I *11:d B *C 0.9300 1.1225 
*I *12:d B *C 0.9300 1.1225 
*I *13:d B *C 1.3400 1.1225 
*I *14:d B *C 1.3400 1.1225 

*CAP
0 *43 4.72991e-16


*END

*D_NET *32 0

*CONN
*I *47:s B *C 4.5800 0.3925 
*I *49:d B *C 4.5800 0.3925 


*RES
0 *49:d *47:s 0.001  // $mwires

*END

*D_NET *30 3.2035e-18

*CONN
*I *44:d B *C 4.1150 0.3925 
*I *46:s B *C 4.1150 0.3925 

*CAP
0 *44:d 3.2035e-18

*RES
0 *46:s *44:d 0.001  // $mwires

*END

*D_NET *28 2.31536e-18

*CONN
*I *39:d B *C 2.9400 0.3925 
*I *40:s B *C 2.9400 0.3925 

*CAP
0 *39:d 2.31536e-18

*RES
0 *40:s *39:d 0.001  // $mwires

*END

*D_NET *26 8.49355e-18

*CONN
*I *31:s B *C 4.4350 1.1350 
*I *34:d B *C 4.4350 1.1350 

*CAP
0 *31:s 8.49355e-18

*RES
0 *34:d *31:s 0.001  // $mwires

*END

*D_NET *24 1.11025e-18

*CONN
*I *27:d B *C 4.0750 1.1350 
*I *29:s B *C 4.0750 1.1350 

*CAP
0 *27:d 1.11025e-18

*RES
0 *29:s *27:d 0.001  // $mwires

*END

*D_NET *22 1.97788e-18

*CONN
*I *19:d B *C 2.8875 1.1350 
*I *21:s B *C 2.8875 1.1350 

*CAP
0 *19:d 1.97788e-18

*RES
0 *21:s *19:d 0.001  // $mwires

*END

*D_NET *20 1.22312e-15

*CONN
*I *40:g B *C 3.0275 0.3925 
*I *47:g B *C 4.5275 0.3925 
*I *51:d B *C 5.1900 0.3625 
*I *7:g B *C 2.6175 0.4225 
*I *23:g B *C 3.2025 1.1350 
*I *29:g B *C 4.1275 1.1350 
*I *35:d B *C 5.1350 1.0875 
*I *33:g B *C 2.5425 1.0875 
*N *20:3 *C 2.5150 1.3600 
*N *20:4 *C 3.4800 0.8250 
*N *20:5 *C 3.2125 0.8525 
*N *20:9 *C 4.1650 1.3900 
*N *20:11 *C 4.5000 0.6650 
*N *20:13 *C 4.5000 1.0700 
*N *20:14 *C 3.4800 1.2350 

*CAP
0 *33:g 4.30038e-17
1 *35:d 5.92768e-17
2 *29:g 6.98223e-17
3 *23:g 2.43402e-17
4 *7:g 6.66007e-17
5 *51:d 6.83126e-17
6 *47:g 5.95903e-17
7 *40:g 6.15414e-17
8 *20:14 1.1715e-16
9 *20:13 1.16449e-16
10 *20:5 4.11319e-17
11 *20:3 1.38608e-16
12 *20:4 7.14662e-17
13 *20:9 1.35844e-16
14 *20:11 1.49979e-16

*RES
0 *7:g *33:g 131.761719  // $poly_conn
1 *33:g *20:3 78.794518  // $poly_conn
2 *20:4 *20:5 104.493294  // $poly_conn
3 *20:5 *40:g 120.777252  // $poly_conn
4 *20:5 *23:g 31.625845  // $poly_conn
5 *29:g *20:9 61.15522  // $poly_conn
6 *47:g *20:11 80.076569  // $poly_conn
7 *51:d *20:11 75.646194  // $metal1_conn
8 *20:11 *20:13 0.297807  // $metal1_conn
9 *20:13 *20:9 0.469103  // $metal1_conn
10 *20:9 *20:14 0.5557  // $metal1_conn
11 *20:14 *20:3 0.789569  // $metal1_conn
12 *20:13 *35:d 62.47353  // $metal1_conn
13 *20:14 *20:4 0.302594  // $metal1_conn

*END

*D_NET *18 9.28105e-16

*CONN
*I *41:g B *C 3.3375 0.3925 
*I *46:g B *C 4.2075 0.3925 
*I *7:d B *C 2.5250 0.4225 
*I *21:g B *C 2.9675 1.1350 
*I *31:g B *C 4.3425 1.1350 
*I *33:d B *C 2.4500 1.0875 
*N *18:2 *C 2.9400 0.8550 
*N *18:4 *C 3.3100 0.6650 
*N *18:6 *C 4.1800 0.6050 
*N *18:8 *C 3.3200 0.2750 
*N *18:9 *C 2.9400 0.5100 

*CAP
0 *33:d 8.27604e-17
1 *31:g 7.1458e-17
2 *21:g 4.38328e-17
3 *7:d 5.83454e-17
4 *46:g 3.05928e-17
5 *41:g 2.90796e-17
6 *18:9 9.94111e-17
7 *18:8 1.41518e-16
8 *18:2 1.04193e-16
9 *18:4 9.62178e-17
10 *18:6 1.70696e-16

*RES
0 *21:g *18:2 68.538101  // $poly_conn
1 *41:g *18:4 80.076569  // $poly_conn
2 *31:g *18:6 104.588127  // $poly_conn
3 *18:6 *46:g 20.034042  // $poly_conn
4 *18:6 *18:8 45.862911  // $metal1_conn
5 *18:8 *18:9 0.44954  // $metal1_conn
6 *18:9 *18:2 0.241013  // $metal1_conn
7 *18:2 *33:d 62.431801  // $metal1_conn
8 *18:8 *18:4 0.289672  // $metal1_conn
9 *18:9 *7:d 75.347717  // $metal1_conn

*END

*D_NET *53 8.68778e-16

*CONN
*I *39:g B *C 2.8525 0.3925 
*I *54:g B *C 0.2125 0.5125 
*I *55:g B *C 0.4175 0.5125 
*I *56:g B *C 0.6225 0.5125 
*I *57:g B *C 0.8275 0.5125 
*I *1:g B *C 1.0325 0.5125 
*I *2:g B *C 1.2375 0.5125 
*I *3:g B *C 1.4425 0.5125 
*I *4:d B *C 1.7500 0.5300 
*I *5:d B *C 1.7500 0.5300 
*I *6:d B *C 2.1500 0.5300 
*I *19:g B *C 2.8075 1.1350 
*I *8:g B *C 0.2125 1.1225 
*I *9:g B *C 0.4175 1.1225 
*I *10:g B *C 0.6225 1.1225 
*I *11:g B *C 0.8275 1.1225 
*I *12:g B *C 1.0325 1.1225 
*I *13:g B *C 1.2375 1.1225 
*I *14:g B *C 1.4425 1.1225 
*I *15:d B *C 1.7500 1.1500 
*I *16:d B *C 1.7500 1.1500 
*I *17:d B *C 2.2100 1.1500 
*N *53:11 *C 1.5000 0.7600 
*N *53:24 *C 2.8075 0.6700 
*N *53:25 *C 2.7500 0.6700 

*CAP
0 *17:d 2.41599e-16
1 *14:g 3.21826e-16
2 *19:g 6.67659e-17
3 *39:g 4.73882e-17
4 *53:24 3.86566e-17
5 *53:11 5.33665e-17
6 *53:25 9.91753e-17

*RES
0 *53:24 *19:g 67.589989  // $poly_conn
1 *39:g *53:24 41.980751  // $poly_conn
2 *53:24 *53:25 48.026802  // $poly_conn
3 *14:g *53:11 48.256718  // $poly_conn
4 *53:25 *17:d 0.443748  // $metal1_conn
5 *17:d *53:11 0.149009  // $metal1_conn

*END

*D_NET *52 6.08504e-16

*CONN
*I *40:d B *C 3.1825 0.3925 
*I *41:s B *C 3.1825 0.3925 
*I *4:g B *C 1.6475 0.5300 
*I *5:g B *C 1.8525 0.5300 
*I *6:g B *C 2.0575 0.5300 
*I *21:d B *C 3.0850 1.1350 
*I *23:s B *C 3.0850 1.1350 
*I *15:g B *C 1.6475 1.1500 
*I *16:g B *C 1.8525 1.1500 
*I *17:g B *C 2.1175 1.1500 
*N *52:12 *C 3.1000 1.1050 

*CAP
0 *17:g 3.3116e-16
1 *21:d 1.78853e-16
2 *40:d 9.84919e-17

*RES
0 *21:d *52:12 31  // $metal1_conn
1 *52:12 *40:d 75.500877  // $metal1_conn
2 *17:g *52:12 46.093075  // $metal1_conn

*END

*D_NET *50 3.58101e-16

*CONN
*I *42:g B *C 3.7575 0.3925 
*I *46:d B *C 4.3675 0.3925 
*I *47:d B *C 4.3675 0.3925 
*I *25:g B *C 3.7575 1.1350 
*I *29:d B *C 4.2350 1.1350 
*I *31:d B *C 4.2350 1.1350 
*N *50:1 *C 3.8300 0.8700 
*N *50:2 *C 3.7575 0.8700 
*N *50:6 *C 4.2400 0.8700 

*CAP
0 *29:d 5.66643e-17
1 *25:g 3.53989e-17
2 *46:d 6.52861e-17
3 *42:g 4.6251e-17
4 *50:6 6.88893e-17
5 *50:2 2.46367e-17
6 *50:1 6.09752e-17

*RES
0 *50:1 *50:2 47.037205  // $poly_conn
1 *50:2 *42:g 89.483459  // $poly_conn
2 *50:2 *25:g 21.534737  // $poly_conn
3 *46:d *50:6 75.408699  // $metal1_conn
4 *50:6 *50:1 0.295262  // $metal1_conn
5 *50:6 *29:d 31.158806  // $metal1_conn

*END

*D_NET *48 4.42757e-16

*CONN
*I *41:d B *C 3.5475 0.3925 
*I *42:d B *C 3.5475 0.3925 
*I *44:g B *C 4.0225 0.3925 
*I *23:d B *C 3.4800 1.1350 
*I *25:d B *C 3.4800 1.1350 
*I *27:g B *C 4.0225 1.1350 
*N *48:2 *C 3.9900 0.6350 
*N *48:4 *C 3.6400 0.6350 

*CAP
0 *27:g 9.92548e-17
1 *23:d 7.10346e-17
2 *44:g 4.01508e-17
3 *41:d 5.19584e-17
4 *48:4 7.51604e-17
5 *48:2 1.05198e-16

*RES
0 *27:g *48:2 77.65509  // $poly_conn
1 *48:2 *44:g 25.090984  // $poly_conn
2 *48:2 *48:4 45.278694  // $metal1_conn
3 *48:4 *41:d 75.1912  // $metal1_conn
4 *48:4 *23:d 62.285965  // $metal1_conn

*END

