*SPEF "IEEE 1481-1999"
*DESIGN  "DFFNSRX1"
*DATE "Mon Sep 27 09:26:58 2010"
*VENDOR "Cadence Design Systems"
*PROGRAM "Assura RCX"
*VERSION "3.2 Red Hat Linux release 7.2 (Enigma) - (09/09/2009-10:39)"
*DESIGN_FLOW "Physical Verification"
*DIVIDER /
*DELIMITER :
*BUS_DELIMITER []
*T_UNIT 1 PS
*C_UNIT 1e15 FF
*R_UNIT 1 OHM
*L_UNIT 1 MH
// DeviceFingerDelim "@"
// MATCHED
// caps2d version: 10

*NAME_MAP
*1 mn22
*2 QN
*3 mn45
*4 mn50
*5 mn52
*6 mn51
*7 mn53
*8 RN
*9 mp20
*10 mp57
*11 mp56
*12 mp55
*13 mp22
*14 mp45
*15 mp50
*16 mp52
*17 mp51
*18 mp53
*19 n20
*20 mp40
*21 CKNbb
*22 SN
*23 mp31
*24 CKNb
*25 mp32
*26 n40
*27 mp30
*28 n42
*29 mp35
*30 n41
*31 mp36
*32 n35
*33 mp26
*34 qint
*35 mp25
*36 qbint
*37 mp21
*38 RNb
*39 mout
*40 n43
*41 n26
*42 n31
*43 n22
*44 n30
*45 CKN
*46 n21
*47 VSS
*48 D
*49 mn40
*50 mn31
*51 mn32
*52 mn30
*53 Q
*54 mn35
*55 VDD
*56 mn36
*57 mn26
*58 mn25
*59 mn21
*60 n25
*61 mn20
*62 mn57
*63 mn56
*64 mn55

*GROUND_NETS VSS

*PORTS
*55 I
*47 I
*45 I
*48 I
*8 I
*22 I
*53 O
*2 O

*D_NET *55 7.5076e-16

*CONN
*P *55 I *C 0.1000 1.7100 
*I *23:s B *C 3.1350 1.1025 
*I *27:s B *C 3.8350 1.2175 
*I *29:s B *C 3.8350 1.2175 
*I *35:s B *C 4.5400 1.2175 
*I *37:s B *C 4.5400 1.2175 
*I *9:s B *C 5.1700 1.1325 
*I *10:s B *C 0.3550 1.0075 
*I *11:s B *C 0.3550 1.0075 
*I *12:s B *C 0.9650 1.2375 
*I *13:s B *C 0.9650 1.2375 
*I *14:s B *C 1.6750 1.0075 
*I *15:s B *C 1.6750 1.0075 
*I *17:s B *C 2.2050 1.2650 
*N *55:2 *C 4.5000 1.7100 
*N *55:3 *C 4.5000 1.7100 
*N *55:4 *C 3.7500 1.7100 
*N *55:5 *C 3.0450 1.7100 
*N *55:6 *C 2.7000 1.7100 
*N *55:7 *C 2.1750 1.7100 
*N *55:8 *C 1.5900 1.7100 
*N *55:9 *C 0.9000 1.7100 
*N *55:10 *C 0.3050 1.7100 

*CAP
0 *17:s 2.42105e-17
1 *14:s 1.22753e-17
2 *12:s 3.799e-17
3 *10:s 5.4578e-17
4 *9:s 3.82225e-17
5 *35:s 4.3421e-17
6 *27:s 8.71993e-18
7 *23:s 2.27838e-17
8 *55:10 8.85519e-18
9 *55:8 2.543e-17
10 *55:7 2.11003e-17
11 *55:5 2.25889e-17
12 *55:4 3.24919e-17
13 *55:2 3.90469e-16
14 *55 7.62345e-18

*RES
0 *9:s *55:3 62.730331  // $metal1_conn
1 *55:3 *55:4 0.376356  // $metal1_conn
2 *55:4 *55:5 0.352616  // $metal1_conn
3 *55:5 *55:6 0.172067  // $metal1_conn
4 *55:6 *55:7 0.26339  // $metal1_conn
5 *55:7 *55:8 0.292368  // $metal1_conn
6 *55:8 *55:9 0.345742  // $metal1_conn
7 *55:9 *55:10 0.298689  // $metal1_conn
8 *55:10 *55 0.102477  // $metal1_conn
9 *55:3 *35:s 62.297718  // $metal1_conn
10 *55:4 *27:s 62.075375  // $metal1_conn
11 *55:5 *23:s 62.045872  // $metal1_conn
12 *55:7 *17:s 62.097645  // $metal1_conn
13 *55:8 *14:s 62.045872  // $metal1_conn
14 *55:9 *12:s 62.28986  // $metal1_conn
15 *55:10 *10:s 62.440094  // $metal1_conn
16 *55:2 *55:3 8.333333  // $metal1_conn
17 *55:2 *55:6 8.333333  // $metal1_conn
18 *55:2 *55:9 8.333333  // $metal1_conn

*END

*D_NET *47 0

*CONN
*P *47 I *C 0.1000 0.0000 
*I *52:s B *C 3.8350 0.5575 
*I *54:s B *C 3.8350 0.5575 
*I *58:s B *C 4.6250 0.5575 
*I *59:s B *C 4.6250 0.5575 
*I *61:s B *C 5.1700 0.5575 
*I *62:s B *C 0.3550 0.5875 
*I *63:s B *C 0.3550 0.5875 
*I *64:s B *C 0.9650 0.5075 
*I *1:s B *C 0.9650 0.5075 
*I *3:s B *C 1.6750 0.5025 
*I *4:s B *C 1.6750 0.5025 
*N *47:2 *C 4.5000 0.0000 
*N *47:3 *C 4.5000 0.0000 
*N *47:4 *C 3.7500 0.0000 
*N *47:5 *C 2.7000 0.0000 
*N *47:6 *C 1.5900 0.0000 
*N *47:7 *C 0.9000 0.0000 
*N *47:8 *C 0.3050 0.0000 


*RES
0 *61:s *47:3 75.74044  // $metal1_conn
1 *47:3 *47:4 0.375405  // $metal1_conn
2 *47:4 *47:5 0.527261  // $metal1_conn
3 *47:5 *47:6 0.556151  // $metal1_conn
4 *47:6 *47:7 0.345742  // $metal1_conn
5 *47:7 *47:8 0.298689  // $metal1_conn
6 *47:8 *47 0.102477  // $metal1_conn
7 *47:3 *58:s 75.08503  // $metal1_conn
8 *47:4 *52:s 75.045868  // $metal1_conn
9 *47:6 *3:s 75.045868  // $metal1_conn
10 *47:7 *64:s 75.373924  // $metal1_conn
11 *47:8 *62:s 75.384209  // $metal1_conn
12 *47:2 *47:3 6.888889  // $metal1_conn
13 *47:2 *47:5 6.888889  // $metal1_conn
14 *47:2 *47:7 6.888889  // $metal1_conn

*END

*D_NET *45 1.31617e-16

*CONN
*P *45 I *C 5.1150 0.8500 
*I *61:g B *C 5.0775 0.5575 
*I *9:g B *C 5.0775 1.1325 
*N *45:2 *C 5.1050 0.7650 
*N *45:4 *C 5.1050 0.7650 
*N *45:5 *C 5.1100 0.7650 
*N *45:6 *C 5.1100 0.8500 

*CAP
0 *9:g 2.35187e-17
1 *61:g 1.89664e-17
2 *45:5 2.81565e-17
3 *45:2 2.01216e-17
4 *45 4.08542e-17

*RES
0 *9:g *45:2 58.153492  // $poly_conn
1 *45:2 *61:g 26.102209  // $poly_conn
2 *45:4 *45:5 0.001124  // $metal1_conn
3 *45:6 *45 0.001236  // $metal1_conn
4 *45:5 *45:6 0.055819  // $metal1_conn
5 *45:2 *45:4 45  // $metal1_conn

*END

*D_NET *48 2.66366e-16

*CONN
*P *48 I *C 4.5550 0.6650 
*I *58:g B *C 4.4475 0.5575 
*I *35:g B *C 4.4375 1.2175 
*N *48:2 *C 4.5300 0.7550 

*CAP
0 *35:g 5.85793e-17
1 *58:g 4.27301e-17
2 *48:2 6.33963e-17
3 *48 1.0166e-16

*RES
0 *58:g *48:2 29.18992  // $poly_conn
1 *48:2 *35:g 83.814369  // $poly_conn
2 *48 *48:2 45.003418  // $metal1_conn

*END

*D_NET *8 2.03574e-16

*CONN
*P *8 I *C 0.9850 0.8550 
*I *1:g B *C 1.0175 0.5075 
*I *13:g B *C 1.0175 1.2375 
*N *8:2 *C 0.9900 0.8450 
*N *8:4 *C 0.9900 0.8450 

*CAP
0 *13:g 4.32418e-17
1 *1:g 4.66387e-17
2 *8:2 1.13693e-16

*RES
0 *13:g *8:2 64.563744  // $poly_conn
1 *8:2 *1:g 59.435539  // $poly_conn
2 *8:4 *8 0.006247  // $metal1_conn
3 *8:2 *8:4 45  // $metal1_conn

*END

*D_NET *22 7.90297e-16

*CONN
*P *22 I *C 1.6850 1.0450 
*I *52:g B *C 3.6175 0.5575 
*I *4:g B *C 1.7225 0.5025 
*I *27:g B *C 3.6175 1.1025 
*I *15:g B *C 1.7225 1.0075 
*N *22:2 *C 1.6950 0.7900 
*N *22:5 *C 3.5900 1.4350 

*CAP
0 *15:g 3.48981e-17
1 *27:g 5.58966e-17
2 *4:g 4.3092e-17
3 *52:g 6.05858e-17
4 *22:2 7.53681e-17
5 *22:5 2.88602e-16
6 *22 2.31854e-16

*RES
0 *15:g *22:2 19.691952  // $poly_conn
1 *22:2 *4:g 46.615028  // $poly_conn
2 *27:g *22:5 94.179131  // $poly_conn
3 *27:g *52:g 93.589745  // $poly_conn
4 *22:5 *22 1.785927  // $metal1_conn
5 *22 *22:2 45.194008  // $metal1_conn

*END

*D_NET *53 1.82465e-16

*CONN
*P *53 O *C 0.6750 1.0450 
*I *64:d B *C 0.7200 0.4500 
*I *12:d B *C 0.7200 1.1500 

*CAP
0 *12:d 3.77217e-17
1 *64:d 8.08532e-17
2 *53 6.389e-17

*RES
0 *12:d *53 20.757536  // $metal1_conn
1 *53 *64:d 75.411507  // $metal1_conn

*END

*D_NET *2 1.05942e-16

*CONN
*P *2 O *C 0.0900 0.4750 
*I *62:d B *C 0.1100 0.5300 
*I *10:d B *C 0.1100 1.0950 
*N *2:2 *C 0.1000 0.4700 

*CAP
0 *10:d 7.09138e-17
1 *2 3.50279e-17

*RES
0 *2:2 *2 0.003123  // $metal1_conn
1 *2 *10:d 21.045757  // $metal1_conn
2 *62:d *2:2 75  // $metal1_conn

*END

*D_NET *46 1.69214e-20

*CONN
*I *57:s B *C 4.3800 0.5575 
*I *58:d B *C 4.3800 0.5575 

*CAP
0 *57:s 1.69214e-20

*RES
0 *58:d *57:s 0.001  // $mwires

*END

*D_NET *44 2.36829e-18

*CONN
*I *54:d B *C 3.9950 0.5575 
*I *56:s B *C 3.9950 0.5575 

*CAP
0 *54:d 2.36829e-18

*RES
0 *56:s *54:d 0.001  // $mwires

*END

*D_NET *43 2.74302e-18

*CONN
*I *33:s B *C 4.3275 1.2175 
*I *35:d B *C 4.3275 1.2175 

*CAP
0 *33:s 2.74302e-18

*RES
0 *35:d *33:s 0.001  // $mwires

*END

*D_NET *42 1.0614e-18

*CONN
*I *29:d B *C 3.9475 1.2175 
*I *31:s B *C 3.9475 1.2175 

*CAP
0 *29:d 1.0614e-18

*RES
0 *31:s *29:d 0.001  // $mwires

*END

*D_NET *41 3.60606e-18

*CONN
*I *23:d B *C 3.3000 1.1025 
*I *25:s B *C 3.3000 1.1025 

*CAP
0 *23:d 3.60606e-18

*RES
0 *25:s *23:d 0.001  // $mwires

*END

*D_NET *40 9.19802e-19

*CONN
*I *16:s B *C 2.0200 1.0075 
*I *17:d B *C 2.0200 1.0075 

*CAP
0 *16:s 9.19802e-19

*RES
0 *17:d *16:s 0.001  // $mwires

*END

*D_NET *39 5.48925e-16

*CONN
*I *49:s B *C 2.8575 0.5375 
*I *50:s B *C 3.3000 0.5575 
*I *51:d B *C 3.3000 0.5575 
*I *54:g B *C 3.8825 0.5575 
*I *20:s B *C 2.8450 1.0475 
*I *25:d B *C 3.5150 1.1025 
*I *27:d B *C 3.5150 1.1025 
*I *29:g B *C 3.8825 1.2175 
*N *39:2 *C 3.8825 0.8950 
*N *39:3 *C 3.8050 0.8950 
*N *39:5 *C 3.4850 0.8950 
*N *39:6 *C 3.2875 0.7000 
*N *39:7 *C 2.8975 0.7000 

*CAP
0 *29:g 5.60232e-17
1 *25:d 4.27476e-17
2 *20:s 6.87625e-17
3 *54:g 4.44822e-17
4 *50:s 3.43571e-17
5 *49:s 4.09492e-17
6 *39:7 6.59973e-17
7 *39:6 5.08155e-17
8 *39:5 4.99207e-17
9 *39:2 3.28148e-17
10 *39:3 6.20547e-17

*RES
0 *29:g *39:2 52.373516  // $poly_conn
1 *39:2 *39:3 47.826286  // $poly_conn
2 *39:2 *54:g 65.194031  // $poly_conn
3 *39:3 *39:5 0.253921  // $metal1_conn
4 *39:5 *39:6 0.297082  // $metal1_conn
5 *39:6 *39:7 0.243316  // $metal1_conn
6 *39:7 *20:s 62.264118  // $metal1_conn
7 *39:5 *25:d 62.083443  // $metal1_conn
8 *39:6 *50:s 75.112236  // $metal1_conn
9 *39:7 *49:s 75.133408  // $metal1_conn

*END

*D_NET *38 8.66719e-16

*CONN
*I *50:g B *C 3.1875 0.5575 
*I *1:d B *C 1.1275 0.5075 
*I *6:g B *C 2.1375 0.5025 
*I *23:g B *C 3.1875 1.1025 
*I *13:d B *C 1.1275 1.2375 
*I *17:g B *C 2.0725 1.0075 
*N *38:3 *C 2.0150 1.3900 
*N *38:6 *C 3.2250 1.4350 
*N *38:8 *C 1.1550 1.1900 

*CAP
0 *17:g 7.55371e-17
1 *13:d 1.23222e-16
2 *23:g 5.62973e-17
3 *6:g 5.63616e-17
4 *1:d 9.96692e-17
5 *50:g 4.67848e-17
6 *38:3 2.31079e-16
7 *38:6 1.77768e-16

*RES
0 *6:g *17:g 88.171967  // $poly_conn
1 *17:g *38:3 107.986679  // $poly_conn
2 *23:g *50:g 93.589745  // $poly_conn
3 *23:g *38:6 93.206497  // $poly_conn
4 *38:6 *38:3 0.961199  // $metal1_conn
5 *38:3 *38:8 0.72326  // $metal1_conn
6 *38:8 *1:d 75.491287  // $metal1_conn
7 *13:d *38:8 62  // $metal1_conn

*END

*D_NET *36 7.70233e-16

*CONN
*I *63:g B *C 0.4075 0.5875 
*I *64:g B *C 0.8125 0.4500 
*I *3:d B *C 1.3650 0.5025 
*I *5:g B *C 1.9325 0.5025 
*I *11:g B *C 0.4075 1.0075 
*I *12:g B *C 0.8125 1.1500 
*I *14:d B *C 1.3650 1.0375 
*I *16:g B *C 1.9675 1.0075 
*N *36:2 *C 0.8150 0.7375 
*N *36:3 *C 0.4075 0.7375 
*N *36:5 *C 0.8150 0.6850 
*N *36:10 *C 1.8950 0.2450 
*N *36:11 *C 1.3550 0.3050 
*N *36:13 *C 1.3550 0.4900 

*CAP
0 *16:g 8.00483e-17
1 *14:d 6.63291e-17
2 *12:g 4.88068e-17
3 *11:g 3.02904e-17
4 *5:g 5.04391e-17
5 *3:d 5.37626e-17
6 *64:g 3.02343e-17
7 *63:g 2.42324e-17
8 *36:11 1.00387e-16
9 *36:3 2.67828e-17
10 *36:2 3.16207e-17
11 *36:5 1.20111e-16
12 *36:10 1.07188e-16

*RES
0 *12:g *36:2 54.55875  // $poly_conn
1 *36:2 *36:3 88.081856  // $poly_conn
2 *36:3 *63:g 18.337015  // $poly_conn
3 *36:2 *36:5 2.610134  // $poly_conn
4 *36:5 *64:g 17.847393  // $poly_conn
5 *36:3 *11:g 40.131889  // $poly_conn
6 *16:g *5:g 87.274673  // $poly_conn
7 *5:g *36:10 82.950089  // $poly_conn
8 *36:10 *36:11 0.441568  // $metal1_conn
9 *36:11 *36:5 45.722157  // $metal1_conn
10 *36:11 *36:13 0.112847  // $metal1_conn
11 *36:13 *14:d 62.414146  // $metal1_conn
12 *3:d *36:13 75  // $metal1_conn

*END

*D_NET *34 2.5395e-16

*CONN
*I *62:g B *C 0.2025 0.5300 
*I *63:d B *C 0.5000 0.5875 
*I *10:g B *C 0.2025 1.0950 
*I *11:d B *C 0.5000 1.0075 
*N *34:2 *C 0.2500 0.7650 
*N *34:5 *C 0.5000 0.7750 

*CAP
0 *11:d 3.73129e-17
1 *10:g 4.36726e-17
2 *63:d 4.03462e-17
3 *62:g 3.57561e-17
4 *34:5 3.20395e-17
5 *34:2 6.48222e-17

*RES
0 *10:g *34:2 25.129578  // $poly_conn
1 *34:2 *62:g 17.437269  // $poly_conn
2 *63:d *34:5 75.113304  // $metal1_conn
3 *34:5 *34:2 45.132065  // $metal1_conn
4 *34:5 *11:d 62.119839  // $metal1_conn

*END

*D_NET *32 5.27875e-16

*CONN
*I *49:d B *C 2.6450 0.5375 
*I *3:g B *C 1.4575 0.5025 
*I *7:s B *C 2.6450 0.5375 
*I *20:d B *C 2.6475 1.0475 
*I *14:g B *C 1.4575 1.0375 
*I *18:s B *C 2.6475 1.0475 
*N *32:2 *C 1.4850 0.7950 
*N *32:5 *C 2.6450 0.8600 

*CAP
0 *14:g 3.19985e-17
1 *20:d 3.66773e-17
2 *3:g 3.78724e-17
3 *49:d 5.91638e-17
4 *32:5 1.65546e-16
5 *32:2 1.96617e-16

*RES
0 *14:g *32:2 26.102209  // $poly_conn
1 *32:2 *3:g 47.897079  // $poly_conn
2 *20:d *32:5 62.125484  // $metal1_conn
3 *32:5 *32:2 46.179359  // $metal1_conn
4 *32:5 *49:d 75.286285  // $metal1_conn

*END

*D_NET *30 1.78523e-16

*CONN
*I *15:d B *C 1.8450 1.0075 
*I *16:d B *C 1.8450 1.0075 
*I *18:d B *C 2.4500 1.0475 

*CAP
0 *18:d 8.57928e-17
1 *15:d 9.27302e-17

*RES
0 *18:d *15:d 124.513939  // $metal1_conn

*END

*D_NET *28 1.44317e-16

*CONN
*I *4:d B *C 1.8275 0.5025 
*I *5:s B *C 1.8275 0.5025 
*I *6:s B *C 2.2300 0.5025 

*CAP
0 *6:s 5.68053e-17
1 *4:d 8.75112e-17

*RES
0 *6:s *4:d 150.425919  // $metal1_conn

*END

*D_NET *26 1.41935e-16

*CONN
*I *5:d B *C 2.0350 0.5025 
*I *6:d B *C 2.0350 0.5025 
*I *7:d B *C 2.4500 0.5375 

*CAP
0 *7:d 6.81731e-17
1 *5:d 7.37616e-17

*RES
0 *7:d *5:d 150.509445  // $metal1_conn

*END

*D_NET *24 9.90933e-16

*CONN
*I *49:g B *C 2.7475 0.5375 
*I *56:g B *C 4.1075 0.5575 
*I *59:g B *C 4.6725 0.5575 
*I *61:d B *C 4.9850 0.5575 
*I *33:g B *C 4.2175 1.2175 
*I *37:g B *C 4.6425 1.2175 
*I *9:d B *C 4.9850 1.1325 
*I *18:g B *C 2.5425 1.0475 
*N *24:3 *C 2.9150 0.2750 
*N *24:6 *C 4.1350 0.3300 
*N *24:9 *C 4.7000 0.3300 
*N *24:12 *C 4.9750 0.5450 

*CAP
0 *18:g 7.32277e-17
1 *9:d 9.72844e-17
2 *37:g 5.84453e-17
3 *33:g 7.81655e-17
4 *61:d 1.01488e-16
5 *59:g 4.40624e-17
6 *56:g 6.3228e-17
7 *49:g 7.41095e-17
8 *24:3 1.52642e-16
9 *24:6 1.57154e-16
10 *24:9 9.11258e-17

*RES
0 *18:g *49:g 113.523422  // $poly_conn
1 *49:g *24:3 129.290756  // $poly_conn
2 *33:g *56:g 138.506073  // $poly_conn
3 *56:g *24:6 76.230415  // $poly_conn
4 *37:g *59:g 130.236542  // $poly_conn
5 *59:g *24:9 73.937134  // $poly_conn
6 *9:d *24:12 62.512093  // $metal1_conn
7 *24:12 *24:9 0.344743  // $metal1_conn
8 *24:9 *24:6 0.396851  // $metal1_conn
9 *24:6 *24:3 0.961737  // $metal1_conn
10 *61:d *24:12 75  // $metal1_conn

*END

*D_NET *21 1.13532e-15

*CONN
*I *57:g B *C 4.3125 0.5575 
*I *59:d B *C 4.7650 0.5575 
*I *7:g B *C 2.5425 0.5375 
*I *20:g B *C 2.7525 1.0475 
*I *31:g B *C 4.0125 1.2175 
*I *37:d B *C 4.7350 1.2175 
*N *21:2 *C 2.5850 0.3650 
*N *21:4 *C 2.7900 0.8400 
*N *21:5 *C 3.0450 0.8950 
*N *21:6 *C 4.0750 0.9250 
*N *21:9 *C 4.3400 0.8700 
*N *21:11 *C 4.7450 1.0750 
*N *21:12 *C 4.3400 1.0750 

*CAP
0 *37:d 1.98374e-17
1 *31:g 4.72051e-17
2 *20:g 3.33049e-17
3 *7:g 3.6206e-17
4 *59:d 6.22492e-17
5 *57:g 5.6426e-17
6 *21:12 1.38193e-16
7 *21:11 5.42169e-17
8 *21:2 9.7067e-17
9 *21:4 1.52542e-16
10 *21:5 2.70549e-16
11 *21:6 8.79509e-17
12 *21:9 7.95717e-17

*RES
0 *7:g *21:2 61.15522  // $poly_conn
1 *20:g *21:4 16.15522  // $poly_conn
2 *21:4 *21:5 90.19635  // $poly_conn
3 *21:6 *31:g 85.970474  // $poly_conn
4 *57:g *21:9 98.025284  // $poly_conn
5 *21:2 *21:4 45.572617  // $metal1_conn
6 *37:d *21:11 62.078228  // $metal1_conn
7 *21:11 *21:12 0.257688  // $metal1_conn
8 *21:12 *21:5 1.466856  // $metal1_conn
9 *21:11 *59:d 75.388916  // $metal1_conn
10 *21:12 *21:9 0.163879  // $metal1_conn
11 *21:9 *21:6 0.172263  // $metal1_conn

*END

*D_NET *19 3.84617e-16

*CONN
*I *51:g B *C 3.4125 0.5575 
*I *56:d B *C 4.2100 0.5575 
*I *57:d B *C 4.2100 0.5575 
*I *25:g B *C 3.4125 1.1025 
*I *31:d B *C 4.1150 1.2175 
*I *33:d B *C 4.1150 1.2175 
*N *19:2 *C 3.4500 0.7350 
*N *19:5 *C 3.9550 0.7350 

*CAP
0 *31:d 6.71952e-17
1 *25:g 4.43725e-17
2 *56:d 4.29653e-17
3 *51:g 3.16431e-17
4 *19:5 9.24375e-17
5 *19:2 1.06004e-16

*RES
0 *25:g *19:2 57.180859  // $poly_conn
1 *19:2 *51:g 17.437269  // $poly_conn
2 *56:d *19:5 75.296707  // $metal1_conn
3 *19:5 *19:2 45.369068  // $metal1_conn
4 *19:5 *31:d 62.444733  // $metal1_conn

*END

*D_NET *60 1.83498e-16

*CONN
*I *50:d B *C 3.0950 0.5575 
*I *51:s B *C 3.5150 0.5575 
*I *52:d B *C 3.5150 0.5575 

*CAP
0 *51:s 9.76115e-17
1 *50:d 8.58866e-17

*RES
0 *51:s *50:d 150.563171  // $metal1_conn

*END

