*SPEF "IEEE 1481-1999"
*DESIGN  "DFFNSRXL"
*DATE "Mon Sep 27 09:28:08 2010"
*VENDOR "Cadence Design Systems"
*PROGRAM "Assura RCX"
*VERSION "3.2 Red Hat Linux release 7.2 (Enigma) - (09/09/2009-10:39)"
*DESIGN_FLOW "Physical Verification"
*DIVIDER /
*DELIMITER :
*BUS_DELIMITER []
*T_UNIT 1 PS
*C_UNIT 1e15 FF
*R_UNIT 1 OHM
*L_UNIT 1 MH
// DeviceFingerDelim "@"
// MATCHED
// caps2d version: 10

*NAME_MAP
*1 mp20
*2 mp57
*3 mp56
*4 mp55
*5 mp22
*6 mp45
*7 mp50
*8 mp52
*9 mp51
*10 mp53
*11 CKN
*12 VDD
*13 mn40
*14 mn31
*15 mn32
*16 mn30
*17 QN
*18 mn35
*19 mn36
*20 mn26
*21 mp40
*22 mn25
*23 mp31
*24 mn21
*25 mp32
*26 mp30
*27 mp35
*28 mp36
*29 mp26
*30 mp25
*31 mp21
*32 RN
*33 n25
*34 n20
*35 CKNbb
*36 mout
*37 n40
*38 n42
*39 n41
*40 D
*41 n35
*42 qbint
*43 RNb
*44 SN
*45 qint
*46 n43
*47 n26
*48 Q
*49 n31
*50 mn20
*51 n22
*52 mn57
*53 n30
*54 mn56
*55 n21
*56 mn55
*57 mn22
*58 mn45
*59 VSS
*60 mn50
*61 mn52
*62 mn51
*63 mn53
*64 CKNb

*GROUND_NETS VSS

*PORTS
*12 I
*59 I
*11 I
*40 I
*32 I
*44 I
*48 O
*17 O

*D_NET *12 8.51189e-16

*CONN
*P *12 I *C 0.1000 1.7100 
*I *23:s B *C 3.8250 1.1325 
*I *26:s B *C 4.5500 1.2475 
*I *27:s B *C 4.5500 1.2475 
*I *30:s B *C 5.3500 1.2475 
*I *31:s B *C 5.3500 1.2475 
*I *1:s B *C 6.0100 1.0075 
*I *2:s B *C 0.5150 1.0075 
*I *3:s B *C 0.5150 1.0075 
*I *4:s B *C 1.1350 1.3325 
*I *5:s B *C 1.1350 1.3325 
*I *6:s B *C 1.9850 1.1375 
*I *7:s B *C 1.9850 1.1375 
*I *9:s B *C 2.5600 1.3300 
*N *12:2 *C 5.3500 1.7100 
*N *12:3 *C 5.2000 1.7100 
*N *12:4 *C 5.2000 1.7100 
*N *12:5 *C 4.4650 1.7100 
*N *12:6 *C 3.5600 1.7100 
*N *12:7 *C 3.2000 1.7100 
*N *12:8 *C 2.5600 1.7100 
*N *12:9 *C 1.9000 1.7100 
*N *12:10 *C 1.1000 1.7100 
*N *12:11 *C 0.5150 1.7100 

*CAP
0 *9:s 2.41776e-17
1 *6:s 2.42879e-17
2 *4:s 2.63342e-17
3 *2:s 3.61702e-17
4 *1:s 3.28776e-17
5 *30:s 3.35288e-17
6 *26:s 1.31392e-17
7 *23:s 2.45957e-17
8 *12:11 1.01031e-17
9 *12:9 3.42247e-17
10 *12:8 3.1334e-17
11 *12:6 3.33217e-17
12 *12:5 4.51162e-17
13 *12:2 1.41782e-17
14 *12:3 4.61683e-16
15 *12 6.11657e-18

*RES
0 *1:s *12:2 62.780621  // $metal1_conn
1 *12:2 *12:4 0.075039  // $metal1_conn
2 *12:4 *12:5 0.368455  // $metal1_conn
3 *12:5 *12:6 0.452576  // $metal1_conn
4 *12:6 *12:7 0.179418  // $metal1_conn
5 *12:7 *12:8 0.319857  // $metal1_conn
6 *12:8 *12:9 0.328742  // $metal1_conn
7 *12:9 *12:10 0.400722  // $metal1_conn
8 *12:10 *12:11 0.29322  // $metal1_conn
9 *12:11 *12 0.207703  // $metal1_conn
10 *12:2 *30:s 62.263279  // $metal1_conn
11 *12:5 *26:s 62.07473  // $metal1_conn
12 *12:6 *23:s 62.045826  // $metal1_conn
13 *12:8 *9:s 62.045826  // $metal1_conn
14 *12:9 *6:s 62.045826  // $metal1_conn
15 *12:10 *4:s 62.216705  // $metal1_conn
16 *12:11 *2:s 62.418884  // $metal1_conn
17 *12:3 *12:4 7.5  // $metal1_conn
18 *12:3 *12:7 7.5  // $metal1_conn
19 *12:3 *12:10 6.818182  // $metal1_conn

*END

*D_NET *59 0

*CONN
*P *59 I *C 0.1000 0.0000 
*I *16:s B *C 4.6200 0.5875 
*I *18:s B *C 4.6200 0.5875 
*I *22:s B *C 5.4200 0.5875 
*I *24:s B *C 5.4200 0.5875 
*I *50:s B *C 6.0750 0.1400 
*I *52:s B *C 0.5650 0.5875 
*I *54:s B *C 0.5650 0.5875 
*I *56:s B *C 1.1300 0.5825 
*I *57:s B *C 1.1300 0.5825 
*I *58:s B *C 1.9350 0.5875 
*I *60:s B *C 1.9350 0.5875 
*N *59:2 *C 5.3200 0.0000 
*N *59:3 *C 5.2000 0.0000 
*N *59:4 *C 5.2000 0.0000 
*N *59:5 *C 4.5350 0.0000 
*N *59:6 *C 3.2000 0.0000 
*N *59:7 *C 1.9000 0.0000 
*N *59:8 *C 1.1000 0.0000 
*N *59:9 *C 0.5450 0.0000 


*RES
0 *50:s *59:2 75.466789  // $metal1_conn
1 *59:2 *59:4 0.059992  // $metal1_conn
2 *59:4 *59:5 0.332396  // $metal1_conn
3 *59:5 *59:6 0.668446  // $metal1_conn
4 *59:6 *59:7 0.650891  // $metal1_conn
5 *59:7 *59:8 0.40067  // $metal1_conn
6 *59:8 *59:9 0.278225  // $metal1_conn
7 *59:9 *59 0.22275  // $metal1_conn
8 *59:2 *22:s 75.07473  // $metal1_conn
9 *59:5 *16:s 75.045822  // $metal1_conn
10 *59:7 *58:s 75.045822  // $metal1_conn
11 *59:8 *56:s 75.392372  // $metal1_conn
12 *59:9 *52:s 75.07473  // $metal1_conn
13 *59:3 *59:4 6.2  // $metal1_conn
14 *59:3 *59:6 6.2  // $metal1_conn
15 *59:3 *59:8 5.636364  // $metal1_conn

*END

*D_NET *11 1.31252e-16

*CONN
*P *11 I *C 6.1000 0.6650 
*I *50:g B *C 5.9175 0.4625 
*I *1:g B *C 5.9175 1.0075 
*N *11:2 *C 5.9450 0.6450 

*CAP
0 *1:g 2.25099e-17
1 *50:g 1.88285e-17
2 *11:2 4.83136e-17
3 *11 4.15999e-17

*RES
0 *1:g *11:2 56.871437  // $poly_conn
1 *11:2 *50:g 19.691952  // $poly_conn
2 *11:2 *11 45.073605  // $metal1_conn

*END

*D_NET *40 2.68369e-16

*CONN
*P *40 I *C 5.3000 0.6650 
*I *22:g B *C 5.2575 0.5875 
*I *30:g B *C 5.2475 1.2475 
*N *40:2 *C 5.2825 0.7850 
*N *40:4 *C 5.3400 0.7850 

*CAP
0 *30:g 5.56513e-17
1 *22:g 4.60252e-17
2 *40:2 4.74526e-17
3 *40:4 7.22631e-17
4 *40 4.69763e-17

*RES
0 *22:g *40:2 33.61018  // $poly_conn
1 *40:2 *30:g 81.909943  // $poly_conn
2 *40:2 *40:4 48.400734  // $poly_conn
3 *40:4 *40 0.077769  // $metal1_conn

*END

*D_NET *32 2.44624e-16

*CONN
*P *32 I *C 1.1000 1.0450 
*I *57:g B *C 1.2375 0.5825 
*I *5:g B *C 1.2375 1.3325 
*N *32:2 *C 1.2100 1.0400 

*CAP
0 *5:g 3.05718e-17
1 *57:g 5.52559e-17
2 *32:2 1.05105e-16
3 *32 5.36911e-17

*RES
0 *5:g *32:2 38.922722  // $poly_conn
1 *32:2 *57:g 90.204765  // $poly_conn
2 *32:2 *32 45.045429  // $metal1_conn

*END

*D_NET *44 8.98314e-16

*CONN
*P *44 I *C 1.9000 1.0450 
*I *16:g B *C 4.4025 0.5875 
*I *60:g B *C 2.0025 0.5875 
*I *26:g B *C 4.3025 1.1325 
*I *7:g B *C 2.0325 1.1375 
*N *44:2 *C 1.9650 0.9300 
*N *44:6 *C 4.2750 1.4650 
*N *44:7 *C 1.9350 1.0450 

*CAP
0 *7:g 3.61188e-17
1 *26:g 5.32336e-17
2 *60:g 5.55821e-17
3 *16:g 6.39864e-17
4 *44:7 2.93076e-16
5 *44:2 6.83938e-17
6 *44:6 3.07624e-16
7 *44 2.02993e-17

*RES
0 *7:g *44:2 24.516109  // $poly_conn
1 *44:2 *60:g 61.214573  // $poly_conn
2 *16:g *26:g 107.402733  // $poly_conn
3 *26:g *44:6 94.179131  // $poly_conn
4 *44:6 *44:7 2.16862  // $metal1_conn
5 *44:7 *44 0.002709  // $metal1_conn
6 *44:7 *44:2 45.087193  // $metal1_conn

*END

*D_NET *48 1.57796e-16

*CONN
*P *48 O *C 0.9000 0.8550 
*I *56:d B *C 0.9300 0.5825 
*I *4:d B *C 0.9400 1.3325 
*N *48:3 *C 0.9205 0.5950 

*CAP
0 *4:d 4.0248e-17
1 *56:d 4.83035e-17
2 *48 6.92443e-17

*RES
0 *4:d *48 62.309196  // $metal1_conn
1 *48 *48:3 0.19631  // $metal1_conn
2 *56:d *48:3 75  // $metal1_conn

*END

*D_NET *17 7.39297e-17

*CONN
*P *17 O *C 0.1000 0.6650 
*I *52:d B *C 0.3075 0.5875 
*I *2:d B *C 0.3075 1.0075 
*N *17:3 *C 0.2850 0.6000 

*CAP
0 *2:d 1.86569e-17
1 *52:d 3.27495e-17
2 *17 2.25233e-17

*RES
0 *2:d *17:3 62.224846  // $metal1_conn
1 *17:3 *17 0.087956  // $metal1_conn
2 *52:d *17:3 75  // $metal1_conn

*END

*D_NET *55 0

*CONN
*I *20:s B *C 5.1900 0.5875 
*I *22:d B *C 5.1900 0.5875 


*RES
0 *22:d *20:s 0.001  // $mwires

*END

*D_NET *53 2.41584e-18

*CONN
*I *18:d B *C 4.7925 0.5875 
*I *19:s B *C 4.7925 0.5875 

*CAP
0 *18:d 2.41584e-18

*RES
0 *19:s *18:d 0.001  // $mwires

*END

*D_NET *51 2.27748e-18

*CONN
*I *29:s B *C 5.1375 1.2475 
*I *30:d B *C 5.1375 1.2475 

*CAP
0 *29:s 2.27748e-18

*RES
0 *30:d *29:s 0.001  // $mwires

*END

*D_NET *49 3.71866e-18

*CONN
*I *27:d B *C 4.7100 1.2475 
*I *28:s B *C 4.7100 1.2475 

*CAP
0 *27:d 3.71866e-18

*RES
0 *28:s *27:d 0.001  // $mwires

*END

*D_NET *47 1.21796e-18

*CONN
*I *23:d B *C 3.9575 1.1325 
*I *25:s B *C 3.9575 1.1325 

*CAP
0 *23:d 1.21796e-18

*RES
0 *25:s *23:d 0.001  // $mwires

*END

*D_NET *46 1.48145e-18

*CONN
*I *8:s B *C 2.2900 1.1375 
*I *9:d B *C 2.2900 1.1375 

*CAP
0 *8:s 1.48145e-18

*RES
0 *9:d *8:s 0.001  // $mwires

*END

*D_NET *45 2.00098e-16

*CONN
*I *52:g B *C 0.4125 0.5875 
*I *54:d B *C 0.7100 0.5875 
*I *2:g B *C 0.4125 1.0075 
*I *3:d B *C 0.7100 1.0075 
*N *45:1 *C 0.4750 0.7600 
*N *45:2 *C 0.4125 0.7600 
*N *45:6 *C 0.7100 0.7700 

*CAP
0 *3:d 3.38222e-17
1 *2:g 2.77881e-17
2 *54:d 2.68222e-17
3 *52:g 2.98277e-17
4 *45:6 2.60212e-17
5 *45:2 2.92728e-17
6 *45:1 2.65439e-17

*RES
0 *45:1 *45:2 46.294373  // $poly_conn
1 *45:2 *52:g 20.563484  // $poly_conn
2 *45:2 *2:g 30.819893  // $poly_conn
3 *3:d *45:6 62.117798  // $metal1_conn
4 *45:6 *45:1 0.122552  // $metal1_conn
5 *45:6 *54:d 75.109718  // $metal1_conn

*END

*D_NET *43 9.48303e-16

*CONN
*I *14:g B *C 3.8075 0.5875 
*I *57:d B *C 1.3825 0.5825 
*I *62:g B *C 2.5975 0.5875 
*I *23:g B *C 3.8975 1.1325 
*I *5:d B *C 1.3300 1.3325 
*I *9:g B *C 2.3425 1.1375 
*N *43:3 *C 2.3700 1.4400 
*N *43:6 *C 3.6600 1.4100 
*N *43:7 *C 1.4450 1.3800 

*CAP
0 *9:g 8.88163e-17
1 *5:d 2.33771e-17
2 *23:g 7.79014e-17
3 *62:g 4.47477e-17
4 *57:d 1.04192e-16
5 *14:g 6.60451e-17
6 *43:7 1.28791e-16
7 *43:3 2.48147e-16
8 *43:6 1.66285e-16

*RES
0 *62:g *9:g 148.428375  // $poly_conn
1 *9:g *43:3 86.486824  // $poly_conn
2 *14:g *23:g 104.838638  // $poly_conn
3 *23:g *43:6 128.008698  // $poly_conn
4 *43:6 *43:3 0.974201  // $metal1_conn
5 *43:3 *43:7 0.672202  // $metal1_conn
6 *43:7 *5:d 62.055321  // $metal1_conn
7 *43:7 *57:d 75.582581  // $metal1_conn

*END

*D_NET *42 7.39302e-16

*CONN
*I *54:g B *C 0.6175 0.5875 
*I *56:g B *C 1.0225 0.5825 
*I *58:d B *C 1.6750 0.5875 
*I *61:g B *C 2.2375 0.5875 
*I *3:g B *C 0.6175 1.0075 
*I *4:g B *C 1.0325 1.3325 
*I *6:d B *C 1.6750 1.1375 
*I *8:g B *C 2.2375 1.1375 
*N *42:2 *C 1.0275 0.7650 
*N *42:3 *C 0.6175 0.8025 
*N *42:6 *C 1.1000 0.7650 
*N *42:10 *C 2.1450 0.4050 
*N *42:11 *C 1.6650 0.4050 
*N *42:13 *C 1.6650 0.5750 

*CAP
0 *8:g 8.98424e-17
1 *6:d 7.14874e-17
2 *4:g 4.35778e-17
3 *3:g 2.08626e-17
4 *61:g 4.04456e-17
5 *58:d 5.7493e-17
6 *56:g 2.07953e-17
7 *54:g 3.14212e-17
8 *42:11 8.91212e-17
9 *42:3 2.72287e-17
10 *42:2 5.12349e-17
11 *42:6 1.11754e-16
12 *42:10 8.40371e-17

*RES
0 *4:g *42:2 115.687645  // $poly_conn
1 *42:2 *42:3 96.185997  // $poly_conn
2 *42:3 *54:g 35.003685  // $poly_conn
3 *42:2 *56:g 25.944057  // $poly_conn
4 *42:2 *42:6 48.84391  // $poly_conn
5 *42:3 *3:g 23.465221  // $poly_conn
6 *8:g *61:g 94.871796  // $poly_conn
7 *61:g *42:10 73.037819  // $poly_conn
8 *42:10 *42:11 0.336768  // $metal1_conn
9 *42:11 *42:6 0.672845  // $metal1_conn
10 *42:11 *42:13 0.093162  // $metal1_conn
11 *42:13 *6:d 62.432484  // $metal1_conn
12 *58:d *42:13 75  // $metal1_conn

*END

*D_NET *41 4.84199e-16

*CONN
*I *13:d B *C 3.1050 0.5625 
*I *58:g B *C 1.7675 0.5875 
*I *63:s B *C 3.1050 0.5625 
*I *21:d B *C 3.1900 1.0725 
*I *6:g B *C 1.7675 1.1375 
*I *10:s B *C 3.1900 1.0725 
*N *41:2 *C 1.7950 0.7700 
*N *41:5 *C 3.1050 0.9250 
*N *41:7 *C 3.1250 1.0250 

*CAP
0 *6:g 3.86912e-17
1 *21:d 2.42489e-17
2 *58:g 3.23591e-17
3 *13:d 5.15992e-17
4 *41:5 1.59902e-16
5 *41:2 1.77399e-16

*RES
0 *6:g *41:2 58.153492  // $poly_conn
1 *41:2 *58:g 19.691952  // $poly_conn
2 *13:d *41:5 75.276726  // $metal1_conn
3 *41:5 *41:7 0.080337  // $metal1_conn
4 *41:5 *41:2 46.070236  // $metal1_conn
5 *21:d *41:7 62  // $metal1_conn

*END

*D_NET *39 2.24172e-16

*CONN
*I *7:d B *C 2.1350 1.1375 
*I *8:d B *C 2.1350 1.1375 
*I *10:d B *C 2.9275 1.0425 

*CAP
0 *10:d 1.14972e-16
1 *7:d 1.092e-16

*RES
0 *10:d *7:d 124.635773  // $metal1_conn

*END

*D_NET *38 1.74353e-16

*CONN
*I *60:d B *C 2.1200 0.5875 
*I *61:s B *C 2.1200 0.5875 
*I *62:s B *C 2.6900 0.5875 
*N *38:3 *C 2.1350 0.5750 

*CAP
0 *62:s 7.36418e-17
1 *60:d 1.00712e-16

*RES
0 *62:s *38:3 75.610176  // $metal1_conn
1 *60:d *38:3 75  // $metal1_conn

*END

*D_NET *37 1.61594e-16

*CONN
*I *61:d B *C 2.4175 0.5875 
*I *62:d B *C 2.4175 0.5875 
*I *63:d B *C 2.9100 0.5625 
*N *37:3 *C 2.9005 0.5750 

*CAP
0 *63:d 8.64518e-17
1 *61:d 7.51422e-17

*RES
0 *61:d *37:3 75.509247  // $metal1_conn
1 *63:d *37:3 75  // $metal1_conn

*END

*D_NET *36 5.26896e-16

*CONN
*I *13:s B *C 3.3675 0.5625 
*I *14:s B *C 3.9125 0.5875 
*I *15:d B *C 3.9125 0.5875 
*I *18:g B *C 4.6675 0.5875 
*I *21:s B *C 3.3500 1.0725 
*I *25:d B *C 4.1600 1.1325 
*I *26:d B *C 4.1600 1.1325 
*I *27:g B *C 4.5975 1.2475 
*N *36:2 *C 4.5975 0.9250 
*N *36:3 *C 4.5350 0.9250 
*N *36:5 *C 4.1700 0.9250 
*N *36:6 *C 3.8650 0.7700 
*N *36:8 *C 3.9105 0.5750 
*N *36:10 *C 3.4850 0.7700 
*N *36:12 *C 3.4450 0.5750 

*CAP
0 *27:g 4.58815e-17
1 *25:d 2.71374e-17
2 *21:s 4.72094e-17
3 *18:g 4.48962e-17
4 *14:s 3.59782e-17
5 *13:s 4.86761e-17
6 *36:10 4.66861e-17
7 *36:6 6.8812e-17
8 *36:5 6.37452e-17
9 *36:2 3.44248e-17
10 *36:3 6.34488e-17

*RES
0 *18:g *36:2 71.31472  // $poly_conn
1 *36:2 *36:3 46.294373  // $poly_conn
2 *36:2 *27:g 52.373516  // $poly_conn
3 *36:3 *36:5 0.285164  // $metal1_conn
4 *36:5 *36:6 0.348623  // $metal1_conn
5 *36:6 *36:8 0.133137  // $metal1_conn
6 *36:5 *25:d 62.083195  // $metal1_conn
7 *36:6 *36:10 0.24175  // $metal1_conn
8 *36:10 *36:12 0.137972  // $metal1_conn
9 *36:10 *21:s 62.273495  // $metal1_conn
10 *14:s *36:8 75  // $metal1_conn
11 *13:s *36:12 75  // $metal1_conn

*END

*D_NET *35 1.1269e-15

*CONN
*I *20:g B *C 5.1225 0.5875 
*I *24:d B *C 5.5750 0.5875 
*I *63:g B *C 3.0025 0.5625 
*I *21:g B *C 3.2575 1.0725 
*I *28:g B *C 4.8225 1.2475 
*I *31:d B *C 5.5450 1.2475 
*N *35:2 *C 3.0400 0.2100 
*N *35:4 *C 3.2950 0.8650 
*N *35:5 *C 3.6750 0.9300 
*N *35:6 *C 4.8850 0.9550 
*N *35:9 *C 5.1500 0.9000 
*N *35:11 *C 5.5550 1.1050 
*N *35:12 *C 5.1200 1.1050 
*N *35:14 *C 5.1200 0.9850 

*CAP
0 *31:d 1.5761e-17
1 *28:g 3.48085e-17
2 *21:g 3.55751e-17
3 *63:g 4.35682e-17
4 *24:d 6.66537e-17
5 *20:g 6.3466e-17
6 *35:14 1.10777e-17
7 *35:12 1.5764e-16
8 *35:11 5.82766e-17
9 *35:2 1.00316e-16
10 *35:4 1.46088e-16
11 *35:5 2.3843e-16
12 *35:6 8.08289e-17
13 *35:9 7.44117e-17

*RES
0 *63:g *35:2 107.309067  // $poly_conn
1 *21:g *35:4 16.15522  // $poly_conn
2 *35:4 *35:5 121.275002  // $poly_conn
3 *35:6 *28:g 85.970474  // $poly_conn
4 *20:g *35:9 98.025284  // $poly_conn
5 *35:2 *35:4 45.508419  // $metal1_conn
6 *31:d *35:11 62.074291  // $metal1_conn
7 *35:11 *35:12 0.279989  // $metal1_conn
8 *35:12 *35:5 1.495984  // $metal1_conn
9 *35:11 *24:d 75.395836  // $metal1_conn
10 *35:12 *35:14 0.099247  // $metal1_conn
11 *35:14 *35:9 0.066991  // $metal1_conn
12 *35:14 *35:6 0.144583  // $metal1_conn

*END

*D_NET *34 4.53392e-16

*CONN
*I *15:g B *C 4.0175 0.5875 
*I *19:d B *C 5.0200 0.5875 
*I *20:d B *C 5.0200 0.5875 
*I *25:g B *C 4.0175 1.1325 
*I *28:d B *C 4.9250 1.2475 
*I *29:d B *C 4.9250 1.2475 
*N *34:2 *C 4.0550 0.7650 
*N *34:5 *C 4.7250 0.7650 
*N *34:7 *C 4.9250 1.2000 

*CAP
0 *28:d 7.89127e-17
1 *25:g 6.04576e-17
2 *19:d 4.5689e-17
3 *15:g 3.40528e-17
4 *34:5 1.0753e-16
5 *34:2 1.2675e-16

*RES
0 *25:g *34:2 57.180859  // $poly_conn
1 *34:2 *15:g 17.437269  // $poly_conn
2 *19:d *34:5 75.335121  // $metal1_conn
3 *34:5 *34:7 0.415041  // $metal1_conn
4 *34:5 *34:2 45.485458  // $metal1_conn
5 *28:d *34:7 62  // $metal1_conn

*END

*D_NET *33 1.40774e-16

*CONN
*I *14:d B *C 3.7150 0.5875 
*I *15:s B *C 4.2100 0.5875 
*I *16:d B *C 4.2100 0.5875 

*CAP
0 *15:s 7.64062e-17
1 *14:d 6.43681e-17

*RES
0 *14:d *15:s 150.506729  // $metal1_conn

*END

*D_NET *64 8.05857e-16

*CONN
*I *13:g B *C 3.2075 0.5625 
*I *19:g B *C 4.9175 0.5875 
*I *24:g B *C 5.4825 0.5875 
*I *50:d B *C 5.8100 0.4625 
*I *29:g B *C 5.0275 1.2475 
*I *31:g B *C 5.4525 1.2475 
*I *1:d B *C 5.8250 1.0075 
*I *10:g B *C 3.0225 1.0425 
*N *64:3 *C 4.2600 0.3400 
*N *64:6 *C 4.9450 0.4050 
*N *64:9 *C 5.5100 0.4050 
*N *64:11 *C 5.7850 0.4500 

*CAP
0 *10:g 6.32437e-17
1 *1:d 4.79494e-17
2 *31:g 5.70195e-17
3 *29:g 7.9278e-17
4 *50:d 6.06299e-17
5 *24:g 4.47343e-17
6 *19:g 5.74496e-17
7 *13:g 8.66414e-17
8 *64:3 1.30975e-16
9 *64:6 1.01578e-16
10 *64:9 7.63583e-17

*RES
0 *10:g *13:g 100.702904  // $poly_conn
1 *13:g *64:3 345.957428  // $poly_conn
2 *29:g *19:g 138.506073  // $poly_conn
3 *19:g *64:6 64.691956  // $poly_conn
4 *31:g *24:g 130.236542  // $poly_conn
5 *24:g *64:9 62.398674  // $poly_conn
6 *64:3 *64:6 0.51424  // $metal1_conn
7 *64:6 *64:9 0.400121  // $metal1_conn
8 *64:9 *64:11 0.190694  // $metal1_conn
9 *64:11 *1:d 62.413631  // $metal1_conn
10 *50:d *64:11 75  // $metal1_conn

*END

