*SPEF "IEEE 1481-1999"
*DESIGN  "DFFNSRX4"
*DATE "Mon Sep 27 09:27:46 2010"
*VENDOR "Cadence Design Systems"
*PROGRAM "Assura RCX"
*VERSION "3.2 Red Hat Linux release 7.2 (Enigma) - (09/09/2009-10:39)"
*DESIGN_FLOW "Physical Verification"
*DIVIDER /
*DELIMITER :
*BUS_DELIMITER []
*T_UNIT 1 PS
*C_UNIT 1e15 FF
*R_UNIT 1 OHM
*L_UNIT 1 MH
// DeviceFingerDelim "@"
// MATCHED
// caps2d version: 10

*NAME_MAP
*1 mn53
*2 CKNbb
*3 n22
*4 n31
*5 n26
*6 n43
*7 n21
*8 n30
*9 mn20
*10 mn25
*11 mn26
*12 mn36
*13 mn35
*14 mn21
*15 mn31
*16 CKN
*17 mp51
*18 mp52
*19 mp50
*20 mp45
*21 mp45\@1
*22 mp55\@3
*23 mp20
*24 mp25
*25 mp26
*26 mp36
*27 mp35
*28 mp21
*29 VDD
*30 mp31
*31 mp32
*32 mp30
*33 mp22
*34 mp40
*35 qint
*36 mn55
*37 mn55\@1
*38 mp55
*39 mn57
*40 QN
*41 mp55\@1
*42 mn57\@1
*43 VSS
*44 mp55\@2
*45 mn57\@2
*46 mp57
*47 mn57\@3
*48 mp57\@1
*49 mn56
*50 mp57\@2
*51 mn51
*52 mp57\@3
*53 mn52
*54 mp56
*55 mp53
*56 D
*57 RN
*58 Q
*59 SN
*60 n42
*61 qbint
*62 n40
*63 n41
*64 n35
*65 RNb
*66 n25
*67 CKNb
*68 mn50
*69 n20
*70 mn45
*71 mout
*72 mn45\@1
*73 mn55\@2
*74 mn55\@3
*75 mn32
*76 mn30
*77 mn22
*78 mn40

*GROUND_NETS VSS

*PORTS
*29 I
*43 I
*16 I
*56 I
*57 I
*59 I
*58 O
*40 O

*D_NET *29 1.19338e-15

*CONN
*P *29 I *C 0.1000 1.7100 
*I *38:s B *C 5.8825 1.1350 
*I *41:s B *C 5.8825 1.1350 
*I *44:s B *C 6.3050 1.1350 
*I *46:s B *C 6.3050 1.1350 
*I *48:s B *C 6.7150 1.1350 
*I *50:s B *C 6.7150 1.1350 
*I *52:s B *C 7.1500 1.1350 
*I *54:s B *C 7.1500 1.1350 
*I *17:s B *C 4.4950 1.2225 
*I *19:s B *C 5.0400 1.1750 
*I *20:s B *C 5.0400 1.1750 
*I *21:s B *C 5.4900 1.1350 
*I *22:s B *C 5.4900 1.1350 
*I *23:s B *C 0.4250 1.3725 
*I *24:s B *C 0.4250 1.3725 
*I *27:s B *C 1.3650 1.2175 
*I *28:s B *C 1.3650 1.2175 
*I *30:s B *C 1.9775 1.0075 
*I *32:s B *C 3.0325 1.0075 
*I *33:s B *C 3.0325 1.0075 
*N *29:2 *C 6.8000 1.7100 
*N *29:9 *C 4.9000 1.7100 
*N *29:10 *C 4.4550 1.7100 
*N *29:11 *C 3.0000 1.7100 
*N *29:12 *C 2.5200 1.7100 
*N *29:13 *C 1.8850 1.7100 
*N *29:14 *C 1.2800 1.7100 
*N *29:15 *C 1.0000 1.7100 
*N *29:16 *C 0.4250 1.7100 

*CAP
0 *32:s 1.84e-17
1 *30:s 1.71927e-17
2 *27:s 1.84388e-17
3 *23:s 2.26797e-17
4 *17:s 3.9607e-17
5 *52:s 4.04997e-16
6 *29:16 1.83946e-17
7 *29:14 1.66702e-17
8 *29:13 2.42818e-17
9 *29:12 2.24458e-17
10 *29:10 3.22513e-17
11 *29:2 5.43252e-16
12 *29 1.47716e-17

*RES
0 *29:16 *29 0.162644  // $metal1_conn
1 *29:2 *52:s 7.5  // $metal1_conn
2 *29:2 *29:9 8.333333  // $metal1_conn
3 *29:2 *29:11 7.5  // $metal1_conn
4 *29:2 *29:15 7.5  // $metal1_conn
5 *29:10 *17:s 62.27269  // $metal1_conn
6 *29:12 *32:s 62.045849  // $metal1_conn
7 *29:13 *30:s 62.045849  // $metal1_conn
8 *29:14 *27:s 62.07505  // $metal1_conn
9 *29:16 *23:s 62.180195  // $metal1_conn
10 *52:s *29:9 0.049986  // $metal1_conn
11 *29:9 *29:10 0.223113  // $metal1_conn
12 *29:10 *29:11 0.729949  // $metal1_conn
13 *29:11 *29:12 0.239726  // $metal1_conn
14 *29:12 *29:13 0.316362  // $metal1_conn
15 *29:13 *29:14 0.302257  // $metal1_conn
16 *29:14 *29:15 0.140313  // $metal1_conn
17 *29:15 *29:16 0.288349  // $metal1_conn

*END

*D_NET *43 0

*CONN
*P *43 I *C 0.1000 0.0000 
*I *36:s B *C 6.0350 0.4650 
*I *37:s B *C 6.5050 0.4650 
*I *39:s B *C 6.5050 0.4650 
*I *42:s B *C 6.9750 0.4650 
*I *45:s B *C 6.9750 0.4650 
*I *47:s B *C 7.4025 0.4650 
*I *49:s B *C 7.4025 0.4650 
*I *68:s B *C 4.9850 0.4925 
*I *70:s B *C 4.9850 0.4925 
*I *72:s B *C 5.4300 0.4650 
*I *73:s B *C 5.4300 0.4650 
*I *74:s B *C 6.0350 0.4650 
*I *76:s B *C 3.1000 0.4825 
*I *77:s B *C 3.1000 0.4825 
*I *9:s B *C 0.4250 0.4525 
*I *10:s B *C 0.4250 0.4525 
*I *13:s B *C 1.3950 0.5875 
*I *14:s B *C 1.3950 0.5875 
*N *43:3 *C 6.8000 0.0000 
*N *43:9 *C 3.0000 0.0000 
*N *43:10 *C 1.4000 0.0000 
*N *43:11 *C 1.0000 0.0000 
*N *43:12 *C 0.4250 0.0000 


*RES
0 *43:12 *43 0.162644  // $metal1_conn
1 *43:3 *47:s 6.2  // $metal1_conn
2 *43:3 *47:s 6.888889  // $metal1_conn
3 *43:3 *43:9 6.2  // $metal1_conn
4 *43:3 *43:11 6.2  // $metal1_conn
5 *43:9 *76:s 75.22155  // $metal1_conn
6 *43:10 *13:s 75.045845  // $metal1_conn
7 *43:12 *9:s 75.281784  // $metal1_conn
8 *47:s *43:9 0.954069  // $metal1_conn
9 *43:9 *43:10 0.801763  // $metal1_conn
10 *43:10 *43:11 0.199581  // $metal1_conn
11 *43:11 *43:12 0.288349  // $metal1_conn

*END

*D_NET *16 2.49306e-16

*CONN
*P *16 I *C 0.3000 1.0450 
*I *9:g B *C 0.3225 0.4525 
*I *23:g B *C 0.3225 1.3725 
*N *16:2 *C 0.2950 1.0400 
*N *16:4 *C 0.2950 1.0400 

*CAP
0 *23:g 3.59903e-17
1 *9:g 4.41773e-17
2 *16:2 4.81249e-17
3 *16 1.21013e-16

*RES
0 *23:g *16:2 49.179131  // $poly_conn
1 *16:2 *9:g 123.538109  // $poly_conn
2 *16:4 *16 0.003119  // $metal1_conn
3 *16:2 *16:4 45  // $metal1_conn

*END

*D_NET *56 3.01942e-16

*CONN
*P *56 I *C 0.5000 1.0450 
*I *10:g B *C 0.5275 0.4525 
*I *24:g B *C 0.5275 1.3725 
*N *56:2 *C 0.5000 0.8200 

*CAP
0 *24:g 8.29233e-17
1 *10:g 4.13619e-17
2 *56:2 1.1584e-16
3 *56 6.18167e-17

*RES
0 *24:g *56:2 105.589386  // $poly_conn
1 *56:2 *10:g 67.127846  // $poly_conn
2 *56 *56:2 45.135368  // $metal1_conn

*END

*D_NET *57 1.90585e-16

*CONN
*P *57 I *C 2.9000 0.8550 
*I *77:g B *C 3.1475 0.4825 
*I *33:g B *C 3.0975 1.0075 
*N *57:2 *C 3.0600 0.6800 

*CAP
0 *33:g 3.12243e-17
1 *77:g 3.42483e-17
2 *57:2 7.59934e-17
3 *57 4.9119e-17

*RES
0 *77:g *57:2 29.598761  // $poly_conn
1 *57:2 *33:g 46.92445  // $poly_conn
2 *57:2 *57 45.167313  // $metal1_conn

*END

*D_NET *59 5.30217e-16

*CONN
*P *59 I *C 2.3000 0.6650 
*I *68:g B *C 4.8525 0.4625 
*I *76:g B *C 2.7775 0.4825 
*I *19:g B *C 4.8975 1.2225 
*I *32:g B *C 2.7475 1.0075 
*N *59:4 *C 2.7400 0.6950 
*N *59:5 *C 2.6350 0.6950 

*CAP
0 *32:g 3.40618e-17
1 *19:g 7.44328e-17
2 *76:g 1.07294e-16
3 *68:g 1.67283e-16
4 *59:4 1.55963e-17
5 *59:5 6.53151e-17
6 *59 6.62352e-17

*RES
0 *19:g *68:g 148.428375  // $poly_conn
1 *68:g *76:g 629.197571  // $poly_conn
2 *76:g *59:4 34.129097  // $poly_conn
3 *59:4 *59:5 52.994804  // $poly_conn
4 *59:4 *32:g 45.208317  // $poly_conn
5 *59:5 *59 0.20082  // $metal1_conn

*END

*D_NET *58 2.73173e-16

*CONN
*P *58 O *C 5.7000 1.0450 
*I *36:d B *C 6.1850 0.4650 
*I *37:d B *C 6.1850 0.4650 
*I *73:d B *C 5.6600 0.4650 
*I *74:d B *C 5.6600 0.4650 
*I *38:d B *C 5.6650 1.1350 
*I *41:d B *C 6.1000 1.1350 
*I *44:d B *C 6.1000 1.1350 
*I *22:d B *C 5.6650 1.1350 

*CAP
0 *36:d 1.30823e-16
1 *58 1.42349e-16

*RES
0 *36:d *58 0.337178  // $metal1_conn

*END

*D_NET *40 3.3105e-16

*CONN
*P *40 O *C 6.3000 0.8550 
*I *39:d B *C 6.6550 0.4650 
*I *42:d B *C 6.6550 0.4650 
*I *45:d B *C 7.1250 0.4650 
*I *47:d B *C 7.1250 0.4650 
*I *46:d B *C 6.5100 1.1350 
*I *48:d B *C 6.5100 1.1350 
*I *50:d B *C 6.9325 1.1350 
*I *52:d B *C 6.9325 1.1350 

*CAP
0 *50:d 1.73877e-16
1 *39:d 1.27101e-16
2 *40 3.00718e-17

*RES
0 *50:d *40 0.166802  // $metal1_conn
1 *39:d *50:d 0.225501  // $metal1_conn

*END

*D_NET *8 2.10447e-18

*CONN
*I *12:s B *C 1.0850 0.4525 
*I *13:d B *C 1.0850 0.4525 

*CAP
0 *12:s 2.10447e-18

*RES
0 *13:d *12:s 0.001  // $mwires

*END

*D_NET *7 1.58347e-18

*CONN
*I *10:d B *C 0.6275 0.4525 
*I *11:s B *C 0.6275 0.4525 

*CAP
0 *10:d 1.58347e-18

*RES
0 *11:s *10:d 0.001  // $mwires

*END

*D_NET *6 1.53466e-18

*CONN
*I *17:d B *C 4.6400 1.2225 
*I *18:s B *C 4.6400 1.2225 

*CAP
0 *17:d 1.53466e-18

*RES
0 *18:s *17:d 0.001  // $mwires

*END

*D_NET *5 3.26215e-18

*CONN
*I *30:d B *C 2.1350 1.0075 
*I *31:s B *C 2.1350 1.0075 

*CAP
0 *30:d 3.26215e-18

*RES
0 *31:s *30:d 0.001  // $mwires

*END

*D_NET *4 3.31138e-18

*CONN
*I *26:s B *C 1.0650 1.3725 
*I *27:d B *C 1.0650 1.3725 

*CAP
0 *26:s 3.31138e-18

*RES
0 *27:d *26:s 0.001  // $mwires

*END

*D_NET *3 0

*CONN
*I *24:d B *C 0.5800 1.3725 
*I *25:s B *C 0.5800 1.3725 


*RES
0 *25:s *24:d 0.001  // $mwires

*END

*D_NET *2 9.83274e-16

*CONN
*I *1:g B *C 3.8925 0.5875 
*I *11:g B *C 0.7275 0.4525 
*I *14:d B *C 1.5350 0.5875 
*I *26:g B *C 0.9825 1.3725 
*I *28:d B *C 1.5050 1.2175 
*I *34:g B *C 3.7175 1.1225 
*N *2:2 *C 1.0200 0.9500 
*N *2:6 *C 3.6900 1.4400 
*N *2:8 *C 1.5150 1.1950 
*N *2:9 *C 1.5450 0.9500 

*CAP
0 *34:g 5.93979e-17
1 *28:d 2.57193e-16
2 *26:g 4.45879e-17
3 *14:d 5.45377e-17
4 *11:g 6.34052e-17
5 *1:g 5.77478e-17
6 *2:9 6.6663e-17
7 *2:2 1.12663e-16
8 *2:6 2.67078e-16

*RES
0 *26:g *2:2 71.283424  // $poly_conn
1 *2:2 *11:g 159.959152  // $poly_conn
2 *1:g *34:g 112.241371  // $poly_conn
3 *34:g *2:6 90.332977  // $poly_conn
4 *2:6 *2:8 1.847239  // $metal1_conn
5 *2:8 *2:9 0.178262  // $metal1_conn
6 *2:9 *2:2 45.343605  // $metal1_conn
7 *2:9 *14:d 75.270912  // $metal1_conn
8 *28:d *2:8 62  // $metal1_conn

*END

*D_NET *71 9.05489e-16

*CONN
*I *75:d B *C 2.1350 0.4825 
*I *78:s B *C 3.5950 0.5875 
*I *13:g B *C 1.2175 0.4525 
*I *15:s B *C 2.1350 0.4825 
*I *27:g B *C 1.1475 1.3725 
*I *31:d B *C 2.4925 1.0075 
*I *32:d B *C 2.4925 1.0075 
*I *34:s B *C 3.5675 1.1225 
*N *71:1 *C 1.1800 0.2800 
*N *71:5 *C 3.4400 1.0900 
*N *71:7 *C 2.6450 0.9700 
*N *71:8 *C 2.1050 0.6600 

*CAP
0 *34:s 3.02959e-18
1 *31:d 1.9726e-16
2 *27:g 1.01998e-16
3 *13:g 5.92135e-17
4 *78:s 8.29844e-17
5 *75:d 3.32441e-17
6 *71:8 1.56321e-16
7 *71:5 1.45492e-16
8 *71:1 1.25946e-16

*RES
0 *71:1 *13:g 61.15522  // $poly_conn
1 *13:g *27:g 195.864273  // $poly_conn
2 *78:s *71:5 75.411308  // $metal1_conn
3 *71:5 *71:7 0.658041  // $metal1_conn
4 *71:7 *71:8 0.613564  // $metal1_conn
5 *71:8 *71:1 0.875153  // $metal1_conn
6 *71:5 *34:s 62.032146  // $metal1_conn
7 *71:8 *75:d 75.110413  // $metal1_conn
8 *31:d *71:7 62  // $metal1_conn

*END

*D_NET *69 5.0749e-16

*CONN
*I *75:g B *C 2.2375 0.4825 
*I *11:d B *C 0.8400 0.4525 
*I *12:d B *C 0.8400 0.4525 
*I *25:d B *C 0.8075 1.3725 
*I *26:d B *C 0.8075 1.3725 
*I *31:g B *C 2.2375 1.0075 
*N *69:2 *C 2.1050 1.3550 
*N *69:5 *C 0.8300 1.3250 

*CAP
0 *31:g 4.10457e-17
1 *25:d 1.46433e-16
2 *11:d 1.10058e-16
3 *75:g 4.99923e-17
4 *69:2 1.59961e-16

*RES
0 *31:g *69:2 108.937004  // $poly_conn
1 *31:g *75:g 88.46154  // $poly_conn
2 *69:2 *69:5 0.917983  // $metal1_conn
3 *69:5 *11:d 75.577164  // $metal1_conn
4 *25:d *69:5 62  // $metal1_conn

*END

*D_NET *67 1.68918e-15

*CONN
*I *78:g B *C 3.6875 0.5875 
*I *9:d B *C 0.2300 0.4525 
*I *12:g B *C 0.9525 0.4525 
*I *14:g B *C 1.4425 0.5875 
*I *55:g B *C 3.9375 1.1225 
*I *23:d B *C 0.2300 1.3725 
*I *25:g B *C 0.6325 1.3725 
*I *28:g B *C 1.4125 1.2175 
*N *67:2 *C 0.6700 1.0550 
*N *67:4 *C 0.9900 0.6550 
*N *67:5 *C 1.7050 0.9750 
*N *67:6 *C 1.4275 1.0025 
*N *67:7 *C 1.3850 0.7600 
*N *67:11 *C 3.6000 0.7850 
*N *67:13 *C 3.9700 1.3400 
*N *67:14 *C 0.6700 0.6300 
*N *67:15 *C 0.2200 0.6300 
*N *67:18 *C 3.6300 1.2800 

*CAP
0 *28:g 5.32192e-17
1 *25:g 5.52464e-17
2 *23:d 8.05262e-17
3 *55:g 3.77516e-17
4 *14:g 2.61331e-17
5 *12:g 4.08391e-17
6 *9:d 1.81797e-17
7 *78:g 4.51945e-17
8 *67:18 2.93901e-16
9 *67:15 8.58541e-17
10 *67:14 1.35211e-16
11 *67:6 2.35634e-17
12 *67:2 1.15935e-16
13 *67:4 1.48701e-16
14 *67:7 9.24015e-17
15 *67:5 2.64321e-16
16 *67:11 1.10194e-16
17 *67:13 6.20043e-17

*RES
0 *25:g *67:2 89.360352  // $poly_conn
1 *12:g *67:4 68.847527  // $poly_conn
2 *67:5 *67:6 100.221954  // $poly_conn
3 *67:6 *67:7 34.710724  // $poly_conn
4 *67:6 *28:g 26.911247  // $poly_conn
5 *67:7 *14:g 16.15522  // $poly_conn
6 *78:g *67:11 78.008705  // $poly_conn
7 *55:g *67:13 64.987991  // $poly_conn
8 *67:7 *67:4 45.370106  // $metal1_conn
9 *67:4 *67:14 0.77564  // $metal1_conn
10 *67:14 *67:15 0.315232  // $metal1_conn
11 *67:15 *9:d 75.09243  // $metal1_conn
12 *67:14 *67:2 0.353034  // $metal1_conn
13 *67:15 *23:d 62.669758  // $metal1_conn
14 *67:13 *67:18 0.292193  // $metal1_conn
15 *67:18 *67:5 1.713126  // $metal1_conn
16 *67:18 *67:11 0.372657  // $metal1_conn

*END

*D_NET *66 1.39147e-16

*CONN
*I *75:s B *C 2.5075 0.4825 
*I *76:d B *C 2.5075 0.4825 
*I *15:d B *C 1.9400 0.4825 

*CAP
0 *15:d 7.33608e-17
1 *75:s 6.5786e-17

*RES
0 *15:d *75:s 150.380569  // $metal1_conn

*END

*D_NET *65 8.58115e-16

*CONN
*I *51:g B *C 4.4375 0.4625 
*I *77:d B *C 3.2400 0.4825 
*I *15:g B *C 2.0325 0.4825 
*I *17:g B *C 4.5875 1.2225 
*I *30:g B *C 2.0325 1.0075 
*I *33:d B *C 3.2000 1.0075 
*N *65:3 *C 2.5350 0.2350 
*N *65:5 *C 4.4100 0.7900 
*N *65:8 *C 3.2500 0.4700 

*CAP
0 *33:d 5.75812e-17
1 *30:g 5.56962e-17
2 *17:g 7.70119e-17
3 *15:g 5.11546e-17
4 *77:d 1.96689e-16
5 *51:g 4.38655e-17
6 *65:3 1.13531e-16
7 *65:5 2.62585e-16

*RES
0 *30:g *15:g 88.46154  // $poly_conn
1 *15:g *65:3 211.342041  // $poly_conn
2 *17:g *65:5 103.830948  // $poly_conn
3 *65:5 *51:g 53.709526  // $poly_conn
4 *65:5 *65:8 46.245762  // $metal1_conn
5 *65:8 *65:3 0.70809  // $metal1_conn
6 *65:8 *33:d 62.367657  // $metal1_conn
7 *77:d *65:8 75  // $metal1_conn

*END

*D_NET *64 5.83123e-16

*CONN
*I *70:g B *C 5.0575 0.4925 
*I *72:g B *C 5.2625 0.4925 
*I *78:d B *C 3.7900 0.5875 
*I *1:s B *C 3.7900 0.5875 
*I *55:s B *C 3.8275 1.1225 
*I *20:g B *C 5.1125 1.1750 
*I *21:g B *C 5.3175 1.1750 
*I *34:d B *C 3.8275 1.1225 
*N *64:7 *C 3.8200 0.9500 

*CAP
0 *21:g 3.27754e-16
1 *55:s 3.02292e-17
2 *78:d 5.73492e-17
3 *64:7 1.67791e-16

*RES
0 *64:7 *78:d 75.285156  // $metal1_conn
1 *64:7 *55:s 62.06472  // $metal1_conn
2 *21:g *64:7 45.940395  // $metal1_conn

*END

*D_NET *63 1.82675e-16

*CONN
*I *55:d B *C 4.0300 1.1225 
*I *18:d B *C 4.7950 1.2225 
*I *19:d B *C 4.7950 1.2225 

*CAP
0 *18:d 9.9213e-17
1 *55:d 8.34618e-17

*RES
0 *18:d *55:d 124.606697  // $metal1_conn

*END

*D_NET *62 1.7575e-16

*CONN
*I *51:d B *C 4.5425 0.4625 
*I *53:d B *C 4.5425 0.4625 
*I *1:d B *C 4.0025 0.5875 

*CAP
0 *1:d 8.32195e-17
1 *51:d 9.253e-17

*RES
0 *1:d *51:d 150.356476  // $metal1_conn

*END

*D_NET *61 1.21709e-15

*CONN
*I *36:g B *C 6.0825 0.4650 
*I *37:g B *C 6.2875 0.4650 
*I *49:g B *C 7.5775 0.4650 
*I *53:g B *C 4.6475 0.4625 
*I *70:d B *C 5.1600 0.4925 
*I *72:d B *C 5.1600 0.4925 
*I *73:g B *C 5.5025 0.4650 
*I *74:g B *C 5.8175 0.4650 
*I *38:g B *C 5.7675 1.1350 
*I *41:g B *C 5.9975 1.1350 
*I *44:g B *C 6.2025 1.1350 
*I *54:g B *C 7.2525 1.1350 
*I *18:g B *C 4.6925 1.2225 
*I *20:d B *C 5.2150 1.1750 
*I *21:d B *C 5.2150 1.1750 
*I *22:g B *C 5.5625 1.1350 
*N *61:2 *C 4.7200 0.6700 
*N *61:20 *C 7.4900 0.7200 
*N *61:22 *C 5.2750 0.6575 
*N *61:23 *C 5.1600 0.6575 
*N *61:24 *C 5.2750 0.8050 

*CAP
0 *20:d 7.22671e-17
1 *18:g 8.43998e-17
2 *54:g 5.72445e-17
3 *44:g 2.67138e-16
4 *70:d 1.93612e-17
5 *53:g 3.943e-17
6 *49:g 2.06013e-17
7 *61:24 2.57427e-17
8 *61:23 2.90044e-17
9 *61:22 2.0539e-16
10 *61:2 1.22257e-16
11 *61:20 2.7425e-16

*RES
0 *61:20 *54:g 86.378471  // $poly_conn
1 *18:g *61:2 105.422668  // $poly_conn
2 *49:g *61:20 29.662592  // $poly_conn
3 *61:2 *53:g 28.664263  // $poly_conn
4 *61:24 *44:g 45.133884  // $metal1_conn
5 *61:20 *61:22 47.053238  // $metal1_conn
6 *61:23 *61:2 45.317078  // $metal1_conn
7 *61:23 *70:d 75.065254  // $metal1_conn
8 *61:24 *20:d 31.323353  // $metal1_conn
9 *61:22 *61:23 0.076734  // $metal1_conn
10 *61:22 *61:24 0.085481  // $metal1_conn

*END

*D_NET *60 1.42415e-16

*CONN
*I *51:s B *C 4.3375 0.4625 
*I *53:s B *C 4.7500 0.4625 
*I *68:d B *C 4.7500 0.4625 

*CAP
0 *53:s 7.04868e-17
1 *51:s 7.19283e-17

*RES
0 *53:s *51:s 150.380569  // $metal1_conn

*END

*D_NET *35 4.33146e-16

*CONN
*I *39:g B *C 6.5525 0.4650 
*I *42:g B *C 6.7575 0.4650 
*I *45:g B *C 7.0225 0.4650 
*I *47:g B *C 7.2275 0.4650 
*I *49:d B *C 7.6700 0.4650 
*I *46:g B *C 6.4075 1.1350 
*I *48:g B *C 6.6125 1.1350 
*I *50:g B *C 6.8175 1.1350 
*I *52:g B *C 7.0475 1.1350 
*I *54:d B *C 7.3450 1.1350 
*N *35:17 *C 7.3550 0.8800 

*CAP
0 *54:d 3.7084e-17
1 *52:g 3.05285e-16
2 *49:d 3.15319e-17
3 *35:17 5.9245e-17

*RES
0 *35:17 *52:g 45.227566  // $metal1_conn
1 *35:17 *54:d 20.833092  // $metal1_conn
2 *49:d *35:17 75.474518  // $metal1_conn

*END

