*SPEF "IEEE 1481-1999"
*DESIGN  "DFFRX1"
*DATE "Mon Sep 27 09:31:31 2010"
*VENDOR "Cadence Design Systems"
*PROGRAM "Assura RCX"
*VERSION "3.2 Red Hat Linux release 7.2 (Enigma) - (09/09/2009-10:39)"
*DESIGN_FLOW "Physical Verification"
*DIVIDER /
*DELIMITER :
*BUS_DELIMITER []
*T_UNIT 1 PS
*C_UNIT 1e15 FF
*R_UNIT 1 OHM
*L_UNIT 1 MH
// DeviceFingerDelim "@"
// MATCHED
// caps2d version: 10

*NAME_MAP
*1 mp56
*2 mp55
*3 mp20
*4 mp46
*5 mp45
*6 mp50
*7 mp51
*8 VDD
*9 mn51
*10 mn40
*11 mn30
*12 mn35
*13 mn36
*14 VSS
*15 mn37
*16 mp40
*17 mn26
*18 mp30
*19 mn25
*20 mp35
*21 mn21
*22 mp36
*23 mp37
*24 mp26
*25 mout
*26 QN
*27 mp25
*28 n30
*29 mp21
*30 n20
*31 mp57
*32 qbint
*33 CKbb
*34 CKb
*35 n41
*36 n22
*37 n35
*38 CK
*39 n40
*40 n27
*41 RN
*42 n25
*43 n21
*44 D
*45 mn57
*46 mn56
*47 mn55
*48 mn20
*49 mn46
*50 mn45
*51 mn50
*52 n26
*53 qint
*54 Q

*GROUND_NETS VSS

*PORTS
*8 I
*14 I
*38 I
*44 I
*41 I
*54 O
*26 O

*D_NET *8 5.54443e-16

*CONN
*P *8 I *C 0.1000 1.7100 
*I *18:s B *C 2.5050 1.0425 
*I *20:s B *C 2.5050 1.0425 
*I *22:s B *C 2.8550 1.2825 
*I *27:s B *C 3.6150 1.1825 
*I *29:s B *C 3.6150 1.1825 
*I *31:s B *C 0.3600 1.3450 
*I *1:s B *C 0.3600 1.3450 
*I *2:s B *C 0.9200 1.5700 
*I *3:s B *C 0.9200 1.5700 
*I *4:s B *C 1.3400 1.4875 
*I *5:s B *C 1.7400 1.4875 
*I *6:s B *C 1.7400 1.4875 
*N *8:2 *C 3.0000 1.7100 
*N *8:3 *C 3.0000 1.7100 
*N *8:4 *C 2.8200 1.7100 
*N *8:5 *C 2.4200 1.7100 
*N *8:6 *C 1.7150 1.7100 
*N *8:7 *C 1.3150 1.7100 
*N *8:8 *C 1.0000 1.7100 
*N *8:9 *C 0.8950 1.7100 
*N *8:10 *C 0.3350 1.7100 

*CAP
0 *5:s 2.42694e-17
1 *4:s 9.49292e-18
2 *2:s 6.58889e-18
3 *31:s 2.50216e-17
4 *27:s 4.1519e-17
5 *22:s 1.13297e-17
6 *18:s 2.15469e-17
7 *8:10 6.69331e-18
8 *8:9 1.39936e-17
9 *8:7 1.08711e-17
10 *8:6 2.46506e-17
11 *8:5 2.4377e-17
12 *8:4 8.8737e-18
13 *8:2 3.17115e-16
14 *8 8.10016e-18

*RES
0 *27:s *8:3 62.382996  // $metal1_conn
1 *8:3 *8:4 0.090161  // $metal1_conn
2 *8:4 *8:5 0.199451  // $metal1_conn
3 *8:5 *8:6 0.351606  // $metal1_conn
4 *8:6 *8:7 0.199451  // $metal1_conn
5 *8:7 *8:8 0.157929  // $metal1_conn
6 *8:8 *8:9 0.052512  // $metal1_conn
7 *8:9 *8:10 0.28072  // $metal1_conn
8 *8:10 *8 0.117519  // $metal1_conn
9 *8:4 *22:s 62.075268  // $metal1_conn
10 *8:5 *18:s 62.045864  // $metal1_conn
11 *8:6 *5:s 62.045864  // $metal1_conn
12 *8:7 *4:s 62.075268  // $metal1_conn
13 *8:9 *2:s 62.075268  // $metal1_conn
14 *8:10 *31:s 62.226704  // $metal1_conn
15 *8:2 *8:3 7.5  // $metal1_conn
16 *8:2 *8:8 7.5  // $metal1_conn

*END

*D_NET *14 0

*CONN
*P *14 I *C 0.1000 0.0000 
*I *11:s B *C 2.5800 0.5075 
*I *12:s B *C 2.5800 0.5075 
*I *19:s B *C 3.4100 0.5075 
*I *21:s B *C 3.4100 0.5075 
*I *45:s B *C 0.3500 0.5875 
*I *46:s B *C 0.3500 0.5875 
*I *47:s B *C 0.9550 0.5125 
*I *48:s B *C 0.9550 0.5125 
*I *50:s B *C 1.6850 0.4275 
*I *51:s B *C 1.6850 0.4275 
*N *14:2 *C 3.0000 0.0000 
*N *14:3 *C 3.0000 0.0000 
*N *14:4 *C 2.4950 0.0000 
*N *14:5 *C 1.6850 0.0000 
*N *14:6 *C 1.0000 0.0000 
*N *14:7 *C 0.9050 0.0000 
*N *14:8 *C 0.3350 0.0000 


*RES
0 *19:s *14:3 75.6297  // $metal1_conn
1 *14:3 *14:4 0.253307  // $metal1_conn
2 *14:4 *14:5 0.406216  // $metal1_conn
3 *14:5 *14:6 0.343664  // $metal1_conn
4 *14:6 *14:7 0.047492  // $metal1_conn
5 *14:7 *14:8 0.285739  // $metal1_conn
6 *14:8 *14 0.117519  // $metal1_conn
7 *14:4 *11:s 37.697857  // $metal1_conn
8 *14:5 *50:s 75.260353  // $metal1_conn
9 *14:7 *47:s 75.368881  // $metal1_conn
10 *14:8 *45:s 75.16613  // $metal1_conn
11 *14:2 *14:3 6.2  // $metal1_conn
12 *14:2 *14:6 6.2  // $metal1_conn

*END

*D_NET *38 2.25088e-16

*CONN
*P *38 I *C 0.9500 0.8950 
*I *48:g B *C 1.0075 0.5125 
*I *3:g B *C 0.9575 1.1725 
*N *38:2 *C 0.9700 0.9650 
*N *38:4 *C 0.9700 0.9650 

*CAP
0 *3:g 4.03516e-17
1 *48:g 5.93195e-17
2 *38:2 8.96539e-17
3 *38 3.57633e-17

*RES
0 *48:g *38:2 87.950089  // $poly_conn
1 *38:2 *3:g 16.15522  // $poly_conn
2 *38 *38:4 0.018591  // $metal1_conn
3 *38:2 *38:4 45  // $metal1_conn

*END

*D_NET *44 2.95668e-16

*CONN
*P *44 I *C 3.4700 0.6750 
*I *19:g B *C 3.2725 0.5075 
*I *27:g B *C 3.4525 1.1825 
*N *44:2 *C 3.4900 0.8400 
*N *44:4 *C 3.4800 0.6750 
*N *44:5 *C 3.4800 0.8400 
*N *44:6 *C 3.4900 0.8400 

*CAP
0 *27:g 7.38831e-17
1 *19:g 6.13849e-17
2 *44:5 4.70624e-17
3 *44:4 4.90923e-17
4 *44:2 6.42452e-17

*RES
0 *27:g *44:2 47.886089  // $poly_conn
1 *44:2 *19:g 99.103455  // $poly_conn
2 *44 *44:4 0.002575  // $metal1_conn
3 *44:5 *44:6 0.002711  // $metal1_conn
4 *44:4 *44:5 0.082294  // $metal1_conn
5 *44:2 *44:6 45  // $metal1_conn

*END

*D_NET *41 6.71515e-16

*CONN
*P *41 I *C 1.4450 0.8550 
*I *12:g B *C 2.6275 0.5075 
*I *50:g B *C 1.5825 0.4275 
*I *20:g B *C 2.5525 1.0425 
*I *5:g B *C 1.5825 1.0425 
*N *41:2 *C 1.5450 0.8350 
*N *41:4 *C 1.5550 1.4100 
*N *41:7 *C 2.5800 1.4100 
*N *41:8 *C 1.4455 0.8450 
*N *41:9 *C 1.5450 0.8350 
*N *41:10 *C 1.5450 0.8450 

*CAP
0 *5:g 3.67648e-17
1 *20:g 6.61054e-17
2 *50:g 6.65936e-17
3 *12:g 6.96985e-17
4 *41:10 3.44581e-17
5 *41:2 5.25449e-17
6 *41:4 1.48978e-16
7 *41:7 1.47863e-16
8 *41 4.85089e-17

*RES
0 *50:g *41:2 76.411629  // $poly_conn
1 *41:2 *5:g 16.15522  // $poly_conn
2 *5:g *41:4 103.153488  // $poly_conn
3 *12:g *20:g 98.428383  // $poly_conn
4 *20:g *41:7 103.153488  // $poly_conn
5 *41:8 *41 0.002553  // $metal1_conn
6 *41:9 *41:10 0.002553  // $metal1_conn
7 *41:8 *41:10 0.05001  // $metal1_conn
8 *41:2 *41:9 45  // $metal1_conn
9 *41:7 *41:4 0.788964  // $metal1_conn

*END

*D_NET *54 2.17785e-16

*CONN
*P *54 O *C 0.6500 0.6650 
*I *47:d B *C 0.7100 0.4550 
*I *2:d B *C 0.6900 1.2600 

*CAP
0 *2:d 5.1046e-17
1 *47:d 4.43329e-17
2 *54 1.22406e-16

*RES
0 *2:d *54 31.491047  // $metal1_conn
1 *54 *47:d 37.650513  // $metal1_conn

*END

*D_NET *26 8.31018e-17

*CONN
*P *26 O *C 0.0900 0.6650 
*I *45:d B *C 0.1100 0.5300 
*I *31:d B *C 0.1100 1.0950 

*CAP
0 *31:d 4.45196e-17
1 *45:d 1.89802e-17
2 *26 1.9602e-17

*RES
0 *26 *45:d 37.578312  // $metal1_conn
1 *26 *31:d 20.929718  // $metal1_conn

*END

*D_NET *43 0

*CONN
*I *17:s B *C 3.2075 0.5075 
*I *19:d B *C 3.2075 0.5075 


*RES
0 *19:d *17:s 0.001  // $mwires

*END

*D_NET *42 0

*CONN
*I *13:d B *C 2.8475 0.5075 
*I *15:s B *C 2.8475 0.5075 


*RES
0 *15:s *13:d 0.001  // $mwires

*END

*D_NET *40 8.15104e-19

*CONN
*I *12:d B *C 2.6925 0.5075 
*I *13:s B *C 2.6925 0.5075 

*CAP
0 *12:d 8.15104e-19

*RES
0 *13:s *12:d 0.001  // $mwires

*END

*D_NET *39 1.78576e-18

*CONN
*I *9:s B *C 1.8450 0.4275 
*I *51:d B *C 1.8450 0.4275 

*CAP
0 *9:s 1.78576e-18

*RES
0 *51:d *9:s 0.001  // $mwires

*END

*D_NET *37 0

*CONN
*I *49:s B *C 1.5300 0.4275 
*I *50:d B *C 1.5300 0.4275 


*RES
0 *50:d *49:s 0.001  // $mwires

*END

*D_NET *36 0

*CONN
*I *24:s B *C 3.4000 1.1825 
*I *27:d B *C 3.4000 1.1825 


*RES
0 *27:d *24:s 0.001  // $mwires

*END

*D_NET *35 6.59888e-19

*CONN
*I *6:d B *C 1.8400 1.0425 
*I *7:s B *C 1.8400 1.0425 

*CAP
0 *6:d 6.59888e-19

*RES
0 *7:s *6:d 0.001  // $mwires

*END

*D_NET *34 1.22831e-15

*CONN
*I *9:g B *C 1.9025 0.4275 
*I *17:g B *C 3.1425 0.5075 
*I *21:g B *C 3.5475 0.5075 
*I *48:d B *C 1.1175 0.5125 
*I *16:g B *C 2.1075 1.0425 
*I *23:g B *C 3.1425 1.1825 
*I *29:g B *C 3.6625 1.1825 
*I *3:d B *C 1.1000 1.2200 
*N *34:2 *C 2.1350 0.8250 
*N *34:5 *C 3.1050 1.3900 
*N *34:9 *C 3.7000 1.3900 
*N *34:10 *C 2.1350 1.2500 
*N *34:11 *C 1.1450 1.2200 

*CAP
0 *3:d 1.61201e-17
1 *29:g 4.83921e-17
2 *23:g 5.18121e-17
3 *16:g 3.04525e-17
4 *48:d 1.20203e-16
5 *21:g 5.29077e-17
6 *17:g 7.36813e-17
7 *9:g 8.3982e-17
8 *34:11 1.69799e-16
9 *34:10 2.12831e-16
10 *34:2 1.41306e-16
11 *34:5 1.5052e-16
12 *34:9 7.63076e-17

*RES
0 *16:g *34:2 19.691952  // $poly_conn
1 *34:2 *9:g 115.556236  // $poly_conn
2 *23:g *34:5 61.15522  // $poly_conn
3 *23:g *17:g 126.923073  // $poly_conn
4 *21:g *29:g 144.58223  // $poly_conn
5 *29:g *34:9 61.15522  // $poly_conn
6 *34:9 *34:5 0.413503  // $metal1_conn
7 *34:5 *34:10 0.814217  // $metal1_conn
8 *34:10 *34:11 0.788741  // $metal1_conn
9 *34:11 *3:d 62.045322  // $metal1_conn
10 *34:10 *34:2 45.351013  // $metal1_conn
11 *34:11 *48:d 75.622902  // $metal1_conn

*END

*D_NET *33 1.07552e-15

*CONN
*I *10:g B *C 2.1075 0.4275 
*I *15:g B *C 2.9375 0.5075 
*I *21:d B *C 3.6400 0.5075 
*I *24:g B *C 3.3475 1.1825 
*I *29:d B *C 3.8050 1.1350 
*I *7:g B *C 1.9025 1.0425 
*N *33:1 *C 1.9750 0.8250 
*N *33:4 *C 2.1250 0.2450 
*N *33:6 *C 2.9000 0.3300 
*N *33:8 *C 3.3100 0.9750 
*N *33:10 *C 3.6500 0.9700 

*CAP
0 *7:g 5.25549e-17
1 *29:d 1.90915e-17
2 *24:g 5.1553e-17
3 *21:d 4.43043e-17
4 *15:g 3.56903e-17
5 *10:g 2.88996e-17
6 *33:10 6.20567e-17
7 *33:1 1.70753e-16
8 *33:4 2.1693e-16
9 *33:6 2.18027e-16
10 *33:8 1.7566e-16

*RES
0 *33:1 *7:g 67.58181  // $poly_conn
1 *10:g *33:4 62.398674  // $poly_conn
2 *15:g *33:6 62.437271  // $poly_conn
3 *24:g *33:8 61.15522  // $poly_conn
4 *29:d *33:10 62.19656  // $metal1_conn
5 *33:10 *33:8 0.253886  // $metal1_conn
6 *33:8 *33:6 0.815126  // $metal1_conn
7 *33:6 *33:4 0.980907  // $metal1_conn
8 *33:4 *33:1 0.557631  // $metal1_conn
9 *33:10 *21:d 75.324966  // $metal1_conn

*END

*D_NET *32 9.07253e-16

*CONN
*I *46:g B *C 0.3975 0.5875 
*I *47:g B *C 0.8025 0.4550 
*I *49:d B *C 1.3825 0.4275 
*I *51:g B *C 1.7875 0.4275 
*I *1:g B *C 0.3975 1.0075 
*I *2:g B *C 0.7625 1.2600 
*I *4:d B *C 1.4800 1.0425 
*I *5:d B *C 1.4800 1.0425 
*I *6:g B *C 1.7775 1.0425 
*N *32:2 *C 0.8300 0.6850 
*N *32:3 *C 0.7625 0.7575 
*N *32:4 *C 0.3975 0.7575 
*N *32:9 *C 1.7825 0.8350 
*N *32:10 *C 1.7350 0.8350 
*N *32:13 *C 1.4800 1.0900 
*N *32:14 *C 1.2650 0.4150 

*CAP
0 *6:g 5.65705e-17
1 *4:d 1.52409e-16
2 *2:g 5.98827e-17
3 *1:g 3.48524e-17
4 *51:g 5.99076e-17
5 *49:d 2.04689e-17
6 *47:g 2.90886e-17
7 *46:g 2.67258e-17
8 *32:14 1.62796e-16
9 *32:4 2.51691e-17
10 *32:3 4.40458e-17
11 *32:2 1.08213e-16
12 *32:10 1.27123e-16

*RES
0 *47:g *32:2 16.346052  // $poly_conn
1 *32:2 *32:3 13.528781  // $poly_conn
2 *32:3 *32:4 84.382103  // $poly_conn
3 *32:4 *46:g 23.465221  // $poly_conn
4 *32:3 *2:g 77.694153  // $poly_conn
5 *32:4 *1:g 35.003685  // $poly_conn
6 *51:g *32:9 83.987114  // $poly_conn
7 *32:9 *32:10 45.294373  // $poly_conn
8 *32:9 *6:g 24.854376  // $poly_conn
9 *32:10 *32:13 0.406234  // $metal1_conn
10 *32:13 *32:14 0.659871  // $metal1_conn
11 *32:14 *32:2 45.655403  // $metal1_conn
12 *32:14 *49:d 75.059959  // $metal1_conn
13 *4:d *32:13 62  // $metal1_conn

*END

*D_NET *30 4.37621e-16

*CONN
*I *11:g B *C 2.3575 0.4275 
*I *15:d B *C 3.0400 0.5075 
*I *17:d B *C 3.0400 0.5075 
*I *18:g B *C 2.3575 1.0425 
*I *23:d B *C 3.2450 1.1825 
*I *24:d B *C 3.2450 1.1825 
*N *30:2 *C 2.3950 0.8350 
*N *30:5 *C 3.0400 0.8400 

*CAP
0 *23:d 6.98272e-17
1 *18:g 4.15418e-17
2 *15:d 3.98514e-17
3 *11:g 4.33526e-17
4 *30:5 1.03591e-16
5 *30:2 1.39457e-16

*RES
0 *18:g *30:2 16.15522  // $poly_conn
1 *30:2 *11:g 76.411629  // $poly_conn
2 *15:d *30:5 75.207077  // $metal1_conn
3 *30:5 *30:2 45.495125  // $metal1_conn
4 *30:5 *23:d 62.383148  // $metal1_conn

*END

*D_NET *28 4.36836e-16

*CONN
*I *9:d B *C 2.0050 0.4275 
*I *10:d B *C 2.0050 0.4275 
*I *49:g B *C 1.4775 0.4275 
*I *16:d B *C 2.0050 1.0425 
*I *4:g B *C 1.3775 1.0425 
*I *7:d B *C 2.0050 1.0425 
*N *28:2 *C 1.4150 0.6250 
*N *28:5 *C 1.8550 0.6550 

*CAP
0 *4:g 4.86591e-17
1 *16:d 9.26991e-17
2 *49:g 3.85186e-17
3 *9:d 6.18896e-17
4 *28:5 9.32115e-17
5 *28:2 1.01858e-16

*RES
0 *49:g *28:2 24.941799  // $poly_conn
1 *28:2 *4:g 68.680725  // $poly_conn
2 *16:d *28:5 62.459274  // $metal1_conn
3 *28:5 *28:2 45.299488  // $metal1_conn
4 *28:5 *9:d 75.233337  // $metal1_conn

*END

*D_NET *25 4.68093e-16

*CONN
*I *10:s B *C 2.2325 0.4275 
*I *11:d B *C 2.2325 0.4275 
*I *13:g B *C 2.7575 0.5075 
*I *16:s B *C 2.2325 1.0425 
*I *18:d B *C 2.2325 1.0425 
*I *22:g B *C 2.7575 1.0425 
*N *25:2 *C 2.7950 0.6800 
*N *25:4 *C 2.2550 0.6800 

*CAP
0 *22:g 4.69176e-17
1 *16:s 6.5461e-17
2 *13:g 5.10181e-17
3 *10:s 6.37113e-17
4 *25:4 1.1309e-16
5 *25:2 1.27895e-16

*RES
0 *22:g *25:2 55.898808  // $poly_conn
1 *25:2 *13:g 16.15522  // $poly_conn
2 *25:2 *25:4 45.473232  // $metal1_conn
3 *25:4 *10:s 75.231331  // $metal1_conn
4 *25:4 *16:s 62.249485  // $metal1_conn

*END

*D_NET *53 2.36478e-16

*CONN
*I *45:g B *C 0.2025 0.5300 
*I *46:d B *C 0.4900 0.5875 
*I *31:g B *C 0.2025 1.0950 
*I *1:d B *C 0.5400 0.9600 
*N *53:2 *C 0.2500 0.8000 
*N *53:5 *C 0.5000 0.8000 

*CAP
0 *1:d 2.47025e-17
1 *31:g 4.28098e-17
2 *46:d 4.04704e-17
3 *45:g 3.73112e-17
4 *53:5 3.37095e-17
5 *53:2 5.74749e-17

*RES
0 *31:g *53:2 16.15522  // $poly_conn
1 *53:2 *45:g 26.411629  // $poly_conn
2 *1:d *53:5 62.119011  // $metal1_conn
3 *53:5 *53:2 45.15419  // $metal1_conn
4 *53:5 *46:d 75.158211  // $metal1_conn

*END

*D_NET *52 1.21451e-16

*CONN
*I *20:d B *C 2.6550 1.0425 
*I *22:d B *C 2.6550 1.0425 
*I *23:s B *C 3.0700 1.1825 

*CAP
0 *23:s 6.28173e-17
1 *20:d 5.86333e-17

*RES
0 *23:s *20:d 124.339439  // $metal1_conn

*END

