*SPEF "IEEE 1481-1999"
*DESIGN  "DFFRHQX8"
*DATE "Mon Sep 27 09:31:09 2010"
*VENDOR "Cadence Design Systems"
*PROGRAM "Assura RCX"
*VERSION "3.2 Red Hat Linux release 7.2 (Enigma) - (09/09/2009-10:39)"
*DESIGN_FLOW "Physical Verification"
*DIVIDER /
*DELIMITER :
*BUS_DELIMITER []
*T_UNIT 1 PS
*C_UNIT 1e15 FF
*R_UNIT 1 OHM
*L_UNIT 1 MH
// DeviceFingerDelim "@"
// MATCHED
// caps2d version: 10

*NAME_MAP
*1 mn55\@1
*2 n27
*3 n25
*4 n21
*5 mn55\@2
*6 mn55\@3
*7 mn55\@4
*8 mn55\@5
*9 mn55\@6
*10 mp25
*11 mp20
*12 mp45
*13 mp46
*14 mp46\@1
*15 mp45\@1
*16 mp45\@2
*17 mp46\@2
*18 mp55
*19 mp55\@1
*20 mp55\@2
*21 mp55\@3
*22 VDD
*23 mp55\@4
*24 mp55\@5
*25 mp55\@6
*26 CKb
*27 n26
*28 mout
*29 mn50
*30 mn51
*31 mp21
*32 mn40
*33 mp50
*34 mn30
*35 VSS
*36 mp51
*37 mn35
*38 mp40
*39 mn36
*40 mp30
*41 mn37
*42 mp35
*43 mn26
*44 mp36
*45 mn25
*46 mp37
*47 mp26
*48 D
*49 CK
*50 RN
*51 Q
*52 n20
*53 n30
*54 qbint
*55 CKbb
*56 n41
*57 n22
*58 n35
*59 n35\@1
*60 mn20
*61 n35\@2
*62 mn46
*63 n40
*64 mn46\@1
*65 mn45\@1
*66 mn45\@2
*67 mn46\@2
*68 mn21
*69 mn45
*70 mn55

*GROUND_NETS VSS

*PORTS
*22 I
*35 I
*49 I
*48 I
*50 I
*51 O

*D_NET *22 1.08851e-15

*CONN
*P *22 I *C 0.1000 1.7100 
*I *31:s B *C 3.6800 1.0550 
*I *33:s B *C 3.6800 1.0550 
*I *40:s B *C 4.7150 1.1850 
*I *42:s B *C 4.7150 1.1850 
*I *44:s B *C 5.2500 1.3300 
*I *10:s B *C 6.0900 1.1975 
*I *11:s B *C 6.0900 1.1975 
*I *12:s B *C 1.6225 1.1450 
*I *13:s B *C 2.1000 1.0950 
*I *14:s B *C 2.1000 1.0950 
*I *15:s B *C 2.6175 1.0950 
*I *16:s B *C 2.6175 1.0950 
*I *17:s B *C 3.0400 1.5700 
*I *18:s B *C 0.3050 1.1225 
*I *19:s B *C 0.3050 1.1225 
*I *20:s B *C 0.7150 1.1225 
*I *21:s B *C 0.7150 1.1225 
*I *23:s B *C 1.1250 1.1225 
*I *24:s B *C 1.1250 1.1225 
*I *25:s B *C 1.6225 1.1450 
*N *22:2 *C 5.5000 1.7100 
*N *22:3 *C 5.5000 1.7100 
*N *22:4 *C 5.2500 1.7100 
*N *22:5 *C 4.6950 1.7100 
*N *22:6 *C 3.5950 1.7100 
*N *22:7 *C 3.3000 1.7100 

*CAP
0 *17:s 4.99466e-16
1 *10:s 4.49553e-17
2 *44:s 1.46795e-17
3 *40:s 5.21231e-17
4 *31:s 2.61366e-17
5 *22:6 3.40435e-17
6 *22:5 3.47375e-17
7 *22:4 1.21242e-17
8 *22:2 3.62178e-16
9 *22 8.06871e-18

*RES
0 *17:s *22 0.102426  // $metal1_conn
1 *22:2 *22:3 6.818182  // $metal1_conn
2 *22:2 *22:7 6.818182  // $metal1_conn
3 *22:2 *17:s 6.818182  // $metal1_conn
4 *10:s *22:3 62.580994  // $metal1_conn
5 *22:4 *44:s 62.045849  // $metal1_conn
6 *22:5 *40:s 62.270081  // $metal1_conn
7 *22:6 *31:s 62.045849  // $metal1_conn
8 *22:3 *22:4 0.124662  // $metal1_conn
9 *22:4 *22:5 0.277166  // $metal1_conn
10 *22:5 *22:6 0.550657  // $metal1_conn
11 *22:6 *22:7 0.14689  // $metal1_conn
12 *22:7 *17:s 0.141872  // $metal1_conn

*END

*D_NET *35 0

*CONN
*P *35 I *C 0.1000 0.0000 
*I *29:s B *C 3.4850 0.3825 
*I *34:s B *C 4.8950 0.3825 
*I *37:s B *C 4.8950 0.3825 
*I *45:s B *C 5.9450 0.3825 
*I *60:s B *C 6.2725 0.3225 
*I *65:s B *C 2.5275 0.4950 
*I *66:s B *C 2.5275 0.4950 
*I *68:s B *C 3.4850 0.3825 
*I *69:s B *C 1.6875 0.4950 
*I *70:s B *C 0.3150 0.5125 
*I *1:s B *C 0.3150 0.5125 
*I *5:s B *C 0.7250 0.5125 
*I *6:s B *C 0.7250 0.5125 
*I *7:s B *C 1.1350 0.5125 
*I *8:s B *C 1.1350 0.5125 
*I *9:s B *C 1.6875 0.4950 
*N *35:2 *C 5.9250 0.0000 
*N *35:3 *C 5.5000 0.0000 
*N *35:4 *C 5.5000 0.0000 
*N *35:5 *C 4.8400 0.0000 
*N *35:6 *C 3.4000 0.0000 
*N *35:7 *C 3.3000 0.0000 
*N *35:8 *C 2.5750 0.0000 


*RES
0 *69:s *35 0.107581  // $metal1_conn
1 *35:3 *35:4 5.636364  // $metal1_conn
2 *35:3 *35:7 5.636364  // $metal1_conn
3 *35:3 *69:s 5.636364  // $metal1_conn
4 *60:s *35:2 75.369019  // $metal1_conn
5 *35:2 *45:s 75.210251  // $metal1_conn
6 *35:5 *34:s 75.173889  // $metal1_conn
7 *35:6 *29:s 75.045845  // $metal1_conn
8 *35:8 *65:s 75.272285  // $metal1_conn
9 *35:2 *35:4 0.213077  // $metal1_conn
10 *35:4 *35:5 0.331004  // $metal1_conn
11 *35:5 *35:6 0.721276  // $metal1_conn
12 *35:6 *35:7 0.049028  // $metal1_conn
13 *35:7 *35:8 0.363622  // $metal1_conn
14 *35:8 *69:s 0.481353  // $metal1_conn

*END

*D_NET *49 2.10207e-16

*CONN
*P *49 I *C 6.5000 1.0450 
*I *60:g B *C 6.3975 0.3225 
*I *11:g B *C 6.2025 1.1975 
*N *49:2 *C 6.3975 0.6650 
*N *49:4 *C 6.4950 0.6650 

*CAP
0 *11:g 4.66587e-17
1 *60:g 2.69977e-17
2 *49:2 3.28152e-17
3 *49:4 5.85351e-17
4 *49 4.52004e-17

*RES
0 *60:g *49:2 57.362011  // $poly_conn
1 *49:2 *11:g 144.487991  // $poly_conn
2 *49:2 *49:4 51.369057  // $poly_conn
3 *49:4 *49 0.240081  // $metal1_conn

*END

*D_NET *48 2.88415e-16

*CONN
*P *48 I *C 5.9000 0.6650 
*I *45:g B *C 5.8525 0.3825 
*I *10:g B *C 5.8775 1.1500 
*N *48:2 *C 5.8900 0.5850 

*CAP
0 *10:g 9.33929e-17
1 *45:g 2.45706e-17
2 *48:2 1.3526e-16
3 *48 3.51916e-17

*RES
0 *10:g *48:2 95.642395  // $poly_conn
1 *48:2 *45:g 26.187237  // $poly_conn
2 *48 *48:2 45.038464  // $metal1_conn

*END

*D_NET *50 1.03587e-15

*CONN
*P *50 I *C 1.7000 0.6650 
*I *37:g B *C 4.9425 0.3825 
*I *65:g B *C 2.3775 0.4950 
*I *66:g B *C 2.6775 0.4950 
*I *69:g B *C 1.7625 0.4950 
*I *42:g B *C 4.7975 1.1850 
*I *12:g B *C 1.7075 1.1450 
*I *15:g B *C 2.3875 1.0950 
*I *16:g B *C 2.6775 1.0950 
*N *50:9 *C 2.7200 1.4100 
*N *50:13 *C 4.3900 1.4100 

*CAP
0 *42:g 7.99325e-17
1 *69:g 4.46649e-17
2 *66:g 4.58268e-17
3 *65:g 1.98306e-17
4 *37:g 9.17289e-17
5 *50:9 1.53905e-16
6 *50:13 1.53837e-16
7 *50 4.46147e-16

*RES
0 *37:g *42:g 165.095047  // $poly_conn
1 *42:g *50:13 160.059998  // $poly_conn
2 *50 *50:9 66.474258  // $poly_conn
3 *66:g *50 24.038828  // $poly_conn
4 *50 *65:g 22.565475  // $poly_conn
5 *69:g *50 19.691952  // $poly_conn
6 *50:13 *50:9 1.138675  // $metal1_conn

*END

*D_NET *51 4.81338e-16

*CONN
*P *51 O *C 0.1000 0.6650 
*I *70:d B *C 0.1200 0.5125 
*I *1:d B *C 0.5200 0.5125 
*I *5:d B *C 0.5200 0.5125 
*I *6:d B *C 0.9300 0.5125 
*I *7:d B *C 0.9300 0.5125 
*I *8:d B *C 1.3750 0.5125 
*I *9:d B *C 1.3750 0.5125 
*I *18:d B *C 0.1100 1.1225 
*I *19:d B *C 0.5100 1.1225 
*I *20:d B *C 0.5100 1.1225 
*I *21:d B *C 0.9200 1.1225 
*I *23:d B *C 0.9200 1.1225 
*I *24:d B *C 1.3325 1.1225 
*I *25:d B *C 1.3325 1.1225 

*CAP
0 *51 4.81338e-16


*END

*D_NET *4 2.75379e-18

*CONN
*I *43:s B *C 5.7100 0.3825 
*I *45:d B *C 5.7100 0.3825 

*CAP
0 *43:s 2.75379e-18

*RES
0 *45:d *43:s 0.001  // $mwires

*END

*D_NET *3 2.769e-18

*CONN
*I *39:d B *C 5.1375 0.3825 
*I *41:s B *C 5.1375 0.3825 

*CAP
0 *39:d 2.769e-18

*RES
0 *41:s *39:d 0.001  // $mwires

*END

*D_NET *2 1.62034e-18

*CONN
*I *37:d B *C 4.9950 0.3825 
*I *39:s B *C 4.9950 0.3825 

*CAP
0 *37:d 1.62034e-18

*RES
0 *39:s *37:d 0.001  // $mwires

*END

*D_NET *63 0

*CONN
*I *29:d B *C 3.6300 0.3825 
*I *30:s B *C 3.6300 0.3825 


*RES
0 *30:s *29:d 0.001  // $mwires

*END

*D_NET *61 9.60058e-19

*CONN
*I *66:d B *C 2.7300 0.4950 
*I *67:s B *C 2.7300 0.4950 

*CAP
0 *66:d 9.60058e-19

*RES
0 *67:s *66:d 0.001  // $mwires

*END

*D_NET *59 4.6372e-18

*CONN
*I *64:s B *C 2.2550 0.4950 
*I *65:d B *C 2.2550 0.4950 

*CAP
0 *64:s 4.6372e-18

*RES
0 *65:d *64:s 0.001  // $mwires

*END

*D_NET *58 1.21854e-18

*CONN
*I *62:s B *C 1.8375 0.4950 
*I *69:d B *C 1.8375 0.4950 

*CAP
0 *62:s 1.21854e-18

*RES
0 *69:d *62:s 0.001  // $mwires

*END

*D_NET *57 5.07642e-20

*CONN
*I *47:s B *C 5.8250 1.1500 
*I *10:d B *C 5.8250 1.1500 

*CAP
0 *47:s 5.07642e-20

*RES
0 *10:d *47:s 0.001  // $mwires

*END

*D_NET *56 2.25489e-18

*CONN
*I *33:d B *C 3.7800 1.0550 
*I *36:s B *C 3.7800 1.0550 

*CAP
0 *33:d 2.25489e-18

*RES
0 *36:s *33:d 0.001  // $mwires

*END

*D_NET *55 1.28368e-15

*CONN
*I *32:g B *C 4.2475 0.3825 
*I *41:g B *C 5.2275 0.3825 
*I *68:d B *C 3.1425 0.5875 
*I *31:d B *C 3.2850 1.0075 
*I *36:g B *C 3.8325 1.0550 
*I *47:g B *C 5.7725 1.1500 
*N *55:2 *C 3.8600 0.7900 
*N *55:4 *C 4.2100 0.6400 
*N *55:6 *C 5.1900 0.6550 
*N *55:8 *C 5.7000 0.6450 
*N *55:9 *C 5.1900 0.4500 
*N *55:10 *C 4.2400 0.2650 
*N *55:12 *C 3.2550 0.9600 

*CAP
0 *47:g 9.16155e-17
1 *36:g 6.54397e-17
2 *31:d 1.27939e-16
3 *68:d 6.37927e-17
4 *41:g 3.66683e-17
5 *32:g 2.51995e-17
6 *55:10 1.66885e-16
7 *55:9 1.63419e-16
8 *55:2 2.01692e-16
9 *55:4 1.05101e-16
10 *55:6 7.1513e-17
11 *55:8 1.64419e-16

*RES
0 *36:g *55:2 64.691956  // $poly_conn
1 *32:g *55:4 75.257782  // $poly_conn
2 *41:g *55:6 79.103935  // $poly_conn
3 *47:g *55:8 124.845139  // $poly_conn
4 *55:8 *55:9 0.774025  // $metal1_conn
5 *55:9 *55:10 0.825181  // $metal1_conn
6 *55:10 *55:2 0.667491  // $metal1_conn
7 *55:2 *55:12 0.614478  // $metal1_conn
8 *55:12 *68:d 75.34848  // $metal1_conn
9 *55:9 *55:6 0.168475  // $metal1_conn
10 *55:10 *55:4 0.270014  // $metal1_conn
11 *31:d *55:12 62  // $metal1_conn

*END

*D_NET *54 1.13307e-15

*CONN
*I *29:g B *C 3.5325 0.3825 
*I *62:d B *C 2.0225 0.4950 
*I *64:d B *C 2.0225 0.4950 
*I *67:d B *C 2.8750 0.4950 
*I *70:g B *C 0.2125 0.5125 
*I *1:g B *C 0.4175 0.5125 
*I *5:g B *C 0.6225 0.5125 
*I *6:g B *C 0.8275 0.5125 
*I *7:g B *C 1.0325 0.5125 
*I *8:g B *C 1.2375 0.5125 
*I *9:g B *C 1.5125 0.5125 
*I *33:g B *C 3.7275 1.0550 
*I *12:d B *C 1.8100 1.1450 
*I *13:d B *C 1.8100 1.1450 
*I *14:d B *C 2.2675 1.0950 
*I *15:d B *C 2.2675 1.0950 
*I *16:d B *C 2.7800 1.0950 
*I *17:d B *C 2.7800 1.0950 
*I *18:g B *C 0.2025 1.1225 
*I *19:g B *C 0.4075 1.1225 
*I *20:g B *C 0.6125 1.1225 
*I *21:g B *C 0.8175 1.1225 
*I *23:g B *C 1.0225 1.1225 
*I *24:g B *C 1.2275 1.1225 
*I *25:g B *C 1.4375 1.1225 
*N *54:23 *C 3.4900 0.5950 
*N *54:26 *C 2.8850 0.4700 

*CAP
0 *25:g 3.75638e-16
1 *16:d 3.02387e-16
2 *33:g 1.01784e-16
3 *67:d 8.51812e-17
4 *62:d 1.05975e-16
5 *29:g 3.42398e-17
6 *54:23 1.27863e-16

*RES
0 *33:g *54:23 105.570648  // $poly_conn
1 *54:23 *29:g 17.398676  // $poly_conn
2 *16:d *25:g 45.328018  // $metal1_conn
3 *54:23 *54:26 45.526138  // $metal1_conn
4 *67:d *54:26 75  // $metal1_conn
5 *62:d *16:d 75  // $metal1_conn
6 *54:26 *16:d 0.408693  // $metal1_conn

*END

*D_NET *53 9.42375e-16

*CONN
*I *30:d B *C 3.9875 0.3825 
*I *32:d B *C 3.9875 0.3825 
*I *62:g B *C 1.9125 0.4950 
*I *64:g B *C 2.1325 0.4950 
*I *67:g B *C 2.7825 0.4950 
*I *36:d B *C 3.9775 1.0550 
*I *38:d B *C 3.9775 1.0550 
*I *13:g B *C 1.9125 1.1450 
*I *14:g B *C 2.1475 1.0950 
*I *17:g B *C 2.8825 1.0950 
*N *53:14 *C 4.0200 0.9600 

*CAP
0 *17:g 5.74257e-16
1 *36:d 1.46965e-16
2 *67:g 6.7322e-17
3 *64:g 2.45546e-17
4 *62:g 3.40031e-17
5 *30:d 9.52729e-17

*RES
0 *17:g *67:g 55.24855  // $poly_conn
1 *17:g *64:g 44.215416  // $poly_conn
2 *17:g *62:g 36.285732  // $poly_conn
3 *36:d *53:14 62  // $metal1_conn
4 *53:14 *30:d 75.430763  // $metal1_conn
5 *17:g *53:14 0.888976  // $metal1_conn

*END

*D_NET *52 4.71017e-16

*CONN
*I *34:g B *C 4.5325 0.3825 
*I *41:d B *C 5.3975 0.3825 
*I *43:d B *C 5.3975 0.3825 
*I *40:g B *C 4.5325 1.0550 
*I *46:d B *C 5.7200 1.1500 
*I *47:d B *C 5.7200 1.1500 
*N *52:1 *C 4.6150 0.8000 
*N *52:2 *C 4.5325 0.8000 
*N *52:6 *C 5.3500 0.9050 

*CAP
0 *46:d 6.11104e-17
1 *40:g 4.57496e-17
2 *41:d 6.29552e-17
3 *34:g 4.12063e-17
4 *52:6 1.2916e-16
5 *52:2 2.3809e-17
6 *52:1 1.07026e-16

*RES
0 *52:1 *52:2 48.358204  // $poly_conn
1 *52:2 *34:g 75.691689  // $poly_conn
2 *52:2 *40:g 20.563484  // $poly_conn
3 *46:d *52:6 62.381237  // $metal1_conn
4 *52:6 *52:1 0.586371  // $metal1_conn
5 *52:6 *41:d 75.354652  // $metal1_conn

*END

*D_NET *28 4.53886e-16

*CONN
*I *32:s B *C 4.3900 0.3825 
*I *34:d B *C 4.3900 0.3825 
*I *39:g B *C 5.0475 0.3825 
*I *38:s B *C 4.3275 1.0550 
*I *40:d B *C 4.3275 1.0550 
*I *44:g B *C 5.1175 1.1850 
*N *28:2 *C 5.0100 0.7150 
*N *28:4 *C 4.4300 0.6100 

*CAP
0 *44:g 4.79117e-17
1 *38:s 6.94987e-17
2 *39:g 6.75508e-17
3 *32:s 4.31109e-17
4 *28:4 8.17583e-17
5 *28:2 1.44056e-16

*RES
0 *44:g *28:2 77.404114  // $poly_conn
1 *28:2 *39:g 49.488552  // $poly_conn
2 *28:2 *28:4 45.474636  // $metal1_conn
3 *28:4 *38:s 62.269005  // $metal1_conn
4 *28:4 *32:s 75.094826  // $metal1_conn

*END

*D_NET *27 1.62057e-16

*CONN
*I *42:d B *C 4.9575 1.1850 
*I *44:d B *C 4.9575 1.1850 
*I *46:s B *C 5.4750 1.1050 

*CAP
0 *46:s 8.13599e-17
1 *42:d 8.06973e-17

*RES
0 *46:s *42:d 124.265213  // $metal1_conn

*END

*D_NET *26 1.17888e-15

*CONN
*I *30:g B *C 3.7275 0.3825 
*I *43:g B *C 5.5675 0.3825 
*I *60:d B *C 6.4900 0.3225 
*I *68:g B *C 3.2675 0.5875 
*I *31:g B *C 3.3575 1.0075 
*I *38:g B *C 4.1225 1.0550 
*I *46:g B *C 5.5675 1.1050 
*I *11:d B *C 6.2950 1.1975 
*N *26:2 *C 3.3200 0.7850 
*N *26:5 *C 4.1225 0.7725 
*N *26:6 *C 3.7000 0.6100 
*N *26:7 *C 4.2650 0.8000 
*N *26:10 *C 5.5400 0.8150 
*N *26:12 *C 5.5300 1.3600 
*N *26:14 *C 6.3050 0.8250 

*CAP
0 *11:d 2.69342e-17
1 *46:g 3.56323e-17
2 *38:g 2.95424e-17
3 *31:g 3.96343e-17
4 *68:g 3.49257e-17
5 *60:d 6.29753e-17
6 *43:g 4.20548e-17
7 *30:g 2.92223e-17
8 *26:14 1.087e-16
9 *26:5 4.13296e-17
10 *26:2 9.68146e-17
11 *26:6 1.1992e-16
12 *26:7 1.8551e-16
13 *26:12 1.9483e-16
14 *26:10 1.30858e-16

*RES
0 *31:g *26:2 18.780884  // $poly_conn
1 *26:2 *68:g 24.754745  // $poly_conn
2 *38:g *26:5 28.184179  // $poly_conn
3 *26:5 *26:6 117.535995  // $poly_conn
4 *26:5 *26:7 71.490509  // $poly_conn
5 *26:6 *30:g 20.376194  // $poly_conn
6 *43:g *26:10 76.102211  // $poly_conn
7 *26:10 *46:g 26.102209  // $poly_conn
8 *46:g *26:12 61.15522  // $poly_conn
9 *26:6 *26:2 90.307358  // $metal1_conn
10 *26:12 *26:7 1.387191  // $metal1_conn
11 *60:d *26:14 75.483673  // $metal1_conn
12 *26:14 *26:10 45.546364  // $metal1_conn
13 *26:14 *11:d 62.311581  // $metal1_conn

*END

