*SPEF "IEEE 1481-1999"
*DESIGN  "DFFRX4"
*DATE "Mon Sep 27 09:32:17 2010"
*VENDOR "Cadence Design Systems"
*PROGRAM "Assura RCX"
*VERSION "3.2 Red Hat Linux release 7.2 (Enigma) - (09/09/2009-10:39)"
*DESIGN_FLOW "Physical Verification"
*DIVIDER /
*DELIMITER :
*BUS_DELIMITER []
*T_UNIT 1 PS
*C_UNIT 1e15 FF
*R_UNIT 1 OHM
*L_UNIT 1 MH
// DeviceFingerDelim "@"
// MATCHED
// caps2d version: 10

*NAME_MAP
*1 mn36
*2 n27
*3 n40
*4 n35
*5 n35\@1
*6 mn35
*7 mn30
*8 mn40
*9 mn51
*10 mn50
*11 mp46\@1
*12 mp45\@1
*13 mp55\@2
*14 mp55\@3
*15 mp20
*16 mp21
*17 mp25
*18 mp26
*19 mp37
*20 mp36
*21 mp35
*22 mp30
*23 VDD
*24 mp40
*25 mp51
*26 mp50
*27 n26
*28 mout
*29 mn55
*30 mn57
*31 mp55
*32 mn57\@1
*33 QN
*34 mp57
*35 mn57\@2
*36 VSS
*37 mp57\@1
*38 mn57\@3
*39 mp57\@2
*40 mn56
*41 mp57\@3
*42 mn45
*43 mp56
*44 mn46
*45 mp55\@1
*46 mn46\@1
*47 mp45
*48 mp46
*49 D
*50 CK
*51 RN
*52 Q
*53 qint
*54 n30
*55 n20
*56 qbint
*57 CKbb
*58 CKb
*59 n22
*60 n41
*61 mn45\@1
*62 n21
*63 mn55\@1
*64 n25
*65 mn55\@2
*66 mn55\@3
*67 mn20
*68 mn21
*69 mn25
*70 mn26
*71 mn37

*GROUND_NETS VSS

*PORTS
*23 I
*36 I
*50 I
*49 I
*51 I
*52 O
*33 O

*D_NET *23 9.20076e-16

*CONN
*P *23 I *C 0.1000 1.7100 
*I *31:s B *C 4.3350 1.1350 
*I *34:s B *C 4.3350 1.1350 
*I *37:s B *C 4.7550 1.1350 
*I *39:s B *C 4.7550 1.1350 
*I *41:s B *C 5.1650 1.1350 
*I *43:s B *C 5.1650 1.1350 
*I *45:s B *C 3.9150 1.1350 
*I *47:s B *C 2.6950 1.1750 
*I *48:s B *C 3.0750 1.1750 
*I *11:s B *C 3.0750 1.1750 
*I *12:s B *C 3.5150 1.1350 
*I *13:s B *C 3.5150 1.1350 
*I *14:s B *C 3.9150 1.1350 
*I *15:s B *C 0.1100 1.1325 
*I *16:s B *C 0.7800 1.1325 
*I *17:s B *C 0.7800 1.1325 
*I *20:s B *C 1.4550 1.1275 
*I *21:s B *C 1.8800 1.5700 
*I *22:s B *C 1.8800 1.5700 
*I *26:s B *C 2.6950 1.1750 
*N *23:2 *C 4.7000 1.7100 
*N *23:10 *C 1.8550 1.7100 
*N *23:11 *C 1.3600 1.7100 
*N *23:12 *C 1.0000 1.7100 
*N *23:13 *C 0.6950 1.7100 

*CAP
0 *21:s 1.62397e-17
1 *20:s 1.45063e-17
2 *16:s 1.42904e-17
3 *15:s 3.51134e-17
4 *48:s 5.65394e-17
5 *41:s 3.84862e-16
6 *23:13 1.9331e-17
7 *23:11 1.27563e-17
8 *23:10 2.28209e-17
9 *23:2 3.3393e-16
10 *23 9.6872e-18

*RES
0 *23 *15:s 62.360573  // $metal1_conn
1 *23:13 *23 0.298437  // $metal1_conn
2 *23:2 *41:s 8.333333  // $metal1_conn
3 *23:2 *41:s 8.333333  // $metal1_conn
4 *23:2 *23:12 7.5  // $metal1_conn
5 *41:s *48:s 31.338886  // $metal1_conn
6 *23:10 *21:s 62.045849  // $metal1_conn
7 *23:11 *20:s 62.045849  // $metal1_conn
8 *23:13 *16:s 62.07505  // $metal1_conn
9 *41:s *23:10 0.372512  // $metal1_conn
10 *23:10 *23:11 0.246107  // $metal1_conn
11 *23:11 *23:12 0.179508  // $metal1_conn
12 *23:12 *23:13 0.152858  // $metal1_conn

*END

*D_NET *36 0

*CONN
*P *36 I *C 0.1000 0.0000 
*I *29:s B *C 4.4400 0.5300 
*I *30:s B *C 4.4400 0.5300 
*I *32:s B *C 4.8500 0.5300 
*I *35:s B *C 4.8500 0.5300 
*I *38:s B *C 5.2375 0.5300 
*I *40:s B *C 5.2375 0.5300 
*I *42:s B *C 2.7925 0.3675 
*I *61:s B *C 3.5000 0.5300 
*I *63:s B *C 3.5000 0.5300 
*I *65:s B *C 3.9700 0.5300 
*I *66:s B *C 3.9700 0.5300 
*I *67:s B *C 0.1550 0.5075 
*I *68:s B *C 0.7000 0.5075 
*I *69:s B *C 0.9550 0.5075 
*I *6:s B *C 1.7625 0.5075 
*I *7:s B *C 1.7625 0.5075 
*I *10:s B *C 2.7925 0.3675 
*N *36:3 *C 4.7000 0.0000 
*N *36:8 *C 2.9000 0.0000 
*N *36:9 *C 2.7050 0.0000 
*N *36:10 *C 1.7650 0.0000 
*N *36:11 *C 1.0000 0.0000 
*N *36:12 *C 0.9000 0.0000 
*N *36:13 *C 0.6800 0.0000 
*N *36:14 *C 0.1400 0.0000 


*RES
0 *36:14 *36 0.019623  // $metal1_conn
1 *36:3 *38:s 6.888889  // $metal1_conn
2 *36:3 *36:8 6.888889  // $metal1_conn
3 *36:3 *36:11 6.2  // $metal1_conn
4 *36:9 *42:s 75.045845  // $metal1_conn
5 *36:10 *6:s 75.257591  // $metal1_conn
6 *36:12 *69:s 75.328148  // $metal1_conn
7 *36:13 *68:s 75.340271  // $metal1_conn
8 *36:14 *67:s 75.110764  // $metal1_conn
9 *38:s *36:8 0.25729  // $metal1_conn
10 *36:8 *36:9 0.096708  // $metal1_conn
11 *36:9 *36:10 0.469935  // $metal1_conn
12 *36:10 *36:11 0.383263  // $metal1_conn
13 *36:11 *36:12 0.049986  // $metal1_conn
14 *36:12 *36:13 0.110008  // $metal1_conn
15 *36:13 *36:14 0.270589  // $metal1_conn

*END

*D_NET *50 1.57122e-16

*CONN
*P *50 I *C 0.1650 0.8550 
*I *67:g B *C 0.2025 0.5075 
*I *15:g B *C 0.2025 1.1325 
*N *50:2 *C 0.1750 0.7700 
*N *50:4 *C 0.1700 0.7700 

*CAP
0 *15:g 2.71591e-17
1 *67:g 2.34759e-17
2 *50:4 4.53172e-17
3 *50:2 2.0418e-17
4 *50 4.07522e-17

*RES
0 *15:g *50:2 56.871437  // $poly_conn
1 *50:2 *67:g 40.204773  // $poly_conn
2 *50:4 *50 0.055721  // $metal1_conn
3 *50:2 *50:4 45  // $metal1_conn

*END

*D_NET *49 3.21754e-16

*CONN
*P *49 I *C 0.6850 1.0450 
*I *69:g B *C 1.0625 0.5075 
*I *17:g B *C 0.8275 1.1325 
*N *49:2 *C 0.8275 0.8150 
*N *49:3 *C 0.7500 0.8150 

*CAP
0 *17:g 6.77261e-17
1 *69:g 7.59467e-17
2 *49:2 3.97665e-17
3 *49:3 8.39881e-17
4 *49 5.43263e-17

*RES
0 *69:g *49:2 107.897888  // $poly_conn
1 *49:2 *49:3 50.432648  // $poly_conn
2 *49:2 *17:g 44.031902  // $poly_conn
3 *49 *49:3 0.133444  // $metal1_conn

*END

*D_NET *51 9.99407e-16

*CONN
*P *51 I *C 1.9200 0.6650 
*I *42:g B *C 2.8425 0.3675 
*I *61:g B *C 3.2825 0.3675 
*I *6:g B *C 1.6075 0.5075 
*I *47:g B *C 2.7675 1.1750 
*I *12:g B *C 3.3825 1.1750 
*I *21:g B *C 1.7225 1.1275 
*N *51:2 *C 1.6350 0.8800 

*CAP
0 *21:g 4.88923e-17
1 *12:g 4.44975e-16
2 *6:g 7.5834e-17
3 *61:g 5.65299e-17
4 *42:g 4.40074e-17
5 *51:2 1.35112e-16
6 *51 1.94056e-16

*RES
0 *21:g *51:2 33.31813  // $poly_conn
1 *12:g *61:g 24.820156  // $poly_conn
2 *42:g *12:g 18.425531  // $poly_conn
3 *51:2 *6:g 65.247986  // $poly_conn
4 *51 *51:2 45.437  // $metal1_conn
5 *12:g *51 0.996559  // $metal1_conn

*END

*D_NET *52 2.70974e-16

*CONN
*P *52 O *C 3.7650 0.8550 
*I *29:d B *C 4.1200 0.5300 
*I *63:d B *C 3.6500 0.5300 
*I *65:d B *C 3.6500 0.5300 
*I *66:d B *C 4.1200 0.5300 
*I *31:d B *C 4.1200 1.1350 
*I *45:d B *C 4.1200 1.1350 
*I *13:d B *C 3.7000 1.1350 
*I *14:d B *C 3.7000 1.1350 

*CAP
0 *31:d 1.47276e-16
1 *29:d 9.93086e-17
2 *52 2.43895e-17

*RES
0 *31:d *52 0.051817  // $metal1_conn
1 *52 *29:d 0.182122  // $metal1_conn

*END

*D_NET *33 2.3401e-16

*CONN
*P *33 O *C 4.5600 1.0450 
*I *30:d B *C 4.5900 0.5300 
*I *32:d B *C 4.5900 0.5300 
*I *35:d B *C 5.0000 0.5300 
*I *38:d B *C 5.0000 0.5300 
*I *34:d B *C 4.5500 1.1350 
*I *37:d B *C 4.5500 1.1350 
*I *39:d B *C 4.9600 1.1350 
*I *41:d B *C 4.9600 1.1350 

*CAP
0 *39:d 1.12257e-16
1 *30:d 9.86103e-17
2 *33 2.31427e-17

*RES
0 *30:d *33 0.273761  // $metal1_conn
1 *33 *39:d 0.025261  // $metal1_conn

*END

*D_NET *5 1.67967e-18

*CONN
*I *46:s B *C 3.2300 0.3675 
*I *61:d B *C 3.2300 0.3675 

*CAP
0 *46:s 1.67967e-18

*RES
0 *61:d *46:s 0.001  // $mwires

*END

*D_NET *4 0

*CONN
*I *42:d B *C 2.9075 0.3675 
*I *44:s B *C 2.9075 0.3675 


*RES
0 *44:s *42:d 0.001  // $mwires

*END

*D_NET *3 1.09837e-18

*CONN
*I *9:s B *C 2.4925 0.5075 
*I *10:d B *C 2.4925 0.5075 

*CAP
0 *9:s 1.09837e-18

*RES
0 *10:d *9:s 0.001  // $mwires

*END

*D_NET *2 0

*CONN
*I *1:s B *C 1.5550 0.5075 
*I *6:d B *C 1.5550 0.5075 


*RES
0 *6:d *1:s 0.001  // $mwires

*END

*D_NET *64 0

*CONN
*I *71:s B *C 1.4375 0.5075 
*I *1:d B *C 1.4375 0.5075 


*RES
0 *1:d *71:s 0.001  // $mwires

*END

*D_NET *62 5.18951e-20

*CONN
*I *69:d B *C 1.1150 0.5075 
*I *70:s B *C 1.1150 0.5075 

*CAP
0 *69:d 5.18951e-20

*RES
0 *70:s *69:d 0.001  // $mwires

*END

*D_NET *60 5.56498e-19

*CONN
*I *25:s B *C 2.4200 1.1275 
*I *26:d B *C 2.4200 1.1275 

*CAP
0 *25:s 5.56498e-19

*RES
0 *26:d *25:s 0.001  // $mwires

*END

*D_NET *59 0

*CONN
*I *17:d B *C 0.8800 1.1325 
*I *18:s B *C 0.8800 1.1325 


*RES
0 *18:s *17:d 0.001  // $mwires

*END

*D_NET *58 1.03312e-15

*CONN
*I *67:d B *C 0.2950 0.5075 
*I *68:g B *C 0.6075 0.5075 
*I *70:g B *C 1.1675 0.5075 
*I *9:g B *C 2.4125 0.5075 
*I *15:d B *C 0.3450 1.1800 
*I *16:g B *C 0.6075 1.1325 
*I *19:g B *C 1.1375 1.1325 
*I *24:g B *C 2.1375 1.1275 
*N *58:2 *C 0.5700 1.3700 
*N *58:6 *C 1.1000 1.3400 
*N *58:8 *C 2.1000 1.3400 
*N *58:10 *C 2.3850 0.7600 
*N *58:12 *C 0.3050 1.1800 

*CAP
0 *24:g 6.56632e-17
1 *19:g 5.4434e-17
2 *16:g 4.37681e-17
3 *15:d 9.06853e-17
4 *9:g 3.79721e-17
5 *70:g 7.75769e-17
6 *68:g 4.28288e-17
7 *67:d 7.92709e-17
8 *58:2 8.81358e-17
9 *58:6 1.42777e-16
10 *58:8 1.55803e-16
11 *58:10 1.54208e-16

*RES
0 *16:g *58:2 68.847527  // $poly_conn
1 *16:g *68:g 114.102562  // $poly_conn
2 *70:g *19:g 121.262177  // $poly_conn
3 *19:g *58:6 61.15522  // $poly_conn
4 *24:g *58:8 62.437271  // $poly_conn
5 *9:g *58:10 82.640671  // $poly_conn
6 *58:10 *58:8 0.639707  // $metal1_conn
7 *58:8 *58:6 0.724255  // $metal1_conn
8 *58:6 *58:2 0.36803  // $metal1_conn
9 *58:2 *58:12 0.292195  // $metal1_conn
10 *58:12 *67:d 75.494492  // $metal1_conn
11 *15:d *58:12 62  // $metal1_conn

*END

*D_NET *57 8.21245e-16

*CONN
*I *68:d B *C 0.5150 0.5075 
*I *71:g B *C 1.3725 0.5075 
*I *8:g B *C 2.1525 0.5075 
*I *16:d B *C 0.5350 1.1325 
*I *18:g B *C 0.9325 1.1325 
*I *25:g B *C 2.3425 1.1275 
*N *57:2 *C 0.9700 0.9200 
*N *57:4 *C 1.3350 0.2500 
*N *57:7 *C 1.6000 0.2050 
*N *57:8 *C 0.9400 0.6550 
*N *57:9 *C 0.5050 0.6550 

*CAP
0 *25:g 8.70712e-17
1 *18:g 6.13663e-17
2 *16:d 5.98348e-17
3 *8:g 9.00624e-17
4 *71:g 4.41798e-17
5 *68:d 2.58112e-17
6 *57:9 6.54756e-17
7 *57:8 1.07093e-16
8 *57:2 8.75154e-17
9 *57:4 9.04776e-17
10 *57:7 1.02358e-16

*RES
0 *18:g *57:2 62.437271  // $poly_conn
1 *71:g *57:4 81.62944  // $poly_conn
2 *25:g *8:g 137.882401  // $poly_conn
3 *8:g *57:7 222.588181  // $poly_conn
4 *57:7 *57:4 0.189988  // $metal1_conn
5 *57:4 *57:8 0.583973  // $metal1_conn
6 *57:8 *57:9 0.316517  // $metal1_conn
7 *57:9 *68:d 75.09864  // $metal1_conn
8 *57:8 *57:2 0.16046  // $metal1_conn
9 *57:9 *16:d 62.35466  // $metal1_conn

*END

*D_NET *56 1.21869e-15

*CONN
*I *29:g B *C 4.2225 0.5300 
*I *40:g B *C 5.3725 0.5300 
*I *44:d B *C 3.0750 0.3675 
*I *46:d B *C 3.0750 0.3675 
*I *63:g B *C 3.5475 0.5300 
*I *65:g B *C 3.7525 0.5300 
*I *66:g B *C 4.0175 0.5300 
*I *10:g B *C 2.5725 0.5075 
*I *31:g B *C 4.2225 1.1350 
*I *43:g B *C 5.2675 1.1350 
*I *45:g B *C 4.0175 1.1350 
*I *47:d B *C 2.8700 1.1750 
*I *48:d B *C 2.8700 1.1750 
*I *11:d B *C 3.2800 1.1750 
*I *12:d B *C 3.2800 1.1750 
*I *13:g B *C 3.5875 1.1350 
*I *14:g B *C 3.8125 1.1350 
*I *26:g B *C 2.4975 1.1275 
*N *56:2 *C 2.5350 0.9200 
*N *56:20 *C 5.3050 0.7600 
*N *56:26 *C 4.3100 0.4100 

*CAP
0 *26:g 3.90485e-17
1 *11:d 1.91803e-16
2 *43:g 4.39327e-17
3 *31:g 3.2183e-16
4 *10:g 5.46705e-17
5 *44:d 9.81509e-17
6 *40:g 2.15275e-17
7 *56:26 1.74604e-16
8 *56:2 8.74093e-17
9 *56:20 1.8571e-16

*RES
0 *56:20 *43:g 36.668037  // $poly_conn
1 *56:2 *26:g 18.425531  // $poly_conn
2 *40:g *56:20 24.516109  // $poly_conn
3 *10:g *56:2 79.963989  // $poly_conn
4 *56:20 *56:26 45.970829  // $metal1_conn
5 *56:26 *31:g 45.245712  // $metal1_conn
6 *31:g *11:d 45.246704  // $metal1_conn
7 *11:d *56:2 45.263092  // $metal1_conn
8 *56:26 *44:d 75.905685  // $metal1_conn

*END

*D_NET *55 3.89393e-16

*CONN
*I *70:d B *C 1.2700 0.5075 
*I *71:d B *C 1.2700 0.5075 
*I *7:g B *C 1.9175 0.5075 
*I *18:d B *C 1.0350 1.1325 
*I *19:d B *C 1.0350 1.1325 
*I *22:g B *C 1.9175 1.1275 
*N *55:2 *C 1.9175 0.6775 
*N *55:3 *C 1.7500 0.6800 
*N *55:5 *C 1.2400 0.6800 

*CAP
0 *22:g 6.7881e-17
1 *18:d 8.16645e-17
2 *7:g 3.48519e-17
3 *70:d 3.02341e-17
4 *55:5 5.14364e-17
5 *55:2 2.87486e-17
6 *55:3 9.45762e-17

*RES
0 *22:g *55:2 86.66851  // $poly_conn
1 *55:2 *55:3 72.979408  // $poly_conn
2 *55:2 *7:g 23.847994  // $poly_conn
3 *55:3 *55:5 0.35432  // $metal1_conn
4 *55:5 *18:d 62.407902  // $metal1_conn
5 *55:5 *70:d 75.110992  // $metal1_conn

*END

*D_NET *54 5.49652e-16

*CONN
*I *44:g B *C 2.9725 0.3675 
*I *46:g B *C 3.1775 0.3675 
*I *8:d B *C 2.2825 0.5075 
*I *9:d B *C 2.2825 0.5075 
*I *48:g B *C 2.9725 1.1750 
*I *11:g B *C 3.1775 1.1750 
*I *24:d B *C 2.2400 1.1275 
*I *25:d B *C 2.2400 1.1275 
*N *54:4 *C 3.1775 0.5675 
*N *54:8 *C 2.2550 0.6000 

*CAP
0 *24:d 7.89343e-17
1 *11:g 2.28066e-16
2 *8:d 2.57239e-17
3 *46:g 4.15374e-17
4 *44:g 4.51389e-17
5 *54:8 9.99475e-17
6 *54:4 3.03038e-17

*RES
0 *54:4 *46:g 23.847994  // $poly_conn
1 *54:4 *44:g 66.950577  // $poly_conn
2 *11:g *54:4 56.670349  // $poly_conn
3 *11:g *54:8 45.60878  // $metal1_conn
4 *54:8 *8:d 75.063858  // $metal1_conn
5 *54:8 *24:d 62.395775  // $metal1_conn

*END

*D_NET *53 3.88794e-16

*CONN
*I *30:g B *C 4.4875 0.5300 
*I *32:g B *C 4.6925 0.5300 
*I *35:g B *C 4.8975 0.5300 
*I *38:g B *C 5.1025 0.5300 
*I *40:d B *C 5.4650 0.5300 
*I *34:g B *C 4.4475 1.1350 
*I *37:g B *C 4.6525 1.1350 
*I *39:g B *C 4.8575 1.1350 
*I *41:g B *C 5.0625 1.1350 
*I *43:d B *C 5.3600 1.1350 
*N *53:17 *C 5.3675 0.9500 
*N *53:19 *C 5.4750 0.6000 

*CAP
0 *43:d 3.13286e-17
1 *41:g 2.78208e-16
2 *40:d 4.46126e-17
3 *53:17 3.46457e-17

*RES
0 *53:17 *41:g 45.236629  // $metal1_conn
1 *43:d *53:17 20.782766  // $metal1_conn
2 *40:d *53:19 75  // $metal1_conn
3 *53:17 *53:19 0.3037  // $metal1_conn

*END

*D_NET *28 5.0034e-16

*CONN
*I *1:g B *C 1.5025 0.5075 
*I *7:d B *C 2.0350 0.5075 
*I *8:s B *C 2.0350 0.5075 
*I *20:g B *C 1.5025 1.1275 
*I *22:d B *C 2.0275 1.1275 
*I *24:s B *C 2.0275 1.1275 
*N *28:2 *C 1.5025 0.9100 
*N *28:3 *C 1.4500 0.9100 
*N *28:6 *C 2.0350 1.0000 

*CAP
0 *22:d 3.10047e-17
1 *20:g 3.66323e-17
2 *7:d 8.77907e-17
3 *1:g 8.1247e-17
4 *28:6 1.05312e-16
5 *28:3 1.58354e-16

*RES
0 *20:g *28:2 24.894089  // $poly_conn
1 *28:2 *28:3 45.361767  // $poly_conn
2 *28:2 *1:g 81.304344  // $poly_conn
3 *7:d *28:6 75.447342  // $metal1_conn
4 *28:6 *28:3 0.526766  // $metal1_conn
5 *28:6 *22:d 62.08749  // $metal1_conn

*END

*D_NET *27 1.47324e-16

*CONN
*I *19:s B *C 1.2800 1.1150 
*I *20:d B *C 1.6125 1.1275 
*I *21:d B *C 1.6125 1.1275 

*CAP
0 *20:d 8.15436e-17
1 *19:s 6.578e-17

*RES
0 *20:d *19:s 124.212708  // $metal1_conn

*END

