*SPEF "IEEE 1481-1999"
*DESIGN  "DFFRHQX2"
*DATE "Mon Sep 27 09:30:23 2010"
*VENDOR "Cadence Design Systems"
*PROGRAM "Assura RCX"
*VERSION "3.2 Red Hat Linux release 7.2 (Enigma) - (09/09/2009-10:39)"
*DESIGN_FLOW "Physical Verification"
*DIVIDER /
*DELIMITER :
*BUS_DELIMITER []
*T_UNIT 1 PS
*C_UNIT 1e15 FF
*R_UNIT 1 OHM
*L_UNIT 1 MH
// DeviceFingerDelim "@"
// MATCHED
// caps2d version: 10

*NAME_MAP
*1 mp36
*2 mp37
*3 mp26
*4 mp25
*5 mp21
*6 mp40
*7 n21
*8 mp55
*9 Q
*10 RN
*11 VDD
*12 mn30
*13 mn20
*14 mn35
*15 mn46
*16 mn36
*17 CK
*18 mn45
*19 mn37
*20 mn50
*21 mn26
*22 mn51
*23 mn25
*24 mn40
*25 mn21
*26 mn55
*27 mn55\@1
*28 n26
*29 mout
*30 n30
*31 n20
*32 qbint
*33 CKbb
*34 CKb
*35 n41
*36 mp55\@1
*37 n22
*38 mp20
*39 n35
*40 mp46
*41 n40
*42 D
*43 VSS
*44 mp45
*45 n27
*46 mp50
*47 n25
*48 mp51
*49 mp30
*50 mp35

*GROUND_NETS VSS

*PORTS
*11 I
*43 I
*17 I
*42 I
*10 I
*9 O

*D_NET *11 6.74236e-16

*CONN
*P *11 I *C 0.1000 1.7100 
*I *49:s B *C 2.7950 1.1400 
*I *50:s B *C 2.7950 1.1400 
*I *1:s B *C 3.3150 1.3075 
*I *4:s B *C 4.3250 1.5700 
*I *5:s B *C 4.3250 1.5700 
*I *8:s B *C 0.1150 1.1100 
*I *36:s B *C 0.5675 1.1975 
*I *38:s B *C 0.5675 1.1975 
*I *40:s B *C 1.1025 1.3100 
*I *44:s B *C 1.7900 1.1400 
*I *46:s B *C 1.7900 1.1400 
*N *11:2 *C 3.5000 1.7100 
*N *11:3 *C 3.5000 1.7100 
*N *11:4 *C 3.3150 1.7100 
*N *11:5 *C 2.6700 1.7100 
*N *11:6 *C 1.7350 1.7100 
*N *11:7 *C 1.2000 1.7100 
*N *11:8 *C 1.0350 1.7100 

*CAP
0 *44:s 3.46313e-17
1 *40:s 3.53467e-17
2 *4:s 3.72427e-17
3 *1:s 2.24763e-17
4 *49:s 4.11357e-17
5 *11:8 9.4091e-18
6 *11:6 3.23018e-17
7 *11:5 3.37989e-17
8 *11:4 1.52776e-17
9 *11:2 3.085e-16
10 *11 1.04116e-16

*RES
0 *11:2 *11:3 6.818182  // $metal1_conn
1 *11:2 *11:7 6.25  // $metal1_conn
2 *4:s *11:3 62.517105  // $metal1_conn
3 *11:4 *1:s 62.045856  // $metal1_conn
4 *11:5 *49:s 62.211472  // $metal1_conn
5 *11:6 *44:s 62.18235  // $metal1_conn
6 *11:8 *40:s 62.188293  // $metal1_conn
7 *11:3 *11:4 0.091705  // $metal1_conn
8 *11:4 *11:5 0.322384  // $metal1_conn
9 *11:5 *11:6 0.468886  // $metal1_conn
10 *11:6 *11:7 0.268321  // $metal1_conn
11 *11:7 *11:8 0.082618  // $metal1_conn
12 *11:8 *11 0.260597  // $metal1_conn

*END

*D_NET *43 0

*CONN
*P *43 I *C 0.1000 0.0000 
*I *12:s B *C 2.9300 0.4925 
*I *14:s B *C 2.9300 0.4925 
*I *23:s B *C 3.9800 0.3800 
*I *25:s B *C 4.3150 0.5875 
*I *26:s B *C 0.1150 0.5200 
*I *27:s B *C 0.6050 0.4625 
*I *13:s B *C 0.6050 0.4625 
*I *18:s B *C 1.5850 0.4075 
*I *20:s B *C 1.5850 0.4075 
*N *43:2 *C 3.9500 0.0000 
*N *43:3 *C 3.5000 0.0000 
*N *43:4 *C 3.5000 0.0000 
*N *43:5 *C 2.8750 0.0000 
*N *43:6 *C 1.6150 0.0000 
*N *43:7 *C 1.2000 0.0000 


*RES
0 *43:3 *43:4 5.636364  // $metal1_conn
1 *43:3 *43:7 5.166667  // $metal1_conn
2 *25:s *43:2 75.241852  // $metal1_conn
3 *43:2 *23:s 75.120476  // $metal1_conn
4 *43:5 *12:s 75.229393  // $metal1_conn
5 *43:6 *18:s 75.222672  // $metal1_conn
6 *43:2 *43:4 0.22566  // $metal1_conn
7 *43:4 *43:5 0.313493  // $metal1_conn
8 *43:5 *43:6 0.632004  // $metal1_conn
9 *43:6 *43:7 0.208093  // $metal1_conn
10 *43:7 *43 0.358664  // $metal1_conn

*END

*D_NET *17 2.19693e-16

*CONN
*P *17 I *C 0.7000 1.0450 
*I *13:g B *C 0.6975 0.4625 
*I *38:g B *C 0.6225 1.1975 
*N *17:2 *C 0.6600 0.7700 

*CAP
0 *38:g 3.89343e-17
1 *13:g 2.9256e-17
2 *17:2 9.28073e-17
3 *17 5.86958e-17

*RES
0 *13:g *17:2 53.040916  // $poly_conn
1 *17:2 *38:g 74.835785  // $poly_conn
2 *17:2 *17 45.09491  // $metal1_conn

*END

*D_NET *42 3.01416e-16

*CONN
*P *42 I *C 4.1000 0.6650 
*I *23:g B *C 3.8475 0.4925 
*I *4:g B *C 4.1675 1.2700 
*N *42:2 *C 4.1300 0.7600 

*CAP
0 *4:g 9.55807e-17
1 *23:g 5.53951e-17
2 *42:2 7.98411e-17
3 *42 7.05993e-17

*RES
0 *4:g *42:2 81.539833  // $poly_conn
1 *42:2 *23:g 90.103203  // $poly_conn
2 *42:2 *42 45.066349  // $metal1_conn

*END

*D_NET *10 5.07631e-16

*CONN
*P *10 I *C 1.7000 0.8550 
*I *14:g B *C 2.9775 0.4925 
*I *18:g B *C 1.4825 0.4075 
*I *50:g B *C 2.8525 1.1400 
*I *44:g B *C 1.5075 1.3100 
*N *10:4 *C 1.5450 1.0550 

*CAP
0 *44:g 7.60629e-17
1 *50:g 1.18183e-16
2 *18:g 9.44184e-17
3 *14:g 6.89258e-17
4 *10:4 1.03065e-16
5 *10 4.69757e-17

*RES
0 *14:g *50:g 120.223251  // $poly_conn
1 *50:g *44:g 426.633484  // $poly_conn
2 *44:g *10:4 16.15522  // $poly_conn
3 *10:4 *18:g 141.622894  // $poly_conn
4 *10:4 *10 45.185913  // $metal1_conn

*END

*D_NET *9 1.26013e-16

*CONN
*P *9 O *C 0.3000 0.6650 
*I *26:d B *C 0.3100 0.5200 
*I *27:d B *C 0.3100 0.5200 
*I *8:d B *C 0.3100 1.1100 
*I *36:d B *C 0.3100 1.1100 

*CAP
0 *8:d 8.62259e-17
1 *26:d 1.51916e-17
2 *9 2.45959e-17

*RES
0 *9 *8:d 20.934566  // $metal1_conn
1 *9 *26:d 75.045151  // $metal1_conn

*END

*D_NET *7 1.56139e-18

*CONN
*I *21:s B *C 3.7750 0.4925 
*I *23:d B *C 3.7750 0.4925 

*CAP
0 *21:s 1.56139e-18

*RES
0 *23:d *21:s 0.001  // $mwires

*END

*D_NET *47 4.8171e-18

*CONN
*I *16:d B *C 3.2925 0.4925 
*I *19:s B *C 3.2925 0.4925 

*CAP
0 *16:d 4.8171e-18

*RES
0 *19:s *16:d 0.001  // $mwires

*END

*D_NET *45 4.70166e-18

*CONN
*I *14:d B *C 3.0800 0.4925 
*I *16:s B *C 3.0800 0.4925 

*CAP
0 *14:d 4.70166e-18

*RES
0 *16:s *14:d 0.001  // $mwires

*END

*D_NET *41 3.50006e-18

*CONN
*I *20:d B *C 1.7950 0.4075 
*I *22:s B *C 1.7950 0.4075 

*CAP
0 *20:d 3.50006e-18

*RES
0 *22:s *20:d 0.001  // $mwires

*END

*D_NET *39 1.73071e-18

*CONN
*I *15:s B *C 1.4175 0.4075 
*I *18:d B *C 1.4175 0.4075 

*CAP
0 *15:s 1.73071e-18

*RES
0 *18:d *15:s 0.001  // $mwires

*END

*D_NET *37 1.67153e-18

*CONN
*I *3:s B *C 4.1150 1.2700 
*I *4:d B *C 4.1150 1.2700 

*CAP
0 *3:s 1.67153e-18

*RES
0 *4:d *3:s 0.001  // $mwires

*END

*D_NET *35 3.95962e-18

*CONN
*I *46:d B *C 1.9250 1.1400 
*I *48:s B *C 1.9250 1.1400 

*CAP
0 *46:d 3.95962e-18

*RES
0 *48:s *46:d 0.001  // $mwires

*END

*D_NET *34 1.41712e-15

*CONN
*I *21:g B *C 3.7025 0.4925 
*I *25:g B *C 4.3625 0.5875 
*I *13:d B *C 0.8725 0.4625 
*I *22:g B *C 1.9025 0.4075 
*I *2:g B *C 3.6825 1.2700 
*I *5:g B *C 4.3625 1.0325 
*I *6:g B *C 2.2825 1.1400 
*I *38:d B *C 0.7150 1.1975 
*N *34:2 *C 1.8650 0.6850 
*N *34:4 *C 2.2450 0.8700 
*N *34:6 *C 3.6925 1.0150 
*N *34:7 *C 3.6450 1.0150 
*N *34:11 *C 4.4700 1.2650 
*N *34:12 *C 3.6750 1.3950 
*N *34:13 *C 2.2750 1.1975 
*N *34:14 *C 1.8950 1.2550 
*N *34:15 *C 0.9650 1.2150 

*CAP
0 *38:d 4.20781e-17
1 *6:g 3.37036e-17
2 *5:g 3.31865e-17
3 *2:g 2.92474e-17
4 *22:g 4.59141e-17
5 *13:d 1.05624e-16
6 *25:g 2.89485e-17
7 *21:g 6.3615e-17
8 *34:15 1.34353e-16
9 *34:14 1.42046e-16
10 *34:13 1.5332e-16
11 *34:12 1.92662e-16
12 *34:2 1.22875e-16
13 *34:4 9.05977e-17
14 *34:7 8.76964e-17
15 *34:11 1.1125e-16

*RES
0 *22:g *34:2 80.385986  // $poly_conn
1 *6:g *34:4 65.001373  // $poly_conn
2 *21:g *34:6 105.25425  // $poly_conn
3 *34:6 *34:7 45.794373  // $poly_conn
4 *34:6 *2:g 25.521706  // $poly_conn
5 *5:g *25:g 67.948715  // $poly_conn
6 *5:g *34:11 83.136909  // $poly_conn
7 *34:7 *34:12 0.263753  // $metal1_conn
8 *34:12 *34:13 1.160746  // $metal1_conn
9 *34:13 *34:14 0.348613  // $metal1_conn
10 *34:14 *34:15 0.921572  // $metal1_conn
11 *34:15 *38:d 62.174442  // $metal1_conn
12 *34:12 *34:11 0.665531  // $metal1_conn
13 *34:13 *34:4 0.24281  // $metal1_conn
14 *34:14 *34:2 0.435281  // $metal1_conn
15 *34:15 *13:d 75.543083  // $metal1_conn

*END

*D_NET *33 9.41877e-16

*CONN
*I *19:g B *C 3.4025 0.4925 
*I *25:d B *C 4.4550 0.5875 
*I *24:g B *C 2.2075 0.4925 
*I *3:g B *C 4.0625 1.2700 
*I *5:d B *C 4.4550 1.0325 
*I *48:g B *C 2.0125 1.1400 
*N *33:2 *C 2.2450 0.6950 
*N *33:5 *C 3.4400 0.6950 
*N *33:7 *C 4.0250 1.0150 
*N *33:10 *C 4.4650 1.0450 
*N *33:11 *C 4.3050 1.0150 
*N *33:12 *C 3.4100 0.5350 

*CAP
0 *48:g 6.71577e-17
1 *5:d 2.85166e-17
2 *3:g 6.03536e-17
3 *24:g 2.64689e-17
4 *25:d 1.33119e-17
5 *19:g 3.62435e-17
6 *33:12 2.7029e-16
7 *33:11 1.14857e-16
8 *33:2 1.84815e-16
9 *33:5 6.61844e-17
10 *33:7 7.36782e-17

*RES
0 *24:g *33:2 16.15522  // $poly_conn
1 *33:2 *48:g 98.131119  // $poly_conn
2 *19:g *33:5 61.15522  // $poly_conn
3 *3:g *33:7 61.15522  // $poly_conn
4 *25:d *33:10 75.327827  // $metal1_conn
5 *33:10 *33:11 0.113434  // $metal1_conn
6 *33:11 *33:12 1.247554  // $metal1_conn
7 *33:12 *33:2 46.189278  // $metal1_conn
8 *33:11 *33:7 0.218562  // $metal1_conn
9 *33:12 *33:5 0.113434  // $metal1_conn
10 *5:d *33:10 62  // $metal1_conn

*END

*D_NET *32 7.87638e-16

*CONN
*I *26:g B *C 0.2075 0.5200 
*I *27:g B *C 0.4125 0.5200 
*I *15:d B *C 1.2275 0.4075 
*I *20:g B *C 1.6875 0.4075 
*I *8:g B *C 0.2075 1.1100 
*I *36:g B *C 0.4125 1.1100 
*I *40:d B *C 1.3800 1.3100 
*I *44:d B *C 1.3800 1.3100 
*I *46:g B *C 1.8375 1.1400 
*N *32:6 *C 0.4700 0.7600 
*N *32:9 *C 1.6450 0.6850 
*N *32:11 *C 1.3550 0.7700 
*N *32:13 *C 1.1850 0.3650 

*CAP
0 *46:g 7.71275e-17
1 *40:d 5.96774e-17
2 *36:g 1.23938e-16
3 *20:g 3.88464e-17
4 *15:d 1.40693e-16
5 *32:11 8.80616e-17
6 *32:6 1.47706e-16
7 *32:9 1.11587e-16

*RES
0 *46:g *32:9 92.75013  // $poly_conn
1 *32:9 *20:g 34.065342  // $poly_conn
2 *36:g *32:6 47.912865  // $poly_conn
3 *32:9 *32:11 45.267735  // $metal1_conn
4 *32:13 *32:6 0.892487  // $metal1_conn
5 *32:11 *40:d 62.293987  // $metal1_conn
6 *15:d *32:13 75  // $metal1_conn
7 *32:11 *32:13 0.508199  // $metal1_conn

*END

*D_NET *31 4.94085e-16

*CONN
*I *12:g B *C 2.6725 0.4925 
*I *19:d B *C 3.5525 0.4925 
*I *21:d B *C 3.5525 0.4925 
*I *49:g B *C 2.5675 1.1400 
*I *2:d B *C 3.8725 1.2700 
*I *3:d B *C 3.8725 1.2700 
*N *31:2 *C 2.7100 0.8850 
*N *31:5 *C 3.6300 0.8550 

*CAP
0 *2:d 7.0421e-17
1 *49:g 5.30242e-17
2 *19:d 5.29672e-17
3 *12:g 4.19412e-17
4 *31:5 1.25152e-16
5 *31:2 1.50579e-16

*RES
0 *12:g *31:2 64.873169  // $poly_conn
1 *31:2 *49:g 52.266846  // $poly_conn
2 *2:d *31:5 62.38409  // $metal1_conn
3 *31:5 *31:2 45.675892  // $metal1_conn
4 *31:5 *19:d 75.209259  // $metal1_conn

*END

*D_NET *30 4.32527e-16

*CONN
*I *15:g B *C 1.3525 0.4075 
*I *22:d B *C 2.1350 0.4925 
*I *24:d B *C 2.1350 0.4925 
*I *6:d B *C 2.1475 1.1400 
*I *40:g B *C 1.2525 1.3100 
*I *48:d B *C 2.1475 1.1400 
*N *30:2 *C 1.3150 0.6100 
*N *30:5 *C 2.0550 0.5250 

*CAP
0 *40:g 4.61303e-17
1 *6:d 9.31636e-17
2 *22:d 2.38285e-17
3 *15:g 3.67496e-17
4 *30:5 8.68669e-17
5 *30:2 1.45788e-16

*RES
0 *15:g *30:2 16.15522  // $poly_conn
1 *30:2 *40:g 143.373901  // $poly_conn
2 *22:d *30:5 75.064636  // $metal1_conn
3 *30:5 *30:2 45.554356  // $metal1_conn
4 *30:5 *6:d 62.43882  // $metal1_conn

*END

*D_NET *29 3.99615e-16

*CONN
*I *12:d B *C 2.4400 0.4925 
*I *16:g B *C 3.1825 0.4925 
*I *24:s B *C 2.4400 0.4925 
*I *49:d B *C 2.4250 1.1400 
*I *1:g B *C 3.1825 1.1400 
*I *6:s B *C 2.4250 1.1400 
*N *29:2 *C 3.2200 0.6950 
*N *29:4 *C 2.4950 0.6950 

*CAP
0 *1:g 4.26228e-17
1 *49:d 5.42665e-17
2 *16:g 3.30125e-17
3 *12:d 4.09052e-17
4 *29:4 8.56437e-17
5 *29:2 1.43164e-16

*RES
0 *1:g *29:2 64.873169  // $poly_conn
1 *29:2 *16:g 16.15522  // $poly_conn
2 *29:2 *29:4 45.569336  // $metal1_conn
3 *29:4 *12:d 75.104111  // $metal1_conn
4 *29:4 *49:d 62.248783  // $metal1_conn

*END

*D_NET *28 1.41041e-16

*CONN
*I *50:d B *C 3.0175 1.1400 
*I *1:d B *C 3.0175 1.1400 
*I *2:s B *C 3.5575 1.2700 

*CAP
0 *2:s 7.48528e-17
1 *50:d 6.61883e-17

*RES
0 *2:s *50:d 124.256348  // $metal1_conn

*END

