*SPEF "IEEE 1481-1999"
*DESIGN  "DFFSHQX2"
*DATE "Mon Sep 27 09:33:25 2010"
*VENDOR "Cadence Design Systems"
*PROGRAM "Assura RCX"
*VERSION "3.2 Red Hat Linux release 7.2 (Enigma) - (09/09/2009-10:39)"
*DESIGN_FLOW "Physical Verification"
*DIVIDER /
*DELIMITER :
*BUS_DELIMITER []
*T_UNIT 1 PS
*C_UNIT 1e15 FF
*R_UNIT 1 OHM
*L_UNIT 1 MH
// DeviceFingerDelim "@"
// MATCHED
// caps2d version: 10

*NAME_MAP
*1 Q
*2 VDD
*3 mp21
*4 CKb
*5 mp30
*6 n41
*7 mp31
*8 n20
*9 mp35
*10 mp36
*11 mp26
*12 mp25
*13 mp20
*14 mp55\@1
*15 mp55
*16 mp45
*17 mp50
*18 mp51
*19 mp52
*20 mp40
*21 CK
*22 mn55\@1
*23 mn45
*24 mn50
*25 mn51
*26 mn52
*27 mn40
*28 VSS
*29 qbint
*30 n35
*31 CKbb
*32 mn21
*33 mout
*34 mn30
*35 n31
*36 mn31
*37 n22
*38 mn36
*39 n42
*40 mn35
*41 n40
*42 SN
*43 mn26
*44 n25
*45 D
*46 mn25
*47 n30
*48 mn20
*49 mn55
*50 n21

*GROUND_NETS VSS

*PORTS
*2 I
*28 I
*21 I
*45 I
*42 I
*1 O

*D_NET *2 7.0354e-16

*CONN
*P *2 I *C 0.1000 1.7100 
*I *3:s B *C 3.0400 1.1150 
*I *5:s B *C 3.0400 1.1150 
*I *7:s B *C 3.5175 1.1150 
*I *9:s B *C 3.5175 1.1150 
*I *12:s B *C 4.4250 1.3225 
*I *13:s B *C 4.4250 1.3225 
*I *15:s B *C 0.1150 1.0950 
*I *14:s B *C 0.5050 1.0950 
*I *16:s B *C 1.0850 1.2750 
*I *17:s B *C 1.0850 1.2750 
*I *18:s B *C 1.4850 1.2750 
*N *2:2 *C 3.6000 1.7100 
*N *2:3 *C 3.6000 1.7100 
*N *2:4 *C 2.9550 1.7100 
*N *2:5 *C 1.4650 1.7100 
*N *2:6 *C 1.2000 1.7100 
*N *2:7 *C 1.0850 1.7100 

*CAP
0 *18:s 3.05851e-17
1 *16:s 2.85685e-17
2 *12:s 5.11545e-17
3 *7:s 7.01826e-17
4 *3:s 2.0728e-17
5 *2:7 1.32943e-17
6 *2:5 2.995e-17
7 *2:4 3.942e-17
8 *2:2 2.85699e-16
9 *2 1.33958e-16

*RES
0 *2:2 *2:3 6.25  // $metal1_conn
1 *2:2 *2:6 6.25  // $metal1_conn
2 *12:s *2:3 62.639927  // $metal1_conn
3 *2:3 *7:s 62.351028  // $metal1_conn
4 *2:4 *3:s 62.045826  // $metal1_conn
5 *2:5 *18:s 62.2047  // $metal1_conn
6 *2:7 *16:s 62.212837  // $metal1_conn
7 *2:3 *2:4 0.322365  // $metal1_conn
8 *2:4 *2:5 0.745992  // $metal1_conn
9 *2:5 *2:6 0.132719  // $metal1_conn
10 *2:6 *2:7 0.057484  // $metal1_conn
11 *2:7 *2 0.285501  // $metal1_conn

*END

*D_NET *28 0

*CONN
*P *28 I *C 0.1000 0.0000 
*I *32:s B *C 2.9100 0.5575 
*I *34:s B *C 2.9100 0.5575 
*I *38:s B *C 3.6050 0.3725 
*I *46:s B *C 4.4300 0.4025 
*I *48:s B *C 4.4300 0.4025 
*I *49:s B *C 0.1150 0.5300 
*I *22:s B *C 0.5050 0.5300 
*I *23:s B *C 1.0850 0.4975 
*I *24:s B *C 1.0850 0.4975 
*N *28:2 *C 3.6000 0.0000 
*N *28:3 *C 3.6000 0.0000 
*N *28:4 *C 2.8500 0.0000 
*N *28:5 *C 1.2000 0.0000 
*N *28:6 *C 1.0850 0.0000 


*RES
0 *28:2 *28:3 5.166667  // $metal1_conn
1 *28:2 *28:5 5.166667  // $metal1_conn
2 *46:s *28:3 75.694427  // $metal1_conn
3 *28:3 *38:s 75.058937  // $metal1_conn
4 *28:4 *32:s 75.354782  // $metal1_conn
5 *28:6 *23:s 75.285233  // $metal1_conn
6 *28:3 *28:4 0.375979  // $metal1_conn
7 *28:4 *28:5 0.827389  // $metal1_conn
8 *28:5 *28:6 0.057484  // $metal1_conn
9 *28:6 *28 0.285501  // $metal1_conn

*END

*D_NET *21 2.23192e-16

*CONN
*P *21 I *C 4.7000 0.8550 
*I *48:g B *C 4.4825 0.4025 
*I *13:g B *C 4.4825 1.3225 
*N *21:2 *C 4.5250 0.7400 

*CAP
0 *13:g 5.52031e-17
1 *48:g 3.67783e-17
2 *21:2 9.13142e-17
3 *21 3.9896e-17

*RES
0 *13:g *21:2 110.988419  // $poly_conn
1 *21:2 *48:g 57.142265  // $poly_conn
2 *21 *21:2 45.130825  // $metal1_conn

*END

*D_NET *45 3.00266e-16

*CONN
*P *45 I *C 4.3000 0.8550 
*I *46:g B *C 4.2775 0.3725 
*I *12:g B *C 4.2675 1.2750 
*N *45:2 *C 4.2950 0.7400 

*CAP
0 *12:g 6.35179e-17
1 *46:g 7.44152e-17
2 *45:2 1.02352e-16
3 *45 5.99814e-17

*RES
0 *46:g *45:2 57.142265  // $poly_conn
1 *45:2 *12:g 86.629448  // $poly_conn
2 *45 *45:2 45.055649  // $metal1_conn

*END

*D_NET *42 7.89598e-16

*CONN
*P *42 I *C 1.5000 0.6650 
*I *34:g B *C 2.9825 0.5575 
*I *24:g B *C 1.1875 0.4975 
*I *5:g B *C 3.0875 1.1150 
*I *17:g B *C 1.1875 1.2750 
*N *42:2 *C 1.2300 0.8900 
*N *42:5 *C 2.9825 0.7600 
*N *42:6 *C 2.9100 0.7600 

*CAP
0 *17:g 5.26913e-17
1 *5:g 5.44582e-17
2 *24:g 5.2982e-17
3 *34:g 4.3571e-17
4 *42:5 2.26591e-17
5 *42:2 1.20294e-16
6 *42:6 2.26033e-16
7 *42 2.16909e-16

*RES
0 *17:g *42:2 48.167908  // $poly_conn
1 *42:2 *24:g 63.552521  // $poly_conn
2 *5:g *42:5 63.62241  // $poly_conn
3 *42:5 *42:6 47.294373  // $poly_conn
4 *42:5 *34:g 22.886339  // $poly_conn
5 *42:6 *42 1.466466  // $metal1_conn
6 *42 *42:2 45.360142  // $metal1_conn

*END

*D_NET *1 1.1558e-16

*CONN
*P *1 O *C 0.3000 0.6650 
*I *49:d B *C 0.3100 0.5300 
*I *22:d B *C 0.3100 0.5300 
*I *15:d B *C 0.3100 1.0950 
*I *14:d B *C 0.3100 1.0950 

*CAP
0 *15:d 8.91201e-17
1 *49:d 9.66719e-18
2 *1 1.6793e-17

*RES
0 *1 *15:d 20.924873  // $metal1_conn
1 *1 *49:d 75.039032  // $metal1_conn

*END

*D_NET *50 0

*CONN
*I *43:s B *C 4.2250 0.3725 
*I *46:d B *C 4.2250 0.3725 


*RES
0 *46:d *43:s 0.001  // $mwires

*END

*D_NET *47 3.33501e-18

*CONN
*I *38:d B *C 3.7325 0.3725 
*I *40:s B *C 3.7325 0.3725 

*CAP
0 *38:d 3.33501e-18

*RES
0 *40:s *38:d 0.001  // $mwires

*END

*D_NET *44 1.9323e-18

*CONN
*I *34:d B *C 3.0550 0.5575 
*I *36:s B *C 3.0550 0.5575 

*CAP
0 *34:d 1.9323e-18

*RES
0 *36:s *34:d 0.001  // $mwires

*END

*D_NET *41 5.02083e-18

*CONN
*I *25:d B *C 1.5525 0.4975 
*I *26:s B *C 1.5525 0.4975 

*CAP
0 *25:d 5.02083e-18

*RES
0 *26:s *25:d 0.001  // $mwires

*END

*D_NET *39 0

*CONN
*I *24:d B *C 1.2900 0.4975 
*I *25:s B *C 1.2900 0.4975 


*RES
0 *25:s *24:d 0.001  // $mwires

*END

*D_NET *37 6.58922e-18

*CONN
*I *11:s B *C 4.1575 1.2750 
*I *12:d B *C 4.1575 1.2750 

*CAP
0 *11:s 6.58922e-18

*RES
0 *12:d *11:s 0.001  // $mwires

*END

*D_NET *35 1.8118e-18

*CONN
*I *9:d B *C 3.7050 1.1150 
*I *10:s B *C 3.7050 1.1150 

*CAP
0 *9:d 1.8118e-18

*RES
0 *10:s *9:d 0.001  // $mwires

*END

*D_NET *33 7.08296e-16

*CONN
*I *36:d B *C 3.2200 0.5575 
*I *38:g B *C 3.6525 0.3725 
*I *27:s B *C 2.0550 0.4975 
*I *5:d B *C 3.2350 1.1150 
*I *7:d B *C 3.2350 1.1150 
*I *9:g B *C 3.6525 1.1150 
*I *20:s B *C 2.2600 1.1450 
*N *33:2 *C 3.6525 0.6300 
*N *33:3 *C 3.5950 0.6300 
*N *33:6 *C 3.2300 0.6000 
*N *33:8 *C 3.2300 1.0200 
*N *33:10 *C 2.2700 1.1450 

*CAP
0 *20:s 1.5144e-16
1 *9:g 8.30783e-17
2 *5:d 1.50138e-16
3 *27:s 1.04065e-16
4 *38:g 3.78205e-17
5 *36:d 7.65336e-17
6 *33:2 4.23208e-17
7 *33:3 6.28997e-17

*RES
0 *9:g *33:2 81.304344  // $poly_conn
1 *33:2 *33:3 45.778431  // $poly_conn
2 *33:2 *38:g 36.432549  // $poly_conn
3 *33:3 *33:6 0.287258  // $metal1_conn
4 *33:6 *33:8 0.332935  // $metal1_conn
5 *33:8 *33:10 0.834595  // $metal1_conn
6 *33:10 *27:s 75.558487  // $metal1_conn
7 *36:d *33:6 75  // $metal1_conn
8 *5:d *33:8 62  // $metal1_conn
9 *20:s *33:10 31  // $metal1_conn

*END

*D_NET *31 8.36707e-16

*CONN
*I *32:d B *C 2.5925 0.5275 
*I *40:g B *C 3.8125 0.3725 
*I *27:g B *C 1.9625 0.4975 
*I *3:d B *C 2.6750 1.0675 
*I *11:g B *C 4.0475 1.2750 
*I *19:g B *C 1.9625 1.1450 
*N *31:2 *C 1.9625 0.7025 
*N *31:4 *C 2.4300 0.7300 
*N *31:6 *C 3.7850 0.5850 
*N *31:9 *C 2.6650 1.0200 
*N *31:10 *C 2.5300 0.7300 

*CAP
0 *19:g 5.42042e-17
1 *11:g 6.78181e-17
2 *3:d 2.03817e-16
3 *27:g 2.81908e-17
4 *40:g 3.36389e-17
5 *32:d 4.20488e-17
6 *31:10 3.07961e-17
7 *31:2 5.37414e-17
8 *31:4 8.21818e-17
9 *31:6 2.4027e-16

*RES
0 *19:g *31:2 72.565941  // $poly_conn
1 *31:2 *27:g 25.130047  // $poly_conn
2 *31:2 *31:4 151.659103  // $poly_conn
3 *11:g *31:6 167.643921  // $poly_conn
4 *31:6 *40:g 16.530039  // $poly_conn
5 *31:6 *31:9 46.377663  // $metal1_conn
6 *31:9 *31:10 0.309555  // $metal1_conn
7 *31:10 *31:4 0.03511  // $metal1_conn
8 *31:10 *32:d 75.14093  // $metal1_conn
9 *3:d *31:9 62  // $metal1_conn

*END

*D_NET *30 4.83743e-16

*CONN
*I *23:g B *C 0.9825 0.4975 
*I *26:d B *C 1.8375 0.4975 
*I *27:d B *C 1.8375 0.4975 
*I *16:g B *C 0.9825 1.2750 
*I *19:d B *C 2.0650 1.1450 
*I *20:d B *C 2.0650 1.1450 
*N *30:1 *C 1.0400 1.0200 
*N *30:2 *C 0.9825 1.0200 
*N *30:6 *C 1.6700 1.0500 

*CAP
0 *19:d 6.4238e-17
1 *16:g 3.26964e-17
2 *26:d 9.4692e-17
3 *23:g 4.2719e-17
4 *30:6 1.27127e-16
5 *30:2 4.33328e-17
6 *30:1 7.89378e-17

*RES
0 *30:1 *30:2 45.794373  // $poly_conn
1 *30:2 *23:g 102.614769  // $poly_conn
2 *30:2 *16:g 20.563484  // $poly_conn
3 *19:d *30:6 31.365566  // $metal1_conn
4 *30:6 *30:1 0.487156  // $metal1_conn
5 *30:6 *26:d 75.442047  // $metal1_conn

*END

*D_NET *29 4.76175e-16

*CONN
*I *49:g B *C 0.2075 0.5300 
*I *22:g B *C 0.4125 0.5300 
*I *23:d B *C 0.8900 0.4975 
*I *25:g B *C 1.3925 0.4975 
*I *15:g B *C 0.2075 1.0950 
*I *14:g B *C 0.4125 1.0950 
*I *16:d B *C 0.8900 1.2750 
*I *18:g B *C 1.3925 1.2750 
*N *29:6 *C 0.4700 0.7700 
*N *29:9 *C 1.3925 0.7000 
*N *29:10 *C 1.3300 0.7000 
*N *29:12 *C 0.8800 0.7350 

*CAP
0 *18:g 5.42442e-17
1 *16:d 7.03694e-17
2 *14:g 8.75711e-17
3 *25:g 2.7259e-17
4 *23:d 2.17375e-17
5 *29:12 5.0338e-17
6 *29:9 3.17641e-17
7 *29:6 5.16389e-17
8 *29:10 8.1253e-17

*RES
0 *18:g *29:9 104.937622  // $poly_conn
1 *29:9 *25:g 22.886339  // $poly_conn
2 *29:9 *29:10 46.294373  // $poly_conn
3 *14:g *29:6 47.912865  // $poly_conn
4 *29:10 *29:12 0.319954  // $metal1_conn
5 *29:12 *29:6 0.286094  // $metal1_conn
6 *29:12 *16:d 31.37892  // $metal1_conn
7 *29:12 *23:d 75.139458  // $metal1_conn

*END

*D_NET *8 3.93533e-16

*CONN
*I *36:g B *C 3.1275 0.5575 
*I *40:d B *C 3.9925 0.3725 
*I *43:d B *C 3.9925 0.3725 
*I *7:g B *C 3.3825 1.1150 
*I *10:d B *C 3.9750 1.2750 
*I *11:d B *C 3.9750 1.2750 
*N *8:2 *C 3.4200 0.7900 
*N *8:5 *C 3.9450 0.7900 

*CAP
0 *10:d 6.87947e-17
1 *7:g 3.52425e-17
2 *40:d 4.96198e-17
3 *36:g 5.84489e-17
4 *8:5 8.38998e-17
5 *8:2 9.75277e-17

*RES
0 *7:g *8:2 34.833996  // $poly_conn
1 *8:2 *36:g 85.391556  // $poly_conn
2 *10:d *8:5 62.315792  // $metal1_conn
3 *8:5 *8:2 45.381016  // $metal1_conn
4 *8:5 *40:d 75.295837  // $metal1_conn

*END

*D_NET *6 1.50186e-16

*CONN
*I *17:d B *C 1.2900 1.2750 
*I *18:d B *C 1.2900 1.2750 
*I *19:s B *C 1.8700 1.1450 

*CAP
0 *19:s 6.78551e-17
1 *17:d 8.2331e-17

*RES
0 *19:s *17:d 124.422546  // $metal1_conn

*END

*D_NET *4 1.23151e-15

*CONN
*I *32:g B *C 2.7675 0.5275 
*I *43:g B *C 4.1725 0.3725 
*I *48:d B *C 4.5750 0.4025 
*I *26:g B *C 1.7125 0.4975 
*I *3:g B *C 2.7675 1.0675 
*I *10:g B *C 3.7575 1.1150 
*I *13:d B *C 4.5750 1.3225 
*I *20:g B *C 2.1675 1.1450 
*N *4:2 *C 1.8300 0.7400 
*N *4:4 *C 2.7675 0.8625 
*N *4:5 *C 2.1575 0.8600 
*N *4:6 *C 2.1100 0.8600 
*N *4:8 *C 2.7950 1.3400 
*N *4:11 *C 3.7950 1.3700 
*N *4:13 *C 4.1350 0.5800 
*N *4:15 *C 4.1050 1.1800 

*CAP
0 *20:g 3.08635e-17
1 *13:d 4.34768e-17
2 *10:g 7.05711e-17
3 *3:g 1.77302e-17
4 *26:g 3.38971e-17
5 *48:d 5.74093e-17
6 *43:g 5.30331e-17
7 *32:g 4.37112e-17
8 *4:15 1.14321e-16
9 *4:5 4.55053e-17
10 *4:4 4.79167e-17
11 *4:2 8.30308e-17
12 *4:6 8.50976e-17
13 *4:8 1.79092e-16
14 *4:11 1.80243e-16
15 *4:13 1.45607e-16

*RES
0 *26:g *4:2 86.010437  // $poly_conn
1 *32:g *4:4 66.155685  // $poly_conn
2 *4:4 *4:5 149.301178  // $poly_conn
3 *4:5 *4:6 47.135361  // $poly_conn
4 *4:4 *3:g 23.847994  // $poly_conn
5 *3:g *4:8 78.794518  // $poly_conn
6 *4:5 *20:g 26.980129  // $poly_conn
7 *10:g *4:11 61.15522  // $poly_conn
8 *43:g *4:13 62.437271  // $poly_conn
9 *4:6 *4:2 0.202175  // $metal1_conn
10 *13:d *4:15 62.383369  // $metal1_conn
11 *4:15 *4:11 0.346302  // $metal1_conn
12 *4:11 *4:8 1.205507  // $metal1_conn
13 *4:15 *4:13 0.480856  // $metal1_conn
14 *4:13 *48:d 75.431885  // $metal1_conn

*END

