*SPEF "IEEE 1481-1999"
*DESIGN  "DFFSXL"
*DATE "Mon Sep 27 09:38:42 2010"
*VENDOR "Cadence Design Systems"
*PROGRAM "Assura RCX"
*VERSION "3.2 Red Hat Linux release 7.2 (Enigma) - (09/09/2009-10:39)"
*DESIGN_FLOW "Physical Verification"
*DIVIDER /
*DELIMITER :
*BUS_DELIMITER []
*T_UNIT 1 PS
*C_UNIT 1e15 FF
*R_UNIT 1 OHM
*L_UNIT 1 MH
// DeviceFingerDelim "@"
// MATCHED
// caps2d version: 10

*NAME_MAP
*1 mp56
*2 mp55
*3 mp45
*4 mp51
*5 mp50
*6 mp30
*7 mp31
*8 VDD
*9 mn52
*10 mn40
*11 mn21
*12 mn36
*13 mn35
*14 VSS
*15 mn26
*16 mp52
*17 mn25
*18 mp40
*19 mn20
*20 mp21
*21 mn57
*22 mp35
*23 mp36
*24 mp26
*25 CKbb
*26 QN
*27 mp25
*28 qbint
*29 mp20
*30 n41
*31 mp57
*32 mout
*33 CKb
*34 n35
*35 n20
*36 n31
*37 n22
*38 CK
*39 n42
*40 n25
*41 n30
*42 n21
*43 D
*44 mn56
*45 mn55
*46 mn45
*47 mn51
*48 mn50
*49 mn30
*50 SN
*51 mn31
*52 n40
*53 net331
*54 Q

*GROUND_NETS VSS

*PORTS
*8 I
*14 I
*38 I
*43 I
*50 I
*54 O
*26 O

*D_NET *8 5.09591e-16

*CONN
*P *8 I *C 0.1000 1.7100 
*I *20:s B *C 3.9750 1.5700 
*I *22:s B *C 3.9750 1.5700 
*I *27:s B *C 4.5800 1.0725 
*I *29:s B *C 4.5800 1.0725 
*I *31:s B *C 0.5700 1.3450 
*I *1:s B *C 0.5700 1.3450 
*I *2:s B *C 1.2050 1.3450 
*I *3:s B *C 1.2050 1.3450 
*I *4:s B *C 1.6300 1.0525 
*I *5:s B *C 2.1950 1.0525 
*I *6:s B *C 2.1950 1.0525 
*I *7:s B *C 2.6050 1.5700 
*N *8:2 *C 4.2000 1.7100 
*N *8:3 *C 4.2000 1.7100 
*N *8:4 *C 4.0850 1.7100 
*N *8:5 *C 2.6000 1.7100 
*N *8:6 *C 2.1100 1.7100 
*N *8:7 *C 1.5450 1.7100 
*N *8:8 *C 1.1800 1.7100 
*N *8:9 *C 0.9000 1.7100 
*N *8:10 *C 0.5450 1.7100 

*CAP
0 *7:s 1.56745e-17
1 *5:s 2.63489e-17
2 *4:s 2.75968e-17
3 *2:s 7.90873e-18
4 *31:s 4.74688e-18
5 *27:s 3.58989e-17
6 *20:s 7.39626e-18
7 *8:10 6.10151e-18
8 *8:8 4.9399e-18
9 *8:7 9.67027e-18
10 *8:6 1.48744e-17
11 *8:4 3.34112e-17
12 *8:2 3.09062e-16
13 *8 5.96158e-18

*RES
0 *27:s *8:3 62.599796  // $metal1_conn
1 *8:3 *8:4 0.057455  // $metal1_conn
2 *8:4 *8:5 0.744667  // $metal1_conn
3 *8:5 *8:6 0.246267  // $metal1_conn
4 *8:6 *8:7 0.282851  // $metal1_conn
5 *8:7 *8:8 0.182588  // $metal1_conn
6 *8:8 *8:9 0.140172  // $metal1_conn
7 *8:9 *8:10 0.177771  // $metal1_conn
8 *8:10 *8 0.222639  // $metal1_conn
9 *8:4 *20:s 62.074413  // $metal1_conn
10 *8:5 *7:s 62.071438  // $metal1_conn
11 *8:6 *5:s 62.217476  // $metal1_conn
12 *8:7 *4:s 62.373848  // $metal1_conn
13 *8:8 *2:s 62.224129  // $metal1_conn
14 *8:10 *31:s 62.224129  // $metal1_conn
15 *8:2 *8:3 9.375  // $metal1_conn
16 *8:2 *8:5 9.375  // $metal1_conn
17 *8:2 *8:9 8.333333  // $metal1_conn

*END

*D_NET *14 0

*CONN
*P *14 I *C 0.1000 0.0000 
*I *11:s B *C 3.8350 0.5425 
*I *12:s B *C 3.8350 0.5425 
*I *17:s B *C 4.6875 0.5425 
*I *19:s B *C 4.6875 0.5425 
*I *21:s B *C 0.5600 0.5875 
*I *44:s B *C 0.5600 0.5875 
*I *45:s B *C 1.1950 0.5375 
*I *46:s B *C 1.1950 0.5375 
*I *48:s B *C 1.9300 0.5375 
*I *49:s B *C 1.9300 0.5375 
*N *14:2 *C 4.2000 0.0000 
*N *14:3 *C 4.2000 0.0000 
*N *14:4 *C 3.8200 0.0000 
*N *14:5 *C 2.6000 0.0000 
*N *14:6 *C 1.9150 0.0000 
*N *14:7 *C 1.1800 0.0000 
*N *14:8 *C 0.9000 0.0000 
*N *14:9 *C 0.5450 0.0000 


*RES
0 *17:s *14:3 75.338264  // $metal1_conn
1 *14:3 *14:4 0.189355  // $metal1_conn
2 *14:4 *14:5 0.61046  // $metal1_conn
3 *14:5 *14:6 0.343205  // $metal1_conn
4 *14:6 *14:7 0.368075  // $metal1_conn
5 *14:7 *14:8 0.140172  // $metal1_conn
6 *14:8 *14:9 0.177771  // $metal1_conn
7 *14:9 *14 0.222639  // $metal1_conn
8 *14:4 *11:s 75.045799  // $metal1_conn
9 *14:6 *48:s 75.074409  // $metal1_conn
10 *14:7 *45:s 75.074409  // $metal1_conn
11 *14:9 *21:s 75.074409  // $metal1_conn
12 *14:2 *14:3 7.75  // $metal1_conn
13 *14:2 *14:5 7.75  // $metal1_conn
14 *14:2 *14:8 6.888889  // $metal1_conn

*END

*D_NET *38 2.1457e-16

*CONN
*P *38 I *C 4.7000 0.8550 
*I *19:g B *C 4.7375 0.5425 
*I *29:g B *C 4.6825 1.0725 
*N *38:2 *C 4.7100 0.7250 

*CAP
0 *29:g 3.75387e-17
1 *19:g 2.71729e-17
2 *38:2 1.09204e-16
3 *38 4.06536e-17

*RES
0 *19:g *38:2 19.691952  // $poly_conn
1 *38:2 *29:g 53.025284  // $poly_conn
2 *38 *38:2 45.080811  // $metal1_conn

*END

*D_NET *43 2.7433e-16

*CONN
*P *43 I *C 4.5000 0.8550 
*I *17:g B *C 4.5375 0.5425 
*I *27:g B *C 4.4775 1.0725 
*N *43:2 *C 4.5050 0.8550 

*CAP
0 *27:g 4.35042e-17
1 *17:g 6.68781e-17
2 *43:2 4.08442e-17
3 *43 1.23103e-16

*RES
0 *17:g *43:2 50.453133  // $poly_conn
1 *43:2 *27:g 19.340628  // $poly_conn
2 *43 *43:2 45  // $metal1_conn

*END

*D_NET *50 2.82167e-16

*CONN
*P *50 I *C 2.1000 0.8550 
*I *48:g B *C 1.7825 0.5375 
*I *49:g B *C 1.9775 0.5375 
*I *5:g B *C 1.9775 1.0525 
*I *6:g B *C 2.2425 1.0525 
*N *50:2 *C 1.9400 0.8450 

*CAP
0 *6:g 4.25804e-17
1 *5:g 2.10342e-17
2 *49:g 1.75059e-17
3 *48:g 5.05594e-17
4 *50:2 1.08624e-16
5 *50 4.18633e-17

*RES
0 *6:g *50:2 93.29248  // $poly_conn
1 *50:2 *48:g 76.000641  // $poly_conn
2 *50:2 *49:g 50.770603  // $poly_conn
3 *50:2 *5:g 16.15522  // $poly_conn
4 *50:2 *50 45.095589  // $metal1_conn

*END

*D_NET *54 1.04632e-16

*CONN
*P *54 O *C 0.9000 0.6650 
*I *45:d B *C 0.9375 0.5375 
*I *2:d B *C 0.9375 1.0075 

*CAP
0 *2:d 4.09714e-17
1 *45:d 2.87608e-17
2 *54 3.49003e-17

*RES
0 *54 *2:d 62.176804  // $metal1_conn
1 *54 *45:d 75.069832  // $metal1_conn

*END

*D_NET *26 6.90328e-17

*CONN
*P *26 O *C 0.1000 0.6650 
*I *21:d B *C 0.3025 0.5875 
*I *31:d B *C 0.3025 1.0075 
*N *26:3 *C 0.2750 0.6000 

*CAP
0 *31:d 1.4887e-17
1 *21:d 3.20674e-17
2 *26 2.20784e-17

*RES
0 *31:d *26:3 62.224415  // $metal1_conn
1 *26:3 *26 0.083117  // $metal1_conn
2 *21:d *26:3 75  // $metal1_conn

*END

*D_NET *42 2.10073e-19

*CONN
*I *15:s B *C 4.4850 0.5425 
*I *17:d B *C 4.4850 0.5425 

*CAP
0 *15:s 2.10073e-19

*RES
0 *17:d *15:s 0.001  // $mwires

*END

*D_NET *41 1.82712e-18

*CONN
*I *12:d B *C 4.0550 0.5425 
*I *13:s B *C 4.0550 0.5425 

*CAP
0 *12:d 1.82712e-18

*RES
0 *13:s *12:d 0.001  // $mwires

*END

*D_NET *40 6.56014e-18

*CONN
*I *49:d B *C 2.1725 0.5375 
*I *51:s B *C 2.1725 0.5375 

*CAP
0 *49:d 6.56014e-18

*RES
0 *51:s *49:d 0.001  // $mwires

*END

*D_NET *39 1.75543e-18

*CONN
*I *47:s B *C 1.7300 0.5375 
*I *48:d B *C 1.7300 0.5375 

*CAP
0 *47:s 1.75543e-18

*RES
0 *48:d *47:s 0.001  // $mwires

*END

*D_NET *37 0

*CONN
*I *24:s B *C 4.4125 1.0725 
*I *27:d B *C 4.4125 1.0725 


*RES
0 *27:d *24:s 0.001  // $mwires

*END

*D_NET *36 4.43881e-18

*CONN
*I *22:d B *C 4.0100 1.0725 
*I *23:s B *C 4.0100 1.0725 

*CAP
0 *22:d 4.43881e-18

*RES
0 *23:s *22:d 0.001  // $mwires

*END

*D_NET *35 5.86346e-16

*CONN
*I *13:d B *C 4.3300 0.5425 
*I *15:d B *C 4.3300 0.5425 
*I *51:g B *C 2.3675 0.5375 
*I *23:d B *C 4.2450 1.0725 
*I *24:d B *C 4.2450 1.0725 
*I *7:g B *C 2.4475 1.0525 
*N *35:1 *C 2.4200 1.3450 
*N *35:6 *C 4.2450 1.0750 

*CAP
0 *7:g 4.02024e-17
1 *23:d 2.12355e-16
2 *51:g 4.88479e-17
3 *13:d 8.15488e-17
4 *35:1 2.03392e-16

*RES
0 *35:1 *7:g 83.922714  // $poly_conn
1 *7:g *51:g 94.582222  // $poly_conn
2 *13:d *35:6 75.447723  // $metal1_conn
3 *35:6 *35:1 1.474866  // $metal1_conn
4 *23:d *35:6 62  // $metal1_conn

*END

*D_NET *34 7.05588e-16

*CONN
*I *9:d B *C 3.1025 0.5325 
*I *10:d B *C 3.1025 0.5325 
*I *46:g B *C 1.2425 0.5375 
*I *16:d B *C 3.0950 1.0425 
*I *18:d B *C 3.0950 1.0425 
*I *3:g B *C 1.2425 1.0075 
*N *34:2 *C 1.2900 0.7150 
*N *34:5 *C 3.0650 0.7550 

*CAP
0 *3:g 4.11112e-17
1 *16:d 4.99215e-17
2 *46:g 3.46281e-17
3 *9:d 3.85511e-17
4 *34:5 2.42274e-16
5 *34:2 2.99102e-16

*RES
0 *3:g *34:2 37.950092  // $poly_conn
1 *34:2 *46:g 17.437269  // $poly_conn
2 *9:d *34:5 75.162544  // $metal1_conn
3 *34:5 *34:2 46.830795  // $metal1_conn
4 *34:5 *16:d 62.202282  // $metal1_conn

*END

*D_NET *33 1.04679e-15

*CONN
*I *9:g B *C 2.9325 0.5325 
*I *11:g B *C 3.6875 0.5425 
*I *15:g B *C 4.4325 0.5425 
*I *19:d B *C 4.8450 0.5425 
*I *18:g B *C 3.1975 1.0425 
*I *20:g B *C 3.6775 1.0725 
*I *23:g B *C 4.1425 1.0725 
*I *29:d B *C 4.7750 1.0725 
*N *33:1 *C 3.1400 0.3500 
*N *33:4 *C 3.2250 0.8350 
*N *33:7 *C 3.6500 0.3550 
*N *33:9 *C 4.1700 0.8550 
*N *33:11 *C 4.3950 0.1900 
*N *33:12 *C 4.3950 0.3300 
*N *33:13 *C 4.1700 0.3300 
*N *33:14 *C 3.2275 0.3550 
*N *33:16 *C 4.8700 0.5300 

*CAP
0 *29:d 6.0187e-17
1 *23:g 4.3659e-17
2 *20:g 6.33438e-17
3 *18:g 3.50725e-17
4 *19:d 7.94496e-17
5 *15:g 6.42263e-17
6 *11:g 5.02398e-17
7 *9:g 3.43593e-17
8 *33:14 6.93082e-17
9 *33:13 6.30631e-17
10 *33:12 6.27558e-17
11 *33:1 5.00606e-17
12 *33:4 1.22584e-16
13 *33:7 8.28691e-17
14 *33:9 1.22837e-16
15 *33:11 4.27722e-17

*RES
0 *33:1 *9:g 87.672913  // $poly_conn
1 *18:g *33:4 61.15522  // $poly_conn
2 *20:g *11:g 88.478439  // $poly_conn
3 *11:g *33:7 65.001373  // $poly_conn
4 *23:g *33:9 64.691956  // $poly_conn
5 *15:g *33:11 107.309067  // $poly_conn
6 *33:11 *33:12 0.055145  // $metal1_conn
7 *33:12 *33:13 0.175979  // $metal1_conn
8 *33:13 *33:7 0.38783  // $metal1_conn
9 *33:7 *33:14 0.304399  // $metal1_conn
10 *33:14 *33:1 0.06791  // $metal1_conn
11 *33:12 *33:16 0.476616  // $metal1_conn
12 *33:16 *29:d 62.454571  // $metal1_conn
13 *33:13 *33:9 0.37931  // $metal1_conn
14 *33:14 *33:4 0.362756  // $metal1_conn
15 *19:d *33:16 75  // $metal1_conn

*END

*D_NET *32 7.78635e-16

*CONN
*I *10:s B *C 3.3700 0.5325 
*I *12:g B *C 3.8825 0.5425 
*I *51:d B *C 2.4600 0.5375 
*I *18:s B *C 3.2900 1.0425 
*I *22:g B *C 3.8775 1.0725 
*I *6:d B *C 2.3450 1.0525 
*I *7:d B *C 2.3450 1.0525 
*N *32:2 *C 3.8775 0.8650 
*N *32:3 *C 3.8200 0.8650 
*N *32:7 *C 3.3000 1.0550 
*N *32:8 *C 3.3000 1.1850 
*N *32:9 *C 2.4700 0.9300 

*CAP
0 *6:d 3.83975e-17
1 *22:g 3.89609e-17
2 *18:s 6.0245e-17
3 *51:d 5.81543e-17
4 *12:g 4.34128e-17
5 *10:s 8.67127e-17
6 *32:9 1.22601e-16
7 *32:8 1.67347e-16
8 *32:2 4.44237e-17
9 *32:3 1.1838e-16

*RES
0 *12:g *32:2 60.312855  // $poly_conn
1 *32:2 *32:3 45.794373  // $poly_conn
2 *32:2 *22:g 22.886339  // $poly_conn
3 *10:s *32:7 75.440681  // $metal1_conn
4 *32:7 *32:8 0.070005  // $metal1_conn
5 *32:8 *32:9 0.822062  // $metal1_conn
6 *32:9 *6:d 62.118824  // $metal1_conn
7 *32:8 *32:3 0.583742  // $metal1_conn
8 *32:9 *51:d 75.264259  // $metal1_conn
9 *18:s *32:7 62  // $metal1_conn

*END

*D_NET *30 2.09062e-16

*CONN
*I *16:s B *C 2.8125 1.0425 
*I *4:d B *C 1.8275 1.0525 
*I *5:d B *C 1.8275 1.0525 

*CAP
0 *4:d 7.89943e-17
1 *16:s 1.30067e-16

*RES
0 *16:s *4:d 124.684631  // $metal1_conn

*END

*D_NET *28 4.96621e-16

*CONN
*I *44:g B *C 0.6075 0.5875 
*I *45:g B *C 1.0475 0.5375 
*I *46:d B *C 1.3350 0.5375 
*I *47:g B *C 1.6775 0.5375 
*I *1:g B *C 0.6075 1.0075 
*I *2:g B *C 1.0475 1.0075 
*I *3:d B *C 1.3850 0.9600 
*I *4:g B *C 1.6775 1.0525 
*N *28:2 *C 1.0475 0.7100 
*N *28:3 *C 0.6075 0.7375 
*N *28:6 *C 1.1000 0.7100 
*N *28:9 *C 1.6775 0.8450 
*N *28:10 *C 1.5700 0.8450 
*N *28:13 *C 1.3450 0.9600 

*CAP
0 *4:g 2.50271e-17
1 *3:d 4.82973e-17
2 *2:g 3.25592e-17
3 *1:g 3.58509e-17
4 *47:g 5.60853e-17
5 *46:d 3.90567e-17
6 *45:g 2.50139e-17
7 *44:g 2.58517e-17
8 *28:9 2.96126e-17
9 *28:3 2.88894e-17
10 *28:6 9.89318e-17
11 *28:10 5.14453e-17

*RES
0 *2:g *28:2 45.368431  // $poly_conn
1 *28:2 *28:3 108.51873  // $poly_conn
2 *28:3 *44:g 18.337015  // $poly_conn
3 *28:2 *45:g 22.29151  // $poly_conn
4 *28:2 *28:6 47.756718  // $poly_conn
5 *28:3 *1:g 40.131889  // $poly_conn
6 *4:g *28:9 22.886339  // $poly_conn
7 *28:9 *28:10 51.017776  // $poly_conn
8 *28:9 *47:g 57.501724  // $poly_conn
9 *28:10 *28:13 0.188446  // $metal1_conn
10 *28:13 *28:6 0.27708  // $metal1_conn
11 *28:6 *46:d 75.277588  // $metal1_conn
12 *3:d *28:13 62  // $metal1_conn

*END

*D_NET *25 6.08835e-16

*CONN
*I *10:g B *C 3.2725 0.5325 
*I *11:d B *C 3.5950 0.5425 
*I *13:g B *C 4.2275 0.5425 
*I *16:g B *C 2.9925 1.0425 
*I *20:d B *C 3.5850 1.0725 
*I *24:g B *C 4.3475 1.0725 
*N *25:2 *C 3.2725 0.7025 
*N *25:4 *C 3.5450 0.7400 
*N *25:6 *C 4.2275 0.7125 
*N *25:7 *C 4.0100 0.8550 

*CAP
0 *24:g 6.2842e-17
1 *20:d 5.65197e-17
2 *16:g 6.13967e-17
3 *13:g 2.81085e-17
4 *11:d 3.24302e-17
5 *10:g 4.02648e-17
6 *25:6 5.35013e-17
7 *25:2 4.59662e-17
8 *25:4 9.74603e-17
9 *25:7 1.30345e-16

*RES
0 *10:g *25:2 20.491871  // $poly_conn
1 *25:2 *16:g 112.13343  // $poly_conn
2 *25:2 *25:4 103.851212  // $poly_conn
3 *24:g *25:6 76.618774  // $poly_conn
4 *25:6 *25:7 114.677208  // $poly_conn
5 *25:6 *13:g 20.300484  // $poly_conn
6 *25:7 *25:4 0.428475  // $metal1_conn
7 *25:4 *11:d 75.145638  // $metal1_conn
8 *25:4 *20:d 62.219616  // $metal1_conn

*END

*D_NET *53 2.00088e-16

*CONN
*I *21:g B *C 0.4125 0.5875 
*I *44:d B *C 0.7000 0.5875 
*I *31:g B *C 0.4125 1.0075 
*I *1:d B *C 0.7000 1.0075 
*N *53:1 *C 0.4650 0.7600 
*N *53:2 *C 0.4125 0.7600 
*N *53:6 *C 0.7000 0.7700 

*CAP
0 *1:d 2.40869e-17
1 *31:g 3.63117e-17
2 *44:d 2.74138e-17
3 *21:g 2.9563e-17
4 *53:6 2.84938e-17
5 *53:1 5.42189e-17

*RES
0 *53:1 *53:2 45.294373  // $poly_conn
1 *53:2 *21:g 20.563484  // $poly_conn
2 *53:2 *31:g 30.819893  // $poly_conn
3 *1:d *53:6 62.117573  // $metal1_conn
4 *53:6 *53:1 0.122318  // $metal1_conn
5 *53:6 *44:d 75.109558  // $metal1_conn

*END

*D_NET *52 3.33472e-16

*CONN
*I *9:s B *C 2.8400 0.5325 
*I *47:d B *C 1.5850 0.5375 
*N *52:1 *C 2.7900 0.2900 
*N *52:2 *C 2.1200 0.2900 

*CAP
0 *47:d 7.62419e-17
1 *9:s 5.0474e-17
2 *52:2 1.20978e-16
3 *52:1 8.57775e-17

*RES
0 *52:1 *52:2 244.768509  // $poly_conn
1 *47:d *52:2 75.524773  // $metal1_conn
2 *9:s *52:1 75.135269  // $metal1_conn

*END

