*SPEF "IEEE 1481-1999"
*DESIGN  "DFFSRHQX1"
*DATE "Mon Sep 27 09:34:33 2010"
*VENDOR "Cadence Design Systems"
*PROGRAM "Assura RCX"
*VERSION "3.2 Red Hat Linux release 7.2 (Enigma) - (09/09/2009-10:39)"
*DESIGN_FLOW "Physical Verification"
*DIVIDER /
*DELIMITER :
*BUS_DELIMITER []
*T_UNIT 1 PS
*C_UNIT 1e15 FF
*R_UNIT 1 OHM
*L_UNIT 1 MH
// DeviceFingerDelim "@"
// MATCHED
// caps2d version: 10

*NAME_MAP
*1 VDD
*2 n26
*3 n31
*4 n22
*5 VSS
*6 n30
*7 n21
*8 n42
*9 n25
*10 mn31
*11 mn32
*12 mn30
*13 mp55
*14 mn35
*15 mp45
*16 mn36
*17 mp22
*18 mp31
*19 mn26
*20 mp50
*21 mp32
*22 mn25
*23 mp52
*24 mp30
*25 mn55
*26 mn21
*27 mp51
*28 mp35
*29 mn45
*30 mn20
*31 mp53
*32 mp36
*33 mn22
*34 mp40
*35 mp26
*36 mn50
*37 RN
*38 mp25
*39 mn52
*40 mp21
*41 mn51
*42 mp20
*43 mn53
*44 mn40
*45 CK
*46 SN
*47 D
*48 n41
*49 n40
*50 qbint
*51 n20
*52 RNb
*53 mout
*54 n35
*55 CKb
*56 Q
*57 CKbb
*58 n43

*GROUND_NETS VSS

*PORTS
*1 I
*5 I
*45 I
*47 I
*37 I
*46 I
*56 O

*D_NET *1 9.60411e-16

*CONN
*P *1 I *C 0.1000 1.7100 
*I *18:s B *C 3.6050 1.0550 
*I *24:s B *C 4.3525 1.1850 
*I *28:s B *C 4.3525 1.1850 
*I *38:s B *C 5.3750 1.2775 
*I *40:s B *C 5.3750 1.2775 
*I *42:s B *C 6.1300 1.0075 
*I *13:s B *C 0.3750 1.1350 
*I *15:s B *C 0.3750 1.1350 
*I *17:s B *C 1.4450 1.0600 
*I *20:s B *C 1.4450 1.0600 
*I *27:s B *C 2.1350 1.3300 
*N *1:2 *C 5.3000 1.7100 
*N *1:3 *C 5.3000 1.7100 
*N *1:4 *C 4.4700 1.7100 
*N *1:5 *C 3.5500 1.7100 
*N *1:6 *C 3.2000 1.7100 
*N *1:7 *C 2.1050 1.7100 
*N *1:8 *C 1.1700 1.7100 
*N *1:9 *C 1.1000 1.7100 
*N *1:10 *C 0.3150 1.7100 

*CAP
0 *27:s 4.7006e-17
1 *17:s 7.18115e-17
2 *13:s 6.09255e-17
3 *42:s 4.33859e-17
4 *38:s 2.27986e-17
5 *24:s 4.63045e-17
6 *18:s 3.7776e-17
7 *1:10 1.82237e-17
8 *1:8 5.12966e-17
9 *1:7 6.54917e-17
10 *1:5 3.01835e-17
11 *1:4 3.13029e-17
12 *1:2 4.2787e-16
13 *1 6.03473e-18

*RES
0 *42:s *1:3 62.883633  // $metal1_conn
1 *1:3 *1:4 0.416759  // $metal1_conn
2 *1:4 *1:5 0.461435  // $metal1_conn
3 *1:5 *1:6 0.175499  // $metal1_conn
4 *1:6 *1:7 0.549478  // $metal1_conn
5 *1:7 *1:8 0.468964  // $metal1_conn
6 *1:8 *1:9 0.034938  // $metal1_conn
7 *1:9 *1:10 0.393863  // $metal1_conn
8 *1:10 *1 0.107601  // $metal1_conn
9 *1:3 *38:s 62.286045  // $metal1_conn
10 *1:4 *24:s 62.267361  // $metal1_conn
11 *1:5 *18:s 62.179245  // $metal1_conn
12 *1:7 *27:s 62.233089  // $metal1_conn
13 *1:8 *17:s 62.360222  // $metal1_conn
14 *1:10 *13:s 62.358559  // $metal1_conn
15 *1:2 *1:3 6.818182  // $metal1_conn
16 *1:2 *1:6 7.5  // $metal1_conn
17 *1:2 *1:9 6.818182  // $metal1_conn

*END

*D_NET *5 0

*CONN
*P *5 I *C 0.1000 0.0000 
*I *12:s B *C 4.3525 0.4625 
*I *14:s B *C 4.3525 0.4625 
*I *22:s B *C 5.3950 0.5875 
*I *26:s B *C 5.3950 0.5875 
*I *30:s B *C 6.2150 0.5875 
*I *25:s B *C 0.3750 0.5575 
*I *29:s B *C 0.3750 0.5575 
*I *33:s B *C 1.3700 0.4325 
*I *36:s B *C 1.3700 0.4325 
*N *5:2 *C 5.3000 0.0000 
*N *5:3 *C 5.3000 0.0000 
*N *5:4 *C 4.2650 0.0000 
*N *5:5 *C 3.2000 0.0000 
*N *5:6 *C 1.2550 0.0000 
*N *5:7 *C 1.1000 0.0000 
*N *5:8 *C 0.3150 0.0000 


*RES
0 *30:s *5:3 75.889214  // $metal1_conn
1 *5:3 *5:4 0.519667  // $metal1_conn
2 *5:4 *5:5 0.534419  // $metal1_conn
3 *5:5 *5:6 0.976166  // $metal1_conn
4 *5:6 *5:7 0.077612  // $metal1_conn
5 *5:7 *5:8 0.393863  // $metal1_conn
6 *5:8 *5 0.107601  // $metal1_conn
7 *5:3 *22:s 75.320724  // $metal1_conn
8 *5:4 *12:s 75.263718  // $metal1_conn
9 *5:6 *33:s 75.255867  // $metal1_conn
10 *5:8 *25:s 75.34935  // $metal1_conn
11 *5:2 *5:3 5.636364  // $metal1_conn
12 *5:2 *5:5 6.2  // $metal1_conn
13 *5:2 *5:7 5.636364  // $metal1_conn

*END

*D_NET *45 1.69786e-16

*CONN
*P *45 I *C 6.1000 0.8550 
*I *30:g B *C 6.1025 0.5875 
*I *42:g B *C 6.0375 1.0075 
*N *45:2 *C 6.0650 0.7600 

*CAP
0 *42:g 1.82631e-17
1 *30:g 1.60361e-17
2 *45:2 9.67783e-17
3 *45 3.8708e-17

*RES
0 *30:g *45:2 16.15522  // $poly_conn
1 *45:2 *42:g 26.411629  // $poly_conn
2 *45:2 *45 45.051666  // $metal1_conn

*END

*D_NET *47 2.9307e-16

*CONN
*P *47 I *C 5.3000 0.8550 
*I *22:g B *C 5.1975 0.4625 
*I *38:g B *C 5.1975 1.2300 
*N *47:2 *C 5.2250 0.8750 

*CAP
0 *38:g 5.42644e-17
1 *22:g 7.35781e-17
2 *47:2 1.01184e-16
3 *47 6.40435e-17

*RES
0 *38:g *47:2 42.768875  // $poly_conn
1 *47:2 *22:g 70.973999  // $poly_conn
2 *47 *47:2 45.041489  // $metal1_conn

*END

*D_NET *37 1.95306e-16

*CONN
*P *37 I *C 1.1000 0.8550 
*I *33:g B *C 1.0075 0.4025 
*I *17:g B *C 1.0075 1.0125 
*N *37:2 *C 1.0450 0.7400 

*CAP
0 *17:g 2.79141e-17
1 *33:g 2.70136e-17
2 *37:2 7.13621e-17
3 *37 6.90158e-17

*RES
0 *17:g *37:2 32.821884  // $poly_conn
1 *37:2 *33:g 58.462914  // $poly_conn
2 *37:2 *37 45.048069  // $metal1_conn

*END

*D_NET *46 8.08236e-16

*CONN
*P *46 I *C 1.5000 0.8550 
*I *12:g B *C 4.1625 0.4625 
*I *36:g B *C 1.4425 0.4325 
*I *24:g B *C 4.1625 1.1850 
*I *20:g B *C 1.5175 1.0600 
*N *46:2 *C 1.4800 0.8050 
*N *46:5 *C 3.9300 1.4100 

*CAP
0 *20:g 5.39044e-17
1 *24:g 5.88816e-17
2 *36:g 3.29072e-17
3 *12:g 5.14604e-17
4 *46:2 5.24368e-17
5 *46:5 2.96111e-16
6 *46 2.62535e-16

*RES
0 *20:g *46:2 18.425531  // $poly_conn
1 *46:2 *36:g 62.015274  // $poly_conn
2 *24:g *46:5 115.188194  // $poly_conn
3 *24:g *12:g 119.230766  // $poly_conn
4 *46:5 *46 2.327328  // $metal1_conn
5 *46 *46:2 45.026802  // $metal1_conn

*END

*D_NET *56 8.80875e-17

*CONN
*P *56 O *C 0.1000 0.6650 
*I *25:d B *C 0.1200 0.5300 
*I *13:d B *C 0.1200 1.0950 

*CAP
0 *13:d 4.91503e-17
1 *25:d 3.89372e-17

*RES
0 *13:d *56 20.986084  // $metal1_conn
1 *56 *25:d 75.054688  // $metal1_conn

*END

*D_NET *7 0

*CONN
*I *19:s B *C 5.1450 0.4625 
*I *22:d B *C 5.1450 0.4625 


*RES
0 *22:d *19:s 0.001  // $mwires

*END

*D_NET *6 3.25215e-18

*CONN
*I *14:d B *C 4.6725 0.4625 
*I *16:s B *C 4.6725 0.4625 

*CAP
0 *14:d 3.25215e-18

*RES
0 *16:s *14:d 0.001  // $mwires

*END

*D_NET *4 4.68731e-18

*CONN
*I *35:s B *C 5.1025 1.2300 
*I *38:d B *C 5.1025 1.2300 

*CAP
0 *35:s 4.68731e-18

*RES
0 *38:d *35:s 0.001  // $mwires

*END

*D_NET *3 3.53739e-18

*CONN
*I *28:d B *C 4.6325 1.1850 
*I *32:s B *C 4.6325 1.1850 

*CAP
0 *28:d 3.53739e-18

*RES
0 *32:s *28:d 0.001  // $mwires

*END

*D_NET *2 2.73046e-18

*CONN
*I *18:d B *C 3.7200 1.0550 
*I *21:s B *C 3.7200 1.0550 

*CAP
0 *18:d 2.73046e-18

*RES
0 *21:s *18:d 0.001  // $mwires

*END

*D_NET *58 1.70491e-18

*CONN
*I *23:d B *C 1.8350 1.1650 
*I *27:d B *C 1.8350 1.1650 

*CAP
0 *23:d 1.70491e-18

*RES
0 *27:d *23:d 0.001  // $mwires

*END

*D_NET *57 1.26729e-15

*CONN
*I *16:g B *C 4.8025 0.4625 
*I *26:d B *C 5.6200 0.5875 
*I *44:g B *C 2.8225 0.4525 
*I *35:g B *C 5.0075 1.2300 
*I *40:d B *C 5.5450 1.2775 
*I *31:g B *C 2.5575 1.0600 
*N *57:2 *C 2.5300 0.7950 
*N *57:4 *C 2.8500 0.6650 
*N *57:6 *C 5.0350 0.9650 
*N *57:8 *C 5.0350 1.1350 
*N *57:9 *C 2.8500 1.1550 
*N *57:10 *C 5.6150 1.1350 

*CAP
0 *31:g 4.19183e-17
1 *40:d 2.21897e-17
2 *35:g 3.89863e-17
3 *44:g 3.60835e-17
4 *26:d 8.03364e-17
5 *16:g 6.1205e-17
6 *57:10 6.40209e-17
7 *57:9 3.81338e-16
8 *57:8 2.39766e-16
9 *57:2 9.8013e-17
10 *57:4 1.18426e-16
11 *57:6 8.50108e-17

*RES
0 *31:g *57:2 64.691956  // $poly_conn
1 *44:g *57:4 64.691956  // $poly_conn
2 *35:g *57:6 16.530041  // $poly_conn
3 *57:6 *16:g 125.33625  // $poly_conn
4 *57:6 *57:8 45.139511  // $metal1_conn
5 *57:8 *57:9 2.161426  // $metal1_conn
6 *57:9 *57:2 0.508034  // $metal1_conn
7 *57:8 *57:10 0.351827  // $metal1_conn
8 *57:10 *26:d 75.352249  // $metal1_conn
9 *57:9 *57:4 0.376296  // $metal1_conn
10 *57:10 *40:d 62.034794  // $metal1_conn

*END

*D_NET *55 1.23156e-15

*CONN
*I *19:g B *C 5.0925 0.4625 
*I *26:g B *C 5.4525 0.5875 
*I *30:d B *C 5.9625 0.5875 
*I *43:g B *C 2.5875 0.4525 
*I *32:g B *C 4.7225 1.1850 
*I *40:g B *C 5.4525 1.2775 
*I *42:d B *C 5.9450 1.0075 
*I *34:g B *C 2.7925 1.0600 
*N *55:1 *C 3.2000 0.7700 
*N *55:2 *C 2.7925 0.8075 
*N *55:6 *C 4.6850 0.8000 
*N *55:8 *C 5.0650 0.6750 
*N *55:11 *C 5.4900 0.4150 
*N *55:12 *C 4.6550 0.6100 
*N *55:14 *C 5.9050 0.5750 

*CAP
0 *34:g 4.01512e-17
1 *42:d 5.31587e-17
2 *40:g 4.82209e-17
3 *32:g 5.63632e-17
4 *43:g 4.56752e-17
5 *30:d 9.22229e-17
6 *26:g 3.66729e-17
7 *19:g 6.30516e-17
8 *55:12 1.94306e-16
9 *55:2 5.74674e-17
10 *55:1 2.11922e-16
11 *55:6 7.8858e-17
12 *55:8 1.60748e-16
13 *55:11 9.27475e-17

*RES
0 *55:1 *55:2 138.849365  // $poly_conn
1 *55:2 *43:g 98.413643  // $poly_conn
2 *55:2 *34:g 20.300484  // $poly_conn
3 *32:g *55:6 94.488556  // $poly_conn
4 *19:g *55:8 64.691956  // $poly_conn
5 *40:g *26:g 130.769226  // $poly_conn
6 *26:g *55:11 61.15522  // $poly_conn
7 *55:1 *55:12 1.214743  // $metal1_conn
8 *55:12 *55:6 0.145006  // $metal1_conn
9 *55:12 *55:8 0.73161  // $metal1_conn
10 *55:8 *55:11 0.463612  // $metal1_conn
11 *55:11 *55:14 0.382303  // $metal1_conn
12 *55:14 *42:d 62.330685  // $metal1_conn
13 *30:d *55:14 75  // $metal1_conn

*END

*D_NET *54 7.67853e-16

*CONN
*I *29:g B *C 0.4375 0.5575 
*I *43:d B *C 2.7050 0.4525 
*I *44:d B *C 2.7050 0.4525 
*I *15:g B *C 0.4375 1.1350 
*I *31:d B *C 2.6750 1.0600 
*I *34:d B *C 2.6750 1.0600 
*N *54:2 *C 0.4750 0.7600 
*N *54:5 *C 2.6900 0.6050 

*CAP
0 *31:d 6.64479e-17
1 *15:g 4.5206e-17
2 *43:d 2.00782e-17
3 *29:g 3.43395e-17
4 *54:5 2.87784e-16
5 *54:2 3.13997e-16

*RES
0 *15:g *54:2 46.92445  // $poly_conn
1 *54:2 *29:g 16.15522  // $poly_conn
2 *31:d *54:5 62.299362  // $metal1_conn
3 *54:5 *54:2 47.345333  // $metal1_conn
4 *54:5 *43:d 75.084923  // $metal1_conn

*END

*D_NET *53 7.08129e-16

*CONN
*I *10:d B *C 3.7550 0.4625 
*I *11:d B *C 3.7550 0.4625 
*I *14:g B *C 4.5425 0.4625 
*I *44:s B *C 2.9575 0.4525 
*I *21:d B *C 4.0900 1.1850 
*I *24:d B *C 4.0900 1.1850 
*I *28:g B *C 4.5425 1.1850 
*I *34:s B *C 2.9425 1.0600 
*N *53:2 *C 4.5425 0.9025 
*N *53:3 *C 4.3050 0.9300 
*N *53:5 *C 4.0900 0.9300 
*N *53:7 *C 3.0100 0.9650 
*N *53:8 *C 3.0100 0.5800 

*CAP
0 *34:s 1.68607e-16
1 *28:g 3.79724e-17
2 *21:d 3.39753e-17
3 *44:s 1.31947e-17
4 *14:g 3.68537e-17
5 *10:d 1.06933e-16
6 *53:8 7.11897e-17
7 *53:5 1.32051e-16
8 *53:2 3.89696e-17
9 *53:3 6.8383e-17

*RES
0 *28:g *53:2 31.540302  // $poly_conn
1 *53:2 *53:3 92.684738  // $poly_conn
2 *53:2 *14:g 85.386459  // $poly_conn
3 *53:3 *53:5 0.177371  // $metal1_conn
4 *53:5 *53:7 0.877092  // $metal1_conn
5 *53:7 *53:8 0.297679  // $metal1_conn
6 *53:8 *44:s 75.068092  // $metal1_conn
7 *53:5 *21:d 62.083401  // $metal1_conn
8 *53:8 *10:d 75.622009  // $metal1_conn
9 *34:s *53:7 62  // $metal1_conn

*END

*D_NET *52 8.35699e-16

*CONN
*I *10:g B *C 3.6525 0.4625 
*I *33:d B *C 0.9150 0.4025 
*I *41:g B *C 1.8875 0.4325 
*I *18:g B *C 3.6525 1.0550 
*I *17:d B *C 0.9350 1.0125 
*I *27:g B *C 1.8875 1.1650 
*N *52:2 *C 1.9150 1.5050 
*N *52:7 *C 0.7950 0.9650 

*CAP
0 *27:g 8.04037e-17
1 *17:d 2.16486e-16
2 *18:g 1.23459e-16
3 *41:g 6.38426e-17
4 *33:d 8.20611e-17
5 *10:g 4.62105e-17
6 *52:2 2.23237e-16

*RES
0 *18:g *52:2 515.369446  // $poly_conn
1 *52:2 *27:g 35.760807  // $poly_conn
2 *27:g *41:g 121.794876  // $poly_conn
3 *18:g *10:g 85.897438  // $poly_conn
4 *52:2 *52:7 46.222694  // $metal1_conn
5 *52:7 *33:d 75.4534  // $metal1_conn
6 *17:d *52:7 62  // $metal1_conn

*END

*D_NET *51 5.12816e-16

*CONN
*I *11:g B *C 3.8575 0.4625 
*I *16:d B *C 4.9475 0.4625 
*I *19:d B *C 4.9475 0.4625 
*I *21:g B *C 3.7875 1.0550 
*I *32:d B *C 4.9350 1.2300 
*I *35:d B *C 4.9350 1.2300 
*N *51:1 *C 4.0200 0.7700 
*N *51:2 *C 3.8575 0.7975 
*N *51:6 *C 4.8750 0.9600 

*CAP
0 *32:d 4.12066e-17
1 *21:g 6.04299e-17
2 *16:d 6.76646e-17
3 *11:g 4.10245e-17
4 *51:6 1.13773e-16
5 *51:2 2.57066e-17
6 *51:1 1.63011e-16

*RES
0 *51:1 *51:2 77.00148  // $poly_conn
1 *51:2 *21:g 37.164749  // $poly_conn
2 *51:2 *11:g 54.915871  // $poly_conn
3 *32:d *51:6 62.143719  // $metal1_conn
4 *51:6 *51:1 0.786629  // $metal1_conn
5 *51:6 *16:d 75.348747  // $metal1_conn

*END

*D_NET *50 6.43123e-16

*CONN
*I *25:g B *C 0.2125 0.5300 
*I *29:d B *C 0.5775 0.5575 
*I *39:g B *C 1.6825 0.4325 
*I *13:g B *C 0.2125 1.0950 
*I *15:d B *C 0.5800 1.2300 
*I *23:g B *C 1.7825 1.1650 
*N *50:1 *C 0.2700 0.8000 
*N *50:2 *C 0.2125 0.8000 
*N *50:7 *C 0.9800 1.3900 
*N *50:9 *C 0.5400 1.2300 
*N *50:10 *C 0.6350 0.9500 

*CAP
0 *23:g 1.42207e-16
1 *15:d 5.0706e-17
2 *13:g 4.12208e-17
3 *39:g 7.9898e-17
4 *29:d 6.1761e-17
5 *25:g 3.67836e-17
6 *50:10 6.352e-17
7 *50:2 2.62104e-17
8 *50:1 5.6976e-17
9 *50:7 8.38401e-17

*RES
0 *50:1 *50:2 45.794373  // $poly_conn
1 *50:2 *25:g 30.819893  // $poly_conn
2 *50:2 *13:g 20.563484  // $poly_conn
3 *39:g *23:g 135.607864  // $poly_conn
4 *23:g *50:7 261.342041  // $poly_conn
5 *50:7 *50:9 0.416285  // $metal1_conn
6 *50:9 *50:10 0.248535  // $metal1_conn
7 *50:10 *50:1 0.348466  // $metal1_conn
8 *50:10 *29:d 75.290947  // $metal1_conn
9 *15:d *50:9 62  // $metal1_conn

*END

*D_NET *49 1.89813e-16

*CONN
*I *39:d B *C 1.7850 0.4325 
*I *41:d B *C 1.7850 0.4325 
*I *43:s B *C 2.4950 0.4525 

*CAP
0 *43:s 8.85331e-17
1 *39:d 1.01279e-16

*RES
0 *43:s *39:d 150.631271  // $metal1_conn

*END

*D_NET *48 1.87647e-16

*CONN
*I *20:d B *C 1.7100 1.1650 
*I *23:s B *C 1.7100 1.1650 
*I *31:s B *C 2.4850 1.0600 

*CAP
0 *31:s 8.63015e-17
1 *20:d 1.01346e-16

*RES
0 *31:s *20:d 124.422699  // $metal1_conn

*END

*D_NET *9 1.52845e-16

*CONN
*I *10:s B *C 3.5250 0.4625 
*I *11:s B *C 4.0100 0.4625 
*I *12:d B *C 4.0100 0.4625 

*CAP
0 *11:s 7.83083e-17
1 *10:s 7.45363e-17

*RES
0 *11:s *10:s 150.408173  // $metal1_conn

*END

*D_NET *8 1.4904e-16

*CONN
*I *36:d B *C 1.5625 0.4325 
*I *39:s B *C 1.5625 0.4325 
*I *41:s B *C 1.9950 0.4325 

*CAP
0 *41:s 7.42424e-17
1 *36:d 7.47979e-17

*RES
0 *36:d *41:s 150.384079  // $metal1_conn

*END

