*SPEF "IEEE 1481-1999"
*DESIGN  "DFFSRHQX2"
*DATE "Mon Sep 27 09:34:55 2010"
*VENDOR "Cadence Design Systems"
*PROGRAM "Assura RCX"
*VERSION "3.2 Red Hat Linux release 7.2 (Enigma) - (09/09/2009-10:39)"
*DESIGN_FLOW "Physical Verification"
*DIVIDER /
*DELIMITER :
*BUS_DELIMITER []
*T_UNIT 1 PS
*C_UNIT 1e15 FF
*R_UNIT 1 OHM
*L_UNIT 1 MH
// DeviceFingerDelim "@"
// MATCHED
// caps2d version: 10

*NAME_MAP
*1 mn50
*2 mn52
*3 mn51
*4 mn53
*5 mn40
*6 RN
*7 mp55
*8 mp55\@1
*9 mp45
*10 mp22
*11 mp50
*12 mp52
*13 mp51
*14 mp53
*15 mp40
*16 n41
*17 mp31
*18 n40
*19 SN
*20 mp32
*21 qbint
*22 mp30
*23 n20
*24 mp35
*25 RNb
*26 mp36
*27 mout
*28 mp26
*29 n35
*30 mp25
*31 CKb
*32 mp21
*33 CKbb
*34 mp20
*35 n43
*36 n26
*37 CK
*38 n31
*39 n22
*40 n30
*41 n21
*42 VSS
*43 D
*44 mn31
*45 mn32
*46 mn30
*47 mn35
*48 Q
*49 mn36
*50 VDD
*51 mn26
*52 mn25
*53 mn21
*54 mn20
*55 n42
*56 n25
*57 mn55
*58 mn55\@1
*59 mn45
*60 mn22

*GROUND_NETS VSS

*PORTS
*50 I
*42 I
*37 I
*43 I
*6 I
*19 I
*48 O

*D_NET *50 9.89388e-16

*CONN
*P *50 I *C 0.1000 1.7100 
*I *17:s B *C 3.8500 1.0550 
*I *22:s B *C 4.6350 1.1650 
*I *24:s B *C 4.6350 1.1650 
*I *30:s B *C 5.5650 1.1225 
*I *32:s B *C 5.5650 1.1225 
*I *34:s B *C 6.4400 1.0075 
*I *7:s B *C 0.2500 1.1050 
*I *8:s B *C 0.7375 1.1450 
*I *9:s B *C 0.7375 1.1450 
*I *10:s B *C 1.6850 1.1550 
*I *11:s B *C 1.6850 1.1550 
*I *13:s B *C 2.3700 1.3550 
*N *50:2 *C 5.5000 1.7100 
*N *50:3 *C 5.5000 1.7100 
*N *50:4 *C 4.5700 1.7100 
*N *50:5 *C 3.7950 1.7100 
*N *50:6 *C 3.3000 1.7100 
*N *50:7 *C 2.3400 1.7100 
*N *50:8 *C 1.3550 1.7100 
*N *50:9 *C 1.1000 1.7100 

*CAP
0 *13:s 3.73423e-17
1 *10:s 5.92299e-17
2 *8:s 1.3282e-16
3 *34:s 3.12886e-17
4 *30:s 3.77069e-17
5 *22:s 3.90136e-17
6 *17:s 4.11584e-17
7 *50:8 3.86665e-17
8 *50:7 5.7733e-17
9 *50:5 2.59046e-17
10 *50:4 3.22517e-17
11 *50:2 4.56273e-16

*RES
0 *8:s *50 0.069796  // $metal1_conn
1 *50:2 *50:3 6.818182  // $metal1_conn
2 *50:2 *50:6 6.818182  // $metal1_conn
3 *50:2 *50:9 6.818182  // $metal1_conn
4 *34:s *50:3 62.945004  // $metal1_conn
5 *50:3 *30:s 62.362782  // $metal1_conn
6 *50:4 *22:s 62.191879  // $metal1_conn
7 *50:5 *17:s 62.194115  // $metal1_conn
8 *50:7 *13:s 62.191879  // $metal1_conn
9 *50:8 *10:s 62.173637  // $metal1_conn
10 *50:3 *50:4 0.46657  // $metal1_conn
11 *50:4 *50:5 0.388452  // $metal1_conn
12 *50:5 *50:6 0.248162  // $metal1_conn
13 *50:6 *50:7 0.481469  // $metal1_conn
14 *50:7 *50:8 0.493816  // $metal1_conn
15 *50:8 *50:9 0.127746  // $metal1_conn
16 *50:9 *8:s 0.203006  // $metal1_conn

*END

*D_NET *42 0

*CONN
*P *42 I *C 0.1000 0.0000 
*I *46:s B *C 4.5500 0.4725 
*I *47:s B *C 4.5500 0.4725 
*I *52:s B *C 5.6650 0.5875 
*I *53:s B *C 5.6650 0.5875 
*I *54:s B *C 6.4400 0.5875 
*I *57:s B *C 0.2500 0.5300 
*I *58:s B *C 0.7100 0.5575 
*I *59:s B *C 0.7100 0.5575 
*I *60:s B *C 1.6100 0.5525 
*I *1:s B *C 1.6100 0.5525 
*N *42:2 *C 5.5000 0.0000 
*N *42:3 *C 5.5000 0.0000 
*N *42:4 *C 4.4800 0.0000 
*N *42:5 *C 3.3000 0.0000 
*N *42:6 *C 1.5700 0.0000 
*N *42:7 *C 1.1000 0.0000 


*RES
0 *58:s *42 0.069796  // $metal1_conn
1 *42:2 *42:3 5.636364  // $metal1_conn
2 *42:2 *42:5 5.636364  // $metal1_conn
3 *42:2 *42:7 5.636364  // $metal1_conn
4 *54:s *42:3 75.888695  // $metal1_conn
5 *42:3 *52:s 75.06189  // $metal1_conn
6 *42:4 *46:s 75.279915  // $metal1_conn
7 *42:6 *60:s 75.336838  // $metal1_conn
8 *42:3 *42:4 0.511726  // $metal1_conn
9 *42:4 *42:5 0.59185  // $metal1_conn
10 *42:5 *42:6 0.867804  // $metal1_conn
11 *42:6 *42:7 0.235619  // $metal1_conn
12 *42:7 *58:s 0.225584  // $metal1_conn

*END

*D_NET *37 1.66018e-16

*CONN
*P *37 I *C 6.3000 0.6650 
*I *54:g B *C 6.3275 0.5875 
*I *34:g B *C 6.3275 1.0075 
*N *37:2 *C 6.2900 0.7600 
*N *37:5 *C 6.2900 0.7600 

*CAP
0 *34:g 2.42542e-17
1 *54:g 1.59697e-17
2 *37:5 7.55274e-17
3 *37:2 1.32257e-17
4 *37 3.70413e-17

*RES
0 *34:g *37:2 26.411629  // $poly_conn
1 *37:2 *54:g 16.15522  // $poly_conn
2 *37 *37:5 0.059225  // $metal1_conn
3 *37:2 *37:5 45  // $metal1_conn

*END

*D_NET *43 2.80528e-16

*CONN
*P *43 I *C 5.7000 0.6650 
*I *52:g B *C 5.4125 0.4725 
*I *30:g B *C 5.4125 1.1700 
*N *43:1 *C 5.4700 0.8000 
*N *43:2 *C 5.4125 0.8000 

*CAP
0 *30:g 6.45828e-17
1 *52:g 5.32669e-17
2 *43:2 6.21902e-17
3 *43:1 3.91687e-17
4 *43 6.13194e-17

*RES
0 *43:1 *43:2 45.778431  // $poly_conn
1 *43:2 *52:g 51.021915  // $poly_conn
2 *43:2 *30:g 48.457813  // $poly_conn
3 *43:1 *43 0.190381  // $metal1_conn

*END

*D_NET *6 2.01611e-16

*CONN
*P *6 I *C 1.3000 1.0450 
*I *60:g B *C 1.2825 0.5825 
*I *10:g B *C 1.2525 1.0925 
*N *6:2 *C 1.3200 0.8600 

*CAP
0 *10:g 2.87812e-17
1 *60:g 2.67034e-17
2 *6:2 1.04301e-16
3 *6 4.1825e-17

*RES
0 *60:g *6:2 43.078297  // $poly_conn
1 *6:2 *10:g 31.323347  // $poly_conn
2 *6 *6:2 45.101864  // $metal1_conn

*END

*D_NET *19 8.13607e-16

*CONN
*P *19 I *C 1.7000 1.0450 
*I *46:g B *C 4.4075 0.4725 
*I *1:g B *C 1.7025 0.5525 
*I *22:g B *C 4.4075 1.1650 
*I *11:g B *C 1.7575 1.1550 
*N *19:2 *C 1.7300 0.8900 
*N *19:5 *C 4.2650 1.4200 

*CAP
0 *11:g 4.09154e-17
1 *22:g 7.50801e-17
2 *1:g 3.37718e-17
3 *46:g 5.77283e-17
4 *19:2 5.64699e-17
5 *19:5 2.87e-16
6 *19 2.62641e-16

*RES
0 *11:g *19:2 19.691952  // $poly_conn
1 *19:2 *1:g 51.743237  // $poly_conn
2 *22:g *19:5 90.354645  // $poly_conn
3 *22:g *46:g 111.53846  // $poly_conn
4 *19:5 *19 2.21754  // $metal1_conn
5 *19 *19:2 45.091255  // $metal1_conn

*END

*D_NET *48 1.31603e-16

*CONN
*P *48 O *C 0.5000 1.2350 
*I *57:d B *C 0.4450 0.5300 
*I *58:d B *C 0.4450 0.5300 
*I *7:d B *C 0.4600 1.1050 
*I *8:d B *C 0.4600 1.1050 
*N *48:2 *C 0.4450 1.1050 

*CAP
0 *7:d 7.81562e-17
1 *57:d 2.94485e-17
2 *48 2.39986e-17

*RES
0 *48 *48:2 0.021092  // $metal1_conn
1 *48:2 *57:d 75.338432  // $metal1_conn
2 *7:d *48:2 20.666666  // $metal1_conn

*END

*D_NET *41 1.50623e-18

*CONN
*I *51:s B *C 5.3400 0.4725 
*I *52:d B *C 5.3400 0.4725 

*CAP
0 *51:s 1.50623e-18

*RES
0 *52:d *51:s 0.001  // $mwires

*END

*D_NET *40 5.39062e-18

*CONN
*I *47:d B *C 4.8775 0.4725 
*I *49:s B *C 4.8775 0.4725 

*CAP
0 *47:d 5.39062e-18

*RES
0 *49:s *47:d 0.001  // $mwires

*END

*D_NET *39 1.7513e-18

*CONN
*I *28:s B *C 5.3325 1.1700 
*I *30:d B *C 5.3325 1.1700 

*CAP
0 *28:s 1.7513e-18

*RES
0 *30:d *28:s 0.001  // $mwires

*END

*D_NET *38 1.13133e-17

*CONN
*I *24:d B *C 4.8300 1.1650 
*I *26:s B *C 4.8300 1.1650 

*CAP
0 *24:d 1.13133e-17

*RES
0 *26:s *24:d 0.001  // $mwires

*END

*D_NET *36 5.49978e-18

*CONN
*I *17:d B *C 4.0100 1.0550 
*I *20:s B *C 4.0100 1.0550 

*CAP
0 *17:d 5.49978e-18

*RES
0 *20:s *17:d 0.001  // $mwires

*END

*D_NET *35 3.29651e-18

*CONN
*I *12:d B *C 2.0550 1.1550 
*I *13:d B *C 2.0550 1.1550 

*CAP
0 *12:d 3.29651e-18

*RES
0 *13:d *12:d 0.001  // $mwires

*END

*D_NET *33 1.20108e-15

*CONN
*I *49:g B *C 5.0625 0.4725 
*I *53:d B *C 5.8725 0.5875 
*I *5:g B *C 3.0375 0.4675 
*I *28:g B *C 5.2525 1.1700 
*I *32:d B *C 5.7100 1.1225 
*I *14:g B *C 2.7975 1.0550 
*N *33:2 *C 2.7450 0.8000 
*N *33:3 *C 3.0950 0.6700 
*N *33:6 *C 5.2800 0.9050 
*N *33:9 *C 5.7200 0.9800 
*N *33:10 *C 5.2800 0.9800 
*N *33:11 *C 3.0950 1.1500 

*CAP
0 *14:g 3.50473e-17
1 *32:d 1.33092e-17
2 *28:g 4.6796e-17
3 *5:g 3.85318e-17
4 *53:d 6.16318e-17
5 *49:g 4.67651e-17
6 *33:11 3.66014e-16
7 *33:10 2.14928e-16
8 *33:9 7.23939e-17
9 *33:2 9.86118e-17
10 *33:3 1.21168e-16
11 *33:6 8.58866e-17

*RES
0 *14:g *33:2 64.656593  // $poly_conn
1 *33:3 *5:g 65.732071  // $poly_conn
2 *28:g *33:6 16.530041  // $poly_conn
3 *33:6 *49:g 103.541374  // $poly_conn
4 *32:d *33:9 62.050934  // $metal1_conn
5 *33:9 *33:10 0.31685  // $metal1_conn
6 *33:10 *33:11 2.05427  // $metal1_conn
7 *33:11 *33:2 0.492484  // $metal1_conn
8 *33:9 *53:d 75.392532  // $metal1_conn
9 *33:10 *33:6 45.061886  // $metal1_conn
10 *33:11 *33:3 0.366307  // $metal1_conn

*END

*D_NET *31 1.20148e-15

*CONN
*I *51:g B *C 5.2675 0.4725 
*I *53:g B *C 5.7375 0.5875 
*I *54:d B *C 6.1875 0.5875 
*I *4:g B *C 2.8325 0.4675 
*I *26:g B *C 4.9675 1.1650 
*I *32:g B *C 5.6175 1.1225 
*I *34:d B *C 6.1875 1.0075 
*I *15:g B *C 3.0375 1.0550 
*N *31:2 *C 3.0375 0.8025 
*N *31:4 *C 3.4450 0.7500 
*N *31:6 *C 4.9300 0.8850 
*N *31:8 *C 5.2800 0.6850 
*N *31:11 *C 5.7650 0.4050 
*N *31:14 *C 6.1300 0.5750 
*N *31:15 *C 5.3550 0.4050 
*N *31:16 *C 4.9000 0.5900 

*CAP
0 *15:g 3.84504e-17
1 *34:d 6.35517e-17
2 *32:g 5.63164e-17
3 *26:g 4.28877e-17
4 *4:g 5.46383e-17
5 *54:d 7.33574e-17
6 *53:g 3.85277e-17
7 *51:g 4.75431e-17
8 *31:16 1.92632e-16
9 *31:15 8.10388e-17
10 *31:2 5.1253e-17
11 *31:4 2.24872e-16
12 *31:6 7.49951e-17
13 *31:8 9.1723e-17
14 *31:11 6.96919e-17

*RES
0 *15:g *31:2 20.491871  // $poly_conn
1 *31:2 *4:g 92.902664  // $poly_conn
2 *31:2 *31:4 147.564514  // $poly_conn
3 *26:g *31:6 67.565475  // $poly_conn
4 *51:g *31:8 62.398674  // $poly_conn
5 *32:g *53:g 109.966843  // $poly_conn
6 *53:g *31:11 64.691956  // $poly_conn
7 *34:d *31:14 62.30547  // $metal1_conn
8 *31:14 *31:11 0.365081  // $metal1_conn
9 *31:11 *31:15 0.262038  // $metal1_conn
10 *31:15 *31:16 0.574657  // $metal1_conn
11 *31:16 *31:4 1.219448  // $metal1_conn
12 *31:15 *31:8 0.207882  // $metal1_conn
13 *31:16 *31:6 0.234909  // $metal1_conn
14 *54:d *31:14 75  // $metal1_conn

*END

*D_NET *29 7.74523e-16

*CONN
*I *59:g B *C 0.7725 0.5575 
*I *4:d B *C 2.9350 0.4675 
*I *5:d B *C 2.9350 0.4675 
*I *9:g B *C 0.7975 1.1450 
*I *14:d B *C 2.9175 1.0550 
*I *15:d B *C 2.9175 1.0550 
*N *29:2 *C 0.8100 0.7600 
*N *29:5 *C 2.9350 0.6400 

*CAP
0 *14:d 6.24656e-17
1 *9:g 4.52528e-17
2 *4:d 2.22176e-17
3 *59:g 3.33524e-17
4 *29:5 3.25293e-16
5 *29:2 2.85942e-16

*RES
0 *9:g *29:2 49.488552  // $poly_conn
1 *29:2 *59:g 26.187237  // $poly_conn
2 *14:d *29:5 62.264572  // $metal1_conn
3 *29:5 *29:2 47.28474  // $metal1_conn
4 *29:5 *4:d 75.092651  // $metal1_conn

*END

*D_NET *27 7.011e-16

*CONN
*I *44:d B *C 3.9525 0.4725 
*I *45:d B *C 3.9525 0.4725 
*I *47:g B *C 4.6925 0.4725 
*I *5:s B *C 3.1300 0.4675 
*I *20:d B *C 4.3350 1.1650 
*I *22:d B *C 4.3350 1.1650 
*I *24:g B *C 4.6925 1.1650 
*I *15:s B *C 3.1875 1.0550 
*N *27:2 *C 4.6925 0.8825 
*N *27:3 *C 4.5500 0.9100 
*N *27:5 *C 4.3350 0.9100 
*N *27:7 *C 3.2550 0.9600 
*N *27:8 *C 3.2550 0.5900 

*CAP
0 *15:s 1.64275e-16
1 *24:g 4.54947e-17
2 *20:d 3.38911e-17
3 *5:s 2.51695e-17
4 *47:g 3.33697e-17
5 *44:d 1.1156e-16
6 *27:8 7.24397e-17
7 *27:5 1.25589e-16
8 *27:2 2.50131e-17
9 *27:3 6.42991e-17

*RES
0 *24:g *27:2 31.540302  // $poly_conn
1 *27:2 *27:3 68.325768  // $poly_conn
2 *27:2 *47:g 77.694153  // $poly_conn
3 *27:3 *27:5 0.168699  // $metal1_conn
4 *27:5 *27:7 0.867642  // $metal1_conn
5 *27:7 *27:8 0.285234  // $metal1_conn
6 *27:8 *5:s 75.155167  // $metal1_conn
7 *27:5 *20:d 62.083275  // $metal1_conn
8 *27:8 *44:d 75.480667  // $metal1_conn
9 *15:s *27:7 62  // $metal1_conn

*END

*D_NET *25 7.32938e-16

*CONN
*I *44:g B *C 3.7825 0.4725 
*I *60:d B *C 1.1900 0.5825 
*I *3:g B *C 2.1125 0.5525 
*I *17:g B *C 3.8975 1.0550 
*I *10:d B *C 1.1800 1.0925 
*I *13:g B *C 2.1125 1.1550 
*N *25:3 *C 2.1500 1.4950 
*N *25:7 *C 1.1300 1.0450 

*CAP
0 *13:g 6.38812e-17
1 *10:d 1.80943e-16
2 *17:g 1.0274e-16
3 *3:g 4.90525e-17
4 *60:d 7.85576e-17
5 *44:g 4.40824e-17
6 *25:3 2.13682e-16

*RES
0 *44:g *17:g 100.992477  // $poly_conn
1 *17:g *25:3 510.616058  // $poly_conn
2 *25:3 *13:g 37.950092  // $poly_conn
3 *13:g *3:g 88.46154  // $poly_conn
4 *25:3 *25:7 46.081703  // $metal1_conn
5 *25:7 *60:d 75.373703  // $metal1_conn
6 *10:d *25:7 62  // $metal1_conn

*END

*D_NET *23 5.11194e-16

*CONN
*I *45:g B *C 4.1225 0.4725 
*I *49:d B *C 5.1650 0.4725 
*I *51:d B *C 5.1650 0.4725 
*I *20:g B *C 4.1225 1.0550 
*I *26:d B *C 5.1800 1.1700 
*I *28:d B *C 5.1800 1.1700 
*N *23:1 *C 4.2650 0.7500 
*N *23:2 *C 4.1225 0.7775 
*N *23:6 *C 5.1200 1.0750 

*CAP
0 *26:d 1.5331e-16
1 *20:g 4.95298e-17
2 *49:d 8.14752e-17
3 *45:g 3.44562e-17
4 *23:2 1.78737e-17
5 *23:1 1.74548e-16

*RES
0 *23:1 *23:2 68.517159  // $poly_conn
1 *23:2 *45:g 50.388298  // $poly_conn
2 *23:2 *20:g 29.875479  // $poly_conn
3 *23:1 *23:6 0.871765  // $metal1_conn
4 *23:6 *49:d 75.449318  // $metal1_conn
5 *26:d *23:6 62  // $metal1_conn

*END

*D_NET *21 6.84643e-16

*CONN
*I *57:g B *C 0.3425 0.5300 
*I *58:g B *C 0.5475 0.5300 
*I *59:d B *C 0.9125 0.5575 
*I *2:g B *C 1.9075 0.5525 
*I *7:g B *C 0.3425 1.1050 
*I *8:g B *C 0.5775 1.1050 
*I *9:d B *C 0.9400 1.2400 
*I *12:g B *C 1.9975 1.1550 
*N *21:10 *C 1.1650 1.5200 
*N *21:12 *C 0.9000 1.2400 
*N *21:13 *C 0.9700 0.9500 

*CAP
0 *12:g 1.24427e-16
1 *9:d 6.25526e-17
2 *8:g 1.95292e-16
3 *2:g 6.59496e-17
4 *59:d 6.35323e-17
5 *21:13 6.26499e-17
6 *21:10 1.10239e-16

*RES
0 *2:g *12:g 99.710426  // $poly_conn
1 *12:g *21:10 306.523254  // $poly_conn
2 *21:10 *21:12 0.402043  // $metal1_conn
3 *21:13 *8:g 45.348091  // $metal1_conn
4 *21:13 *59:d 75.289703  // $metal1_conn
5 *9:d *21:12 62  // $metal1_conn
6 *21:12 *21:13 0.24412  // $metal1_conn

*END

*D_NET *18 2.18583e-16

*CONN
*I *2:d B *C 2.0100 0.5525 
*I *3:d B *C 2.0100 0.5525 
*I *4:s B *C 2.7400 0.4675 

*CAP
0 *4:s 9.30241e-17
1 *2:d 1.25559e-16

*RES
0 *4:s *2:d 150.74585  // $metal1_conn

*END

*D_NET *16 1.97722e-16

*CONN
*I *11:d B *C 1.8775 1.1550 
*I *12:s B *C 1.8775 1.1550 
*I *14:s B *C 2.7250 1.0550 

*CAP
0 *14:s 9.31719e-17
1 *11:d 1.0455e-16

*RES
0 *14:s *11:d 124.565323  // $metal1_conn

*END

*D_NET *56 1.59481e-16

*CONN
*I *44:s B *C 3.6825 0.4725 
*I *45:s B *C 4.2650 0.4725 
*I *46:d B *C 4.2650 0.4725 

*CAP
0 *45:s 7.23183e-17
1 *44:s 8.71631e-17

*RES
0 *45:s *44:s 150.357635  // $metal1_conn

*END

*D_NET *55 1.51386e-16

*CONN
*I *1:d B *C 1.8050 0.5525 
*I *2:s B *C 1.8050 0.5525 
*I *3:s B *C 2.2050 0.5525 

*CAP
0 *3:s 7.14138e-17
1 *1:d 7.99724e-17

*RES
0 *3:s *1:d 150.388855  // $metal1_conn

*END

