*SPEF "IEEE 1481-1999"
*DESIGN  "DFFSRXL"
*DATE "Mon Sep 27 09:37:09 2010"
*VENDOR "Cadence Design Systems"
*PROGRAM "Assura RCX"
*VERSION "3.2 Red Hat Linux release 7.2 (Enigma) - (09/09/2009-10:39)"
*DESIGN_FLOW "Physical Verification"
*DIVIDER /
*DELIMITER :
*BUS_DELIMITER []
*T_UNIT 1 PS
*C_UNIT 1e15 FF
*R_UNIT 1 OHM
*L_UNIT 1 MH
// DeviceFingerDelim "@"
// MATCHED
// caps2d version: 10

*NAME_MAP
*1 mn55
*2 QN
*3 mn22
*4 mn45
*5 mn50
*6 mn52
*7 mn51
*8 RN
*9 mp21
*10 mp20
*11 mp40
*12 mp57
*13 mp56
*14 mp45
*15 mp50
*16 mp52
*17 mp51
*18 mp53
*19 net426
*20 mp55
*21 mout
*22 SN
*23 mp22
*24 CKb
*25 mp31
*26 CKbb
*27 mp32
*28 n42
*29 mp30
*30 n40
*31 mp35
*32 n41
*33 mp36
*34 RNb
*35 mp26
*36 n35
*37 mp25
*38 qbint
*39 qint
*40 CK
*41 n43
*42 net402
*43 n31
*44 n22
*45 n30
*46 n21
*47 VSS
*48 D
*49 mn40
*50 mn31
*51 mn32
*52 mn30
*53 Q
*54 mn35
*55 VDD
*56 mn36
*57 mn26
*58 mn25
*59 mn21
*60 n20
*61 mn20
*62 mn53
*63 mn57
*64 mn56

*GROUND_NETS VSS

*PORTS
*55 I
*47 I
*40 I
*48 I
*8 I
*22 I
*53 O
*2 O

*D_NET *55 7.33926e-16

*CONN
*P *55 I *C 0.1000 1.7100 
*I *20:s B *C 1.1800 1.3025 
*I *23:s B *C 1.1800 1.3025 
*I *25:s B *C 4.2500 1.0375 
*I *29:s B *C 4.8625 1.0375 
*I *31:s B *C 4.8625 1.0375 
*I *37:s B *C 5.7900 1.5700 
*I *9:s B *C 5.7900 1.5700 
*I *10:s B *C 6.4075 1.0325 
*I *12:s B *C 0.6050 1.0075 
*I *13:s B *C 0.6050 1.0075 
*I *14:s B *C 2.0050 1.0075 
*I *15:s B *C 2.0050 1.0075 
*I *17:s B *C 2.5900 1.1125 
*N *55:2 *C 5.7650 1.7100 
*N *55:3 *C 5.5000 1.7100 
*N *55:4 *C 5.5000 1.7100 
*N *55:5 *C 4.7650 1.7100 
*N *55:6 *C 4.1650 1.7100 
*N *55:7 *C 3.3000 1.7100 
*N *55:8 *C 2.5900 1.7100 
*N *55:9 *C 1.9200 1.7100 
*N *55:10 *C 1.1800 1.7100 
*N *55:11 *C 1.1000 1.7100 
*N *55:12 *C 0.5200 1.7100 

*CAP
0 *17:s 4.11293e-17
1 *14:s 1.14208e-17
2 *12:s 3.2499e-17
3 *10:s 5.07217e-17
4 *37:s 1.08917e-17
5 *29:s 1.41487e-17
6 *25:s 1.44181e-17
7 *20:s 2.09825e-17
8 *55:12 1.0317e-17
9 *55:10 1.29386e-17
10 *55:9 2.13235e-17
11 *55:8 1.82349e-17
12 *55:6 2.54642e-17
13 *55:5 2.3371e-17
14 *55:2 2.46876e-17
15 *55:3 3.95261e-16
16 *55 6.11657e-18

*RES
0 *10:s *55:2 62.792889  // $metal1_conn
1 *55:2 *55:4 0.132719  // $metal1_conn
2 *55:4 *55:5 0.367506  // $metal1_conn
3 *55:5 *55:6 0.298648  // $metal1_conn
4 *55:6 *55:7 0.432709  // $metal1_conn
5 *55:7 *55:8 0.355916  // $metal1_conn
6 *55:8 *55:9 0.334708  // $metal1_conn
7 *55:9 *55:10 0.369817  // $metal1_conn
8 *55:10 *55:11 0.039923  // $metal1_conn
9 *55:11 *55:12 0.290713  // $metal1_conn
10 *55:12 *55 0.210211  // $metal1_conn
11 *55:2 *37:s 62.07473  // $metal1_conn
12 *55:5 *29:s 62.045826  // $metal1_conn
13 *55:6 *25:s 62.045826  // $metal1_conn
14 *55:8 *17:s 62.278549  // $metal1_conn
15 *55:9 *14:s 62.045826  // $metal1_conn
16 *55:10 *20:s 62.221748  // $metal1_conn
17 *55:12 *12:s 62.408859  // $metal1_conn
18 *55:3 *55:4 6.818182  // $metal1_conn
19 *55:3 *55:7 6.818182  // $metal1_conn
20 *55:3 *55:11 6.818182  // $metal1_conn

*END

*D_NET *47 0

*CONN
*P *47 I *C 0.1000 0.0000 
*I *52:s B *C 4.8625 0.3375 
*I *54:s B *C 4.8625 0.3375 
*I *58:s B *C 5.7250 0.3375 
*I *59:s B *C 5.7250 0.3375 
*I *61:s B *C 6.3725 0.5875 
*I *63:s B *C 0.5025 0.5875 
*I *64:s B *C 0.5025 0.5875 
*I *1:s B *C 1.1775 0.5875 
*I *3:s B *C 1.1775 0.5875 
*I *4:s B *C 1.9600 0.3975 
*I *5:s B *C 1.9600 0.3975 
*N *47:2 *C 5.7250 0.0000 
*N *47:3 *C 5.5000 0.0000 
*N *47:4 *C 5.5000 0.0000 
*N *47:5 *C 4.7650 0.0000 
*N *47:6 *C 3.3000 0.0000 
*N *47:7 *C 1.9600 0.0000 
*N *47:8 *C 1.1750 0.0000 
*N *47:9 *C 1.1000 0.0000 
*N *47:10 *C 0.4900 0.0000 


*RES
0 *61:s *47:2 75.716095  // $metal1_conn
1 *47:2 *47:4 0.112656  // $metal1_conn
2 *47:4 *47:5 0.367506  // $metal1_conn
3 *47:5 *47:6 0.733649  // $metal1_conn
4 *47:6 *47:7 0.671903  // $metal1_conn
5 *47:7 *47:8 0.393338  // $metal1_conn
6 *47:8 *47:9 0.037415  // $metal1_conn
7 *47:9 *47:10 0.30576  // $metal1_conn
8 *47:10 *47 0.195164  // $metal1_conn
9 *47:2 *58:s 75.200958  // $metal1_conn
10 *47:5 *52:s 75.045822  // $metal1_conn
11 *47:7 *4:s 75.241051  // $metal1_conn
12 *47:8 *1:s 75.387695  // $metal1_conn
13 *47:10 *63:s 75.371269  // $metal1_conn
14 *47:3 *47:4 5.636364  // $metal1_conn
15 *47:3 *47:6 5.636364  // $metal1_conn
16 *47:3 *47:9 5.636364  // $metal1_conn

*END

*D_NET *40 1.69486e-16

*CONN
*P *40 I *C 6.3000 0.8550 
*I *61:g B *C 6.2625 0.5875 
*I *10:g B *C 6.2625 1.0325 
*N *40:2 *C 6.2900 0.8150 
*N *40:4 *C 6.2900 0.8150 

*CAP
0 *10:g 2.03076e-17
1 *61:g 1.78531e-17
2 *40:4 2.05603e-17
3 *40:2 1.50043e-17
4 *40 9.57603e-17

*RES
0 *10:g *40:2 19.691952  // $poly_conn
1 *40:2 *61:g 31.230413  // $poly_conn
2 *40:4 *40 0.024912  // $metal1_conn
3 *40:2 *40:4 45  // $metal1_conn

*END

*D_NET *48 2.50672e-16

*CONN
*P *48 I *C 5.7000 0.8550 
*I *58:g B *C 5.6225 0.3375 
*I *37:g B *C 5.6225 1.0375 
*N *48:1 *C 5.6900 0.5450 
*N *48:2 *C 5.6225 0.5450 

*CAP
0 *37:g 7.53759e-17
1 *58:g 2.93648e-17
2 *48:2 5.61212e-17
3 *48:1 3.17896e-17
4 *48 5.802e-17

*RES
0 *48:1 *48:2 46.611767  // $poly_conn
1 *48:2 *58:g 27.944992  // $poly_conn
2 *48:2 *37:g 92.047554  // $poly_conn
3 *48:1 *48 0.184398  // $metal1_conn

*END

*D_NET *8 2.33928e-16

*CONN
*P *8 I *C 1.3000 1.0450 
*I *3:g B *C 1.2825 0.5875 
*I *23:g B *C 1.2825 1.3025 
*N *8:2 *C 1.2550 0.9500 

*CAP
0 *23:g 3.13012e-17
1 *3:g 3.36623e-17
2 *8:2 8.36936e-17
3 *8 8.52708e-17

*RES
0 *23:g *8:2 54.307335  // $poly_conn
1 *8:2 *3:g 65.845802  // $poly_conn
2 *8:2 *8 45.03355  // $metal1_conn

*END

*D_NET *22 9.61966e-16

*CONN
*P *22 I *C 3.1000 0.6650 
*I *52:g B *C 4.6325 0.5225 
*I *5:g B *C 2.0625 0.3975 
*I *29:g B *C 4.6325 1.0375 
*I *15:g B *C 2.0525 1.0075 
*N *22:2 *C 2.1000 0.7350 
*N *22:5 *C 4.6325 0.8300 
*N *22:6 *C 4.5450 0.8300 

*CAP
0 *15:g 5.18956e-17
1 *29:g 3.75901e-17
2 *5:g 3.92849e-17
3 *52:g 5.2349e-17
4 *22:5 1.71473e-17
5 *22:2 1.92575e-16
6 *22:6 2.71395e-16
7 *22 2.99729e-16

*RES
0 *5:g *22:2 58.462914  // $poly_conn
1 *22:2 *15:g 33.500572  // $poly_conn
2 *29:g *22:5 22.886339  // $poly_conn
3 *22:5 *22:6 48.890118  // $poly_conn
4 *22:5 *52:g 57.501724  // $poly_conn
5 *22:6 *22 1.648276  // $metal1_conn
6 *22 *22:2 45.829472  // $metal1_conn

*END

*D_NET *53 1.74235e-16

*CONN
*P *53 O *C 0.9000 0.6650 
*I *1:d B *C 0.9800 0.5875 
*I *20:d B *C 0.9550 1.3025 
*N *53:3 *C 0.9700 0.5750 

*CAP
0 *20:d 6.95454e-17
1 *1:d 3.38963e-17
2 *53 7.07932e-17

*RES
0 *20:d *53 62.436958  // $metal1_conn
1 *53 *53:3 0.044866  // $metal1_conn
2 *1:d *53:3 75  // $metal1_conn

*END

*D_NET *2 7.65258e-17

*CONN
*P *2 O *C 0.1000 0.6650 
*I *63:d B *C 0.2950 0.5875 
*I *12:d B *C 0.2950 1.0075 
*N *2:3 *C 0.2850 0.6000 

*CAP
0 *12:d 1.96247e-17
1 *63:d 3.43778e-17
2 *2 2.25233e-17

*RES
0 *12:d *2:3 62.224846  // $metal1_conn
1 *2:3 *2 0.087956  // $metal1_conn
2 *63:d *2:3 75  // $metal1_conn

*END

*D_NET *46 0

*CONN
*I *57:s B *C 5.4750 0.3375 
*I *58:d B *C 5.4750 0.3375 


*RES
0 *58:d *57:s 0.001  // $mwires

*END

*D_NET *45 2.7422e-18

*CONN
*I *54:d B *C 4.9750 0.3375 
*I *56:s B *C 4.9750 0.3375 

*CAP
0 *54:d 2.7422e-18

*RES
0 *56:s *54:d 0.001  // $mwires

*END

*D_NET *44 4.93654e-18

*CONN
*I *35:s B *C 5.5525 1.0375 
*I *37:d B *C 5.5525 1.0375 

*CAP
0 *35:s 4.93654e-18

*RES
0 *37:d *35:s 0.001  // $mwires

*END

*D_NET *43 4.60534e-18

*CONN
*I *31:d B *C 5.0375 1.0375 
*I *33:s B *C 5.0375 1.0375 

*CAP
0 *31:d 4.60534e-18

*RES
0 *33:s *31:d 0.001  // $mwires

*END

*D_NET *42 1.4968e-18

*CONN
*I *25:d B *C 4.3500 1.0375 
*I *27:s B *C 4.3500 1.0375 

*CAP
0 *25:d 1.4968e-18

*RES
0 *27:s *25:d 0.001  // $mwires

*END

*D_NET *41 1.57959e-18

*CONN
*I *16:s B *C 2.3100 1.0075 
*I *17:d B *C 2.3100 1.0075 

*CAP
0 *16:s 1.57959e-18

*RES
0 *17:d *16:s 0.001  // $mwires

*END

*D_NET *39 2.21881e-16

*CONN
*I *63:g B *C 0.3875 0.5875 
*I *64:d B *C 0.7100 0.5875 
*I *12:g B *C 0.3875 1.0075 
*I *13:d B *C 0.7450 1.0075 
*N *39:1 *C 0.4750 0.7650 
*N *39:2 *C 0.3875 0.7650 
*N *39:5 *C 0.7100 0.7750 

*CAP
0 *13:d 3.79803e-17
1 *12:g 2.98879e-17
2 *64:d 3.03152e-17
3 *63:g 2.34107e-17
4 *39:5 4.22783e-17
5 *39:2 7.38894e-18
6 *39:1 5.06201e-17

*RES
0 *39:1 *39:2 48.890118  // $poly_conn
1 *39:2 *63:g 21.845535  // $poly_conn
2 *39:2 *12:g 29.537844  // $poly_conn
3 *39:1 *39:5 0.123702  // $metal1_conn
4 *39:5 *64:d 75.110634  // $metal1_conn
5 *39:5 *13:d 62.111656  // $metal1_conn

*END

*D_NET *38 7.41034e-16

*CONN
*I *64:g B *C 0.6175 0.5875 
*I *1:g B *C 1.0725 0.5875 
*I *4:d B *C 1.7625 0.3975 
*I *6:g B *C 2.3325 0.3975 
*I *20:g B *C 1.0775 1.3025 
*I *13:g B *C 0.6525 1.0075 
*I *14:d B *C 1.7850 1.0075 
*I *16:g B *C 2.2575 1.0075 
*N *38:2 *C 1.1050 0.7700 
*N *38:4 *C 0.6575 0.7575 
*N *38:8 *C 2.2950 0.5750 
*N *38:10 *C 1.7500 0.5750 
*N *38:12 *C 1.7500 0.4100 

*CAP
0 *16:g 8.35368e-17
1 *14:d 5.05323e-17
2 *13:g 2.86219e-17
3 *20:g 4.46025e-17
4 *6:g 2.92933e-17
5 *4:d 7.89477e-17
6 *1:g 2.05773e-17
7 *64:g 2.0108e-17
8 *38:10 6.42077e-17
9 *38:4 3.09883e-17
10 *38:2 1.59379e-16
11 *38:8 1.30239e-16

*RES
0 *20:g *38:2 98.441147  // $poly_conn
1 *38:2 *1:g 16.777649  // $poly_conn
2 *38:2 *38:4 105.221283  // $poly_conn
3 *38:4 *64:g 32.03199  // $poly_conn
4 *38:4 *13:g 33.013973  // $poly_conn
5 *6:g *38:8 19.707582  // $poly_conn
6 *38:8 *16:g 76.117844  // $poly_conn
7 *38:8 *38:10 45.386963  // $metal1_conn
8 *38:10 *38:12 0.113059  // $metal1_conn
9 *38:12 *38:2 45.736713  // $metal1_conn
10 *38:10 *14:d 62.28112  // $metal1_conn
11 *4:d *38:12 75  // $metal1_conn

*END

*D_NET *36 5.70504e-16

*CONN
*I *49:d B *C 3.4100 0.5075 
*I *62:d B *C 3.4100 0.5075 
*I *4:g B *C 1.8575 0.3975 
*I *11:d B *C 3.2100 1.0075 
*I *14:g B *C 1.8575 1.0075 
*I *18:d B *C 3.2100 1.0075 
*N *36:1 *C 1.9100 0.7750 
*N *36:2 *C 1.8575 0.7750 
*N *36:6 *C 3.2100 0.8950 

*CAP
0 *14:g 3.67596e-17
1 *11:d 2.16975e-17
2 *4:g 3.47831e-17
3 *49:d 6.80622e-17
4 *36:6 1.89933e-16
5 *36:2 4.28506e-17
6 *36:1 1.76418e-16

*RES
0 *36:1 *36:2 45.294373  // $poly_conn
1 *36:2 *4:g 73.127586  // $poly_conn
2 *36:2 *14:g 26.97374  // $poly_conn
3 *49:d *36:6 75.410263  // $metal1_conn
4 *36:6 *36:1 1.137218  // $metal1_conn
5 *36:6 *11:d 62.029942  // $metal1_conn

*END

*D_NET *34 6.77066e-16

*CONN
*I *50:g B *C 4.0375 0.5225 
*I *3:d B *C 1.4300 0.5875 
*I *7:g B *C 2.5775 0.3975 
*I *23:d B *C 1.4800 1.3075 
*I *25:g B *C 4.2975 1.0375 
*I *17:g B *C 2.3625 1.0075 
*N *34:5 *C 2.4000 1.2350 
*N *34:7 *C 1.4950 1.2650 

*CAP
0 *17:g 8.17194e-17
1 *25:g 9.62002e-17
2 *23:d 1.08543e-16
3 *7:g 9.51991e-17
4 *3:d 8.21212e-17
5 *50:g 9.37529e-17
6 *34:5 1.1953e-16

*RES
0 *25:g *50:g 140.736069  // $poly_conn
1 *50:g *7:g 444.582214  // $poly_conn
2 *7:g *17:g 153.55658  // $poly_conn
3 *17:g *34:5 66.283424  // $poly_conn
4 *34:5 *34:7 0.624555  // $metal1_conn
5 *34:7 *3:d 75.444389  // $metal1_conn
6 *23:d *34:7 62  // $metal1_conn

*END

*D_NET *32 2.32924e-16

*CONN
*I *15:d B *C 2.1550 1.0075 
*I *16:d B *C 2.1550 1.0075 
*I *18:s B *C 3.0150 1.0075 

*CAP
0 *18:s 9.92262e-17
1 *15:d 1.33698e-16

*RES
0 *18:s *15:d 124.510406  // $metal1_conn

*END

*D_NET *30 1.60546e-16

*CONN
*I *62:s B *C 3.0850 0.5075 
*I *6:d B *C 2.4550 0.3975 
*I *7:d B *C 2.4550 0.3975 
*N *30:3 *C 2.9450 0.4950 

*CAP
0 *6:d 7.73871e-17
1 *62:s 8.3159e-17

*RES
0 *6:d *30:3 75.329185  // $metal1_conn
1 *62:s *30:3 75  // $metal1_conn

*END

*D_NET *28 1.71782e-16

*CONN
*I *5:d B *C 2.1975 0.3975 
*I *6:s B *C 2.1975 0.3975 
*I *7:s B *C 2.6775 0.3975 

*CAP
0 *7:s 9.03384e-17
1 *5:d 8.14433e-17

*RES
0 *5:d *7:s 150.418869  // $metal1_conn

*END

*D_NET *26 1.23144e-15

*CONN
*I *49:g B *C 3.5125 0.5075 
*I *56:g B *C 5.0275 0.3375 
*I *59:d B *C 5.9200 0.3375 
*I *35:g B *C 5.4825 1.0375 
*I *9:d B *C 5.9200 1.0375 
*I *18:g B *C 3.1075 1.0075 
*N *26:2 *C 3.1450 1.2350 
*N *26:4 *C 3.4550 0.8000 
*N *26:6 *C 5.0650 0.6900 
*N *26:8 *C 5.4450 0.8000 
*N *26:11 *C 5.9300 1.0850 
*N *26:12 *C 5.4450 1.0550 
*N *26:13 *C 5.0650 1.1500 
*N *26:14 *C 3.4550 1.1500 

*CAP
0 *18:g 4.91463e-17
1 *9:d 1.0588e-16
2 *35:g 4.80629e-17
3 *59:d 7.06827e-17
4 *56:g 5.5654e-17
5 *49:g 4.18873e-17
6 *26:14 2.1461e-16
7 *26:13 2.28127e-16
8 *26:12 7.766e-17
9 *26:2 5.87212e-17
10 *26:4 9.92965e-17
11 *26:6 1.14411e-16
12 *26:8 6.73009e-17

*RES
0 *18:g *26:2 66.283424  // $poly_conn
1 *49:g *26:4 95.018585  // $poly_conn
2 *56:g *26:6 107.309067  // $poly_conn
3 *35:g *26:8 68.847527  // $poly_conn
4 *59:d *26:11 75.569595  // $metal1_conn
5 *26:11 *26:12 0.344854  // $metal1_conn
6 *26:12 *26:13 0.368619  // $metal1_conn
7 *26:13 *26:14 1.322117  // $metal1_conn
8 *26:14 *26:2 0.241108  // $metal1_conn
9 *26:12 *26:8 0.18036  // $metal1_conn
10 *26:13 *26:6 0.324889  // $metal1_conn
11 *26:14 *26:4 0.249457  // $metal1_conn
12 *9:d *26:11 62  // $metal1_conn

*END

*D_NET *24 1.00558e-15

*CONN
*I *57:g B *C 5.3275 0.3375 
*I *59:g B *C 5.8275 0.3375 
*I *61:d B *C 6.1550 0.5875 
*I *62:g B *C 3.3075 0.5075 
*I *33:g B *C 5.1525 1.0375 
*I *9:g B *C 5.8275 1.0375 
*I *10:d B *C 6.1550 1.0325 
*I *11:g B *C 3.3125 1.0075 
*N *24:3 *C 3.3850 1.3100 
*N *24:6 *C 5.1800 1.3100 
*N *24:9 *C 5.9550 1.2750 
*N *24:11 *C 6.1300 1.0800 

*CAP
0 *11:g 5.00601e-17
1 *10:d 7.0249e-17
2 *9:g 5.21002e-17
3 *33:g 5.94645e-17
4 *62:g 5.40961e-17
5 *61:d 5.75828e-17
6 *59:g 5.58384e-17
7 *57:g 5.79333e-17
8 *24:3 1.96209e-16
9 *24:6 2.40333e-16
10 *24:9 1.11714e-16

*RES
0 *62:g *11:g 81.016266  // $poly_conn
1 *11:g *24:3 95.354065  // $poly_conn
2 *57:g *33:g 162.312637  // $poly_conn
3 *33:g *24:6 78.794518  // $poly_conn
4 *9:g *59:g 133.333328  // $poly_conn
5 *9:g *24:9 89.547165  // $poly_conn
6 *24:11 *24:9 0.263153  // $metal1_conn
7 *24:9 *24:6 0.652462  // $metal1_conn
8 *24:6 *24:3 1.332802  // $metal1_conn
9 *24:11 *61:d 75.38826  // $metal1_conn
10 *10:d *24:11 62  // $metal1_conn

*END

*D_NET *21 7.40804e-16

*CONN
*I *49:s B *C 3.6050 0.5075 
*I *50:d B *C 4.2200 0.5225 
*I *51:d B *C 4.2200 0.5225 
*I *54:g B *C 4.9225 0.3375 
*I *27:d B *C 4.5175 1.0375 
*I *29:d B *C 4.5175 1.0375 
*I *31:g B *C 4.9225 1.0375 
*I *11:s B *C 3.5200 1.0075 
*N *21:2 *C 4.8950 0.7050 
*N *21:5 *C 4.7350 0.6700 
*N *21:7 *C 4.5050 0.9900 
*N *21:9 *C 3.6450 0.9900 

*CAP
0 *11:s 1.49658e-16
1 *31:g 4.14147e-17
2 *27:d 1.58486e-16
3 *54:g 6.44315e-17
4 *50:d 9.36368e-17
5 *49:s 6.84777e-17
6 *21:5 8.46328e-17
7 *21:2 8.00663e-17

*RES
0 *31:g *21:2 49.179131  // $poly_conn
1 *21:2 *54:g 67.127846  // $poly_conn
2 *50:d *21:5 75.555923  // $metal1_conn
3 *21:5 *21:7 0.384223  // $metal1_conn
4 *21:7 *21:9 0.709095  // $metal1_conn
5 *21:9 *49:s 75.357887  // $metal1_conn
6 *21:5 *21:2 45.105865  // $metal1_conn
7 *27:d *21:7 62  // $metal1_conn
8 *11:s *21:9 62  // $metal1_conn

*END

*D_NET *19 1.79479e-16

*CONN
*I *50:s B *C 3.9450 0.5225 
*I *51:s B *C 4.5175 0.5225 
*I *52:d B *C 4.5175 0.5225 

*CAP
0 *51:s 9.66972e-17
1 *50:s 8.27817e-17

*RES
0 *51:s *50:s 150.63121  // $metal1_conn

*END

*D_NET *60 3.98825e-16

*CONN
*I *51:g B *C 4.4025 0.5225 
*I *56:d B *C 5.1775 0.3375 
*I *57:d B *C 5.1775 0.3375 
*I *27:g B *C 4.4025 1.0375 
*I *33:d B *C 5.3175 1.0375 
*I *35:d B *C 5.3175 1.0375 
*N *60:1 *C 4.4900 0.3200 
*N *60:5 *C 5.2250 0.3500 

*CAP
0 *33:d 9.05803e-17
1 *27:g 8.93144e-17
2 *56:d 7.7396e-17
3 *51:g 3.72909e-17
4 *60:1 1.04243e-16

*RES
0 *60:1 *51:g 79.290756  // $poly_conn
1 *51:g *27:g 85.897438  // $poly_conn
2 *60:1 *60:5 0.505648  // $metal1_conn
3 *60:5 *33:d 62.487114  // $metal1_conn
4 *56:d *60:5 75  // $metal1_conn

*END

