*SPEF "IEEE 1481-1999"
*DESIGN  "DFFSX1"
*DATE "Mon Sep 27 09:37:33 2010"
*VENDOR "Cadence Design Systems"
*PROGRAM "Assura RCX"
*VERSION "3.2 Red Hat Linux release 7.2 (Enigma) - (09/09/2009-10:39)"
*DESIGN_FLOW "Physical Verification"
*DIVIDER /
*DELIMITER :
*BUS_DELIMITER []
*T_UNIT 1 PS
*C_UNIT 1e15 FF
*R_UNIT 1 OHM
*L_UNIT 1 MH
// DeviceFingerDelim "@"
// MATCHED
// caps2d version: 10

*NAME_MAP
*1 mp56
*2 mp55
*3 mp45
*4 mp51
*5 mp50
*6 mp30
*7 mp31
*8 VDD
*9 mn52
*10 mn40
*11 mn21
*12 mn36
*13 mn35
*14 VSS
*15 mn26
*16 mp52
*17 mn25
*18 mp40
*19 mn20
*20 mp21
*21 mn57
*22 mp35
*23 mp36
*24 mp26
*25 qbint
*26 QN
*27 mp25
*28 n41
*29 mp20
*30 n40
*31 mp57
*32 mout
*33 n35
*34 n20
*35 CKb
*36 n31
*37 n22
*38 CK
*39 n42
*40 n25
*41 n30
*42 n21
*43 D
*44 mn56
*45 mn55
*46 mn45
*47 mn51
*48 mn50
*49 mn30
*50 SN
*51 mn31
*52 net331
*53 CKbb
*54 Q

*GROUND_NETS VSS

*PORTS
*8 I
*14 I
*38 I
*43 I
*50 I
*54 O
*26 O

*D_NET *8 5.86212e-16

*CONN
*P *8 I *C 0.1000 1.7100 
*I *20:s B *C 3.2575 1.5475 
*I *22:s B *C 3.2575 1.5475 
*I *27:s B *C 3.9900 1.0925 
*I *29:s B *C 3.9900 1.0925 
*I *31:s B *C 0.3600 1.3450 
*I *1:s B *C 0.3600 1.3450 
*I *2:s B *C 0.9550 1.0075 
*I *3:s B *C 0.9550 1.0075 
*I *4:s B *C 1.3400 1.1025 
*I *5:s B *C 1.7750 1.5475 
*I *6:s B *C 1.7750 1.5475 
*I *7:s B *C 2.1850 1.5475 
*N *8:2 *C 3.3000 1.7100 
*N *8:3 *C 3.3000 1.7100 
*N *8:4 *C 2.1600 1.7100 
*N *8:5 *C 1.7500 1.7100 
*N *8:6 *C 1.2800 1.7100 
*N *8:7 *C 1.1000 1.7100 
*N *8:8 *C 0.9050 1.7100 
*N *8:9 *C 0.3350 1.7100 

*CAP
0 *7:s 3.07859e-17
1 *5:s 1.3474e-17
2 *4:s 3.49335e-17
3 *2:s 4.96804e-17
4 *31:s 1.6148e-17
5 *27:s 5.41365e-17
6 *20:s 3.40058e-17
7 *8:9 5.97291e-18
8 *8:8 1.04358e-17
9 *8:6 6.97408e-18
10 *8:5 1.33971e-17
11 *8:4 3.12423e-17
12 *8:2 2.76979e-16
13 *8 8.04749e-18

*RES
0 *27:s *8:3 62.75695  // $metal1_conn
1 *8:3 *8:4 0.571022  // $metal1_conn
2 *8:4 *8:5 0.203486  // $metal1_conn
3 *8:5 *8:6 0.234551  // $metal1_conn
4 *8:6 *8:7 0.090146  // $metal1_conn
5 *8:7 *8:8 0.097675  // $metal1_conn
6 *8:8 *8:9 0.285692  // $metal1_conn
7 *8:9 *8 0.1175  // $metal1_conn
8 *8:3 *20:s 62.082043  // $metal1_conn
9 *8:4 *7:s 62.068439  // $metal1_conn
10 *8:5 *5:s 62.068439  // $metal1_conn
11 *8:6 *4:s 62.361149  // $metal1_conn
12 *8:8 *2:s 62.438831  // $metal1_conn
13 *8:9 *31:s 62.226379  // $metal1_conn
14 *8:2 *8:3 6.818182  // $metal1_conn
15 *8:2 *8:7 6.818182  // $metal1_conn

*END

*D_NET *14 0

*CONN
*P *14 I *C 0.1000 0.0000 
*I *11:s B *C 3.2400 0.5625 
*I *12:s B *C 3.2400 0.5625 
*I *17:s B *C 4.0975 0.5625 
*I *19:s B *C 4.0975 0.5625 
*I *21:s B *C 0.3500 0.5875 
*I *44:s B *C 0.3500 0.5875 
*I *45:s B *C 0.9600 0.5375 
*I *46:s B *C 0.9600 0.5375 
*I *48:s B *C 1.7700 0.5625 
*I *49:s B *C 1.7700 0.5625 
*N *14:2 *C 3.3000 0.0000 
*N *14:3 *C 3.3000 0.0000 
*N *14:4 *C 1.7550 0.0000 
*N *14:5 *C 1.1000 0.0000 
*N *14:6 *C 0.9400 0.0000 
*N *14:7 *C 0.3350 0.0000 


*RES
0 *17:s *14:3 75.495026  // $metal1_conn
1 *14:3 *14:4 0.775242  // $metal1_conn
2 *14:4 *14:5 0.32855  // $metal1_conn
3 *14:5 *14:6 0.080108  // $metal1_conn
4 *14:6 *14:7 0.303258  // $metal1_conn
5 *14:7 *14 0.1175  // $metal1_conn
6 *14:3 *11:s 75.105133  // $metal1_conn
7 *14:4 *48:s 75.075157  // $metal1_conn
8 *14:6 *45:s 75.120674  // $metal1_conn
9 *14:7 *21:s 75.162529  // $metal1_conn
10 *14:2 *14:3 5.636364  // $metal1_conn
11 *14:2 *14:5 5.636364  // $metal1_conn

*END

*D_NET *38 2.05707e-16

*CONN
*P *38 I *C 4.1100 0.8550 
*I *19:g B *C 4.1475 0.5625 
*I *29:g B *C 4.0925 1.0925 
*N *38:2 *C 4.1200 0.8500 
*N *38:4 *C 4.1200 0.8500 

*CAP
0 *29:g 2.90732e-17
1 *19:g 3.16562e-17
2 *38:2 2.96898e-17
3 *38 1.15288e-16

*RES
0 *19:g *38:2 46.615028  // $poly_conn
1 *38:2 *29:g 26.102209  // $poly_conn
2 *38:4 *38 0.00328  // $metal1_conn
3 *38:2 *38:4 45  // $metal1_conn

*END

*D_NET *43 2.59173e-16

*CONN
*P *43 I *C 3.9100 0.8550 
*I *17:g B *C 3.9475 0.5625 
*I *27:g B *C 3.8875 1.0925 
*N *43:2 *C 3.9150 0.8750 
*N *43:4 *C 3.9150 0.8750 

*CAP
0 *27:g 4.36112e-17
1 *17:g 6.56387e-17
2 *43:2 1.49923e-16

*RES
0 *17:g *43:2 50.453133  // $poly_conn
1 *43:2 *27:g 19.340628  // $poly_conn
2 *43 *43:4 0.012481  // $metal1_conn
3 *43:2 *43:4 45  // $metal1_conn

*END

*D_NET *50 2.61125e-16

*CONN
*P *50 I *C 1.5400 0.8550 
*I *48:g B *C 1.6175 0.5625 
*I *49:g B *C 1.8175 0.5625 
*I *5:g B *C 1.6175 1.1025 
*I *6:g B *C 1.8175 1.1025 
*N *50:2 *C 1.8175 0.8175 
*N *50:3 *C 1.5800 0.8450 
*N *50:7 *C 1.5800 0.8450 

*CAP
0 *6:g 3.27213e-17
1 *5:g 2.49373e-17
2 *49:g 3.81908e-17
3 *48:g 2.77318e-17
4 *50:2 2.24579e-17
5 *50:3 7.65799e-17
6 *50 3.85065e-17

*RES
0 *6:g *50:2 44.360817  // $poly_conn
1 *50:2 *50:3 45.14801  // $poly_conn
2 *50:2 *49:g 45.642868  // $poly_conn
3 *50:3 *48:g 44.360348  // $poly_conn
4 *50:3 *5:g 28.975733  // $poly_conn
5 *50 *50:7 0.013656  // $metal1_conn
6 *50:3 *50:7 45  // $metal1_conn

*END

*D_NET *54 1.64533e-16

*CONN
*P *54 O *C 0.6900 0.6650 
*I *45:d B *C 0.7100 0.4800 
*I *2:d B *C 0.7100 1.0950 

*CAP
0 *2:d 8.49077e-17
1 *45:d 4.1429e-17
2 *54 3.81963e-17

*RES
0 *54 *45:d 37.608276  // $metal1_conn
1 *54 *2:d 20.929548  // $metal1_conn

*END

*D_NET *26 8.26914e-17

*CONN
*P *26 O *C 0.0900 0.6650 
*I *21:d B *C 0.1100 0.5300 
*I *31:d B *C 0.1100 1.0950 

*CAP
0 *31:d 4.18885e-17
1 *21:d 1.79676e-17
2 *26 2.28354e-17

*RES
0 *26 *21:d 37.575253  // $metal1_conn
1 *26 *31:d 20.929441  // $metal1_conn

*END

*D_NET *42 3.88474e-19

*CONN
*I *15:s B *C 3.8950 0.5625 
*I *17:d B *C 3.8950 0.5625 

*CAP
0 *15:s 3.88474e-19

*RES
0 *17:d *15:s 0.001  // $mwires

*END

*D_NET *41 1.87475e-18

*CONN
*I *12:d B *C 3.4625 0.5625 
*I *13:s B *C 3.4625 0.5625 

*CAP
0 *12:d 1.87475e-18

*RES
0 *13:s *12:d 0.001  // $mwires

*END

*D_NET *40 0

*CONN
*I *49:d B *C 1.8800 0.5625 
*I *51:s B *C 1.8800 0.5625 


*RES
0 *51:s *49:d 0.001  // $mwires

*END

*D_NET *39 1.63892e-18

*CONN
*I *47:s B *C 1.5150 0.5625 
*I *48:d B *C 1.5150 0.5625 

*CAP
0 *47:s 1.63892e-18

*RES
0 *48:d *47:s 0.001  // $mwires

*END

*D_NET *37 0

*CONN
*I *24:s B *C 3.8225 1.0925 
*I *27:d B *C 3.8225 1.0925 


*RES
0 *27:d *24:s 0.001  // $mwires

*END

*D_NET *36 0

*CONN
*I *22:d B *C 3.4200 1.0925 
*I *23:s B *C 3.4200 1.0925 


*RES
0 *23:s *22:d 0.001  // $mwires

*END

*D_NET *35 1.01966e-15

*CONN
*I *9:g B *C 2.3925 0.5625 
*I *11:g B *C 3.0875 0.5625 
*I *15:g B *C 3.8425 0.5625 
*I *19:d B *C 4.2400 0.5625 
*I *18:g B *C 2.6325 1.0725 
*I *20:g B *C 3.0875 1.0925 
*I *23:g B *C 3.5525 1.0925 
*I *29:d B *C 4.1850 1.0925 
*N *35:1 *C 2.4450 0.3850 
*N *35:4 *C 2.6600 0.8650 
*N *35:7 *C 3.0500 0.3850 
*N *35:9 *C 3.5800 0.8750 
*N *35:11 *C 3.8050 0.3850 
*N *35:12 *C 3.5800 0.3850 
*N *35:13 *C 2.6600 0.3850 
*N *35:15 *C 4.2500 0.5500 

*CAP
0 *29:d 6.86812e-17
1 *23:g 3.3231e-17
2 *20:g 6.26372e-17
3 *18:g 2.51277e-17
4 *19:d 8.25807e-17
5 *15:g 4.9221e-17
6 *11:g 4.5341e-17
7 *9:g 3.05188e-17
8 *35:13 7.11654e-17
9 *35:12 5.91852e-17
10 *35:1 5.89511e-17
11 *35:4 1.30461e-16
12 *35:7 9.17743e-17
13 *35:9 1.2237e-16
14 *35:11 8.84162e-17

*RES
0 *35:1 *9:g 66.514122  // $poly_conn
1 *18:g *35:4 61.15522  // $poly_conn
2 *20:g *11:g 89.743584  // $poly_conn
3 *11:g *35:7 62.437271  // $poly_conn
4 *23:g *35:9 64.691956  // $poly_conn
5 *15:g *35:11 62.437271  // $poly_conn
6 *35:9 *35:12 0.360241  // $metal1_conn
7 *35:12 *35:7 0.373463  // $metal1_conn
8 *35:7 *35:13 0.286  // $metal1_conn
9 *35:13 *35:1 0.163955  // $metal1_conn
10 *35:12 *35:11 0.163996  // $metal1_conn
11 *35:11 *35:15 0.429256  // $metal1_conn
12 *35:15 *29:d 62.445122  // $metal1_conn
13 *35:13 *35:4 0.429395  // $metal1_conn
14 *19:d *35:15 75  // $metal1_conn

*END

*D_NET *34 6.41178e-16

*CONN
*I *13:d B *C 3.7400 0.5625 
*I *15:d B *C 3.7400 0.5625 
*I *51:g B *C 1.9425 0.5625 
*I *23:d B *C 3.6550 1.0925 
*I *24:d B *C 3.6550 1.0925 
*I *7:g B *C 2.0275 1.1025 
*N *34:1 *C 2.0000 1.3750 
*N *34:6 *C 3.6550 1.0950 

*CAP
0 *7:g 4.35418e-17
1 *23:d 2.136e-16
2 *51:g 6.35147e-17
3 *13:d 8.49151e-17
4 *34:1 2.35607e-16

*RES
0 *34:1 *7:g 78.79451  // $poly_conn
1 *7:g *51:g 102.274536  // $poly_conn
2 *13:d *34:6 75.447525  // $metal1_conn
3 *34:6 *34:1 1.431183  // $metal1_conn
4 *23:d *34:6 62  // $metal1_conn

*END

*D_NET *33 6.66475e-16

*CONN
*I *9:d B *C 2.5250 0.5625 
*I *10:d B *C 2.5250 0.5625 
*I *46:g B *C 1.0075 0.5375 
*I *16:d B *C 2.5300 1.0725 
*I *18:d B *C 2.5300 1.0725 
*I *3:g B *C 1.0075 1.0075 
*N *33:1 *C 1.0950 0.7150 
*N *33:2 *C 1.0075 0.7150 
*N *33:6 *C 2.5275 0.7550 

*CAP
0 *3:g 4.33784e-17
1 *16:d 5.42904e-17
2 *46:g 3.16271e-17
3 *9:d 3.95627e-17
4 *33:6 2.51424e-16
5 *33:2 2.39864e-17
6 *33:1 2.22207e-16

*RES
0 *33:1 *33:2 48.890118  // $poly_conn
1 *33:2 *46:g 21.845535  // $poly_conn
2 *33:2 *3:g 42.358356  // $poly_conn
3 *16:d *33:6 62.235641  // $metal1_conn
4 *33:6 *33:1 1.638759  // $metal1_conn
5 *33:6 *9:d 75.135094  // $metal1_conn

*END

*D_NET *32 7.51345e-16

*CONN
*I *10:s B *C 2.7600 0.5625 
*I *12:g B *C 3.2875 0.5625 
*I *51:d B *C 2.0350 0.5625 
*I *18:s B *C 2.7250 1.0725 
*I *22:g B *C 3.2875 1.0925 
*I *6:d B *C 1.9225 1.1025 
*I *7:d B *C 1.9225 1.1025 
*N *32:2 *C 3.2875 0.8850 
*N *32:3 *C 3.2300 0.8850 
*N *32:7 *C 2.7350 1.0850 
*N *32:8 *C 2.7350 1.2150 
*N *32:9 *C 2.0275 0.9500 

*CAP
0 *6:d 4.35656e-17
1 *22:g 3.58396e-17
2 *18:s 6.3085e-17
3 *51:d 7.21698e-17
4 *12:g 4.40182e-17
5 *10:s 8.44374e-17
6 *32:9 1.01658e-16
7 *32:8 1.60629e-16
8 *32:2 3.96441e-17
9 *32:3 1.06298e-16

*RES
0 *22:g *32:2 22.886339  // $poly_conn
1 *32:2 *32:3 45.794373  // $poly_conn
2 *32:2 *12:g 61.347878  // $poly_conn
3 *10:s *32:7 75.472786  // $metal1_conn
4 *32:7 *32:8 0.071208  // $metal1_conn
5 *32:8 *32:9 0.734701  // $metal1_conn
6 *32:9 *6:d 62.127296  // $metal1_conn
7 *32:8 *32:3 0.567939  // $metal1_conn
8 *32:9 *51:d 75.219299  // $metal1_conn
9 *18:s *32:7 62  // $metal1_conn

*END

*D_NET *30 3.48731e-16

*CONN
*I *9:s B *C 2.3000 0.5625 
*I *47:d B *C 1.3200 0.5625 

*CAP
0 *47:d 1.70025e-16
1 *9:s 1.78706e-16

*RES
0 *9:s *47:d 151.157104  // $metal1_conn

*END

*D_NET *28 2.20164e-16

*CONN
*I *16:s B *C 2.3175 1.0725 
*I *4:d B *C 1.5150 1.1025 
*I *5:d B *C 1.5150 1.1025 

*CAP
0 *4:d 9.04038e-17
1 *16:s 1.29761e-16

*RES
0 *16:s *4:d 124.677238  // $metal1_conn

*END

*D_NET *25 4.70035e-16

*CONN
*I *44:g B *C 0.3975 0.5875 
*I *45:g B *C 0.8025 0.4800 
*I *46:d B *C 1.1000 0.5375 
*I *47:g B *C 1.4125 0.5625 
*I *1:g B *C 0.3975 1.0075 
*I *2:g B *C 0.8025 1.0950 
*I *3:d B *C 1.1500 0.9600 
*I *4:g B *C 1.4125 1.1025 
*N *25:2 *C 0.8500 0.7100 
*N *25:3 *C 0.3975 0.7375 
*N *25:8 *C 1.4125 0.8950 
*N *25:9 *C 1.3600 0.8950 
*N *25:12 *C 0.9400 0.7100 
*N *25:14 *C 1.1100 0.9600 

*CAP
0 *4:g 2.86331e-17
1 *3:d 4.77396e-17
2 *2:g 3.6741e-17
3 *1:g 3.39946e-17
4 *47:g 3.76777e-17
5 *46:d 4.3642e-17
6 *45:g 2.91725e-17
7 *44:g 2.57316e-17
8 *25:12 2.8494e-17
9 *25:3 2.97283e-17
10 *25:2 5.07689e-17
11 *25:9 7.77118e-17

*RES
0 *2:g *25:2 39.232143  // $poly_conn
1 *25:2 *25:3 98.903503  // $poly_conn
2 *25:3 *44:g 18.337015  // $poly_conn
3 *25:2 *45:g 16.15522  // $poly_conn
4 *25:3 *1:g 40.131889  // $poly_conn
5 *4:g *25:8 22.886339  // $poly_conn
6 *25:8 *25:9 45.294373  // $poly_conn
7 *25:8 *47:g 63.91198  // $poly_conn
8 *46:d *25:12 75.255333  // $metal1_conn
9 *25:12 *25:14 0.254153  // $metal1_conn
10 *25:14 *25:9 0.168  // $metal1_conn
11 *25:12 *25:2 45.046436  // $metal1_conn
12 *3:d *25:14 62  // $metal1_conn

*END

*D_NET *53 6.06082e-16

*CONN
*I *10:g B *C 2.6575 0.5625 
*I *11:d B *C 2.9925 0.5625 
*I *13:g B *C 3.6375 0.5625 
*I *16:g B *C 2.4275 1.0725 
*I *20:d B *C 2.9950 1.0925 
*I *24:g B *C 3.7575 1.0925 
*N *53:2 *C 2.6575 0.7325 
*N *53:4 *C 2.9550 0.7700 
*N *53:6 *C 3.6375 0.7325 
*N *53:7 *C 3.4200 0.8750 

*CAP
0 *24:g 6.15767e-17
1 *20:d 4.88124e-17
2 *16:g 7.00608e-17
3 *13:g 3.1651e-17
4 *11:d 3.93514e-17
5 *10:g 3.4232e-17
6 *53:6 5.38389e-17
7 *53:2 4.19009e-17
8 *53:4 1.00439e-16
9 *53:7 1.24219e-16

*RES
0 *10:g *53:2 20.491871  // $poly_conn
1 *53:2 *16:g 99.31292  // $poly_conn
2 *53:2 *53:4 110.261467  // $poly_conn
3 *24:g *53:6 76.618774  // $poly_conn
4 *53:6 *53:7 114.677208  // $poly_conn
5 *53:6 *13:g 20.300484  // $poly_conn
6 *53:7 *53:4 0.426577  // $metal1_conn
7 *53:4 *11:d 75.125587  // $metal1_conn
8 *53:4 *20:d 62.214352  // $metal1_conn

*END

*D_NET *52 2.2945e-16

*CONN
*I *21:g B *C 0.2025 0.5300 
*I *44:d B *C 0.4900 0.5875 
*I *31:g B *C 0.2025 1.0950 
*I *1:d B *C 0.4900 1.0075 
*N *52:1 *C 0.2550 0.7600 
*N *52:2 *C 0.2025 0.7600 
*N *52:6 *C 0.4900 0.7700 

*CAP
0 *1:d 2.9478e-17
1 *31:g 4.49039e-17
2 *44:d 2.88959e-17
3 *21:g 3.66351e-17
4 *52:6 2.85025e-17
5 *52:1 6.10343e-17

*RES
0 *52:1 *52:2 45.294373  // $poly_conn
1 *52:2 *21:g 20.563484  // $poly_conn
2 *52:2 *31:g 30.819893  // $poly_conn
3 *1:d *52:6 62.118099  // $metal1_conn
4 *52:6 *52:1 0.122867  // $metal1_conn
5 *52:6 *44:d 75.10994  // $metal1_conn

*END

