*SPEF "IEEE 1481-1999"
*DESIGN  "DFFSRX1"
*DATE "Mon Sep 27 09:36:02 2010"
*VENDOR "Cadence Design Systems"
*PROGRAM "Assura RCX"
*VERSION "3.2 Red Hat Linux release 7.2 (Enigma) - (09/09/2009-10:39)"
*DESIGN_FLOW "Physical Verification"
*DIVIDER /
*DELIMITER :
*BUS_DELIMITER []
*T_UNIT 1 PS
*C_UNIT 1e15 FF
*R_UNIT 1 OHM
*L_UNIT 1 MH
// DeviceFingerDelim "@"
// MATCHED
// caps2d version: 10

*NAME_MAP
*1 mn55
*2 QN
*3 mn22
*4 mn45
*5 mn50
*6 mn52
*7 mn51
*8 RN
*9 mp20
*10 mp57
*11 mp56
*12 mp55
*13 mp22
*14 mp45
*15 mp50
*16 mp52
*17 mp51
*18 mp53
*19 n20
*20 mp40
*21 mout
*22 SN
*23 mp31
*24 CKb
*25 mp32
*26 CKbb
*27 mp30
*28 n42
*29 mp35
*30 n40
*31 mp36
*32 n41
*33 mp26
*34 n35
*35 mp25
*36 RNb
*37 mp21
*38 qbint
*39 qint
*40 CK
*41 n43
*42 net402
*43 n31
*44 n22
*45 n30
*46 n21
*47 VSS
*48 D
*49 mn40
*50 mn31
*51 mn32
*52 mn30
*53 Q
*54 mn35
*55 VDD
*56 mn36
*57 mn26
*58 mn25
*59 mn21
*60 net426
*61 mn20
*62 mn53
*63 mn57
*64 mn56

*GROUND_NETS VSS

*PORTS
*55 I
*47 I
*40 I
*48 I
*8 I
*22 I
*53 O
*2 O

*D_NET *55 8.28007e-16

*CONN
*P *55 I *C 0.1000 1.7100 
*I *23:s B *C 4.2750 1.0975 
*I *27:s B *C 5.0500 1.1275 
*I *29:s B *C 5.0500 1.1275 
*I *35:s B *C 5.8950 1.5700 
*I *37:s B *C 5.8950 1.5700 
*I *9:s B *C 6.4650 1.3025 
*I *10:s B *C 0.5550 1.3450 
*I *11:s B *C 0.5550 1.3450 
*I *12:s B *C 1.3150 1.0075 
*I *13:s B *C 1.3150 1.0075 
*I *14:s B *C 2.2500 1.1075 
*I *15:s B *C 2.2500 1.1075 
*I *17:s B *C 2.9650 1.3650 
*N *55:2 *C 5.8700 1.7100 
*N *55:3 *C 5.5000 1.7100 
*N *55:4 *C 5.5000 1.7100 
*N *55:5 *C 4.9650 1.7100 
*N *55:6 *C 4.1900 1.7100 
*N *55:7 *C 3.3000 1.7100 
*N *55:8 *C 2.9500 1.7100 
*N *55:9 *C 2.1650 1.7100 
*N *55:10 *C 1.2650 1.7100 
*N *55:11 *C 1.1000 1.7100 
*N *55:12 *C 0.5300 1.7100 

*CAP
0 *17:s 3.82214e-17
1 *14:s 2.04211e-17
2 *12:s 5.50504e-17
3 *10:s 1.25362e-17
4 *9:s 2.34422e-17
5 *35:s 1.27804e-17
6 *27:s 2.16401e-17
7 *23:s 1.88614e-17
8 *55:12 8.31963e-18
9 *55:10 1.58615e-17
10 *55:9 3.12264e-17
11 *55:8 1.9888e-17
12 *55:6 3.59819e-17
13 *55:5 2.98342e-17
14 *55:2 2.20006e-17
15 *55:3 4.53154e-16
16 *55 8.78782e-18

*RES
0 *9:s *55:2 62.545021  // $metal1_conn
1 *55:2 *55:4 0.185353  // $metal1_conn
2 *55:4 *55:5 0.267148  // $metal1_conn
3 *55:5 *55:6 0.386358  // $metal1_conn
4 *55:6 *55:7 0.445174  // $metal1_conn
5 *55:7 *55:8 0.175323  // $metal1_conn
6 *55:8 *55:9 0.393272  // $metal1_conn
7 *55:9 *55:10 0.450943  // $metal1_conn
8 *55:10 *55:11 0.082549  // $metal1_conn
9 *55:11 *55:12 0.285649  // $metal1_conn
10 *55:12 *55 0.215191  // $metal1_conn
11 *55:2 *35:s 62.074623  // $metal1_conn
12 *55:5 *27:s 62.045818  // $metal1_conn
13 *55:6 *23:s 62.045818  // $metal1_conn
14 *55:8 *17:s 62.211422  // $metal1_conn
15 *55:9 *14:s 62.161373  // $metal1_conn
16 *55:10 *12:s 62.439529  // $metal1_conn
17 *55:12 *10:s 62.22477  // $metal1_conn
18 *55:3 *55:4 6.818182  // $metal1_conn
19 *55:3 *55:7 6.818182  // $metal1_conn
20 *55:3 *55:11 6.818182  // $metal1_conn

*END

*D_NET *47 0

*CONN
*P *47 I *C 0.1000 0.0000 
*I *52:s B *C 4.9800 0.5825 
*I *54:s B *C 4.9800 0.5825 
*I *58:s B *C 5.8725 0.5825 
*I *59:s B *C 5.8725 0.5825 
*I *61:s B *C 6.4700 0.3700 
*I *63:s B *C 0.5625 0.5875 
*I *64:s B *C 0.5625 0.5875 
*I *1:s B *C 1.3400 0.5125 
*I *3:s B *C 1.3400 0.5125 
*I *4:s B *C 2.1950 0.4775 
*I *5:s B *C 2.1950 0.4775 
*N *47:2 *C 5.7400 0.0000 
*N *47:3 *C 5.5000 0.0000 
*N *47:4 *C 5.5000 0.0000 
*N *47:5 *C 4.9650 0.0000 
*N *47:6 *C 3.3000 0.0000 
*N *47:7 *C 2.2250 0.0000 
*N *47:8 *C 1.2550 0.0000 
*N *47:9 *C 1.1000 0.0000 
*N *47:10 *C 0.5300 0.0000 


*RES
0 *61:s *47:2 75.448288  // $metal1_conn
1 *47:2 *47:4 0.12016  // $metal1_conn
2 *47:4 *47:5 0.267148  // $metal1_conn
3 *47:5 *47:6 0.833823  // $metal1_conn
4 *47:6 *47:7 0.539845  // $metal1_conn
5 *47:7 *47:8 0.486046  // $metal1_conn
6 *47:8 *47:9 0.077534  // $metal1_conn
7 *47:9 *47:10 0.285649  // $metal1_conn
8 *47:10 *47 0.215191  // $metal1_conn
9 *47:2 *58:s 75.278152  // $metal1_conn
10 *47:5 *52:s 75.045815  // $metal1_conn
11 *47:7 *4:s 75.287819  // $metal1_conn
12 *47:8 *1:s 75.248215  // $metal1_conn
13 *47:10 *63:s 75.074623  // $metal1_conn
14 *47:3 *47:4 5.636364  // $metal1_conn
15 *47:3 *47:6 5.636364  // $metal1_conn
16 *47:3 *47:9 5.636364  // $metal1_conn

*END

*D_NET *40 1.69991e-16

*CONN
*P *40 I *C 6.5000 0.4750 
*I *61:g B *C 6.3725 0.5875 
*I *9:g B *C 6.3725 1.3025 
*N *40:1 *C 6.4300 0.7700 
*N *40:2 *C 6.3725 0.7700 

*CAP
0 *9:g 3.50186e-17
1 *61:g 1.7813e-17
2 *40:2 2.96168e-17
3 *40:1 4.01097e-17
4 *40 4.74327e-17

*RES
0 *40:1 *40:2 45.778431  // $poly_conn
1 *40:2 *61:g 21.534737  // $poly_conn
2 *40:2 *9:g 102.30397  // $poly_conn
3 *40 *40:1 0.183547  // $metal1_conn

*END

*D_NET *48 2.35762e-16

*CONN
*P *48 I *C 5.9000 0.8550 
*I *58:g B *C 5.6075 0.5825 
*I *35:g B *C 5.6925 1.1275 
*N *48:2 *C 5.7200 0.7900 

*CAP
0 *35:g 7.3887e-17
1 *58:g 2.45204e-17
2 *48:2 9.66981e-17
3 *48 4.0657e-17

*RES
0 *35:g *48:2 47.299271  // $poly_conn
1 *48:2 *58:g 38.446335  // $poly_conn
2 *48:2 *48 45.095985  // $metal1_conn

*END

*D_NET *8 2.16041e-16

*CONN
*P *8 I *C 1.3000 0.8550 
*I *3:g B *C 1.3875 0.5125 
*I *13:g B *C 1.3675 1.0075 
*N *8:2 *C 1.3600 0.7700 

*CAP
0 *13:g 3.26459e-17
1 *3:g 3.81587e-17
2 *8:2 7.46714e-17
3 *8 7.05649e-17

*RES
0 *3:g *8:2 36.629444  // $poly_conn
1 *8:2 *13:g 22.52688  // $poly_conn
2 *8:2 *8 45.034473  // $metal1_conn

*END

*D_NET *22 1.00485e-15

*CONN
*P *22 I *C 3.3000 0.6650 
*I *52:g B *C 4.8325 0.5825 
*I *5:g B *C 2.2975 0.4775 
*I *27:g B *C 4.8325 1.0975 
*I *15:g B *C 2.2975 1.1075 
*N *22:2 *C 2.3250 0.8350 
*N *22:5 *C 4.7950 0.8900 
*N *22:7 *C 3.3350 0.6650 

*CAP
0 *15:g 3.77375e-17
1 *27:g 4.15793e-17
2 *5:g 3.95613e-17
3 *52:g 6.03673e-17
4 *22:7 3.2574e-16
5 *22:2 1.91231e-16
6 *22:5 2.92808e-16
7 *22 1.58259e-17

*RES
0 *15:g *22:2 33.794518  // $poly_conn
1 *22:2 *5:g 64.563744  // $poly_conn
2 *27:g *22:5 16.15522  // $poly_conn
3 *22:5 *52:g 50.770603  // $poly_conn
4 *22:5 *22:7 46.761501  // $metal1_conn
5 *22:7 *22:2 45.951042  // $metal1_conn
6 *22:7 *22 0.002707  // $metal1_conn

*END

*D_NET *53 1.87061e-16

*CONN
*P *53 O *C 0.9000 1.0450 
*I *1:d B *C 1.0600 0.4550 
*I *12:d B *C 1.0900 1.0950 

*CAP
0 *12:d 2.52533e-17
1 *1:d 8.52815e-17
2 *53 7.65263e-17

*RES
0 *1:d *53 75.518593  // $metal1_conn
1 *53 *12:d 62.106133  // $metal1_conn

*END

*D_NET *2 8.2679e-17

*CONN
*P *2 O *C 0.1000 0.6650 
*I *63:d B *C 0.3050 0.5300 
*I *10:d B *C 0.3050 1.0950 
*N *2:3 *C 0.2950 0.6000 

*CAP
0 *10:d 3.2871e-17
1 *63:d 2.68421e-17
2 *2 2.29659e-17

*RES
0 *10:d *2:3 20.972382  // $metal1_conn
1 *2:3 *2 0.092795  // $metal1_conn
2 *63:d *2:3 75  // $metal1_conn

*END

*D_NET *46 0

*CONN
*I *57:s B *C 5.4725 0.5825 
*I *58:d B *C 5.4725 0.5825 


*RES
0 *58:d *57:s 0.001  // $mwires

*END

*D_NET *45 0

*CONN
*I *54:d B *C 5.0800 0.5825 
*I *56:s B *C 5.0800 0.5825 


*RES
0 *56:s *54:d 0.001  // $mwires

*END

*D_NET *44 2.61983e-18

*CONN
*I *33:s B *C 5.6400 1.1275 
*I *35:d B *C 5.6400 1.1275 

*CAP
0 *33:s 2.61983e-18

*RES
0 *35:d *33:s 0.001  // $mwires

*END

*D_NET *43 2.35181e-18

*CONN
*I *29:d B *C 5.1775 1.1275 
*I *31:s B *C 5.1775 1.1275 

*CAP
0 *29:d 2.35181e-18

*RES
0 *31:s *29:d 0.001  // $mwires

*END

*D_NET *42 5.94151e-18

*CONN
*I *23:d B *C 4.4750 1.0975 
*I *25:s B *C 4.4750 1.0975 

*CAP
0 *23:d 5.94151e-18

*RES
0 *25:s *23:d 0.001  // $mwires

*END

*D_NET *41 1.58208e-18

*CONN
*I *16:s B *C 2.6700 1.1075 
*I *17:d B *C 2.6700 1.1075 

*CAP
0 *16:s 1.58208e-18

*RES
0 *17:d *16:s 0.001  // $mwires

*END

*D_NET *39 2.14609e-16

*CONN
*I *63:g B *C 0.3975 0.5300 
*I *64:d B *C 0.7200 0.5875 
*I *10:g B *C 0.3975 1.0950 
*I *11:d B *C 0.7700 0.9600 
*N *39:1 *C 0.4850 0.7600 
*N *39:2 *C 0.3975 0.7600 
*N *39:6 *C 0.7200 0.7500 

*CAP
0 *11:d 3.46226e-17
1 *10:g 4.46107e-17
2 *64:d 2.55492e-17
3 *63:g 3.42463e-17
4 *39:6 2.75589e-17
5 *39:2 6.26648e-18
6 *39:1 4.17549e-17

*RES
0 *39:1 *39:2 48.890118  // $poly_conn
1 *39:2 *63:g 20.563484  // $poly_conn
2 *39:2 *10:g 30.819893  // $poly_conn
3 *11:d *39:6 62.129723  // $metal1_conn
4 *39:6 *39:1 0.122474  // $metal1_conn
5 *39:6 *64:d 75.093719  // $metal1_conn

*END

*D_NET *38 7.93942e-16

*CONN
*I *64:g B *C 0.6275 0.5875 
*I *1:g B *C 1.1525 0.4550 
*I *4:d B *C 1.9900 0.4775 
*I *6:g B *C 2.6175 0.4775 
*I *11:g B *C 0.6275 1.0075 
*I *12:g B *C 1.1625 1.0950 
*I *14:d B *C 1.8975 1.1075 
*I *16:g B *C 2.6175 1.1075 
*N *38:2 *C 1.1250 0.7375 
*N *38:3 *C 0.6275 0.7375 
*N *38:5 *C 1.1250 0.6850 
*N *38:9 *C 2.6175 0.6600 
*N *38:10 *C 2.5550 0.6600 
*N *38:12 *C 1.9700 0.6600 
*N *38:14 *C 1.9700 0.4650 

*CAP
0 *16:g 7.66035e-17
1 *14:d 4.8898e-17
2 *12:g 5.1112e-17
3 *11:g 3.47782e-17
4 *6:g 3.13316e-17
5 *4:d 7.71036e-17
6 *1:g 3.45161e-17
7 *64:g 2.49616e-17
8 *38:12 6.83662e-17
9 *38:9 4.87174e-17
10 *38:3 2.97429e-17
11 *38:2 3.48454e-17
12 *38:5 1.44021e-16
13 *38:10 8.89451e-17

*RES
0 *12:g *38:2 42.76656  // $poly_conn
1 *38:2 *38:3 111.158783  // $poly_conn
2 *38:3 *64:g 18.337015  // $poly_conn
3 *38:2 *38:5 2.610134  // $poly_conn
4 *38:5 *1:g 16.565342  // $poly_conn
5 *38:3 *11:g 40.131889  // $poly_conn
6 *16:g *38:9 83.868446  // $poly_conn
7 *38:9 *38:10 46.195099  // $poly_conn
8 *38:9 *6:g 24.894089  // $poly_conn
9 *38:10 *38:12 0.442039  // $metal1_conn
10 *38:12 *38:14 0.118396  // $metal1_conn
11 *38:14 *38:5 45.881641  // $metal1_conn
12 *38:12 *14:d 62.358376  // $metal1_conn
13 *4:d *38:14 75  // $metal1_conn

*END

*D_NET *36 7.12054e-16

*CONN
*I *50:g B *C 4.2375 0.5825 
*I *3:d B *C 1.5225 0.5125 
*I *7:g B *C 2.8225 0.4775 
*I *23:g B *C 4.3225 1.0975 
*I *13:d B *C 1.5225 0.9600 
*I *17:g B *C 2.7225 1.1075 
*N *36:5 *C 2.7600 1.3350 
*N *36:7 *C 1.4950 0.9600 

*CAP
0 *17:g 7.64064e-17
1 *13:d 1.39856e-16
2 *23:g 4.48879e-17
3 *7:g 1.11661e-16
4 *3:d 6.50057e-17
5 *50:g 9.29409e-17
6 *36:5 1.81296e-16

*RES
0 *23:g *50:g 95.864273  // $poly_conn
1 *50:g *7:g 466.377075  // $poly_conn
2 *7:g *17:g 129.197601  // $poly_conn
3 *17:g *36:5 66.283424  // $poly_conn
4 *36:5 *36:7 1.117632  // $metal1_conn
5 *36:7 *3:d 75.336166  // $metal1_conn
6 *13:d *36:7 62  // $metal1_conn

*END

*D_NET *34 5.55896e-16

*CONN
*I *49:d B *C 3.5050 0.5075 
*I *62:d B *C 3.5050 0.5075 
*I *4:g B *C 2.0925 0.4775 
*I *20:d B *C 3.4600 1.0975 
*I *14:g B *C 2.0325 1.1075 
*I *18:d B *C 3.4600 1.0975 
*N *34:2 *C 2.1300 0.8750 
*N *34:5 *C 3.4100 0.9950 

*CAP
0 *14:g 3.37565e-17
1 *20:d 2.04318e-17
2 *4:g 3.39121e-17
3 *49:d 6.64215e-17
4 *34:5 2.05514e-16
5 *34:2 1.95859e-16

*RES
0 *4:g *34:2 73.847527  // $poly_conn
1 *34:2 *14:g 33.036076  // $poly_conn
2 *49:d *34:5 75.420746  // $metal1_conn
3 *34:5 *34:2 46.0989  // $metal1_conn
4 *34:5 *20:d 62.0299  // $metal1_conn

*END

*D_NET *32 2.08767e-16

*CONN
*I *15:d B *C 2.4575 1.1075 
*I *16:d B *C 2.4575 1.1075 
*I *18:s B *C 3.2150 1.1075 

*CAP
0 *18:s 9.34464e-17
1 *15:d 1.15321e-16

*RES
0 *18:s *15:d 124.414062  // $metal1_conn

*END

*D_NET *30 1.85411e-16

*CONN
*I *62:s B *C 3.2275 0.5075 
*I *6:d B *C 2.7200 0.4775 
*I *7:d B *C 2.7200 0.4775 
*N *30:3 *C 2.7200 0.4900 

*CAP
0 *6:d 7.93648e-17
1 *62:s 1.06046e-16

*RES
0 *62:s *30:3 75.379501  // $metal1_conn
1 *6:d *30:3 75  // $metal1_conn

*END

*D_NET *28 1.42802e-16

*CONN
*I *5:d B *C 2.4575 0.4775 
*I *6:s B *C 2.4575 0.4775 
*I *7:s B *C 2.9150 0.4775 

*CAP
0 *7:s 7.18376e-17
1 *5:d 7.0964e-17

*RES
0 *7:s *5:d 150.503128  // $metal1_conn

*END

*D_NET *26 1.23091e-15

*CONN
*I *49:g B *C 3.6175 0.5075 
*I *56:g B *C 5.1325 0.5825 
*I *59:d B *C 6.0600 0.5825 
*I *33:g B *C 5.5875 1.1275 
*I *37:d B *C 6.0600 1.0075 
*I *18:g B *C 3.3075 1.1075 
*N *26:2 *C 3.3450 1.3350 
*N *26:4 *C 3.6550 0.8600 
*N *26:6 *C 5.1700 0.7900 
*N *26:8 *C 5.5500 0.8900 
*N *26:10 *C 6.0700 1.0250 
*N *26:11 *C 5.5500 1.0550 
*N *26:12 *C 5.1700 1.2250 
*N *26:13 *C 3.6550 1.2100 

*CAP
0 *18:g 5.44378e-17
1 *37:d 9.22565e-17
2 *33:g 6.08525e-17
3 *59:d 4.40312e-17
4 *56:g 6.54124e-17
5 *49:g 4.24255e-17
6 *26:13 2.00975e-16
7 *26:12 2.37787e-16
8 *26:11 8.52169e-17
9 *26:2 5.37369e-17
10 *26:4 1.11211e-16
11 *26:6 1.154e-16
12 *26:8 6.71671e-17

*RES
0 *18:g *26:2 66.283424  // $poly_conn
1 *49:g *26:4 107.309067  // $poly_conn
2 *56:g *26:6 70.129578  // $poly_conn
3 *33:g *26:8 68.847527  // $poly_conn
4 *26:10 *26:11 0.383293  // $metal1_conn
5 *26:11 *26:12 0.431859  // $metal1_conn
6 *26:12 *26:13 1.300172  // $metal1_conn
7 *26:13 *26:2 0.296379  // $metal1_conn
8 *26:10 *59:d 75.286942  // $metal1_conn
9 *26:11 *26:8 0.128353  // $metal1_conn
10 *26:12 *26:6 0.336939  // $metal1_conn
11 *26:13 *26:4 0.25268  // $metal1_conn
12 *37:d *26:10 62  // $metal1_conn

*END

*D_NET *24 9.73566e-16

*CONN
*I *57:g B *C 5.3375 0.5825 
*I *59:g B *C 5.9675 0.5825 
*I *61:d B *C 6.2800 0.5875 
*I *62:g B *C 3.3925 0.5075 
*I *20:g B *C 3.5125 1.0975 
*I *31:g B *C 5.2575 1.1275 
*I *37:g B *C 5.9675 1.0075 
*I *9:d B *C 6.2800 1.3025 
*N *24:3 *C 3.7600 1.3700 
*N *24:6 *C 5.2850 1.4000 
*N *24:9 *C 6.0050 1.2150 
*N *24:12 *C 6.2700 1.2550 

*CAP
0 *9:d 4.71094e-17
1 *37:g 3.11989e-17
2 *31:g 5.2429e-17
3 *20:g 7.78652e-17
4 *62:g 7.21976e-17
5 *61:d 7.71328e-17
6 *59:g 3.3978e-17
7 *57:g 5.29724e-17
8 *24:3 1.88401e-16
9 *24:6 2.32334e-16
10 *24:9 1.07948e-16

*RES
0 *62:g *20:g 124.069405  // $poly_conn
1 *20:g *24:3 129.290756  // $poly_conn
2 *57:g *31:g 102.274521  // $poly_conn
3 *31:g *24:6 78.794518  // $poly_conn
4 *37:g *59:g 62.820511  // $poly_conn
5 *37:g *24:9 61.15522  // $poly_conn
6 *61:d *24:12 75.496956  // $metal1_conn
7 *24:12 *24:9 0.17926  // $metal1_conn
8 *24:9 *24:6 0.641779  // $metal1_conn
9 *24:6 *24:3 1.20537  // $metal1_conn
10 *9:d *24:12 62  // $metal1_conn

*END

*D_NET *21 7.62908e-16

*CONN
*I *49:s B *C 3.7575 0.5075 
*I *50:d B *C 4.4325 0.5825 
*I *51:d B *C 4.4325 0.5825 
*I *54:g B *C 5.0275 0.5825 
*I *20:s B *C 3.7200 1.0975 
*I *25:d B *C 4.7300 1.0975 
*I *27:d B *C 4.7300 1.0975 
*I *29:g B *C 5.0975 1.1275 
*N *21:2 *C 5.0000 0.7650 
*N *21:5 *C 5.0000 0.7650 
*N *21:7 *C 4.7300 1.0500 
*N *21:9 *C 3.8450 1.0500 

*CAP
0 *29:g 6.22115e-17
1 *25:d 1.54993e-16
2 *20:s 1.65593e-16
3 *54:g 5.57646e-17
4 *50:d 9.79537e-17
5 *49:s 6.78575e-17
6 *21:2 1.58535e-16

*RES
0 *29:g *21:2 62.992123  // $poly_conn
1 *21:2 *54:g 19.691952  // $poly_conn
2 *50:d *21:5 75.601746  // $metal1_conn
3 *21:5 *21:7 0.402489  // $metal1_conn
4 *21:7 *21:9 0.72894  // $metal1_conn
5 *21:9 *49:s 75.401863  // $metal1_conn
6 *21:2 *21:5 45  // $metal1_conn
7 *25:d *21:7 62  // $metal1_conn
8 *20:s *21:9 62  // $metal1_conn

*END

*D_NET *19 3.50844e-16

*CONN
*I *51:g B *C 4.6275 0.5825 
*I *56:d B *C 5.2350 0.5825 
*I *57:d B *C 5.2350 0.5825 
*I *25:g B *C 4.6275 1.0975 
*I *31:d B *C 5.4225 1.1275 
*I *33:d B *C 5.4225 1.1275 
*N *19:3 *C 4.6900 0.4100 
*N *19:5 *C 5.2350 0.5700 

*CAP
0 *31:d 8.33304e-17
1 *25:g 5.53891e-17
2 *56:d 8.48496e-17
3 *51:g 2.99509e-17
4 *19:3 9.73236e-17

*RES
0 *25:g *51:g 85.897438  // $poly_conn
1 *51:g *19:3 70.713776  // $poly_conn
2 *19:3 *19:5 0.475112  // $metal1_conn
3 *19:5 *31:d 62.419567  // $metal1_conn
4 *56:d *19:5 75  // $metal1_conn

*END

*D_NET *60 1.96798e-16

*CONN
*I *50:s B *C 4.1450 0.5825 
*I *51:s B *C 4.7300 0.5825 
*I *52:d B *C 4.7300 0.5825 

*CAP
0 *51:s 1.10796e-16
1 *50:s 8.60013e-17

*RES
0 *51:s *50:s 150.658585  // $metal1_conn

*END

