*SPEF "IEEE 1481-1999"
*DESIGN  "DFFSHQX1"
*DATE "Mon Sep 27 09:33:02 2010"
*VENDOR "Cadence Design Systems"
*PROGRAM "Assura RCX"
*VERSION "3.2 Red Hat Linux release 7.2 (Enigma) - (09/09/2009-10:39)"
*DESIGN_FLOW "Physical Verification"
*DIVIDER /
*DELIMITER :
*BUS_DELIMITER []
*T_UNIT 1 PS
*C_UNIT 1e15 FF
*R_UNIT 1 OHM
*L_UNIT 1 MH
// DeviceFingerDelim "@"
// MATCHED
// caps2d version: 10

*NAME_MAP
*1 mp31
*2 mp35
*3 mp36
*4 mp26
*5 mp25
*6 mp20
*7 n21
*8 mp55
*9 Q
*10 VDD
*11 SN
*12 mn21
*13 mn45
*14 mn30
*15 mn50
*16 mn31
*17 CK
*18 mn51
*19 mn36
*20 mn52
*21 mn35
*22 mn40
*23 mn26
*24 mn25
*25 mn20
*26 mn55
*27 CKb
*28 n41
*29 n20
*30 qbint
*31 n35
*32 CKbb
*33 mout
*34 n31
*35 mp45
*36 n22
*37 mp50
*38 n42
*39 mp51
*40 n40
*41 D
*42 VSS
*43 mp52
*44 n25
*45 mp40
*46 n30
*47 mp21
*48 mp30

*GROUND_NETS VSS

*PORTS
*10 I
*42 I
*17 I
*41 I
*11 I
*9 O

*D_NET *10 6.65691e-16

*CONN
*P *10 I *C 0.1000 1.7100 
*I *47:s B *C 2.3150 1.1800 
*I *48:s B *C 2.3150 1.1800 
*I *1:s B *C 2.7125 1.1800 
*I *2:s B *C 2.7125 1.1800 
*I *5:s B *C 3.5075 1.3575 
*I *6:s B *C 3.5075 1.3575 
*I *8:s B *C 0.2950 1.0950 
*I *35:s B *C 0.7150 1.3250 
*I *37:s B *C 0.7150 1.3250 
*I *39:s B *C 1.1150 1.3250 
*N *10:2 *C 2.9000 1.7100 
*N *10:3 *C 2.9000 1.7100 
*N *10:4 *C 2.7250 1.7100 
*N *10:5 *C 2.2300 1.7100 
*N *10:6 *C 1.0950 1.7100 
*N *10:7 *C 1.0000 1.7100 
*N *10:8 *C 0.7150 1.7100 
*N *10:9 *C 0.3050 1.7100 

*CAP
0 *39:s 3.2176e-17
1 *35:s 2.3879e-17
2 *8:s 8.29756e-17
3 *5:s 5.09702e-17
4 *1:s 6.95149e-17
5 *47:s 2.56692e-17
6 *10:9 1.04604e-17
7 *10:8 1.27348e-17
8 *10:6 2.25579e-17
9 *10:5 3.75944e-17
10 *10:4 1.26413e-17
11 *10:2 2.78394e-16
12 *10 6.12256e-18

*RES
0 *5:s *10:3 62.495777  // $metal1_conn
1 *10:3 *10:4 0.087666  // $metal1_conn
2 *10:4 *10:5 0.247181  // $metal1_conn
3 *10:5 *10:6 0.568506  // $metal1_conn
4 *10:6 *10:7 0.0475  // $metal1_conn
5 *10:7 *10:8 0.142894  // $metal1_conn
6 *10:8 *10:9 0.205456  // $metal1_conn
7 *10:9 *10 0.102477  // $metal1_conn
8 *10:4 *1:s 62.324493  // $metal1_conn
9 *10:5 *47:s 62.045872  // $metal1_conn
10 *10:6 *39:s 62.172764  // $metal1_conn
11 *10:8 *35:s 62.180969  // $metal1_conn
12 *10:9 *8:s 21.096649  // $metal1_conn
13 *10:2 *10:3 8.333333  // $metal1_conn
14 *10:2 *10:7 7.5  // $metal1_conn

*END

*D_NET *42 0

*CONN
*P *42 I *C 0.1000 0.0000 
*I *12:s B *C 2.2000 0.5375 
*I *14:s B *C 2.2000 0.5375 
*I *19:s B *C 2.7650 0.4575 
*I *24:s B *C 3.5450 0.4875 
*I *25:s B *C 3.5450 0.4875 
*I *26:s B *C 0.2950 0.5300 
*I *13:s B *C 0.7150 0.5475 
*I *15:s B *C 0.7150 0.5475 
*N *42:2 *C 2.9000 0.0000 
*N *42:3 *C 2.9000 0.0000 
*N *42:4 *C 2.7250 0.0000 
*N *42:5 *C 2.1700 0.0000 
*N *42:6 *C 1.0000 0.0000 
*N *42:7 *C 0.7150 0.0000 
*N *42:8 *C 0.3050 0.0000 


*RES
0 *24:s *42:3 75.640923  // $metal1_conn
1 *42:3 *42:4 0.087666  // $metal1_conn
2 *42:4 *42:5 0.278256  // $metal1_conn
3 *42:5 *42:6 0.587225  // $metal1_conn
4 *42:6 *42:7 0.142894  // $metal1_conn
5 *42:7 *42:8 0.205456  // $metal1_conn
6 *42:8 *42 0.102477  // $metal1_conn
7 *42:4 *19:s 75.258446  // $metal1_conn
8 *42:5 *12:s 75.406487  // $metal1_conn
9 *42:7 *13:s 75.321388  // $metal1_conn
10 *42:8 *26:s 75.291061  // $metal1_conn
11 *42:2 *42:3 6.888889  // $metal1_conn
12 *42:2 *42:6 6.2  // $metal1_conn

*END

*D_NET *17 2.40029e-16

*CONN
*P *17 I *C 3.6900 1.0650 
*I *25:g B *C 3.5975 0.4875 
*I *6:g B *C 3.5775 1.3575 
*N *17:2 *C 3.6050 0.8350 

*CAP
0 *6:g 4.7658e-17
1 *25:g 3.78253e-17
2 *17:2 9.337e-17
3 *17 6.11761e-17

*RES
0 *25:g *17:2 59.706371  // $poly_conn
1 *17:2 *6:g 95.603798  // $poly_conn
2 *17 *17:2 45.138878  // $metal1_conn

*END

*D_NET *41 2.98327e-16

*CONN
*P *41 I *C 3.3750 0.9050 
*I *24:g B *C 3.3925 0.4575 
*I *5:g B *C 3.3375 1.3100 
*N *41:2 *C 3.3650 0.8450 
*N *41:4 *C 3.3650 0.8450 
*N *41:5 *C 3.3700 0.8450 
*N *41:6 *C 3.3700 0.9050 

*CAP
0 *5:g 7.69027e-17
1 *24:g 5.97996e-17
2 *41:5 3.12607e-17
3 *41:2 6.14084e-17
4 *41 6.89561e-17

*RES
0 *24:g *41:2 64.563744  // $poly_conn
1 *41:2 *5:g 70.973999  // $poly_conn
2 *41:4 *41:5 0.001069  // $metal1_conn
3 *41:6 *41 0.001176  // $metal1_conn
4 *41:5 *41:6 0.038612  // $metal1_conn
5 *41:2 *41:4 45  // $metal1_conn

*END

*D_NET *11 7.92083e-16

*CONN
*P *11 I *C 1.0700 0.5850 
*I *14:g B *C 2.2725 0.5375 
*I *15:g B *C 0.8175 0.5475 
*I *48:g B *C 2.3625 1.1800 
*I *37:g B *C 0.8175 1.3250 
*N *11:2 *C 0.8550 0.9400 
*N *11:5 *C 2.2725 0.7600 
*N *11:6 *C 2.2200 0.7600 

*CAP
0 *37:g 5.18886e-17
1 *48:g 5.672e-17
2 *15:g 5.2847e-17
3 *14:g 5.56066e-17
4 *11:2 1.44249e-16
5 *11:6 2.55285e-16
6 *11 1.75487e-16

*RES
0 *37:g *11:2 48.167908  // $poly_conn
1 *11:2 *15:g 63.552521  // $poly_conn
2 *48:g *11:5 76.442924  // $poly_conn
3 *11:5 *11:6 45.294373  // $poly_conn
4 *11:5 *14:g 28.014544  // $poly_conn
5 *11:2 *11 45.500111  // $metal1_conn
6 *11 *11:6 1.255076  // $metal1_conn

*END

*D_NET *9 7.95366e-17

*CONN
*P *9 O *C 0.0900 0.7450 
*I *26:d B *C 0.1100 0.5300 
*I *8:d B *C 0.1100 1.0950 

*CAP
0 *8:d 4.25741e-17
1 *26:d 1.00053e-17
2 *9 2.69572e-17

*RES
0 *8:d *9 20.918299  // $metal1_conn
1 *9 *26:d 75.089775  // $metal1_conn

*END

*D_NET *7 0

*CONN
*I *23:s B *C 3.3025 0.4575 
*I *24:d B *C 3.3025 0.4575 


*RES
0 *24:d *23:s 0.001  // $mwires

*END

*D_NET *46 1.58851e-18

*CONN
*I *19:d B *C 2.9175 0.4575 
*I *21:s B *C 2.9175 0.4575 

*CAP
0 *19:d 1.58851e-18

*RES
0 *21:s *19:d 0.001  // $mwires

*END

*D_NET *44 6.01809e-20

*CONN
*I *14:d B *C 2.3250 0.5375 
*I *16:s B *C 2.3250 0.5375 

*CAP
0 *14:d 6.01809e-20

*RES
0 *16:s *14:d 0.001  // $mwires

*END

*D_NET *40 5.12398e-18

*CONN
*I *18:d B *C 1.1525 0.5475 
*I *20:s B *C 1.1525 0.5475 

*CAP
0 *18:d 5.12398e-18

*RES
0 *20:s *18:d 0.001  // $mwires

*END

*D_NET *38 0

*CONN
*I *15:d B *C 0.9075 0.5475 
*I *18:s B *C 0.9075 0.5475 


*RES
0 *18:s *15:d 0.001  // $mwires

*END

*D_NET *36 2.19979e-18

*CONN
*I *4:s B *C 3.2750 1.3100 
*I *5:d B *C 3.2750 1.3100 

*CAP
0 *4:s 2.19979e-18

*RES
0 *5:d *4:s 0.001  // $mwires

*END

*D_NET *34 1.20402e-18

*CONN
*I *2:d B *C 2.8800 1.1800 
*I *3:s B *C 2.8800 1.1800 

*CAP
0 *2:d 1.20402e-18

*RES
0 *3:s *2:d 0.001  // $mwires

*END

*D_NET *33 7.07022e-16

*CONN
*I *16:d B *C 2.4700 0.5375 
*I *19:g B *C 2.8575 0.4575 
*I *22:s B *C 1.6300 0.5475 
*I *48:d B *C 2.4800 1.1800 
*I *1:d B *C 2.4800 1.1800 
*I *2:g B *C 2.8275 1.1800 
*I *45:s B *C 1.7775 1.1950 
*N *33:2 *C 2.8000 0.7350 
*N *33:4 *C 2.4800 0.7350 
*N *33:6 *C 2.4850 1.1525 
*N *33:8 *C 1.7950 1.1950 

*CAP
0 *45:s 1.25789e-16
1 *2:g 8.3747e-17
2 *48:d 1.1418e-16
3 *22:s 9.96868e-17
4 *19:g 4.95251e-17
5 *16:d 4.47707e-17
6 *33:4 7.87594e-17
7 *33:2 1.10565e-16

*RES
0 *19:g *33:2 40.131046  // $poly_conn
1 *33:2 *2:g 65.022133  // $poly_conn
2 *33:2 *33:4 45.242012  // $metal1_conn
3 *33:4 *33:6 0.337099  // $metal1_conn
4 *33:6 *33:8 0.551721  // $metal1_conn
5 *33:8 *22:s 75.480049  // $metal1_conn
6 *33:4 *16:d 75.140877  // $metal1_conn
7 *48:d *33:6 31  // $metal1_conn
8 *45:s *33:8 31  // $metal1_conn

*END

*D_NET *32 9.09121e-16

*CONN
*I *12:d B *C 1.9575 0.5625 
*I *21:g B *C 2.9775 0.4575 
*I *22:g B *C 1.5375 0.5475 
*I *47:d B *C 2.0050 1.1325 
*I *4:g B *C 3.2125 1.3100 
*I *43:g B *C 1.4725 1.1950 
*N *32:1 *C 1.9300 0.7450 
*N *32:2 *C 1.5375 0.7475 
*N *32:6 *C 2.9900 0.6700 
*N *32:8 *C 1.9650 0.9300 

*CAP
0 *43:g 6.34623e-17
1 *4:g 9.05904e-17
2 *47:d 3.89774e-17
3 *22:g 2.75157e-17
4 *21:g 4.53039e-17
5 *12:d 4.66361e-17
6 *32:8 1.777e-16
7 *32:2 5.2713e-17
8 *32:1 9.07437e-17
9 *32:6 2.75479e-16

*RES
0 *32:1 *32:2 135.00322  // $poly_conn
1 *32:2 *43:g 84.600647  // $poly_conn
2 *32:2 *22:g 20.300484  // $poly_conn
3 *4:g *32:6 151.724487  // $poly_conn
4 *32:6 *21:g 17.398676  // $poly_conn
5 *32:6 *32:8 46.388695  // $metal1_conn
6 *32:8 *32:1 0.205119  // $metal1_conn
7 *32:1 *12:d 75.174919  // $metal1_conn
8 *32:8 *47:d 62.090382  // $metal1_conn

*END

*D_NET *31 5.01453e-16

*CONN
*I *13:g B *C 0.6125 0.5475 
*I *20:d B *C 1.4225 0.5475 
*I *22:d B *C 1.4225 0.5475 
*I *35:g B *C 0.6125 1.3250 
*I *43:d B *C 1.5750 1.1950 
*I *45:d B *C 1.5750 1.1950 
*N *31:1 *C 0.6650 1.0700 
*N *31:2 *C 0.6125 1.0700 
*N *31:6 *C 1.2000 1.1000 

*CAP
0 *43:d 6.59529e-17
1 *35:g 3.45112e-17
2 *20:d 9.02766e-17
3 *13:g 4.62199e-17
4 *31:6 1.50506e-16
5 *31:1 1.13986e-16

*RES
0 *31:1 *31:2 45.294373  // $poly_conn
1 *31:2 *13:g 102.614769  // $poly_conn
2 *31:2 *35:g 20.563484  // $poly_conn
3 *43:d *31:6 31.373491  // $metal1_conn
4 *31:6 *31:1 0.416464  // $metal1_conn
5 *31:6 *20:d 75.567978  // $metal1_conn

*END

*D_NET *30 4.54233e-16

*CONN
*I *26:g B *C 0.2025 0.5300 
*I *13:d B *C 0.5200 0.5475 
*I *18:g B *C 0.9975 0.5475 
*I *8:g B *C 0.2025 1.0950 
*I *35:d B *C 0.5175 1.3250 
*I *39:g B *C 1.0225 1.3250 
*N *30:1 *C 0.2600 0.7700 
*N *30:2 *C 0.2025 0.7700 
*N *30:6 *C 0.9600 0.7500 
*N *30:8 *C 0.5075 0.7900 
*N *30:9 *C 0.5075 0.7400 

*CAP
0 *39:g 5.86533e-17
1 *35:d 7.51026e-17
2 *8:g 3.07347e-17
3 *18:g 3.01051e-17
4 *13:d 1.74439e-17
5 *26:g 2.58583e-17
6 *30:9 6.06538e-17
7 *30:2 1.78411e-17
8 *30:1 3.02161e-17
9 *30:6 1.07624e-16

*RES
0 *30:1 *30:2 45.778431  // $poly_conn
1 *30:2 *26:g 21.534737  // $poly_conn
2 *30:2 *8:g 26.662943  // $poly_conn
3 *39:g *30:6 109.366623  // $poly_conn
4 *30:6 *18:g 18.790585  // $poly_conn
5 *30:6 *30:8 45.306206  // $metal1_conn
6 *30:8 *30:9 0.057955  // $metal1_conn
7 *30:9 *30:1 0.150613  // $metal1_conn
8 *30:8 *35:d 31.384293  // $metal1_conn
9 *30:9 *13:d 75.104462  // $metal1_conn

*END

*D_NET *29 4.61139e-16

*CONN
*I *16:g B *C 2.3775 0.5375 
*I *21:d B *C 3.0950 0.4575 
*I *23:d B *C 3.0950 0.4575 
*I *1:g B *C 2.5975 1.1800 
*I *3:d B *C 3.1400 1.3100 
*I *4:d B *C 3.1400 1.3100 
*N *29:2 *C 2.6350 0.8950 
*N *29:5 *C 3.1100 0.8950 

*CAP
0 *3:d 6.54901e-17
1 *1:g 3.75758e-17
2 *21:d 7.25152e-17
3 *16:g 8.1259e-17
4 *29:5 9.15426e-17
5 *29:2 1.12756e-16

*RES
0 *1:g *29:2 23.847527  // $poly_conn
1 *29:2 *16:g 100.481033  // $poly_conn
2 *3:d *29:5 62.294708  // $metal1_conn
3 *29:5 *29:2 45.355961  // $metal1_conn
4 *29:5 *21:d 75.363754  // $metal1_conn

*END

*D_NET *28 1.31969e-16

*CONN
*I *37:d B *C 0.9200 1.3250 
*I *39:d B *C 0.9200 1.3250 
*I *43:s B *C 1.3800 1.1950 

*CAP
0 *43:s 6.50179e-17
1 *37:d 6.69511e-17

*RES
0 *43:s *37:d 124.336319  // $metal1_conn

*END

*D_NET *27 1.27152e-15

*CONN
*I *12:g B *C 2.0675 0.5625 
*I *23:g B *C 3.2125 0.4575 
*I *25:d B *C 3.6900 0.4875 
*I *20:g B *C 1.3075 0.5475 
*I *47:g B *C 2.0975 1.1325 
*I *3:g B *C 2.9325 1.1800 
*I *6:d B *C 3.6700 1.3575 
*I *45:g B *C 1.6775 1.1950 
*N *27:2 *C 1.3350 0.9000 
*N *27:4 *C 2.0600 0.9275 
*N *27:5 *C 1.6875 0.9375 
*N *27:6 *C 1.6200 0.9100 
*N *27:8 *C 2.0700 1.4100 
*N *27:11 *C 2.9600 1.4450 
*N *27:13 *C 3.2500 0.6650 
*N *27:15 *C 3.2300 1.2150 

*CAP
0 *45:g 2.84034e-17
1 *6:d 5.93919e-17
2 *3:g 7.59355e-17
3 *47:g 1.4175e-17
4 *20:g 3.83368e-17
5 *25:d 6.19427e-17
6 *23:g 3.79145e-17
7 *12:g 6.12576e-17
8 *27:15 1.21707e-16
9 *27:4 4.84186e-17
10 *27:2 8.94045e-17
11 *27:6 9.57184e-17
12 *27:8 1.84097e-16
13 *27:11 1.93373e-16
14 *27:13 1.6144e-16

*RES
0 *20:g *27:2 100.589386  // $poly_conn
1 *12:g *27:4 71.961479  // $poly_conn
2 *27:4 *27:5 95.898857  // $poly_conn
3 *27:5 *27:6 51.904339  // $poly_conn
4 *27:4 *47:g 35.069248  // $poly_conn
5 *47:g *27:8 80.076569  // $poly_conn
6 *27:5 *45:g 23.283899  // $poly_conn
7 *3:g *27:11 64.691956  // $poly_conn
8 *23:g *27:13 62.847393  // $poly_conn
9 *27:6 *27:2 0.16626  // $metal1_conn
10 *25:d *27:13 75.430817  // $metal1_conn
11 *27:13 *27:15 0.517102  // $metal1_conn
12 *27:15 *27:11 0.324995  // $metal1_conn
13 *27:11 *27:8 1.183052  // $metal1_conn
14 *27:15 *6:d 62.368908  // $metal1_conn

*END

