*SPEF "IEEE 1481-1999"
*DESIGN  "DFFSRX2"
*DATE "Mon Sep 27 09:36:25 2010"
*VENDOR "Cadence Design Systems"
*PROGRAM "Assura RCX"
*VERSION "3.2 Red Hat Linux release 7.2 (Enigma) - (09/09/2009-10:39)"
*DESIGN_FLOW "Physical Verification"
*DIVIDER /
*DELIMITER :
*BUS_DELIMITER []
*T_UNIT 1 PS
*C_UNIT 1e15 FF
*R_UNIT 1 OHM
*L_UNIT 1 MH
// DeviceFingerDelim "@"
// MATCHED
// caps2d version: 10

*NAME_MAP
*1 VSS
*2 mp51
*3 mp52
*4 mp50
*5 mp45
*6 mp22
*7 mp55
*8 mp55\@1
*9 mp57
*10 mp57\@1
*11 CK
*12 mp56
*13 mn51
*14 mp20
*15 mn52
*16 mp21
*17 mn50
*18 mp25
*19 mn45
*20 mp26
*21 mn22
*22 mp36
*23 mn55
*24 n42
*25 mp35
*26 mn55\@1
*27 qbint
*28 mp30
*29 mn57
*30 n40
*31 mp32
*32 mn57\@1
*33 n41
*34 QN
*35 mp31
*36 n35
*37 RNb
*38 net426
*39 n20
*40 D
*41 mout
*42 CKbb
*43 mp40
*44 mp53
*45 VDD
*46 qint
*47 CKb
*48 n22
*49 n31
*50 net402
*51 Q
*52 RN
*53 n43
*54 n21
*55 n30
*56 mn56
*57 mn20
*58 mn21
*59 mn25
*60 mn26
*61 mn36
*62 mn35
*63 mn30
*64 mn32
*65 mn31
*66 SN
*67 mn40
*68 mn53

*GROUND_NETS VSS

*PORTS
*45 I
*1 I
*11 I
*40 I
*52 I
*66 I
*51 O
*34 O

*D_NET *45 1.18156e-15

*CONN
*P *45 I *C 0.1000 1.7100 
*I *2:s B *C 4.6600 1.0425 
*I *4:s B *C 5.7775 1.0900 
*I *5:s B *C 5.7775 1.0900 
*I *6:s B *C 6.7500 1.1100 
*I *7:s B *C 6.7500 1.1100 
*I *8:s B *C 7.1300 1.1100 
*I *9:s B *C 7.1300 1.1100 
*I *10:s B *C 7.5900 1.0225 
*I *12:s B *C 7.5900 1.0225 
*I *14:s B *C 0.2250 1.3450 
*I *16:s B *C 0.8425 1.3025 
*I *18:s B *C 0.8425 1.3025 
*I *25:s B *C 1.9100 1.2375 
*I *28:s B *C 1.9100 1.2375 
*I *35:s B *C 2.6950 1.3175 
*N *45:3 *C 7.0000 1.7100 
*N *45:6 *C 5.6900 1.7100 
*N *45:7 *C 5.0000 1.7100 
*N *45:8 *C 4.0500 1.7100 
*N *45:9 *C 3.0000 1.7100 
*N *45:10 *C 2.6650 1.7100 
*N *45:11 *C 1.8100 1.7100 
*N *45:12 *C 1.0000 1.7100 
*N *45:13 *C 0.8000 1.7100 
*N *45:14 *C 0.2000 1.7100 

*CAP
0 *35:s 4.29296e-17
1 *25:s 2.1679e-17
2 *16:s 2.86854e-17
3 *14:s 1.28205e-17
4 *10:s 2.18973e-16
5 *4:s 1.57042e-17
6 *2:s 5.94966e-17
7 *45:14 6.65145e-18
8 *45:13 1.26881e-17
9 *45:11 6.12798e-17
10 *45:10 4.26048e-17
11 *45:8 4.24873e-17
12 *45:6 3.54588e-17
13 *45:3 5.79137e-16
14 *45 9.62068e-19

*RES
0 *45:14 *45 0.049701  // $metal1_conn
1 *45:3 *10:s 7.5  // $metal1_conn
2 *45:3 *45:7 7.5  // $metal1_conn
3 *45:3 *45:9 7.5  // $metal1_conn
4 *45:3 *45:12 7.5  // $metal1_conn
5 *45:6 *4:s 62.097305  // $metal1_conn
6 *45:8 *2:s 62.154362  // $metal1_conn
7 *45:10 *35:s 62.15955  // $metal1_conn
8 *45:11 *25:s 62.074623  // $metal1_conn
9 *45:13 *16:s 62.221432  // $metal1_conn
10 *45:14 *14:s 62.22477  // $metal1_conn
11 *10:s *45:6 0.516135  // $metal1_conn
12 *45:6 *45:7 0.345827  // $metal1_conn
13 *45:7 *45:8 0.476213  // $metal1_conn
14 *45:8 *45:9 0.526361  // $metal1_conn
15 *45:9 *45:10 0.167801  // $metal1_conn
16 *45:10 *45:11 0.428376  // $metal1_conn
17 *45:11 *45:12 0.406005  // $metal1_conn
18 *45:12 *45:13 0.100101  // $metal1_conn
19 *45:13 *45:14 0.300498  // $metal1_conn

*END

*D_NET *1 0

*CONN
*P *1 I *C 0.1000 0.0000 
*I *17:s B *C 5.7850 0.5225 
*I *19:s B *C 5.7850 0.5225 
*I *21:s B *C 6.7750 0.5300 
*I *23:s B *C 6.7750 0.5300 
*I *26:s B *C 7.2450 0.5300 
*I *29:s B *C 7.2450 0.5300 
*I *32:s B *C 7.6750 0.5875 
*I *56:s B *C 7.6750 0.5875 
*I *57:s B *C 0.2150 0.5825 
*I *58:s B *C 0.9400 0.5375 
*I *59:s B *C 0.9400 0.5375 
*I *62:s B *C 1.8250 0.5375 
*I *63:s B *C 1.8250 0.5375 
*N *1:3 *C 7.0000 0.0000 
*N *1:6 *C 5.7450 0.0000 
*N *1:7 *C 5.0000 0.0000 
*N *1:8 *C 3.0000 0.0000 
*N *1:9 *C 1.7500 0.0000 
*N *1:10 *C 1.0000 0.0000 
*N *1:11 *C 0.9250 0.0000 
*N *1:12 *C 0.2000 0.0000 


*RES
0 *1:12 *1 0.049701  // $metal1_conn
1 *1:3 *32:s 6.2  // $metal1_conn
2 *1:3 *1:7 6.2  // $metal1_conn
3 *1:3 *1:8 6.2  // $metal1_conn
4 *1:3 *1:10 6.2  // $metal1_conn
5 *1:6 *17:s 75.315224  // $metal1_conn
6 *1:9 *62:s 75.327858  // $metal1_conn
7 *1:11 *58:s 75.074623  // $metal1_conn
8 *1:12 *57:s 75.074623  // $metal1_conn
9 *32:s *1:6 0.47256  // $metal1_conn
10 *1:6 *1:7 0.373409  // $metal1_conn
11 *1:7 *1:8 1.002966  // $metal1_conn
12 *1:8 *1:9 0.626658  // $metal1_conn
13 *1:9 *1:10 0.375916  // $metal1_conn
14 *1:10 *1:11 0.037481  // $metal1_conn
15 *1:11 *1:12 0.363183  // $metal1_conn

*END

*D_NET *11 1.4626e-16

*CONN
*P *11 I *C 0.1000 0.4750 
*I *57:g B *C 0.2625 0.5825 
*I *14:g B *C 0.2625 1.0075 
*N *11:2 *C 0.2625 0.7550 
*N *11:3 *C 0.2050 0.7550 

*CAP
0 *14:g 2.54738e-17
1 *57:g 1.37319e-17
2 *11:2 1.05122e-17
3 *11:3 4.33802e-17
4 *11 5.31621e-17

*RES
0 *14:g *11:2 34.424801  // $poly_conn
1 *11:2 *11:3 45.794373  // $poly_conn
2 *11:2 *57:g 22.886339  // $poly_conn
3 *11:3 *11 0.189785  // $metal1_conn

*END

*D_NET *40 2.68182e-16

*CONN
*P *40 I *C 0.9000 0.8550 
*I *59:g B *C 0.9875 0.5375 
*I *18:g B *C 0.9875 1.3025 
*N *40:2 *C 0.9600 0.9800 

*CAP
0 *18:g 3.95847e-17
1 *59:g 4.59782e-17
2 *40:2 1.21813e-16
3 *40 6.08056e-17

*RES
0 *18:g *40:2 46.615028  // $poly_conn
1 *40:2 *59:g 86.35862  // $poly_conn
2 *40 *40:2 45.025181  // $metal1_conn

*END

*D_NET *52 2.23758e-16

*CONN
*P *52 I *C 6.5000 1.0450 
*I *21:g B *C 6.6175 0.5875 
*I *6:g B *C 6.6175 1.1975 
*N *52:2 *C 6.5900 0.7700 

*CAP
0 *6:g 4.45513e-17
1 *21:g 3.30332e-17
2 *52:2 8.56133e-17
3 *52 6.05603e-17

*RES
0 *6:g *52:2 73.538101  // $poly_conn
1 *52:2 *21:g 19.691952  // $poly_conn
2 *52:2 *52 45.198254  // $metal1_conn

*END

*D_NET *66 1.06866e-15

*CONN
*P *66 I *C 1.9000 0.8550 
*I *17:g B *C 5.6425 0.4925 
*I *63:g B *C 1.9725 0.5375 
*I *4:g B *C 5.5275 1.0425 
*I *28:g B *C 1.9725 1.2375 
*N *66:2 *C 1.9350 0.8450 
*N *66:4 *C 2.0000 1.5150 
*N *66:7 *C 5.4400 1.3150 
*N *66:8 *C 1.9350 0.8450 

*CAP
0 *28:g 3.36412e-17
1 *4:g 5.47334e-17
2 *63:g 4.10967e-17
3 *17:g 6.04442e-17
4 *66:2 7.98033e-17
5 *66:4 3.90287e-16
6 *66:7 3.67418e-16
7 *66 4.12354e-17

*RES
0 *63:g *66:2 50.770603  // $poly_conn
1 *66:2 *28:g 63.591114  // $poly_conn
2 *28:g *66:4 80.076569  // $poly_conn
3 *17:g *4:g 112.530945  // $poly_conn
4 *4:g *66:7 84.728386  // $poly_conn
5 *66 *66:8 0.008772  // $metal1_conn
6 *66:2 *66:8 45  // $metal1_conn
7 *66:7 *66:4 2.698949  // $metal1_conn

*END

*D_NET *51 1.62529e-16

*CONN
*P *51 O *C 6.9000 1.0450 
*I *23:d B *C 6.9250 0.5300 
*I *26:d B *C 6.9250 0.5300 
*I *7:d B *C 6.9250 1.1100 
*I *8:d B *C 6.9250 1.1100 

*CAP
0 *7:d 5.01336e-17
1 *23:d 7.35216e-17
2 *51 3.88738e-17

*RES
0 *23:d *51 75.264824  // $metal1_conn
1 *51 *7:d 20.700882  // $metal1_conn

*END

*D_NET *34 1.6743e-16

*CONN
*P *34 O *C 7.3000 1.0450 
*I *29:d B *C 7.4100 0.5300 
*I *32:d B *C 7.4100 0.5300 
*I *9:d B *C 7.3350 1.1100 
*I *10:d B *C 7.3350 1.1100 
*N *34:3 *C 7.3355 1.1100 

*CAP
0 *9:d 5.51934e-17
1 *29:d 7.66037e-17
2 *34 3.5633e-17

*RES
0 *29:d *34 75.295784  // $metal1_conn
1 *34 *34:3 0.034643  // $metal1_conn
2 *9:d *34:3 20.666666  // $metal1_conn

*END

*D_NET *55 0

*CONN
*I *61:s B *C 1.6250 0.5375 
*I *62:d B *C 1.6250 0.5375 


*RES
0 *62:d *61:s 0.001  // $mwires

*END

*D_NET *54 0

*CONN
*I *59:d B *C 1.1150 0.5375 
*I *60:s B *C 1.1150 0.5375 


*RES
0 *60:s *59:d 0.001  // $mwires

*END

*D_NET *53 1.4968e-18

*CONN
*I *2:d B *C 5.2550 1.0425 
*I *3:s B *C 5.2550 1.0425 

*CAP
0 *2:d 1.4968e-18

*RES
0 *3:s *2:d 0.001  // $mwires

*END

*D_NET *50 3.05677e-18

*CONN
*I *31:s B *C 2.3750 1.2375 
*I *35:d B *C 2.3750 1.2375 

*CAP
0 *31:s 3.05677e-18

*RES
0 *35:d *31:s 0.001  // $mwires

*END

*D_NET *49 9.17517e-19

*CONN
*I *22:s B *C 1.6250 1.2375 
*I *25:d B *C 1.6250 1.2375 

*CAP
0 *22:s 9.17517e-19

*RES
0 *25:d *22:s 0.001  // $mwires

*END

*D_NET *48 0

*CONN
*I *18:d B *C 1.0875 1.3025 
*I *20:s B *C 1.0875 1.3025 


*RES
0 *20:s *18:d 0.001  // $mwires

*END

*D_NET *47 1.53441e-15

*CONN
*I *57:d B *C 0.3550 0.5825 
*I *58:g B *C 0.7725 0.5075 
*I *60:g B *C 1.2425 0.5375 
*I *68:g B *C 3.6275 0.4775 
*I *14:d B *C 0.3550 1.0075 
*I *16:g B *C 0.6975 1.3025 
*I *22:g B *C 1.5725 1.2375 
*I *43:g B *C 3.3375 1.0075 
*N *47:2 *C 0.7350 0.6850 
*N *47:5 *C 1.2800 0.7400 
*N *47:7 *C 1.5350 1.4450 
*N *47:9 *C 3.3650 0.7900 
*N *47:11 *C 3.5750 0.1900 
*N *47:12 *C 0.7350 0.6850 
*N *47:14 *C 0.3650 0.5700 

*CAP
0 *43:g 3.43234e-17
1 *22:g 8.10964e-17
2 *16:g 4.43384e-17
3 *14:d 4.70551e-17
4 *68:g 4.57199e-17
5 *60:g 3.86639e-17
6 *58:g 2.8673e-17
7 *57:d 1.17208e-16
8 *47:2 1.44959e-16
9 *47:5 1.62331e-16
10 *47:7 3.38029e-16
11 *47:9 3.58103e-16
12 *47:11 9.39056e-17

*RES
0 *58:g *47:2 19.707582  // $poly_conn
1 *47:2 *16:g 123.553734  // $poly_conn
2 *60:g *47:5 68.847527  // $poly_conn
3 *22:g *47:7 61.15522  // $poly_conn
4 *43:g *47:9 64.691956  // $poly_conn
5 *68:g *47:11 94.143768  // $poly_conn
6 *47:11 *47:9 0.577803  // $metal1_conn
7 *47:9 *47:7 1.851354  // $metal1_conn
8 *47:7 *47:5 0.675496  // $metal1_conn
9 *47:5 *47:12 0.424382  // $metal1_conn
10 *47:12 *47:14 0.717202  // $metal1_conn
11 *47:14 *14:d 62.289165  // $metal1_conn
12 *47:2 *47:12 45  // $metal1_conn
13 *57:d *47:14 75  // $metal1_conn

*END

*D_NET *42 7.51758e-16

*CONN
*I *58:d B *C 0.6475 0.5075 
*I *61:g B *C 1.5725 0.5375 
*I *67:g B *C 3.4225 0.4775 
*I *16:d B *C 0.6050 1.3025 
*I *20:g B *C 1.1875 1.3025 
*I *44:g B *C 3.6275 1.0075 
*N *42:4 *C 1.1500 1.0850 
*N *42:6 *C 0.5600 1.1600 

*CAP
0 *44:g 6.44286e-17
1 *20:g 3.12492e-17
2 *16:d 2.68223e-17
3 *67:g 1.09652e-16
4 *61:g 1.77885e-16
5 *58:d 1.00777e-16
6 *42:6 1.0358e-16
7 *42:4 1.37364e-16

*RES
0 *44:g *67:g 118.651627  // $poly_conn
1 *67:g *61:g 539.164429  // $poly_conn
2 *61:g *42:4 194.284988  // $poly_conn
3 *42:4 *20:g 18.719322  // $poly_conn
4 *42:4 *42:6 45.452572  // $metal1_conn
5 *42:6 *16:d 62.047604  // $metal1_conn
6 *42:6 *58:d 75.492104  // $metal1_conn

*END

*D_NET *41 6.34121e-16

*CONN
*I *62:g B *C 1.6775 0.5375 
*I *64:d B *C 2.3750 0.5375 
*I *65:d B *C 2.3750 0.5375 
*I *67:s B *C 3.2725 0.4775 
*I *25:g B *C 1.6775 1.2375 
*I *28:d B *C 2.1150 1.2375 
*I *31:d B *C 2.1150 1.2375 
*I *43:s B *C 3.2300 1.0075 
*N *41:2 *C 1.7050 1.0200 
*N *41:6 *C 3.2050 0.9600 
*N *41:7 *C 2.4100 0.9300 
*N *41:9 *C 2.3900 0.5500 
*N *41:11 *C 2.1550 1.1950 

*CAP
0 *43:s 9.13402e-17
1 *28:d 1.06889e-16
2 *25:g 5.99373e-17
3 *67:s 5.37221e-17
4 *64:d 4.22305e-17
5 *62:g 7.44525e-17
6 *41:7 8.88148e-17
7 *41:2 1.16734e-16

*RES
0 *25:g *41:2 19.691952  // $poly_conn
1 *41:2 *62:g 96.615036  // $poly_conn
2 *67:s *41:6 75.344032  // $metal1_conn
3 *41:6 *41:7 0.59212  // $metal1_conn
4 *41:7 *41:9 0.248626  // $metal1_conn
5 *41:7 *41:11 0.39814  // $metal1_conn
6 *41:11 *41:2 45.465225  // $metal1_conn
7 *43:s *41:6 62  // $metal1_conn
8 *64:d *41:9 75  // $metal1_conn
9 *28:d *41:11 62  // $metal1_conn

*END

*D_NET *39 3.94938e-16

*CONN
*I *60:d B *C 1.4075 0.5375 
*I *61:d B *C 1.4075 0.5375 
*I *64:g B *C 2.2575 0.5375 
*I *20:d B *C 1.5000 1.2375 
*I *22:d B *C 1.5000 1.2375 
*I *31:g B *C 2.2575 1.2375 
*N *39:2 *C 2.2200 0.7100 
*N *39:5 *C 1.4700 0.6975 

*CAP
0 *31:g 5.42079e-17
1 *20:d 7.48246e-17
2 *64:g 3.57575e-17
3 *60:d 1.75738e-17
4 *39:5 8.59084e-17
5 *39:2 1.26665e-16

*RES
0 *31:g *39:2 98.206505  // $poly_conn
1 *39:2 *64:g 16.15522  // $poly_conn
2 *20:d *39:5 62.431511  // $metal1_conn
3 *39:5 *60:d 75.112236  // $metal1_conn
4 *39:5 *39:2 45.540604  // $metal1_conn

*END

*D_NET *38 1.19823e-16

*CONN
*I *63:d B *C 2.1150 0.5375 
*I *64:s B *C 2.1150 0.5375 
*I *65:s B *C 2.5850 0.5375 

*CAP
0 *65:s 5.40582e-17
1 *63:d 6.57644e-17

*RES
0 *65:s *63:d 150.493042  // $metal1_conn

*END

*D_NET *37 1.15402e-15

*CONN
*I *13:g B *C 5.2025 0.4925 
*I *21:d B *C 6.5250 0.5875 
*I *65:g B *C 2.4925 0.5375 
*I *2:g B *C 5.2025 1.0425 
*I *6:d B *C 6.5250 1.1975 
*I *35:g B *C 2.4925 1.2375 
*N *37:2 *C 3.9475 1.5775 
*N *37:6 *C 3.9750 1.1250 
*N *37:9 *C 6.5150 1.2450 

*CAP
0 *35:g 8.98755e-17
1 *6:d 2.77949e-16
2 *2:g 1.09512e-16
3 *65:g 5.28422e-17
4 *21:d 9.57965e-17
5 *13:g 4.68522e-17
6 *37:2 9.27454e-17
7 *37:6 3.88451e-16

*RES
0 *2:g *37:2 424.344238  // $poly_conn
1 *37:2 *35:g 425.626282  // $poly_conn
2 *35:g *65:g 133.333328  // $poly_conn
3 *2:g *13:g 94.871796  // $poly_conn
4 *37:2 *37:6 147.812958  // $poly_conn
5 *21:d *37:9 75.760506  // $metal1_conn
6 *37:9 *37:6 2.26327  // $metal1_conn
7 *6:d *37:9 62  // $metal1_conn

*END

*D_NET *36 6.64306e-16

*CONN
*I *19:g B *C 5.8575 0.5225 
*I *67:d B *C 3.5250 0.4775 
*I *68:d B *C 3.5250 0.4775 
*I *5:g B *C 5.8575 1.0900 
*I *43:d B *C 3.4825 1.0075 
*I *44:d B *C 3.4825 1.0075 
*N *36:2 *C 5.8200 0.8350 
*N *36:4 *C 3.5250 0.7900 

*CAP
0 *43:d 4.07117e-17
1 *5:g 3.52577e-17
2 *67:d 4.89263e-17
3 *19:g 3.89873e-17
4 *36:4 2.17248e-16
5 *36:2 2.83175e-16

*RES
0 *5:g *36:2 16.15522  // $poly_conn
1 *36:2 *19:g 44.360348  // $poly_conn
2 *36:2 *36:4 46.790478  // $metal1_conn
3 *36:4 *67:d 75.242348  // $metal1_conn
4 *36:4 *43:d 62.151855  // $metal1_conn

*END

*D_NET *33 4.5284e-16

*CONN
*I *3:d B *C 5.4175 1.0425 
*I *4:d B *C 5.4175 1.0425 
*I *44:s B *C 3.7200 1.0075 

*CAP
0 *44:s 2.08881e-16
1 *3:d 2.43958e-16

*RES
0 *3:d *44:s 125.411507  // $metal1_conn

*END

*D_NET *30 2.84902e-16

*CONN
*I *13:d B *C 5.3125 0.4925 
*I *15:d B *C 5.3125 0.4925 
*I *68:s B *C 3.7200 0.4775 

*CAP
0 *68:s 1.15173e-16
1 *13:d 1.69729e-16

*RES
0 *68:s *13:d 151.264099  // $metal1_conn

*END

*D_NET *27 1.04196e-15

*CONN
*I *15:g B *C 5.4225 0.4925 
*I *19:d B *C 5.9750 0.5225 
*I *23:g B *C 6.8225 0.5300 
*I *26:g B *C 7.0275 0.5300 
*I *56:g B *C 7.7225 0.5875 
*I *3:g B *C 5.3075 1.0425 
*I *5:d B *C 5.9750 1.0900 
*I *7:g B *C 6.8225 1.1100 
*I *8:g B *C 7.0275 1.1100 
*I *12:g B *C 7.6425 1.0225 
*N *27:2 *C 5.4225 0.6750 
*N *27:4 *C 5.4800 0.6750 
*N *27:13 *C 7.8200 0.4050 
*N *27:19 *C 6.0100 0.4800 
*N *27:20 *C 6.0100 0.6750 

*CAP
0 *12:g 5.01744e-17
1 *8:g 4.33534e-16
2 *5:d 7.00237e-17
3 *3:g 8.23593e-17
4 *56:g 3.82738e-17
5 *19:d 6.10607e-17
6 *15:g 3.03896e-17
7 *27:20 5.461e-17
8 *27:2 3.55801e-17
9 *27:4 9.53907e-17
10 *27:13 9.05632e-17

*RES
0 *56:g *12:g 74.069405  // $poly_conn
1 *27:2 *3:g 81.667473  // $poly_conn
2 *27:13 *56:g 70.485413  // $poly_conn
3 *15:g *27:2 16.33637  // $poly_conn
4 *27:2 *27:4 47.969933  // $poly_conn
5 *27:13 *8:g 0.529067  // $metal1_conn
6 *27:20 *27:4 0.38606  // $metal1_conn
7 *19:d *27:19 75  // $metal1_conn
8 *27:20 *5:d 31.292173  // $metal1_conn
9 *8:g *27:19 0.571912  // $metal1_conn
10 *27:19 *27:20 0.132907  // $metal1_conn

*END

*D_NET *24 1.51322e-16

*CONN
*I *13:s B *C 5.1100 0.4925 
*I *15:s B *C 5.5325 0.4925 
*I *17:d B *C 5.5325 0.4925 

*CAP
0 *15:s 7.52536e-17
1 *13:s 7.60683e-17

*RES
0 *13:s *15:s 150.37854  // $metal1_conn

*END

*D_NET *46 2.74807e-16

*CONN
*I *29:g B *C 7.2925 0.5300 
*I *32:g B *C 7.5275 0.5300 
*I *56:d B *C 7.8150 0.5875 
*I *9:g B *C 7.2325 1.1100 
*I *10:g B *C 7.4375 1.1100 
*I *12:d B *C 7.7350 1.0225 
*N *46:9 *C 7.7450 0.7850 

*CAP
0 *12:d 1.49687e-17
1 *10:g 2.14803e-16
2 *56:d 2.64724e-17
3 *46:9 1.85628e-17

*RES
0 *46:9 *10:g 45.149536  // $metal1_conn
1 *46:9 *12:d 62.137581  // $metal1_conn
2 *56:d *46:9 75.188583  // $metal1_conn

*END

