*SPEF "IEEE 1481-1999"
*DESIGN  "DFFXL"
*DATE "Mon Sep 27 09:41:41 2010"
*VENDOR "Cadence Design Systems"
*PROGRAM "Assura RCX"
*VERSION "3.2 Red Hat Linux release 7.2 (Enigma) - (09/09/2009-10:39)"
*DESIGN_FLOW "Physical Verification"
*DIVIDER /
*DELIMITER :
*BUS_DELIMITER []
*T_UNIT 1 PS
*C_UNIT 1e15 FF
*R_UNIT 1 OHM
*L_UNIT 1 MH
// DeviceFingerDelim "@"
// MATCHED
// caps2d version: 10

*NAME_MAP
*1 CK
*2 VSS
*3 mn51
*4 mn40
*5 mn56
*6 mn30
*7 Q
*8 mn55
*9 mn35
*10 mn20
*11 mn36
*12 mn45
*13 mn26
*14 mn50
*15 mn25
*16 mn21
*17 mn57
*18 qint
*19 n30
*20 mout
*21 VDD
*22 mp56
*23 mp55
*24 QN
*25 mp20
*26 mp45
*27 mp50
*28 n20
*29 qbint
*30 CKbb
*31 CKb
*32 n36
*33 n26
*34 n22
*35 n35
*36 mp51
*37 n25
*38 mp40
*39 n21
*40 mp30
*41 mp35
*42 mp36
*43 mp26
*44 mp25
*45 mp21
*46 mp57
*47 D

*GROUND_NETS VSS

*PORTS
*21 I
*2 I
*1 I
*47 I
*7 O
*24 O

*D_NET *21 6.2678e-16

*CONN
*P *21 I *C 0.1000 1.7100 
*I *40:s B *C 3.2750 1.2975 
*I *41:s B *C 3.2750 1.2975 
*I *44:s B *C 4.0750 1.2975 
*I *45:s B *C 4.0750 1.2975 
*I *46:s B *C 0.5250 1.0075 
*I *22:s B *C 0.5250 1.0075 
*I *23:s B *C 1.2425 1.0075 
*I *25:s B *C 1.2425 1.0075 
*I *26:s B *C 2.2050 1.2975 
*I *27:s B *C 2.2050 1.2975 
*N *21:2 *C 3.3000 1.7100 
*N *21:3 *C 3.3000 1.7100 
*N *21:4 *C 3.1900 1.7100 
*N *21:5 *C 2.1200 1.7100 
*N *21:6 *C 1.2300 1.7100 
*N *21:7 *C 1.1000 1.7100 
*N *21:8 *C 0.5250 1.7100 

*CAP
0 *26:s 2.22973e-17
1 *23:s 5.17326e-17
2 *46:s 3.97173e-17
3 *44:s 4.77507e-17
4 *40:s 2.3158e-17
5 *21:8 8.40532e-18
6 *21:6 2.94554e-17
7 *21:5 5.4248e-17
8 *21:4 7.31748e-17
9 *21:2 2.70224e-16
10 *21 6.61664e-18

*RES
0 *44:s *21:3 62.655598  // $metal1_conn
1 *21:3 *21:4 0.05413  // $metal1_conn
2 *21:4 *21:5 0.534652  // $metal1_conn
3 *21:5 *21:6 0.445276  // $metal1_conn
4 *21:6 *21:7 0.06504  // $metal1_conn
5 *21:7 *21:8 0.288349  // $metal1_conn
6 *21:8 *21 0.212826  // $metal1_conn
7 *21:4 *40:s 62.045849  // $metal1_conn
8 *21:5 *26:s 62.045849  // $metal1_conn
9 *21:6 *23:s 62.445343  // $metal1_conn
10 *21:8 *46:s 62.421051  // $metal1_conn
11 *21:2 *21:3 6.818182  // $metal1_conn
12 *21:2 *21:7 6.818182  // $metal1_conn

*END

*D_NET *2 0

*CONN
*P *2 I *C 0.1000 0.0000 
*I *6:s B *C 3.3750 0.3825 
*I *9:s B *C 3.3750 0.3825 
*I *15:s B *C 4.1300 0.3825 
*I *16:s B *C 4.1300 0.3825 
*I *17:s B *C 0.5250 0.5875 
*I *5:s B *C 0.5250 0.5875 
*I *8:s B *C 1.2650 0.5875 
*I *10:s B *C 1.2650 0.5875 
*I *12:s B *C 2.0825 0.3825 
*I *14:s B *C 2.0825 0.3825 
*N *2:2 *C 3.3000 0.0000 
*N *2:3 *C 3.3000 0.0000 
*N *2:4 *C 2.0750 0.0000 
*N *2:5 *C 1.1000 0.0000 
*N *2:6 *C 0.5250 0.0000 


*RES
0 *15:s *2:3 75.642006  // $metal1_conn
1 *2:3 *2:4 0.614634  // $metal1_conn
2 *2:4 *2:5 0.489691  // $metal1_conn
3 *2:5 *2:6 0.288349  // $metal1_conn
4 *2:6 *2 0.212826  // $metal1_conn
5 *2:3 *6:s 75.141212  // $metal1_conn
6 *2:4 *12:s 75.232483  // $metal1_conn
7 *2:5 *8:s 75.085648  // $metal1_conn
8 *2:6 *17:s 75.372864  // $metal1_conn
9 *2:2 *2:3 5.636364  // $metal1_conn
10 *2:2 *2:5 5.636364  // $metal1_conn

*END

*D_NET *1 1.61539e-16

*CONN
*P *1 I *C 1.5000 0.8550 
*I *10:g B *C 1.3575 0.5875 
*I *25:g B *C 1.3575 1.0075 
*N *1:2 *C 1.3200 0.7600 

*CAP
0 *25:g 2.37606e-17
1 *10:g 2.06698e-17
2 *1:2 7.42593e-17
3 *1 4.28496e-17

*RES
0 *25:g *1:2 26.411629  // $poly_conn
1 *1:2 *10:g 16.15522  // $poly_conn
2 *1 *1:2 45.135887  // $metal1_conn

*END

*D_NET *47 3.36848e-16

*CONN
*P *47 I *C 4.1000 1.0450 
*I *15:g B *C 3.9125 0.3825 
*I *44:g B *C 3.9725 1.2975 
*N *47:2 *C 4.0150 0.8850 

*CAP
0 *44:g 4.10562e-17
1 *15:g 8.45473e-17
2 *47:2 7.51294e-17
3 *47 1.36115e-16

*RES
0 *44:g *47:2 68.910156  // $poly_conn
1 *47:2 *15:g 105.609238  // $poly_conn
2 *47:2 *47 45.01614  // $metal1_conn

*END

*D_NET *7 1.74945e-16

*CONN
*P *7 O *C 0.9000 1.2350 
*I *8:d B *C 0.9800 0.5875 
*I *23:d B *C 1.0350 1.0075 
*N *7:2 *C 0.9000 1.0550 

*CAP
0 *23:d 2.16543e-17
1 *8:d 7.80361e-17
2 *7:2 4.77385e-17
3 *7 2.75158e-17

*RES
0 *23:d *7:2 62.042656  // $metal1_conn
1 *7:2 *7 0.111924  // $metal1_conn
2 *7:2 *8:d 75.298599  // $metal1_conn

*END

*D_NET *24 9.47501e-17

*CONN
*P *24 O *C 0.1000 0.6650 
*I *17:d B *C 0.3300 0.5875 
*I *46:d B *C 0.3300 1.0075 
*N *24:2 *C 0.2300 0.6350 

*CAP
0 *46:d 3.48864e-17
1 *17:d 1.73284e-17
2 *24:2 2.21621e-17
3 *24 2.03731e-17

*RES
0 *17:d *24:2 75.047935  // $metal1_conn
1 *24:2 *24 0.044223  // $metal1_conn
2 *24:2 *46:d 62.204433  // $metal1_conn

*END

*D_NET *39 1.40739e-18

*CONN
*I *13:s B *C 3.8550 0.3825 
*I *15:d B *C 3.8550 0.3825 

*CAP
0 *13:s 1.40739e-18

*RES
0 *15:d *13:s 0.001  // $mwires

*END

*D_NET *37 1.74023e-18

*CONN
*I *9:d B *C 3.5075 0.3825 
*I *11:s B *C 3.5075 0.3825 

*CAP
0 *9:d 1.74023e-18

*RES
0 *11:s *9:d 0.001  // $mwires

*END

*D_NET *35 7.02194e-18

*CONN
*I *3:s B *C 2.3475 0.3825 
*I *14:d B *C 2.3475 0.3825 

*CAP
0 *3:s 7.02194e-18

*RES
0 *14:d *3:s 0.001  // $mwires

*END

*D_NET *34 2.3888e-18

*CONN
*I *43:s B *C 3.8325 1.2975 
*I *44:d B *C 3.8325 1.2975 

*CAP
0 *43:s 2.3888e-18

*RES
0 *44:d *43:s 0.001  // $mwires

*END

*D_NET *33 1.81666e-18

*CONN
*I *41:d B *C 3.4050 1.2975 
*I *42:s B *C 3.4050 1.2975 

*CAP
0 *41:d 1.81666e-18

*RES
0 *42:s *41:d 0.001  // $mwires

*END

*D_NET *32 2.1193e-18

*CONN
*I *36:s B *C 2.3550 1.2975 
*I *27:d B *C 2.3550 1.2975 

*CAP
0 *36:s 2.1193e-18

*RES
0 *27:d *36:s 0.001  // $mwires

*END

*D_NET *31 1.32065e-15

*CONN
*I *3:g B *C 2.4875 0.3825 
*I *13:g B *C 3.7975 0.3825 
*I *16:g B *C 4.1775 0.3825 
*I *10:d B *C 1.5075 0.5875 
*I *38:g B *C 2.7125 1.2975 
*I *42:g B *C 3.4875 1.2975 
*I *45:g B *C 4.1775 1.2975 
*I *25:d B *C 1.4500 1.0075 
*N *31:2 *C 2.7500 1.0900 
*N *31:4 *C 3.5500 1.0050 
*N *31:7 *C 3.8350 0.6850 
*N *31:9 *C 4.1775 0.7150 
*N *31:10 *C 4.1100 0.7150 
*N *31:12 *C 3.8000 1.0050 
*N *31:13 *C 2.7200 1.3950 
*N *31:15 *C 1.4600 1.0550 

*CAP
0 *25:d 1.56014e-16
1 *45:g 4.62756e-17
2 *42:g 4.13225e-17
3 *38:g 2.15121e-17
4 *10:d 6.87241e-17
5 *16:g 3.64779e-17
6 *13:g 6.47199e-17
7 *3:g 6.9655e-17
8 *31:13 2.48515e-16
9 *31:12 1.36092e-16
10 *31:9 3.9984e-17
11 *31:2 1.26516e-16
12 *31:4 7.99002e-17
13 *31:7 1.12763e-16
14 *31:10 7.21791e-17

*RES
0 *38:g *31:2 16.15522  // $poly_conn
1 *31:2 *3:g 194.284958  // $poly_conn
2 *31:4 *42:g 88.026947  // $poly_conn
3 *13:g *31:7 94.488556  // $poly_conn
4 *45:g *31:9 118.483833  // $poly_conn
5 *31:9 *31:10 46.611767  // $poly_conn
6 *31:9 *16:g 63.355629  // $poly_conn
7 *31:10 *31:7 0.206948  // $metal1_conn
8 *31:7 *31:12 0.247115  // $metal1_conn
9 *31:12 *31:4 0.164319  // $metal1_conn
10 *31:12 *31:13 1.14318  // $metal1_conn
11 *31:13 *31:2 45.231277  // $metal1_conn
12 *31:13 *31:15 1.229532  // $metal1_conn
13 *31:15 *10:d 75.552238  // $metal1_conn
14 *25:d *31:15 62  // $metal1_conn

*END

*D_NET *30 9.51873e-16

*CONN
*I *4:g B *C 2.6925 0.3825 
*I *11:g B *C 3.5925 0.3825 
*I *16:d B *C 4.2700 0.3825 
*I *36:g B *C 2.4575 1.2975 
*I *43:g B *C 3.6925 1.2975 
*I *45:d B *C 4.2800 1.2975 
*N *30:2 *C 2.4200 0.9600 
*N *30:4 *C 2.7050 0.6550 
*N *30:7 *C 3.5650 0.2050 
*N *30:9 *C 4.2900 0.4950 

*CAP
0 *45:d 6.05005e-17
1 *43:g 7.69916e-17
2 *36:g 3.8135e-17
3 *16:d 1.3786e-17
4 *11:g 7.72097e-17
5 *4:g 3.59333e-17
6 *30:9 1.1558e-16
7 *30:2 1.0837e-16
8 *30:4 1.91704e-16
9 *30:7 2.33663e-16

*RES
0 *36:g *30:2 94.488556  // $poly_conn
1 *4:g *30:4 86.796242  // $poly_conn
2 *43:g *11:g 202.274536  // $poly_conn
3 *11:g *30:7 62.437271  // $poly_conn
4 *45:d *30:9 62.546391  // $metal1_conn
5 *30:9 *30:7 0.744621  // $metal1_conn
6 *30:7 *30:4 1.174411  // $metal1_conn
7 *30:4 *30:2 0.4137  // $metal1_conn
8 *30:9 *16:d 75.065109  // $metal1_conn

*END

*D_NET *29 6.49678e-16

*CONN
*I *5:g B *C 0.6275 0.5875 
*I *8:g B *C 1.0725 0.5875 
*I *12:d B *C 1.8650 0.3825 
*I *14:g B *C 2.2075 0.3825 
*I *22:g B *C 0.6275 1.0075 
*I *23:g B *C 1.1275 1.0075 
*I *26:d B *C 1.8950 1.2975 
*I *27:g B *C 2.2525 1.2975 
*N *29:2 *C 1.1000 0.7700 
*N *29:3 *C 0.6275 0.8075 
*N *29:8 *C 2.2075 0.5900 
*N *29:9 *C 2.1000 0.5900 
*N *29:11 *C 1.9150 0.6200 
*N *29:13 *C 1.8550 0.3950 

*CAP
0 *27:g 8.09319e-17
1 *26:d 6.11958e-17
2 *23:g 2.0758e-17
3 *22:g 2.20044e-17
4 *14:g 2.4504e-17
5 *12:d 7.07233e-17
6 *8:g 1.52252e-17
7 *5:g 2.19239e-17
8 *29:11 6.95901e-17
9 *29:8 4.47906e-17
10 *29:3 2.53302e-17
11 *29:2 1.378e-16
12 *29:9 5.49007e-17

*RES
0 *23:g *29:2 22.283424  // $poly_conn
1 *29:2 *29:3 107.159912  // $poly_conn
2 *29:3 *5:g 36.285732  // $poly_conn
3 *29:2 *8:g 16.530039  // $poly_conn
4 *29:3 *22:g 22.18317  // $poly_conn
5 *27:g *29:8 150.801895  // $poly_conn
6 *29:8 *29:9 51.017776  // $poly_conn
7 *29:8 *14:g 31.860699  // $poly_conn
8 *29:9 *29:11 0.135508  // $metal1_conn
9 *29:11 *29:13 0.214912  // $metal1_conn
10 *29:13 *29:2 45.763081  // $metal1_conn
11 *29:11 *26:d 62.446465  // $metal1_conn
12 *12:d *29:13 75  // $metal1_conn

*END

*D_NET *28 4.09781e-16

*CONN
*I *6:g B *C 3.0575 0.3825 
*I *11:d B *C 3.6950 0.3825 
*I *13:d B *C 3.6950 0.3825 
*I *40:g B *C 3.0575 1.2975 
*I *42:d B *C 3.5900 1.2975 
*I *43:d B *C 3.5900 1.2975 
*N *28:2 *C 3.1000 0.8000 
*N *28:5 *C 3.3600 0.7700 
*N *28:7 *C 3.6950 0.3950 

*CAP
0 *42:d 7.40927e-17
1 *40:g 4.82623e-17
2 *11:d 6.64435e-17
3 *6:g 4.9011e-17
4 *28:5 7.40043e-17
5 *28:2 9.79667e-17

*RES
0 *40:g *28:2 89.193542  // $poly_conn
1 *28:2 *6:g 77.65509  // $poly_conn
2 *42:d *28:5 62.472008  // $metal1_conn
3 *28:5 *28:7 0.464297  // $metal1_conn
4 *28:5 *28:2 45.186535  // $metal1_conn
5 *11:d *28:7 75  // $metal1_conn

*END

*D_NET *20 4.22782e-16

*CONN
*I *4:s B *C 2.8750 0.3825 
*I *6:d B *C 2.8750 0.3825 
*I *9:g B *C 3.4225 0.3825 
*I *38:s B *C 2.8850 1.2975 
*I *40:d B *C 2.8850 1.2975 
*I *41:g B *C 3.3225 1.2975 
*N *20:2 *C 3.3225 0.5800 
*N *20:3 *C 3.2000 0.5800 
*N *20:5 *C 2.9400 0.6100 

*CAP
0 *41:g 7.95595e-17
1 *38:s 7.01623e-17
2 *9:g 4.22379e-17
3 *4:s 4.63573e-17
4 *20:5 6.70939e-17
5 *20:2 4.58111e-17
6 *20:3 7.15603e-17

*RES
0 *9:g *20:2 45.077374  // $poly_conn
1 *20:2 *20:3 55.219883  // $poly_conn
2 *20:2 *41:g 146.596008  // $poly_conn
3 *20:3 *20:5 0.171792  // $metal1_conn
4 *20:5 *38:s 62.446411  // $metal1_conn
5 *20:5 *4:s 75.16777  // $metal1_conn

*END

*D_NET *19 4.23912e-16

*CONN
*I *3:d B *C 2.5900 0.3825 
*I *4:d B *C 2.5900 0.3825 
*I *12:g B *C 1.9575 0.3825 
*I *36:d B *C 2.5850 1.2975 
*I *38:d B *C 2.5850 1.2975 
*I *26:g B *C 1.9875 1.2975 
*N *19:2 *C 1.9950 0.8100 
*N *19:4 *C 2.0750 0.8100 
*N *19:6 *C 2.2600 0.8400 

*CAP
0 *26:g 4.50391e-17
1 *36:d 7.13537e-17
2 *12:g 4.08083e-17
3 *3:d 6.90852e-17
4 *19:6 9.97112e-17
5 *19:2 3.77265e-17
6 *19:4 6.01881e-17

*RES
0 *26:g *19:2 87.752274  // $poly_conn
1 *19:2 *12:g 91.09919  // $poly_conn
2 *19:2 *19:4 50.064102  // $poly_conn
3 *3:d *19:6 75.542374  // $metal1_conn
4 *19:6 *19:4 0.108292  // $metal1_conn
5 *19:6 *36:d 62.502693  // $metal1_conn

*END

*D_NET *18 2.12211e-16

*CONN
*I *17:g B *C 0.4225 0.5875 
*I *5:d B *C 0.7200 0.5875 
*I *46:g B *C 0.4225 1.0075 
*I *22:d B *C 0.7200 1.0075 
*N *18:2 *C 0.4600 0.7900 
*N *18:5 *C 0.7200 0.8000 

*CAP
0 *22:d 3.4409e-17
1 *46:g 2.68938e-17
2 *5:d 3.93618e-17
3 *17:g 2.58352e-17
4 *18:5 3.259e-17
5 *18:2 5.31212e-17

*RES
0 *46:g *18:2 18.719322  // $poly_conn
1 *18:2 *17:g 23.847527  // $poly_conn
2 *5:d *18:5 75.124039  // $metal1_conn
3 *18:5 *18:2 45.137829  // $metal1_conn
4 *18:5 *22:d 62.103355  // $metal1_conn

*END

