*SPEF "IEEE 1481-1999"
*DESIGN  "DFFX2"
*DATE "Mon Sep 27 09:40:56 2010"
*VENDOR "Cadence Design Systems"
*PROGRAM "Assura RCX"
*VERSION "3.2 Red Hat Linux release 7.2 (Enigma) - (09/09/2009-10:39)"
*DESIGN_FLOW "Physical Verification"
*DIVIDER /
*DELIMITER :
*BUS_DELIMITER []
*T_UNIT 1 PS
*C_UNIT 1e15 FF
*R_UNIT 1 OHM
*L_UNIT 1 MH
// DeviceFingerDelim "@"
// MATCHED
// caps2d version: 10

*NAME_MAP
*1 Q
*2 VDD
*3 mp45
*4 qint
*5 mp20
*6 mout
*7 mp55
*8 n20
*9 mp55\@1
*10 mp57
*11 mp57\@1
*12 mp56
*13 mp21
*14 mp26
*15 mp25
*16 mp36
*17 mp35
*18 mp30
*19 mp40
*20 mp51
*21 CK
*22 mp50
*23 mn26
*24 QN
*25 mn36
*26 mn35
*27 mn30
*28 mn40
*29 mn51
*30 mn50
*31 VSS
*32 n30
*33 CKbb
*34 CKb
*35 mn20
*36 qbint
*37 mn55
*38 n22
*39 mn55\@1
*40 n26
*41 mn57
*42 n36
*43 mn57\@1
*44 n21
*45 mn56
*46 n25
*47 D
*48 mn45
*49 n35
*50 mn21
*51 mn25

*GROUND_NETS VSS

*PORTS
*2 I
*31 I
*21 I
*47 I
*1 O
*24 O

*D_NET *2 6.36173e-16

*CONN
*P *2 I *C 0.1000 1.7100 
*I *3:s B *C 2.2200 1.1850 
*I *5:s B *C 3.1150 1.0950 
*I *7:s B *C 3.1150 1.0950 
*I *9:s B *C 3.6000 1.0950 
*I *10:s B *C 3.6000 1.0950 
*I *11:s B *C 4.1600 1.0075 
*I *12:s B *C 4.1600 1.0075 
*I *13:s B *C 0.4200 1.1625 
*I *15:s B *C 0.4200 1.1625 
*I *17:s B *C 1.1750 1.1625 
*I *18:s B *C 1.1750 1.1625 
*I *22:s B *C 2.2200 1.1850 
*N *2:2 *C 3.6000 1.7100 
*N *2:6 *C 2.1050 1.7100 
*N *2:7 *C 1.2000 1.7100 
*N *2:8 *C 1.0600 1.7100 
*N *2:9 *C 0.3350 1.7100 

*CAP
0 *17:s 2.25645e-17
1 *13:s 2.7426e-17
2 *11:s 2.1768e-16
3 *3:s 2.38054e-17
4 *2:9 1.39969e-17
5 *2:8 1.79423e-17
6 *2:6 4.08898e-17
7 *2:2 2.65586e-16
8 *2 6.28186e-18

*RES
0 *2:9 *2 0.117167  // $metal1_conn
1 *2:2 *11:s 6.25  // $metal1_conn
2 *2:2 *2:7 6.25  // $metal1_conn
3 *2:6 *3:s 62.09692  // $metal1_conn
4 *2:8 *17:s 62.09692  // $metal1_conn
5 *2:9 *13:s 62.163315  // $metal1_conn
6 *11:s *2:6 0.500089  // $metal1_conn
7 *2:6 *2:7 0.452739  // $metal1_conn
8 *2:7 *2:8 0.069872  // $metal1_conn
9 *2:8 *2:9 0.362457  // $metal1_conn

*END

*D_NET *31 0

*CONN
*P *31 I *C 0.1000 0.0000 
*I *35:s B *C 3.1600 0.5200 
*I *37:s B *C 3.1600 0.5200 
*I *39:s B *C 3.6850 0.5200 
*I *41:s B *C 3.6850 0.5200 
*I *43:s B *C 4.2900 0.5775 
*I *45:s B *C 4.2900 0.5775 
*I *48:s B *C 2.1750 0.5575 
*I *50:s B *C 0.3375 0.5875 
*I *51:s B *C 0.3375 0.5875 
*I *26:s B *C 1.1750 0.5875 
*I *27:s B *C 1.1750 0.5875 
*I *30:s B *C 2.1750 0.5575 
*N *31:2 *C 3.6000 0.0000 
*N *31:5 *C 2.1650 0.0000 
*N *31:6 *C 1.2000 0.0000 
*N *31:7 *C 0.3100 0.0000 


*RES
0 *31:7 *31 0.104655  // $metal1_conn
1 *31:2 *43:s 5.166667  // $metal1_conn
2 *31:2 *31:6 5.166667  // $metal1_conn
3 *31:5 *48:s 75.332779  // $metal1_conn
4 *31:6 *26:s 75.062119  // $metal1_conn
5 *31:7 *50:s 75.364388  // $metal1_conn
6 *43:s *31:5 0.454098  // $metal1_conn
7 *31:5 *31:6 0.482767  // $metal1_conn
8 *31:6 *31:7 0.445231  // $metal1_conn

*END

*D_NET *21 1.72976e-16

*CONN
*P *21 I *C 2.9000 0.6650 
*I *35:g B *C 2.8625 0.5775 
*I *5:g B *C 2.8625 1.0075 
*N *21:2 *C 2.8900 0.7900 

*CAP
0 *5:g 2.12768e-17
1 *35:g 2.90514e-17
2 *21:2 8.01112e-17
3 *21 4.25366e-17

*RES
0 *5:g *21:2 19.691952  // $poly_conn
1 *21:2 *35:g 27.38426  // $poly_conn
2 *21 *21:2 45.077297  // $metal1_conn

*END

*D_NET *47 2.82218e-16

*CONN
*P *47 I *C 0.3000 1.2350 
*I *51:g B *C 0.4675 0.5875 
*I *15:g B *C 0.4675 1.1625 
*N *47:2 *C 0.4200 0.9550 

*CAP
0 *15:g 5.37306e-17
1 *51:g 7.06249e-17
2 *47:2 1.1181e-16
3 *47 4.60525e-17

*RES
0 *15:g *47:2 16.15522  // $poly_conn
1 *47:2 *51:g 66.15522  // $poly_conn
2 *47:2 *47 45.186787  // $metal1_conn

*END

*D_NET *1 1.6391e-16

*CONN
*P *1 O *C 3.3000 0.6650 
*I *37:d B *C 3.3200 0.5200 
*I *39:d B *C 3.3200 0.5200 
*I *7:d B *C 3.3200 1.0950 
*I *9:d B *C 3.3200 1.0950 

*CAP
0 *7:d 8.97783e-17
1 *37:d 4.01828e-17
2 *1 3.39491e-17

*RES
0 *1 *37:d 75.044838  // $metal1_conn
1 *1 *7:d 20.923721  // $metal1_conn

*END

*D_NET *24 1.50284e-16

*CONN
*P *24 O *C 3.7000 0.6650 
*I *41:d B *C 3.8950 0.5200 
*I *43:d B *C 3.8950 0.5200 
*I *10:d B *C 3.8700 1.0950 
*I *11:d B *C 3.8700 1.0950 
*N *24:2 *C 3.8700 0.6750 

*CAP
0 *10:d 6.3583e-17
1 *41:d 2.94485e-17
2 *24:2 2.51975e-17
3 *24 3.20551e-17

*RES
0 *24:2 *24 0.086477  // $metal1_conn
1 *10:d *24:2 20.973644  // $metal1_conn
2 *24:2 *41:d 75.075119  // $metal1_conn

*END

*D_NET *49 0

*CONN
*I *29:s B *C 1.8875 0.5875 
*I *30:d B *C 1.8875 0.5875 


*RES
0 *30:d *29:s 0.001  // $mwires

*END

*D_NET *46 0

*CONN
*I *25:s B *C 0.9650 0.5875 
*I *26:d B *C 0.9650 0.5875 


*RES
0 *26:d *25:s 0.001  // $mwires

*END

*D_NET *44 0

*CONN
*I *51:d B *C 0.5200 0.5875 
*I *23:s B *C 0.5200 0.5875 


*RES
0 *23:s *51:d 0.001  // $mwires

*END

*D_NET *42 6.72891e-19

*CONN
*I *20:s B *C 1.9500 1.1625 
*I *22:d B *C 1.9500 1.1625 

*CAP
0 *20:s 6.72891e-19

*RES
0 *22:d *20:s 0.001  // $mwires

*END

*D_NET *40 3.60107e-19

*CONN
*I *16:s B *C 0.8675 1.1625 
*I *17:d B *C 0.8675 1.1625 

*CAP
0 *16:s 3.60107e-19

*RES
0 *17:d *16:s 0.001  // $mwires

*END

*D_NET *38 0

*CONN
*I *15:d B *C 0.5200 1.1625 
*I *14:s B *C 0.5200 1.1625 


*RES
0 *14:s *15:d 0.001  // $mwires

*END

*D_NET *36 1.02232e-15

*CONN
*I *37:g B *C 3.2075 0.5200 
*I *39:g B *C 3.4325 0.5200 
*I *45:g B *C 4.3525 0.5775 
*I *48:d B *C 2.3600 0.5575 
*I *30:g B *C 2.0025 0.5875 
*I *3:d B *C 2.3600 1.1850 
*I *7:g B *C 3.2075 1.0950 
*I *9:g B *C 3.4325 1.0950 
*I *12:g B *C 4.2075 1.0075 
*I *22:g B *C 2.0025 1.1625 
*N *36:1 *C 2.1250 0.9300 
*N *36:2 *C 2.0025 0.9300 
*N *36:14 *C 4.3800 0.3950 
*N *36:18 *C 2.3700 0.5150 
*N *36:19 *C 2.4000 0.9300 

*CAP
0 *22:g 6.18344e-17
1 *12:g 5.51062e-17
2 *9:g 4.19747e-16
3 *3:d 2.38733e-17
4 *30:g 4.03486e-17
5 *48:d 8.63073e-17
6 *45:g 2.11229e-17
7 *36:19 5.73305e-17
8 *36:2 2.88193e-17
9 *36:1 6.48849e-17
10 *36:14 1.62947e-16

*RES
0 *12:g *45:g 89.454025  // $poly_conn
1 *36:2 *22:g 26.97374  // $poly_conn
2 *45:g *36:14 64.691956  // $poly_conn
3 *36:2 *30:g 64.153229  // $poly_conn
4 *36:1 *36:2 52.613522  // $poly_conn
5 *9:g *36:14 0.959354  // $metal1_conn
6 *36:19 *36:1 0.214804  // $metal1_conn
7 *48:d *36:18 75  // $metal1_conn
8 *36:19 *3:d 62.082821  // $metal1_conn
9 *9:g *36:18 0.60567  // $metal1_conn
10 *36:18 *36:19 0.394636  // $metal1_conn

*END

*D_NET *34 8.69893e-16

*CONN
*I *35:d B *C 2.7550 0.5775 
*I *50:g B *C 0.2075 0.5875 
*I *23:g B *C 0.5725 0.5875 
*I *29:g B *C 1.7725 0.5875 
*I *5:d B *C 2.7550 1.0075 
*I *13:g B *C 0.2025 1.1625 
*I *16:g B *C 0.7775 1.1625 
*I *19:g B *C 1.6425 1.1625 
*N *34:5 *C 0.8150 1.3700 
*N *34:8 *C 1.6050 1.3700 
*N *34:10 *C 2.7300 1.0550 

*CAP
0 *19:g 4.90969e-17
1 *16:g 6.67182e-17
2 *13:g 4.98371e-17
3 *5:d 1.23134e-16
4 *29:g 7.13013e-17
5 *23:g 1.1109e-16
6 *50:g 5.65434e-17
7 *35:d 6.78742e-17
8 *34:5 1.01908e-16
9 *34:8 1.72391e-16

*RES
0 *13:g *50:g 100.247025  // $poly_conn
1 *50:g *23:g 187.080765  // $poly_conn
2 *23:g *16:g 139.209412  // $poly_conn
3 *16:g *34:5 61.15522  // $poly_conn
4 *29:g *19:g 122.787354  // $poly_conn
5 *19:g *34:8 61.15522  // $poly_conn
6 *34:10 *34:8 0.968889  // $metal1_conn
7 *34:8 *34:5 0.53659  // $metal1_conn
8 *34:10 *35:d 75.346199  // $metal1_conn
9 *5:d *34:10 62  // $metal1_conn

*END

*D_NET *33 8.58921e-16

*CONN
*I *50:d B *C 0.1150 0.5875 
*I *25:g B *C 0.9025 0.5875 
*I *28:g B *C 1.5375 0.5875 
*I *13:d B *C 0.1100 1.1625 
*I *14:g B *C 0.5725 1.1625 
*I *20:g B *C 1.8975 1.1625 
*N *33:2 *C 0.6100 0.8900 
*N *33:4 *C 0.8650 0.3000 
*N *33:6 *C 1.5100 0.8150 
*N *33:8 *C 1.7750 0.9300 
*N *33:9 *C 0.8650 0.4050 
*N *33:10 *C 0.5800 0.7650 
*N *33:11 *C 0.1050 0.7650 

*CAP
0 *20:g 5.88852e-17
1 *14:g 6.80254e-17
2 *13:d 3.42578e-17
3 *28:g 3.35199e-17
4 *25:g 5.91879e-17
5 *50:d 1.66488e-17
6 *33:11 4.47544e-17
7 *33:10 5.9407e-17
8 *33:9 1.05751e-16
9 *33:2 8.33677e-17
10 *33:4 4.17805e-17
11 *33:6 1.47061e-16
12 *33:8 1.06274e-16

*RES
0 *14:g *33:2 77.821884  // $poly_conn
1 *25:g *33:4 90.642395  // $poly_conn
2 *28:g *33:6 76.230415  // $poly_conn
3 *20:g *33:8 80.389862  // $poly_conn
4 *33:4 *33:9 0.037536  // $metal1_conn
5 *33:9 *33:10 0.459632  // $metal1_conn
6 *33:10 *33:11 0.305921  // $metal1_conn
7 *33:11 *13:d 62.252914  // $metal1_conn
8 *33:9 *33:6 0.749435  // $metal1_conn
9 *33:6 *33:8 0.237886  // $metal1_conn
10 *33:10 *33:2 0.092082  // $metal1_conn
11 *33:11 *50:d 75.112083  // $metal1_conn

*END

*D_NET *32 3.38855e-16

*CONN
*I *48:g B *C 2.2675 0.5575 
*I *28:d B *C 1.6550 0.5875 
*I *29:d B *C 1.6550 0.5875 
*I *3:g B *C 2.2675 1.1850 
*I *19:d B *C 1.7700 1.1625 
*I *20:d B *C 1.7700 1.1625 
*N *32:2 *C 2.2950 0.7700 
*N *32:5 *C 1.9350 0.7400 

*CAP
0 *19:d 5.1331e-17
1 *3:g 5.44533e-17
2 *28:d 5.50156e-17
3 *48:g 2.95005e-17
4 *32:5 5.79083e-17
5 *32:2 9.06465e-17

*RES
0 *3:g *32:2 58.153492  // $poly_conn
1 *32:2 *48:g 19.691952  // $poly_conn
2 *19:d *32:5 62.346531  // $metal1_conn
3 *32:5 *28:d 75.289215  // $metal1_conn
4 *32:5 *32:2 45.264378  // $metal1_conn

*END

*D_NET *8 3.01872e-16

*CONN
*I *23:d B *C 0.7375 0.5875 
*I *25:d B *C 0.7375 0.5875 
*I *27:g B *C 1.2225 0.5875 
*I *14:d B *C 0.6750 1.1625 
*I *16:d B *C 0.6750 1.1625 
*I *18:g B *C 1.2225 1.1625 
*N *8:2 *C 1.2225 0.7700 
*N *8:3 *C 1.1600 0.7700 
*N *8:5 *C 0.8000 0.7700 

*CAP
0 *18:g 4.71156e-17
1 *14:d 4.67904e-17
2 *27:g 3.22766e-17
3 *23:d 2.99971e-17
4 *8:5 5.13872e-17
5 *8:2 2.53361e-17
6 *8:3 6.89685e-17

*RES
0 *18:g *8:2 69.765884  // $poly_conn
1 *8:2 *8:3 46.195099  // $poly_conn
2 *8:2 *27:g 24.894089  // $poly_conn
3 *8:3 *8:5 0.242538  // $metal1_conn
4 *8:5 *14:d 62.301743  // $metal1_conn
5 *8:5 *23:d 75.123253  // $metal1_conn

*END

*D_NET *6 3.44735e-16

*CONN
*I *26:g B *C 1.0275 0.5875 
*I *27:d B *C 1.3800 0.5875 
*I *28:s B *C 1.3800 0.5875 
*I *17:g B *C 0.9575 1.1625 
*I *18:d B *C 1.4325 1.1625 
*I *19:s B *C 1.4325 1.1625 
*N *6:2 *C 0.9900 0.9550 
*N *6:5 *C 1.3500 0.9550 

*CAP
0 *18:d 2.26805e-17
1 *17:g 5.29669e-17
2 *27:d 5.64434e-17
3 *26:g 7.35397e-17
4 *6:5 4.81259e-17
5 *6:2 9.09785e-17

*RES
0 *26:g *6:2 68.425529  // $poly_conn
1 *6:2 *17:g 16.500214  // $poly_conn
2 *27:d *6:5 75.278671  // $metal1_conn
3 *6:5 *6:2 45.241272  // $metal1_conn
4 *6:5 *18:d 62.105812  // $metal1_conn

*END

*D_NET *4 2.8552e-16

*CONN
*I *41:g B *C 3.7675 0.5200 
*I *43:g B *C 4.0225 0.5200 
*I *45:d B *C 4.4875 0.5775 
*I *10:g B *C 3.7675 1.0950 
*I *11:g B *C 3.9725 1.0950 
*I *12:d B *C 4.3000 1.0075 
*N *4:8 *C 4.3100 0.8000 

*CAP
0 *12:d 1.45921e-17
1 *11:g 1.90551e-16
2 *45:d 3.30076e-17
3 *4:8 4.73692e-17

*RES
0 *4:8 *11:g 45.193893  // $metal1_conn
1 *12:d *4:8 62.088509  // $metal1_conn
2 *4:8 *45:d 75.279686  // $metal1_conn

*END

