*SPEF "IEEE 1481-1999"
*DESIGN  "DLY2X1"
*DATE "Mon Sep 27 09:42:49 2010"
*VENDOR "Cadence Design Systems"
*PROGRAM "Assura RCX"
*VERSION "3.2 Red Hat Linux release 7.2 (Enigma) - (09/09/2009-10:39)"
*DESIGN_FLOW "Physical Verification"
*DIVIDER /
*DELIMITER :
*BUS_DELIMITER []
*T_UNIT 1 PS
*C_UNIT 1e15 FF
*R_UNIT 1 OHM
*L_UNIT 1 MH
// DeviceFingerDelim "@"
// MATCHED
// caps2d version: 10

*NAME_MAP
*1 VDD
*2 mn8
*3 mn1
*4 mn2
*5 mn0
*6 mn3
*7 VSS
*8 mn4
*9 mn7
*10 mn5
*11 mn6
*12 A
*13 n7
*14 n9
*15 n11
*16 n6
*17 n8
*18 n10
*19 n0
*20 n1
*21 n3
*22 Y
*23 n2
*24 mp8
*25 n4
*26 mp1
*27 mp2
*28 mp0
*29 mp3
*30 mp4
*31 mp7
*32 mp5
*33 mp6

*GROUND_NETS VSS

*PORTS
*1 I
*7 I
*12 I
*22 O

*D_NET *1 1.18783e-15

*CONN
*P *1 I *C 0.1000 1.7100 
*I *4:g B *C 0.8475 0.4275 
*I *8:g B *C 1.9625 0.5875 
*I *11:g B *C 3.0375 0.5425 
*I *24:s B *C 0.6475 1.1125 
*I *26:s B *C 0.6475 1.1125 
*I *28:s B *C 1.6300 1.0975 
*I *29:s B *C 1.6300 1.0975 
*I *31:s B *C 2.6800 1.3125 
*I *32:s B *C 2.6800 1.3125 
*N *1:2 *C 0.7600 0.6050 
*N *1:4 *C 2.3850 0.7850 
*N *1:6 *C 2.9250 0.8800 
*N *1:7 *C 2.3850 0.8800 
*N *1:9 *C 2.6800 1.3600 
*N *1:10 *C 2.6000 1.7100 
*N *1:11 *C 2.6000 1.7100 
*N *1:12 *C 1.5150 1.7100 
*N *1:13 *C 0.9000 1.7100 
*N *1:14 *C 0.4825 1.7100 
*N *1:17 *C 0.4825 1.3350 

*CAP
0 *31:s 6.83551e-17
1 *28:s 2.51911e-17
2 *24:s 1.66353e-16
3 *11:g 4.50484e-17
4 *8:g 3.38701e-17
5 *4:g 3.63379e-17
6 *1:14 9.4023e-18
7 *1:12 3.75934e-17
8 *1:7 9.52746e-17
9 *1:10 3.16228e-16
10 *1:2 1.622e-16
11 *1:4 5.35699e-17
12 *1:6 1.29003e-16
13 *1 9.40039e-18

*RES
0 *4:g *1:2 69.534386  // $poly_conn
1 *8:g *1:4 163.906143  // $poly_conn
2 *11:g *1:6 110.865654  // $poly_conn
3 *1:6 *1:7 0.410769  // $metal1_conn
4 *1:7 *1:9 0.572602  // $metal1_conn
5 *1:9 *1:11 0.296724  // $metal1_conn
6 *1:11 *1:12 0.544459  // $metal1_conn
7 *1:12 *1:13 0.308525  // $metal1_conn
8 *1:13 *1:14 0.208699  // $metal1_conn
9 *1:14 *1 0.190878  // $metal1_conn
10 *1:7 *1:4 0.077109  // $metal1_conn
11 *1:12 *28:s 62.097599  // $metal1_conn
12 *1:14 *1:17 0.176807  // $metal1_conn
13 *1:17 *1:2 1.047642  // $metal1_conn
14 *31:s *1:9 62  // $metal1_conn
15 *1:10 *1:11 9.375  // $metal1_conn
16 *1:10 *1:13 8.333333  // $metal1_conn
17 *24:s *1:17 62  // $metal1_conn

*END

*D_NET *7 0

*CONN
*P *7 I *C 0.1000 0.0000 
*I *2:s B *C 0.5600 0.4275 
*I *3:s B *C 0.5600 0.4275 
*I *5:s B *C 1.5950 0.5875 
*I *6:s B *C 1.5950 0.5875 
*I *9:s B *C 2.7175 0.5425 
*I *10:s B *C 2.7175 0.5425 
*I *27:g B *C 0.9125 1.1125 
*I *30:g B *C 1.7825 1.0975 
*I *33:g B *C 2.8875 1.3125 
*N *7:2 *C 0.9500 0.7950 
*N *7:4 *C 1.8200 0.8900 
*N *7:5 *C 3.0000 1.0700 
*N *7:7 *C 2.7050 0.0000 
*N *7:8 *C 2.6000 0.0000 
*N *7:9 *C 2.6000 0.0000 
*N *7:10 *C 1.9050 0.0000 
*N *7:11 *C 1.4750 0.0000 
*N *7:12 *C 0.9000 0.0000 
*N *7:13 *C 0.5050 0.0000 


*RES
0 *27:g *7:2 89.360352  // $poly_conn
1 *30:g *7:4 61.15522  // $poly_conn
2 *7:5 *33:g 80.461746  // $poly_conn
3 *7:5 *7:7 1.108417  // $metal1_conn
4 *7:7 *7:9 0.052512  // $metal1_conn
5 *7:9 *7:10 0.348684  // $metal1_conn
6 *7:10 *7:11 0.214511  // $metal1_conn
7 *7:11 *7:12 0.28811  // $metal1_conn
8 *7:12 *7:13 0.198088  // $metal1_conn
9 *7:13 *7 0.202857  // $metal1_conn
10 *7:7 *9:s 75.361343  // $metal1_conn
11 *7:10 *7:4 0.65663  // $metal1_conn
12 *7:11 *5:s 75.04586  // $metal1_conn
13 *7:12 *7:2 0.559575  // $metal1_conn
14 *7:13 *2:s 75.264839  // $metal1_conn
15 *7:8 *7:9 7.75  // $metal1_conn
16 *7:8 *7:12 6.888889  // $metal1_conn

*END

*D_NET *12 1.92101e-16

*CONN
*P *12 I *C 1.5000 0.6650 
*I *5:g B *C 1.4125 0.5875 
*I *28:g B *C 1.4125 1.0975 
*N *12:1 *C 1.4700 0.7700 
*N *12:2 *C 1.4125 0.7700 

*CAP
0 *28:g 3.71141e-17
1 *5:g 3.16075e-17
2 *12:2 2.511e-17
3 *12:1 7.25383e-17
4 *12 2.57311e-17

*RES
0 *12:1 *12:2 45.778431  // $poly_conn
1 *12:2 *5:g 21.534737  // $poly_conn
2 *12:2 *28:g 49.739868  // $poly_conn
3 *12 *12:1 0.061027  // $metal1_conn

*END

*D_NET *22 2.06326e-16

*CONN
*P *22 O *C 0.1000 0.6650 
*I *2:d B *C 0.3100 0.4850 
*I *24:d B *C 0.3100 1.2000 

*CAP
0 *24:d 7.5933e-17
1 *2:d 4.27516e-17
2 *22 8.76418e-17

*RES
0 *24:d *22 31.548964  // $metal1_conn
1 *22 *2:d 75.273575  // $metal1_conn

*END

*D_NET *18 1.37631e-18

*CONN
*I *10:d B *C 2.9475 0.5425 
*I *11:s B *C 2.9475 0.5425 

*CAP
0 *10:d 1.37631e-18

*RES
0 *11:s *10:d 0.001  // $mwires

*END

*D_NET *17 5.90876e-18

*CONN
*I *6:d B *C 1.8200 0.5875 
*I *8:s B *C 1.8200 0.5875 

*CAP
0 *6:d 5.90876e-18

*RES
0 *8:s *6:d 0.001  // $mwires

*END

*D_NET *16 0

*CONN
*I *3:d B *C 0.7325 0.4275 
*I *4:s B *C 0.7325 0.4275 


*RES
0 *4:s *3:d 0.001  // $mwires

*END

*D_NET *15 1.58096e-18

*CONN
*I *32:d B *C 2.8350 1.3125 
*I *33:s B *C 2.8350 1.3125 

*CAP
0 *32:d 1.58096e-18

*RES
0 *33:s *32:d 0.001  // $mwires

*END

*D_NET *14 0

*CONN
*I *29:d B *C 1.7300 1.0975 
*I *30:s B *C 1.7300 1.0975 


*RES
0 *30:s *29:d 0.001  // $mwires

*END

*D_NET *13 1.85659e-18

*CONN
*I *26:d B *C 0.8325 1.1125 
*I *27:s B *C 0.8325 1.1125 

*CAP
0 *26:d 1.85659e-18

*RES
0 *27:s *26:d 0.001  // $mwires

*END

*D_NET *25 7.92458e-16

*CONN
*I *2:g B *C 0.4025 0.4850 
*I *9:d B *C 2.4400 0.5425 
*I *24:g B *C 0.4025 1.2000 
*I *31:d B *C 2.4850 1.3125 
*N *25:2 *C 0.4300 0.7950 
*N *25:5 *C 2.2250 1.3600 

*CAP
0 *31:d 4.76325e-17
1 *24:g 3.57452e-17
2 *9:d 1.34588e-16
3 *2:g 4.18601e-17
4 *25:5 2.53773e-16
5 *25:2 2.7886e-16

*RES
0 *24:g *25:2 45.332973  // $poly_conn
1 *25:2 *2:g 37.640671  // $poly_conn
2 *9:d *25:5 75.688652  // $metal1_conn
3 *25:5 *25:2 46.745892  // $metal1_conn
4 *25:5 *31:d 62.196762  // $metal1_conn

*END

*D_NET *23 6.44429e-16

*CONN
*I *8:d B *C 2.0550 0.5875 
*I *10:g B *C 2.8575 0.5425 
*I *30:d B *C 1.8750 1.0975 
*I *32:g B *C 2.7825 1.3125 
*N *23:3 *C 2.8950 0.3700 
*N *23:5 *C 2.0650 0.5750 

*CAP
0 *32:g 1.04709e-16
1 *30:d 7.61773e-17
2 *10:g 6.54957e-17
3 *8:d 1.9787e-16
4 *23:3 2.00176e-16

*RES
0 *32:g *10:g 158.684784  // $poly_conn
1 *10:g *23:3 61.15522  // $poly_conn
2 *23:3 *23:5 1.248337  // $metal1_conn
3 *23:5 *30:d 62.492413  // $metal1_conn
4 *8:d *23:5 75  // $metal1_conn

*END

*D_NET *21 4.12437e-16

*CONN
*I *9:g B *C 2.5775 0.5425 
*I *11:d B *C 3.1825 0.5425 
*I *31:g B *C 2.5775 1.3125 
*I *33:d B *C 2.9800 1.3125 
*N *21:2 *C 2.6150 1.0400 
*N *21:5 *C 2.9900 1.2650 

*CAP
0 *33:d 1.04248e-16
1 *31:g 3.54005e-17
2 *11:d 9.81204e-17
3 *9:g 5.13961e-17
4 *21:2 1.23272e-16

*RES
0 *31:g *21:2 32.821884  // $poly_conn
1 *21:2 *9:g 99.488556  // $poly_conn
2 *21:2 *21:5 45.435574  // $metal1_conn
3 *21:5 *11:d 75.752525  // $metal1_conn
4 *33:d *21:5 62  // $metal1_conn

*END

*D_NET *20 3.84247e-16

*CONN
*I *4:d B *C 1.0200 0.4275 
*I *6:g B *C 1.6775 0.5875 
*I *27:d B *C 1.0050 1.1125 
*I *29:g B *C 1.6775 1.0975 
*N *20:3 *C 1.7150 0.4100 
*N *20:5 *C 1.1100 0.4400 

*CAP
0 *29:g 8.65749e-17
1 *27:d 8.29124e-17
2 *6:g 2.90591e-17
3 *4:d 1.0997e-16
4 *20:3 7.57305e-17

*RES
0 *29:g *6:g 84.615387  // $poly_conn
1 *6:g *20:3 62.437271  // $poly_conn
2 *20:3 *20:5 0.41794  // $metal1_conn
3 *20:5 *27:d 62.532234  // $metal1_conn
4 *4:d *20:5 75  // $metal1_conn

*END

*D_NET *19 4.70296e-16

*CONN
*I *3:g B *C 0.6175 0.4275 
*I *5:d B *C 1.3200 0.5875 
*I *26:g B *C 0.7525 1.1125 
*I *28:d B *C 1.3200 1.0975 
*N *19:2 *C 0.7800 0.8950 
*N *19:5 *C 1.3100 1.0500 

*CAP
0 *28:d 1.42927e-16
1 *26:g 3.38519e-17
2 *5:d 6.38304e-17
3 *3:g 6.61057e-17
4 *19:2 1.6358e-16

*RES
0 *26:g *19:2 16.530041  // $poly_conn
1 *19:2 *3:g 117.933517  // $poly_conn
2 *19:5 *19:2 45.753654  // $metal1_conn
3 *19:5 *5:d 75.378593  // $metal1_conn
4 *28:d *19:5 62  // $metal1_conn

*END

