*SPEF "IEEE 1481-1999"
*DESIGN  "DLY2X4"
*DATE "Mon Sep 27 09:43:12 2010"
*VENDOR "Cadence Design Systems"
*PROGRAM "Assura RCX"
*VERSION "3.2 Red Hat Linux release 7.2 (Enigma) - (09/09/2009-10:39)"
*DESIGN_FLOW "Physical Verification"
*DIVIDER /
*DELIMITER :
*BUS_DELIMITER []
*T_UNIT 1 PS
*C_UNIT 1e15 FF
*R_UNIT 1 OHM
*L_UNIT 1 MH
// DeviceFingerDelim "@"
// MATCHED
// caps2d version: 10

*NAME_MAP
*1 mn7
*2 mn5
*3 mn6
*4 mp8\@3
*5 VDD
*6 mp1
*7 mp2
*8 VSS
*9 Y
*10 n7
*11 n9
*12 n11
*13 n6
*14 n8
*15 n10
*16 mn8
*17 n0
*18 mn8\@1
*19 n3
*20 mn8\@2
*21 n1
*22 mn8\@3
*23 n2
*24 mn1
*25 n4
*26 mn2
*27 mn0
*28 mn3
*29 mn4
*30 mp0
*31 mp3
*32 mp4
*33 mp7
*34 mp5
*35 mp6
*36 mp8
*37 mp8\@1
*38 mp8\@2
*39 A

*GROUND_NETS VSS

*PORTS
*5 I
*8 I
*39 I
*9 O

*D_NET *5 1.18494e-15

*CONN
*P *5 I *C 0.1000 1.7100 
*I *26:g B *C 1.4425 0.4275 
*I *29:g B *C 2.5575 0.5875 
*I *3:g B *C 3.6925 0.4725 
*I *30:s B *C 2.2250 1.1175 
*I *31:s B *C 2.2250 1.1175 
*I *33:s B *C 3.2425 1.2075 
*I *34:s B *C 3.2425 1.2075 
*I *36:s B *C 0.2000 1.1400 
*I *37:s B *C 0.6000 1.1400 
*I *38:s B *C 0.6000 1.1400 
*I *4:s B *C 1.1525 1.0525 
*I *6:s B *C 1.1525 1.0525 
*N *5:2 *C 1.3550 0.6050 
*N *5:4 *C 3.0100 0.7850 
*N *5:6 *C 3.5500 0.8100 
*N *5:8 *C 3.0400 1.4000 
*N *5:9 *C 3.0000 1.7100 
*N *5:10 *C 3.0000 1.7100 
*N *5:11 *C 2.1400 1.7100 

*CAP
0 *4:s 2.92199e-16
1 *33:s 6.17505e-17
2 *30:s 1.11216e-17
3 *3:g 4.9294e-17
4 *29:g 3.60523e-17
5 *26:g 3.77999e-17
6 *5:11 3.81532e-17
7 *5:9 2.85588e-16
8 *5:2 1.31904e-16
9 *5:4 1.33511e-16
10 *5:6 1.07566e-16

*RES
0 *3:g *5:6 123.507889  // $poly_conn
1 *29:g *5:4 171.59845  // $poly_conn
2 *26:g *5:2 69.534386  // $poly_conn
3 *4:s *5 0.044694  // $metal1_conn
4 *5:6 *5:4 0.411629  // $metal1_conn
5 *5:4 *5:8 0.455727  // $metal1_conn
6 *4:s *5:2 0.875833  // $metal1_conn
7 *5:9 *5:10 7.5  // $metal1_conn
8 *5:9 *4:s 7.5  // $metal1_conn
9 *33:s *5:8 62  // $metal1_conn
10 *5:11 *30:s 62.074837  // $metal1_conn
11 *5:8 *5:10 0.17102  // $metal1_conn
12 *5:10 *5:11 0.431223  // $metal1_conn
13 *5:11 *4:s 0.571685  // $metal1_conn

*END

*D_NET *8 0

*CONN
*P *8 I *C 0.1000 0.0000 
*I *16:s B *C 0.2000 0.4850 
*I *18:s B *C 0.6000 0.4850 
*I *20:s B *C 0.6000 0.4850 
*I *22:s B *C 1.1600 0.4275 
*I *24:s B *C 1.1600 0.4275 
*I *27:s B *C 2.1900 0.5875 
*I *28:s B *C 2.1900 0.5875 
*I *1:s B *C 3.3825 0.4725 
*I *2:s B *C 3.3825 0.4725 
*I *32:g B *C 2.3775 1.1175 
*I *35:g B *C 3.5125 1.2075 
*I *7:g B *C 1.4175 1.0525 
*N *8:1 *C 1.4750 0.7650 
*N *8:4 *C 2.4050 0.9000 
*N *8:6 *C 3.5500 1.0000 
*N *8:7 *C 3.3600 0.0000 
*N *8:8 *C 3.0000 0.0000 
*N *8:9 *C 3.0000 0.0000 
*N *8:10 *C 2.5000 0.0000 
*N *8:11 *C 2.0700 0.0000 
*N *8:12 *C 1.5450 0.0000 


*RES
0 *35:g *8:6 61.15522  // $poly_conn
1 *32:g *8:4 64.691956  // $poly_conn
2 *8:1 *7:g 86.244888  // $poly_conn
3 *22:s *8 0.044694  // $metal1_conn
4 *8:6 *8:7 1.04195  // $metal1_conn
5 *8:10 *8:4 0.68496  // $metal1_conn
6 *8:12 *8:1 0.57012  // $metal1_conn
7 *8:8 *8:9 6.2  // $metal1_conn
8 *8:8 *22:s 6.2  // $metal1_conn
9 *8:7 *1:s 75.312065  // $metal1_conn
10 *8:11 *27:s 75.04583  // $metal1_conn
11 *8:7 *8:9 0.180398  // $metal1_conn
12 *8:9 *8:10 0.250629  // $metal1_conn
13 *8:10 *8:11 0.214367  // $metal1_conn
14 *8:11 *8:12 0.262024  // $metal1_conn
15 *8:12 *22:s 0.217826  // $metal1_conn

*END

*D_NET *39 1.88272e-16

*CONN
*P *39 I *C 2.1000 0.6650 
*I *27:g B *C 2.0075 0.5875 
*I *30:g B *C 2.0075 1.1175 
*N *39:1 *C 2.0650 0.9000 
*N *39:2 *C 2.0075 0.9000 

*CAP
0 *30:g 3.41966e-17
1 *27:g 3.62483e-17
2 *39:2 2.66637e-17
3 *39:1 5.80083e-17
4 *39 3.31557e-17

*RES
0 *39:1 *39:2 45.778431  // $poly_conn
1 *39:2 *27:g 54.868069  // $poly_conn
2 *39:2 *30:g 21.534737  // $poly_conn
3 *39 *39:1 0.141184  // $metal1_conn

*END

*D_NET *9 3.01678e-16

*CONN
*P *9 O *C 0.5000 0.6650 
*I *16:d B *C 0.3950 0.4850 
*I *18:d B *C 0.3950 0.4850 
*I *20:d B *C 0.8550 0.4850 
*I *22:d B *C 0.8550 0.4850 
*I *36:d B *C 0.3950 1.1400 
*I *37:d B *C 0.3950 1.1400 
*I *38:d B *C 0.8050 1.1400 
*I *4:d B *C 0.8050 1.1400 

*CAP
0 *9 3.01678e-16


*END

*D_NET *15 1.37378e-18

*CONN
*I *2:d B *C 3.6025 0.4725 
*I *3:s B *C 3.6025 0.4725 

*CAP
0 *2:d 1.37378e-18

*RES
0 *3:s *2:d 0.001  // $mwires

*END

*D_NET *14 1.61637e-18

*CONN
*I *28:d B *C 2.4150 0.5875 
*I *29:s B *C 2.4150 0.5875 

*CAP
0 *28:d 1.61637e-18

*RES
0 *29:s *28:d 0.001  // $mwires

*END

*D_NET *13 0

*CONN
*I *24:d B *C 1.3275 0.4275 
*I *26:s B *C 1.3275 0.4275 


*RES
0 *26:s *24:d 0.001  // $mwires

*END

*D_NET *12 2.16144e-18

*CONN
*I *34:d B *C 3.4600 1.2075 
*I *35:s B *C 3.4600 1.2075 

*CAP
0 *34:d 2.16144e-18

*RES
0 *35:s *34:d 0.001  // $mwires

*END

*D_NET *11 0

*CONN
*I *31:d B *C 2.3250 1.1175 
*I *32:s B *C 2.3250 1.1175 


*RES
0 *32:s *31:d 0.001  // $mwires

*END

*D_NET *10 1.82107e-18

*CONN
*I *6:d B *C 1.3375 1.0525 
*I *7:s B *C 1.3375 1.0525 

*CAP
0 *6:d 1.82107e-18

*RES
0 *7:s *6:d 0.001  // $mwires

*END

*D_NET *25 8.11122e-16

*CONN
*I *16:g B *C 0.2925 0.4850 
*I *18:g B *C 0.4975 0.4850 
*I *20:g B *C 0.7025 0.4850 
*I *22:g B *C 1.0075 0.4850 
*I *1:d B *C 3.0400 0.5300 
*I *33:d B *C 2.8450 1.2650 
*I *36:g B *C 0.2925 1.1400 
*I *37:g B *C 0.4975 1.1400 
*I *38:g B *C 0.7025 1.1400 
*I *4:g B *C 0.9075 1.1400 
*N *25:1 *C 1.0800 0.7950 
*N *25:17 *C 2.8350 1.2650 

*CAP
0 *4:g 2.07974e-16
1 *33:d 2.2977e-16
2 *1:d 1.16647e-16
3 *25:1 2.56731e-16

*RES
0 *25:1 *4:g 47.980461  // $poly_conn
1 *25:17 *25:1 1.665487  // $metal1_conn
2 *33:d *25:17 20.666666  // $metal1_conn
3 *1:d *25:17 75.653519  // $metal1_conn

*END

*D_NET *23 6.0279e-16

*CONN
*I *29:d B *C 2.6500 0.5875 
*I *2:g B *C 3.5125 0.4725 
*I *32:d B *C 2.4700 1.1175 
*I *34:g B *C 3.4075 1.2075 
*N *23:3 *C 3.5500 0.3000 
*N *23:5 *C 2.6600 0.5750 

*CAP
0 *34:g 9.69445e-17
1 *32:d 9.19191e-17
2 *2:g 5.38733e-17
3 *29:d 1.84104e-16
4 *23:3 1.75949e-16

*RES
0 *34:g *2:g 157.40274  // $poly_conn
1 *2:g *23:3 61.15522  // $poly_conn
2 *23:3 *23:5 1.133053  // $metal1_conn
3 *23:5 *32:d 62.516186  // $metal1_conn
4 *29:d *23:5 75  // $metal1_conn

*END

*D_NET *21 4.03616e-16

*CONN
*I *26:d B *C 1.6150 0.4275 
*I *28:g B *C 2.2725 0.5875 
*I *31:g B *C 2.2725 1.1175 
*I *7:d B *C 1.5100 1.0525 
*N *21:3 *C 2.3100 0.4100 
*N *21:5 *C 1.7050 0.4400 
*N *21:7 *C 1.5200 1.0050 

*CAP
0 *7:d 9.74064e-17
1 *31:g 9.21714e-17
2 *28:g 2.57849e-17
3 *26:d 1.09983e-16
4 *21:3 7.82703e-17

*RES
0 *31:g *28:g 89.743584  // $poly_conn
1 *28:g *21:3 62.437271  // $poly_conn
2 *21:3 *21:5 0.415282  // $metal1_conn
3 *21:5 *21:7 0.533015  // $metal1_conn
4 *26:d *21:5 75  // $metal1_conn
5 *7:d *21:7 62  // $metal1_conn

*END

*D_NET *19 4.11987e-16

*CONN
*I *1:g B *C 3.1525 0.5300 
*I *3:d B *C 3.8375 0.4725 
*I *33:g B *C 2.9375 1.2650 
*I *35:d B *C 3.6050 1.2075 
*N *19:2 *C 3.2000 1.0000 
*N *19:6 *C 3.6150 1.1900 

*CAP
0 *35:d 1.00025e-16
1 *33:g 4.58414e-17
2 *3:d 9.2439e-17
3 *1:g 6.38446e-17
4 *19:2 1.09837e-16

*RES
0 *1:g *19:2 78.372368  // $poly_conn
1 *19:2 *33:g 75.343773  // $poly_conn
2 *3:d *19:6 75.732628  // $metal1_conn
3 *19:6 *19:2 45.42107  // $metal1_conn
4 *35:d *19:6 62  // $metal1_conn

*END

*D_NET *17 4.51533e-16

*CONN
*I *24:g B *C 1.2125 0.4275 
*I *27:d B *C 1.9150 0.5875 
*I *30:d B *C 1.9150 1.1175 
*I *6:g B *C 1.2575 1.0525 
*N *17:2 *C 1.2850 0.8350 
*N *17:5 *C 1.9050 1.0700 

*CAP
0 *6:g 3.56027e-17
1 *30:d 1.43312e-16
2 *27:d 6.29099e-17
3 *24:g 5.59572e-17
4 *17:2 1.53751e-16

*RES
0 *6:g *17:2 16.530041  // $poly_conn
1 *17:2 *24:g 79.47197  // $poly_conn
2 *17:5 *17:2 45.743961  // $metal1_conn
3 *17:5 *27:d 75.314529  // $metal1_conn
4 *30:d *17:5 62  // $metal1_conn

*END

