*SPEF "IEEE 1481-1999"
*DESIGN  "DLY3X4"
*DATE "Mon Sep 27 09:43:58 2010"
*VENDOR "Cadence Design Systems"
*PROGRAM "Assura RCX"
*VERSION "3.2 Red Hat Linux release 7.2 (Enigma) - (09/09/2009-10:39)"
*DESIGN_FLOW "Physical Verification"
*DIVIDER /
*DELIMITER :
*BUS_DELIMITER []
*T_UNIT 1 PS
*C_UNIT 1e15 FF
*R_UNIT 1 OHM
*L_UNIT 1 MH
// DeviceFingerDelim "@"
// MATCHED
// caps2d version: 10

*NAME_MAP
*1 Y
*2 mp1
*3 mp3
*4 mp4
*5 mp0
*6 mp5
*7 mp6
*8 mp12\@3
*9 VDD
*10 mn12
*11 mn12\@1
*12 mn7
*13 mn8
*14 mn11
*15 VSS
*16 mn9
*17 mp12
*18 mn10
*19 mp12\@1
*20 mn2
*21 mp12\@2
*22 mn1
*23 mp7
*24 mp8
*25 mp11
*26 n4
*27 mp9
*28 n3
*29 mp10
*30 n8
*31 mp2
*32 n10
*33 n12
*34 n14
*35 n16
*36 n7
*37 n9
*38 n11
*39 n13
*40 n15
*41 A
*42 mn3
*43 mn4
*44 mn0
*45 mn5
*46 mn6
*47 n1
*48 mn12\@2
*49 n5
*50 mn12\@3
*51 n2
*52 n0
*53 n6

*GROUND_NETS VSS

*PORTS
*9 I
*15 I
*41 I
*1 O

*D_NET *9 1.52497e-15

*CONN
*P *9 I *C 0.1000 1.7100 
*I *13:g B *C 3.7575 0.4925 
*I *18:g B *C 4.8175 0.3825 
*I *20:g B *C 0.5125 0.3975 
*I *43:g B *C 0.9275 0.3975 
*I *46:g B *C 1.9375 0.5875 
*I *17:s B *C 2.7750 1.0950 
*I *19:s B *C 2.7750 1.0950 
*I *21:s B *C 3.3275 1.0725 
*I *23:s B *C 3.3275 1.0725 
*I *25:s B *C 4.4750 1.1325 
*I *27:s B *C 4.4750 1.1325 
*I *2:s B *C 0.6200 1.1025 
*I *3:s B *C 0.6200 1.1025 
*I *5:s B *C 1.6550 1.1325 
*I *6:s B *C 1.6550 1.1325 
*I *8:s B *C 2.3950 1.0950 
*N *9:2 *C 0.4750 0.6300 
*N *9:4 *C 0.8800 0.7350 
*N *9:6 *C 1.9000 0.9250 
*N *9:8 *C 4.2100 0.6900 
*N *9:10 *C 4.7650 0.7200 
*N *9:11 *C 4.2900 0.6900 
*N *9:13 *C 4.2900 1.2500 
*N *9:14 *C 4.3000 1.7100 
*N *9:15 *C 4.3000 1.7100 
*N *9:20 *C 1.8700 1.7100 
*N *9:21 *C 1.6550 1.7100 
*N *9:22 *C 0.9000 1.7100 
*N *9:23 *C 0.6750 1.7100 
*N *9:29 *C 0.6200 1.1500 

*CAP
0 *5:s 4.00339e-17
1 *2:s 7.02135e-17
2 *25:s 4.1135e-17
3 *21:s 2.10934e-16
4 *46:g 5.92509e-17
5 *43:g 5.64693e-17
6 *20:g 5.18063e-17
7 *18:g 4.29729e-17
8 *13:g 4.22615e-17
9 *9:23 7.45597e-18
10 *9:21 1.7411e-17
11 *9:20 5.8258e-18
12 *9:11 8.53335e-17
13 *9:14 2.9158e-16
14 *9:2 1.06051e-16
15 *9:4 1.10565e-16
16 *9:6 8.64968e-17
17 *9:8 6.26271e-17
18 *9:10 1.27785e-16
19 *9 8.76465e-18

*RES
0 *18:g *9:10 108.433891  // $poly_conn
1 *13:g *9:8 171.59845  // $poly_conn
2 *46:g *9:6 103.462914  // $poly_conn
3 *43:g *9:4 103.462914  // $poly_conn
4 *20:g *9:2 76.539833  // $poly_conn
5 *9:23 *9 0.288002  // $metal1_conn
6 *9:11 *9:10 0.379569  // $metal1_conn
7 *9:8 *9:11 0.066218  // $metal1_conn
8 *9:20 *9:6 0.504367  // $metal1_conn
9 *9:4 *9:2 0.327852  // $metal1_conn
10 *9:29 *9:4 0.397565  // $metal1_conn
11 *9:14 *9:15 8.333333  // $metal1_conn
12 *9:14 *21:s 9.375  // $metal1_conn
13 *9:14 *9:22 8.333333  // $metal1_conn
14 *25:s *9:13 62  // $metal1_conn
15 *9:21 *5:s 62.39262  // $metal1_conn
16 *2:s *9:29 62  // $metal1_conn
17 *9:11 *9:13 0.394597  // $metal1_conn
18 *9:13 *9:15 0.276363  // $metal1_conn
19 *9:15 *21:s 0.559144  // $metal1_conn
20 *21:s *9:20 0.247925  // $metal1_conn
21 *9:20 *9:21 0.107463  // $metal1_conn
22 *9:21 *9:22 0.37855  // $metal1_conn
23 *9:22 *9:23 0.112675  // $metal1_conn
24 *9:23 *9:29 0.353719  // $metal1_conn

*END

*D_NET *15 0

*CONN
*P *15 I *C 0.1000 0.0000 
*I *10:s B *C 2.8200 0.4350 
*I *11:s B *C 3.3225 0.4925 
*I *12:s B *C 3.3225 0.4925 
*I *14:s B *C 4.5450 0.3825 
*I *16:s B *C 4.5450 0.3825 
*I *22:s B *C 0.7200 0.3975 
*I *42:s B *C 0.7200 0.3975 
*I *44:s B *C 1.7050 0.5875 
*I *45:s B *C 1.7050 0.5875 
*I *48:s B *C 2.3250 0.4350 
*I *50:s B *C 2.8200 0.4350 
*I *24:g B *C 3.5775 1.0725 
*I *29:g B *C 4.7275 1.1325 
*I *31:g B *C 0.3375 1.1025 
*I *4:g B *C 1.0775 1.1025 
*I *7:g B *C 2.0625 1.1325 
*N *15:2 *C 0.2850 0.8000 
*N *15:4 *C 1.0400 0.8950 
*N *15:6 *C 2.0900 0.8050 
*N *15:7 *C 3.6900 0.8300 
*N *15:9 *C 4.9250 0.8900 
*N *15:11 *C 4.4850 0.0000 
*N *15:12 *C 4.3000 0.0000 
*N *15:13 *C 4.3000 0.0000 
*N *15:14 *C 3.7000 0.0000 
*N *15:19 *C 1.9750 0.0000 
*N *15:20 *C 1.6150 0.0000 
*N *15:21 *C 0.9000 0.0000 
*N *15:22 *C 0.7200 0.0000 
*N *15:23 *C 0.2850 0.0000 


*RES
0 *15:9 *29:g 105.241211  // $poly_conn
1 *15:7 *24:g 83.446335  // $poly_conn
2 *7:g *15:6 92.897079  // $poly_conn
3 *4:g *15:4 61.15522  // $poly_conn
4 *31:g *15:2 89.015564  // $poly_conn
5 *15:23 *15 0.092358  // $metal1_conn
6 *15:9 *15:11 0.908779  // $metal1_conn
7 *15:14 *15:7 0.614852  // $metal1_conn
8 *15:19 *15:6 0.58199  // $metal1_conn
9 *15:21 *15:4 0.759233  // $metal1_conn
10 *15:23 *15:2 0.565312  // $metal1_conn
11 *15:12 *15:13 6.888889  // $metal1_conn
12 *15:12 *11:s 7.75  // $metal1_conn
13 *15:12 *15:21 6.888889  // $metal1_conn
14 *15:11 *14:s 75.238823  // $metal1_conn
15 *15:20 *44:s 75.04583  // $metal1_conn
16 *15:22 *22:s 75.262962  // $metal1_conn
17 *15:11 *15:13 0.092609  // $metal1_conn
18 *15:13 *15:14 0.300794  // $metal1_conn
19 *15:14 *11:s 0.190235  // $metal1_conn
20 *11:s *15:19 0.087397  // $metal1_conn
21 *15:19 *15:20 0.179252  // $metal1_conn
22 *15:20 *15:21 0.357534  // $metal1_conn
23 *15:21 *15:22 0.090101  // $metal1_conn
24 *15:22 *15:23 0.217826  // $metal1_conn

*END

*D_NET *41 2.03602e-16

*CONN
*P *41 I *C 1.7000 0.6650 
*I *44:g B *C 1.5525 0.5875 
*I *5:g B *C 1.5525 1.1325 
*N *41:1 *C 1.6100 0.7600 
*N *41:2 *C 1.5525 0.7600 

*CAP
0 *5:g 3.40776e-17
1 *44:g 3.11439e-17
2 *41:2 3.43476e-17
3 *41:1 6.10887e-17
4 *41 4.2944e-17

*RES
0 *41:1 *41:2 45.794373  // $poly_conn
1 *41:2 *44:g 20.563484  // $poly_conn
2 *41:2 *5:g 62.871178  // $poly_conn
3 *41:1 *41 0.072094  // $metal1_conn

*END

*D_NET *1 3.0054e-16

*CONN
*P *1 O *C 2.5000 0.6650 
*I *10:d B *C 2.9700 0.4350 
*I *11:d B *C 2.9700 0.4350 
*I *48:d B *C 2.5000 0.4350 
*I *50:d B *C 2.5000 0.4350 
*I *17:d B *C 2.5700 1.0950 
*I *19:d B *C 2.9800 1.0950 
*I *21:d B *C 2.9800 1.0950 
*I *8:d B *C 2.5700 1.0950 

*CAP
0 *1 3.0054e-16


*END

*D_NET *40 1.91862e-19

*CONN
*I *16:d B *C 4.7275 0.3825 
*I *18:s B *C 4.7275 0.3825 

*CAP
0 *16:d 1.91862e-19

*RES
0 *18:s *16:d 0.001  // $mwires

*END

*D_NET *39 3.94998e-18

*CONN
*I *12:d B *C 3.6150 0.4925 
*I *13:s B *C 3.6150 0.4925 

*CAP
0 *12:d 3.94998e-18

*RES
0 *13:s *12:d 0.001  // $mwires

*END

*D_NET *38 1.09889e-18

*CONN
*I *45:d B *C 1.8475 0.5875 
*I *46:s B *C 1.8475 0.5875 

*CAP
0 *45:d 1.09889e-18

*RES
0 *46:s *45:d 0.001  // $mwires

*END

*D_NET *37 7.26019e-19

*CONN
*I *42:d B *C 0.8750 0.3975 
*I *43:s B *C 0.8750 0.3975 

*CAP
0 *42:d 7.26019e-19

*RES
0 *43:s *42:d 0.001  // $mwires

*END

*D_NET *36 0

*CONN
*I *20:s B *C 0.5650 0.3975 
*I *22:d B *C 0.5650 0.3975 


*RES
0 *22:d *20:s 0.001  // $mwires

*END

*D_NET *35 0

*CONN
*I *27:d B *C 4.6750 1.1325 
*I *29:s B *C 4.6750 1.1325 


*RES
0 *29:s *27:d 0.001  // $mwires

*END

*D_NET *34 0

*CONN
*I *23:d B *C 3.5250 1.0725 
*I *24:s B *C 3.5250 1.0725 


*RES
0 *24:s *23:d 0.001  // $mwires

*END

*D_NET *33 2.63102e-18

*CONN
*I *6:d B *C 1.9100 1.1325 
*I *7:s B *C 1.9100 1.1325 

*CAP
0 *6:d 2.63102e-18

*RES
0 *7:s *6:d 0.001  // $mwires

*END

*D_NET *32 1.46575e-18

*CONN
*I *3:d B *C 0.9000 1.1025 
*I *4:s B *C 0.9000 1.1025 

*CAP
0 *3:d 1.46575e-18

*RES
0 *4:s *3:d 0.001  // $mwires

*END

*D_NET *30 3.4105e-18

*CONN
*I *31:s B *C 0.4275 1.1025 
*I *2:d B *C 0.4275 1.1025 

*CAP
0 *31:s 3.4105e-18

*RES
0 *2:d *31:s 0.001  // $mwires

*END

*D_NET *28 5.88188e-16

*CONN
*I *12:g B *C 3.4725 0.4925 
*I *46:d B *C 2.0775 0.5875 
*I *23:g B *C 3.4725 1.0725 
*I *7:d B *C 2.2050 1.0850 
*N *28:3 *C 3.5100 0.3200 
*N *28:4 *C 2.2500 0.5750 

*CAP
0 *7:d 4.93264e-17
1 *23:g 7.72913e-17
2 *46:d 2.98911e-17
3 *12:g 2.1884e-17
4 *28:4 1.90292e-16
5 *28:3 2.19503e-16

*RES
0 *23:g *12:g 102.564102  // $poly_conn
1 *12:g *28:3 61.15522  // $poly_conn
2 *28:3 *28:4 1.512408  // $metal1_conn
3 *28:4 *46:d 75.060349  // $metal1_conn
4 *28:4 *7:d 62.381851  // $metal1_conn

*END

*D_NET *26 6.16568e-16

*CONN
*I *13:d B *C 3.8500 0.4925 
*I *16:g B *C 4.6375 0.3825 
*I *24:d B *C 3.6700 1.0725 
*I *27:g B *C 4.6225 1.1325 
*N *26:3 *C 4.6750 0.2100 
*N *26:5 *C 3.8600 0.4800 

*CAP
0 *27:g 1.00967e-16
1 *24:d 9.6858e-17
2 *16:g 5.79704e-17
3 *13:d 1.93834e-16
4 *26:3 1.66938e-16

*RES
0 *27:g *16:g 144.355896  // $poly_conn
1 *16:g *26:3 66.126205  // $poly_conn
2 *26:3 *26:5 1.028489  // $metal1_conn
3 *26:5 *24:d 62.562195  // $metal1_conn
4 *13:d *26:5 75  // $metal1_conn

*END

*D_NET *53 5.96099e-16

*CONN
*I *10:g B *C 2.8675 0.4350 
*I *11:g B *C 3.0725 0.4350 
*I *14:d B *C 4.1725 0.4400 
*I *48:g B *C 2.3975 0.4350 
*I *50:g B *C 2.6025 0.4350 
*I *17:g B *C 2.6725 1.0950 
*I *19:g B *C 2.8775 1.0950 
*I *21:g B *C 3.0825 1.0950 
*I *25:d B *C 4.0950 1.1150 
*I *8:g B *C 2.4675 1.0950 
*N *53:9 *C 3.1700 0.8000 
*N *53:16 *C 4.0850 1.1150 

*CAP
0 *25:d 1.45965e-16
1 *21:g 2.13307e-16
2 *14:d 1.02209e-16
3 *53:9 1.34618e-16

*RES
0 *21:g *53:9 51.901733  // $poly_conn
1 *53:9 *53:16 0.983895  // $metal1_conn
2 *25:d *53:16 20.666666  // $metal1_conn
3 *53:16 *14:d 75.422813  // $metal1_conn

*END

*D_NET *52 4.86468e-16

*CONN
*I *22:g B *C 0.6175 0.3975 
*I *44:d B *C 1.4450 0.5875 
*I *2:g B *C 0.5175 1.1025 
*I *5:d B *C 1.4600 1.1325 
*N *52:1 *C 0.8650 1.3850 
*N *52:6 *C 1.4500 1.0850 

*CAP
0 *5:d 1.02379e-16
1 *2:g 1.10441e-16
2 *44:d 7.0372e-17
3 *22:g 9.87231e-17
4 *52:1 1.04553e-16

*RES
0 *52:1 *2:g 171.59845  // $poly_conn
1 *2:g *22:g 148.428375  // $poly_conn
2 *44:d *52:6 75.390961  // $metal1_conn
3 *52:6 *52:1 0.606963  // $metal1_conn
4 *5:d *52:6 62  // $metal1_conn

*END

*D_NET *51 4.02335e-16

*CONN
*I *43:d B *C 1.0250 0.3975 
*I *45:g B *C 1.7575 0.5875 
*I *4:d B *C 1.1700 1.1025 
*I *6:g B *C 1.7575 1.1325 
*N *51:3 *C 1.7850 0.4150 
*N *51:4 *C 1.2350 0.4150 

*CAP
0 *6:g 5.8404e-17
1 *4:d 7.89273e-17
2 *45:g 5.26577e-17
3 *43:d 4.09953e-17
4 *51:4 8.76884e-17
5 *51:3 8.36622e-17

*RES
0 *6:g *45:g 93.589745  // $poly_conn
1 *45:g *51:3 61.15522  // $poly_conn
2 *51:3 *51:4 0.397101  // $metal1_conn
3 *51:4 *43:d 75.1399  // $metal1_conn
4 *51:4 *4:d 62.523075  // $metal1_conn

*END

*D_NET *49 3.95871e-16

*CONN
*I *14:g B *C 4.3525 0.4400 
*I *18:d B *C 4.9775 0.3825 
*I *25:g B *C 4.1875 1.1150 
*I *29:d B *C 4.8200 1.1325 
*N *49:2 *C 4.3525 0.8225 
*N *49:4 *C 4.4800 0.8500 
*N *49:7 *C 4.8300 1.0850 

*CAP
0 *29:d 9.71047e-17
1 *25:g 4.91162e-17
2 *18:d 8.83112e-17
3 *14:g 4.68687e-17
4 *49:2 2.60532e-17
5 *49:4 8.84172e-17

*RES
0 *14:g *49:2 60.235458  // $poly_conn
1 *49:2 *25:g 59.858898  // $poly_conn
2 *49:2 *49:4 67.644348  // $poly_conn
3 *18:d *49:7 75.688042  // $metal1_conn
4 *49:7 *49:4 0.380029  // $metal1_conn
5 *29:d *49:7 62  // $metal1_conn

*END

*D_NET *47 4.10526e-16

*CONN
*I *20:d B *C 0.2775 0.3975 
*I *42:g B *C 0.8225 0.3975 
*I *31:d B *C 0.2450 1.1025 
*I *3:g B *C 0.7225 1.1025 
*N *47:2 *C 0.7225 0.8950 
*N *47:3 *C 0.6600 0.8950 
*N *47:5 *C 0.1950 0.9900 

*CAP
0 *3:g 3.99034e-17
1 *31:d 1.82167e-17
2 *42:g 8.63893e-17
3 *20:d 6.36963e-17
4 *47:5 6.20462e-17
5 *47:2 4.7506e-17
6 *47:3 9.27683e-17

*RES
0 *42:g *47:2 120.032669  // $poly_conn
1 *47:2 *47:3 46.294373  // $poly_conn
2 *47:2 *3:g 22.886339  // $poly_conn
3 *47:3 *47:5 0.340357  // $metal1_conn
4 *47:5 *20:d 75.413834  // $metal1_conn
5 *47:5 *31:d 62.022705  // $metal1_conn

*END

