*SPEF "IEEE 1481-1999"
*DESIGN  "EDFFX2"
*DATE "Mon Sep 27 09:48:32 2010"
*VENDOR "Cadence Design Systems"
*PROGRAM "Assura RCX"
*VERSION "3.2 Red Hat Linux release 7.2 (Enigma) - (09/09/2009-10:39)"
*DESIGN_FLOW "Physical Verification"
*DIVIDER /
*DELIMITER :
*BUS_DELIMITER []
*T_UNIT 1 PS
*C_UNIT 1e15 FF
*R_UNIT 1 OHM
*L_UNIT 1 MH
// DeviceFingerDelim "@"
// MATCHED
// caps2d version: 10

*NAME_MAP
*1 mn35
*2 QN
*3 mn30
*4 mn40
*5 mn51
*6 mn50
*7 mn45
*8 mp20
*9 mp21
*10 mp25
*11 mp36
*12 mp35
*13 mp30
*14 mp40
*15 mp51
*16 mp50
*17 mp45
*18 qint
*19 mp1
*20 n30
*21 mp3
*22 Eb
*23 mp2
*24 Ckb
*25 mp0
*26 CKbb
*27 mp55
*28 Db
*29 mp55\@1
*30 qbint
*31 mp57
*32 net342
*33 mp57\@1
*34 net362
*35 mp56
*36 n1
*37 net411
*38 CK
*39 net415
*40 n0
*41 VSS
*42 D
*43 E
*44 mn1
*45 mn3
*46 mn2
*47 mn0
*48 Q
*49 mn55
*50 VDD
*51 mn55\@1
*52 mn57
*53 mn57\@1
*54 mn56
*55 n20
*56 mout
*57 mn20
*58 mn21
*59 mn25
*60 mn36

*GROUND_NETS VSS

*PORTS
*50 I
*41 I
*38 I
*42 I
*43 I
*48 O
*2 O

*D_NET *50 7.60228e-16

*CONN
*P *50 I *C 0.1000 1.7100 
*I *23:s B *C 3.2350 1.2650 
*I *25:s B *C 4.0700 1.1600 
*I *27:s B *C 4.0700 1.1600 
*I *29:s B *C 4.4975 1.1600 
*I *31:s B *C 4.4975 1.1600 
*I *33:s B *C 5.0000 1.0725 
*I *35:s B *C 5.0000 1.0725 
*I *8:s B *C 0.3050 1.1375 
*I *9:s B *C 0.3050 1.1375 
*I *12:s B *C 1.5300 1.0075 
*I *13:s B *C 1.5300 1.0075 
*I *16:s B *C 2.4400 1.0950 
*I *17:s B *C 2.4400 1.0950 
*N *50:2 *C 4.5000 1.7100 
*N *50:5 *C 3.2050 1.7100 
*N *50:6 *C 2.7000 1.7100 
*N *50:7 *C 2.3250 1.7100 
*N *50:8 *C 1.4450 1.7100 
*N *50:9 *C 0.9000 1.7100 
*N *50:10 *C 0.3050 1.7100 

*CAP
0 *16:s 4.60678e-17
1 *12:s 1.36188e-17
2 *8:s 3.38868e-17
3 *33:s 2.34466e-16
4 *23:s 3.03389e-17
5 *50:10 7.68209e-18
6 *50:8 2.5591e-17
7 *50:7 1.96426e-17
8 *50:5 2.22515e-17
9 *50:2 3.2216e-16
10 *50 4.52304e-18

*RES
0 *50:10 *50 0.102391  // $metal1_conn
1 *50:2 *33:s 8.333333  // $metal1_conn
2 *50:2 *50:6 8.333333  // $metal1_conn
3 *50:2 *50:9 8.333333  // $metal1_conn
4 *50:5 *23:s 62.158146  // $metal1_conn
5 *50:7 *16:s 62.265221  // $metal1_conn
6 *50:8 *12:s 62.045834  // $metal1_conn
7 *50:10 *8:s 62.332481  // $metal1_conn
8 *33:s *50:5 0.428519  // $metal1_conn
9 *50:5 *50:6 0.253137  // $metal1_conn
10 *50:6 *50:7 0.187923  // $metal1_conn
11 *50:7 *50:8 0.44011  // $metal1_conn
12 *50:8 *50:9 0.272253  // $metal1_conn
13 *50:9 *50:10 0.298286  // $metal1_conn

*END

*D_NET *41 0

*CONN
*P *41 I *C 0.1000 0.0000 
*I *46:s B *C 3.3550 0.3250 
*I *47:s B *C 4.1150 0.4650 
*I *49:s B *C 4.1150 0.4650 
*I *51:s B *C 4.6050 0.4650 
*I *52:s B *C 4.6050 0.4650 
*I *53:s B *C 5.0750 0.5225 
*I *54:s B *C 5.0750 0.5225 
*I *57:s B *C 0.3050 0.3175 
*I *58:s B *C 0.3050 0.3175 
*I *1:s B *C 1.5300 0.4775 
*I *3:s B *C 1.5300 0.4775 
*I *6:s B *C 2.4150 0.4800 
*I *7:s B *C 2.4150 0.4800 
*N *41:2 *C 4.5000 0.0000 
*N *41:5 *C 3.3550 0.0000 
*N *41:6 *C 2.7000 0.0000 
*N *41:7 *C 2.3850 0.0000 
*N *41:8 *C 1.4450 0.0000 
*N *41:9 *C 0.9000 0.0000 
*N *41:10 *C 0.2750 0.0000 


*RES
0 *41:10 *41 0.087342  // $metal1_conn
1 *41:2 *53:s 6.888889  // $metal1_conn
2 *41:2 *41:6 6.888889  // $metal1_conn
3 *41:2 *41:9 6.888889  // $metal1_conn
4 *41:5 *46:s 75.04583  // $metal1_conn
5 *41:7 *6:s 75.26593  // $metal1_conn
6 *41:8 *1:s 75.04583  // $metal1_conn
7 *41:10 *57:s 75.189529  // $metal1_conn
8 *53:s *41:5 0.336322  // $metal1_conn
9 *41:5 *41:6 0.327435  // $metal1_conn
10 *41:6 *41:7 0.157824  // $metal1_conn
11 *41:7 *41:8 0.470209  // $metal1_conn
12 *41:8 *41:9 0.272253  // $metal1_conn
13 *41:9 *41:10 0.313335  // $metal1_conn

*END

*D_NET *38 2.44109e-16

*CONN
*P *38 I *C 0.3000 0.8550 
*I *57:g B *C 0.2025 0.3175 
*I *8:g B *C 0.2025 1.1375 
*N *38:1 *C 0.2600 0.8350 
*N *38:2 *C 0.2025 0.8350 

*CAP
0 *8:g 3.15559e-17
1 *57:g 5.68298e-17
2 *38:2 4.58484e-17
3 *38:1 3.70386e-17
4 *38 7.28364e-17

*RES
0 *38:1 *38:2 45.794373  // $poly_conn
1 *38:2 *57:g 109.025024  // $poly_conn
2 *38:2 *8:g 44.922459  // $poly_conn
3 *38:1 *38 0.010311  // $metal1_conn

*END

*D_NET *42 3.04198e-16

*CONN
*P *42 I *C 3.5000 0.8550 
*I *46:g B *C 3.2225 0.4975 
*I *23:g B *C 3.1025 1.1375 
*N *42:2 *C 3.4550 0.6950 

*CAP
0 *23:g 8.8087e-17
1 *46:g 6.43341e-17
2 *42:2 1.06184e-16
3 *42 4.55925e-17

*RES
0 *46:g *42:2 67.651459  // $poly_conn
1 *42:2 *23:g 145.352829  // $poly_conn
2 *42 *42:2 45.092403  // $metal1_conn

*END

*D_NET *43 6.37004e-16

*CONN
*P *43 I *C 3.9000 0.8550 
*I *45:g B *C 3.0925 0.4975 
*I *47:g B *C 3.8975 0.5225 
*I *19:g B *C 2.7675 1.1375 
*I *25:g B *C 3.8975 1.0725 
*N *43:2 *C 2.8050 1.4550 
*N *43:4 *C 3.0150 0.6950 
*N *43:6 *C 3.9250 0.8350 
*N *43:8 *C 3.0450 1.2800 

*CAP
0 *25:g 3.39719e-17
1 *19:g 4.07726e-17
2 *47:g 3.89797e-17
3 *45:g 5.38902e-17
4 *43:8 1.17056e-16
5 *43:2 6.6873e-17
6 *43:4 1.1867e-16
7 *43:6 1.66791e-16

*RES
0 *19:g *43:2 89.360352  // $poly_conn
1 *45:g *43:4 76.917488  // $poly_conn
2 *25:g *43:6 24.820158  // $poly_conn
3 *43:6 *47:g 53.025284  // $poly_conn
4 *43:4 *43:8 0.416449  // $metal1_conn
5 *43:8 *43:2 0.26206  // $metal1_conn
6 *43:8 *43 0.917488  // $metal1_conn
7 *43 *43:6 45.010925  // $metal1_conn

*END

*D_NET *48 1.74999e-16

*CONN
*P *48 O *C 4.3000 0.6650 
*I *49:d B *C 4.2750 0.4650 
*I *51:d B *C 4.2750 0.4650 
*I *27:d B *C 4.2750 1.1600 
*I *29:d B *C 4.2750 1.1600 

*CAP
0 *27:d 7.70066e-17
1 *49:d 3.68345e-17
2 *48 6.11579e-17

*RES
0 *48 *49:d 75.066788  // $metal1_conn
1 *27:d *48 21.030483  // $metal1_conn

*END

*D_NET *2 1.58598e-16

*CONN
*P *2 O *C 4.7000 0.6650 
*I *52:d B *C 4.7550 0.4650 
*I *53:d B *C 4.7550 0.4650 
*I *31:d B *C 4.7100 1.1600 
*I *33:d B *C 4.7100 1.1600 

*CAP
0 *31:d 8.51487e-17
1 *52:d 3.08983e-17
2 *2 4.25512e-17

*RES
0 *2 *52:d 75.084229  // $metal1_conn
1 *31:d *2 21.039473  // $metal1_conn

*END

*D_NET *40 4.08733e-19

*CONN
*I *45:s B *C 3.1575 0.4975 
*I *46:d B *C 3.1575 0.4975 

*CAP
0 *45:s 4.08733e-19

*RES
0 *46:d *45:s 0.001  // $mwires

*END

*D_NET *39 1.61271e-18

*CONN
*I *5:s B *C 2.1025 0.4775 
*I *6:d B *C 2.1025 0.4775 

*CAP
0 *5:s 1.61271e-18

*RES
0 *6:d *5:s 0.001  // $mwires

*END

*D_NET *37 0

*CONN
*I *60:s B *C 1.2600 0.4775 
*I *1:d B *C 1.2600 0.4775 


*RES
0 *1:d *60:s 0.001  // $mwires

*END

*D_NET *36 1.06129e-18

*CONN
*I *21:s B *C 3.0500 1.1375 
*I *23:d B *C 3.0500 1.1375 

*CAP
0 *21:s 1.06129e-18

*RES
0 *23:d *21:s 0.001  // $mwires

*END

*D_NET *34 2.84036e-18

*CONN
*I *15:s B *C 2.1650 1.0075 
*I *16:d B *C 2.1650 1.0075 

*CAP
0 *15:s 2.84036e-18

*RES
0 *16:d *15:s 0.001  // $mwires

*END

*D_NET *32 7.55565e-19

*CONN
*I *11:s B *C 1.2575 1.0075 
*I *12:d B *C 1.2575 1.0075 

*CAP
0 *11:s 7.55565e-19

*RES
0 *12:d *11:s 0.001  // $mwires

*END

*D_NET *30 1.10002e-15

*CONN
*I *44:d B *C 2.7575 0.4975 
*I *49:g B *C 4.1625 0.4650 
*I *51:g B *C 4.3875 0.4650 
*I *54:g B *C 5.1225 0.5225 
*I *6:g B *C 2.2175 0.4775 
*I *7:d B *C 2.7575 0.4975 
*I *19:d B *C 2.7200 1.1375 
*I *27:g B *C 4.1625 1.1600 
*I *29:g B *C 4.3875 1.1600 
*I *35:g B *C 5.0475 1.0725 
*I *16:g B *C 2.2175 1.0075 
*I *17:d B *C 2.7200 1.1375 
*N *30:2 *C 2.2550 0.6500 
*N *30:11 *C 5.2100 0.3500 
*N *30:17 *C 2.6050 0.4100 
*N *30:18 *C 2.6050 0.6000 
*N *30:19 *C 2.2550 0.6500 

*CAP
0 *16:g 6.17604e-17
1 *35:g 4.30108e-17
2 *29:g 5.17234e-16
3 *19:d 6.4727e-17
4 *6:g 2.58254e-17
5 *54:g 3.78609e-17
6 *44:d 1.4048e-16
7 *30:18 4.14353e-17
8 *30:2 8.40164e-17
9 *30:11 8.36724e-17

*RES
0 *54:g *35:g 102.274536  // $poly_conn
1 *16:g *30:2 54.61676  // $poly_conn
2 *30:11 *54:g 69.181  // $poly_conn
3 *30:2 *6:g 16.15522  // $poly_conn
4 *30:11 *29:g 0.51682  // $metal1_conn
5 *30:2 *30:19 45  // $metal1_conn
6 *44:d *30:17 75  // $metal1_conn
7 *30:18 *19:d 62.288948  // $metal1_conn
8 *29:g *30:17 1.134193  // $metal1_conn
9 *30:17 *30:18 0.149126  // $metal1_conn
10 *30:18 *30:19 0.223845  // $metal1_conn

*END

*D_NET *28 6.67224e-16

*CONN
*I *44:s B *C 2.9825 0.4975 
*I *45:d B *C 2.9825 0.4975 
*I *59:d B *C 0.7725 0.4775 
*I *19:s B *C 2.8825 1.1375 
*I *21:d B *C 2.8825 1.1375 
*I *10:s B *C 0.9050 1.0075 
*N *28:3 *C 2.8700 1.0900 
*N *28:5 *C 0.8950 0.9700 

*CAP
0 *10:s 2.48013e-16
1 *19:s 2.56463e-16
2 *59:d 7.47745e-17
3 *44:s 8.79734e-17

*RES
0 *44:s *28:3 75.517853  // $metal1_conn
1 *28:3 *28:5 1.562987  // $metal1_conn
2 *28:5 *59:d 75.444336  // $metal1_conn
3 *19:s *28:3 62  // $metal1_conn
4 *10:s *28:5 62  // $metal1_conn

*END

*D_NET *26 9.47036e-16

*CONN
*I *58:d B *C 0.5025 0.3175 
*I *60:g B *C 1.2075 0.4775 
*I *4:g B *C 1.7825 0.4775 
*I *9:d B *C 0.5000 1.1375 
*I *10:g B *C 0.9975 1.0075 
*I *15:g B *C 2.1125 1.0075 
*N *26:2 *C 0.9600 0.7800 
*N *26:4 *C 1.0450 0.3000 
*N *26:5 *C 1.8450 0.2000 
*N *26:8 *C 2.0750 0.8000 
*N *26:9 *C 1.8450 0.3000 
*N *26:10 *C 0.9150 0.3000 
*N *26:12 *C 0.5150 0.3300 

*CAP
0 *15:g 7.3239e-17
1 *10:g 4.42789e-17
2 *9:d 7.64109e-17
3 *4:g 4.48905e-17
4 *60:g 8.26341e-17
5 *58:d 9.576e-17
6 *26:10 5.28327e-17
7 *26:9 1.14203e-16
8 *26:2 1.11414e-16
9 *26:4 8.64853e-17
10 *26:5 4.83105e-17
11 *26:8 1.16577e-16

*RES
0 *10:g *26:2 66.283424  // $poly_conn
1 *60:g *26:4 77.513107  // $poly_conn
2 *26:5 *4:g 93.155144  // $poly_conn
3 *15:g *26:8 61.15522  // $poly_conn
4 *26:5 *26:9 0.035116  // $metal1_conn
5 *26:9 *26:4 0.571325  // $metal1_conn
6 *26:4 *26:10 0.092556  // $metal1_conn
7 *26:10 *26:12 0.281853  // $metal1_conn
8 *26:12 *9:d 62.596264  // $metal1_conn
9 *26:9 *26:8 0.503177  // $metal1_conn
10 *26:10 *26:2 0.342362  // $metal1_conn
11 *58:d *26:12 75  // $metal1_conn

*END

*D_NET *24 7.96888e-16

*CONN
*I *57:d B *C 0.1100 0.3175 
*I *58:g B *C 0.4075 0.3175 
*I *59:g B *C 0.9025 0.4775 
*I *5:g B *C 1.9875 0.4775 
*I *8:d B *C 0.1100 1.1375 
*I *9:g B *C 0.4075 1.1375 
*I *11:g B *C 1.2025 1.0075 
*I *14:g B *C 1.9075 1.0075 
*N *24:1 *C 1.1800 1.2800 
*N *24:3 *C 0.9025 0.6475 
*N *24:4 *C 0.4075 0.6475 
*N *24:5 *C 0.4075 0.4900 
*N *24:6 *C 0.3450 0.4900 
*N *24:12 *C 1.8800 1.2800 
*N *24:13 *C 0.1000 0.4900 

*CAP
0 *14:g 5.40681e-17
1 *11:g 8.38298e-17
2 *9:g 4.89683e-17
3 *8:d 5.13182e-17
4 *5:g 5.45367e-17
5 *59:g 3.13235e-17
6 *58:g 2.34194e-17
7 *57:d 1.79555e-17
8 *24:13 3.61474e-17
9 *24:5 1.03577e-17
10 *24:4 3.80683e-17
11 *24:3 5.59521e-17
12 *24:6 6.64593e-17
13 *24:1 1.16799e-16
14 *24:12 1.07685e-16

*RES
0 *24:1 *11:g 76.501236  // $poly_conn
1 *11:g *24:3 122.772614  // $poly_conn
2 *24:3 *24:4 121.262947  // $poly_conn
3 *24:4 *24:5 36.09515  // $poly_conn
4 *24:5 *24:6 46.294373  // $poly_conn
5 *24:3 *59:g 20.300484  // $poly_conn
6 *24:4 *9:g 96.542145  // $poly_conn
7 *24:5 *58:g 22.886339  // $poly_conn
8 *5:g *14:g 95.619675  // $poly_conn
9 *14:g *24:12 76.501236  // $poly_conn
10 *24:6 *24:13 0.160539  // $metal1_conn
11 *24:13 *57:d 75.107735  // $metal1_conn
12 *24:13 *8:d 62.428375  // $metal1_conn
13 *24:12 *24:1 0.420605  // $metal1_conn

*END

*D_NET *22 5.34209e-16

*CONN
*I *44:g B *C 2.8725 0.4975 
*I *47:d B *C 3.8050 0.5225 
*I *21:g B *C 2.9975 1.1375 
*I *25:d B *C 3.7575 1.0725 
*N *22:1 *C 3.2350 0.8000 
*N *22:2 *C 2.9975 0.8275 
*N *22:6 *C 3.7050 0.5100 

*CAP
0 *25:d 8.26978e-17
1 *21:g 6.39903e-17
2 *47:d 2.30429e-17
3 *44:g 5.59011e-17
4 *22:6 1.11599e-16
5 *22:2 5.05624e-17
6 *22:1 1.46415e-16

*RES
0 *22:1 *22:2 96.232254  // $poly_conn
1 *22:2 *44:g 91.01091  // $poly_conn
2 *22:2 *21:g 47.22356  // $poly_conn
3 *47:d *22:6 75.075516  // $metal1_conn
4 *22:6 *22:1 0.512446  // $metal1_conn
5 *22:6 *25:d 62.448627  // $metal1_conn

*END

*D_NET *20 3.81342e-16

*CONN
*I *4:s B *C 1.8850 0.4775 
*I *5:d B *C 1.8850 0.4775 
*I *7:g B *C 2.4875 0.4800 
*I *14:d B *C 2.0100 1.0075 
*I *15:d B *C 2.0100 1.0075 
*I *17:g B *C 2.4875 1.0950 
*N *20:2 *C 2.4450 0.7900 
*N *20:5 *C 2.0100 0.9600 

*CAP
0 *17:g 4.71346e-17
1 *14:d 1.13482e-16
2 *7:g 4.49514e-17
3 *4:s 7.74721e-17
4 *20:2 9.83016e-17

*RES
0 *17:g *20:2 17.398676  // $poly_conn
1 *20:2 *7:g 35.347393  // $poly_conn
2 *20:2 *20:5 45.453789  // $metal1_conn
3 *20:5 *4:s 75.427765  // $metal1_conn
4 *14:d *20:5 62  // $metal1_conn

*END

*D_NET *18 2.78414e-16

*CONN
*I *52:g B *C 4.6525 0.4650 
*I *53:g B *C 4.8575 0.4650 
*I *54:d B *C 5.2150 0.5225 
*I *31:g B *C 4.6075 1.1600 
*I *33:g B *C 4.8125 1.1600 
*I *35:d B *C 5.1400 1.0725 
*N *18:8 *C 5.1500 0.6950 

*CAP
0 *35:d 2.47411e-17
1 *33:g 2.04672e-16
2 *54:d 2.46373e-17
3 *18:8 2.43637e-17

*RES
0 *18:8 *33:g 45.153309  // $metal1_conn
1 *18:8 *35:d 62.233997  // $metal1_conn
2 *54:d *18:8 75.168671  // $metal1_conn

*END

*D_NET *56 3.54835e-16

*CONN
*I *1:g B *C 1.3125 0.4775 
*I *3:d B *C 1.6800 0.4775 
*I *4:d B *C 1.6800 0.4775 
*I *12:g B *C 1.3125 1.0075 
*I *13:d B *C 1.7425 1.0075 
*I *14:s B *C 1.7425 1.0075 
*N *56:2 *C 1.3400 0.6600 
*N *56:4 *C 1.6575 0.6000 

*CAP
0 *13:d 6.20881e-17
1 *12:g 7.5604e-17
2 *3:d 2.85788e-17
3 *1:g 5.38738e-17
4 *56:4 4.11274e-17
5 *56:2 9.35632e-17

*RES
0 *12:g *56:2 53.025284  // $poly_conn
1 *56:2 *1:g 19.691952  // $poly_conn
2 *56:2 *56:4 45.241901  // $metal1_conn
3 *56:4 *3:d 75.069649  // $metal1_conn
4 *56:4 *13:d 62.267208  // $metal1_conn

*END

*D_NET *55 3.12813e-16

*CONN
*I *59:s B *C 1.0550 0.4775 
*I *60:d B *C 1.0550 0.4775 
*I *3:g B *C 1.5775 0.4775 
*I *10:d B *C 1.1000 1.0075 
*I *11:d B *C 1.1000 1.0075 
*I *13:g B *C 1.5775 1.0075 
*N *55:2 *C 1.5775 0.7900 
*N *55:3 *C 1.5050 0.7900 
*N *55:5 *C 1.1500 0.8500 

*CAP
0 *13:g 3.77848e-17
1 *10:d 3.72963e-17
2 *3:g 4.58892e-17
3 *59:s 5.43771e-17
4 *55:5 4.49097e-17
5 *55:2 1.96047e-17
6 *55:3 7.29517e-17

*RES
0 *13:g *55:2 24.894089  // $poly_conn
1 *55:2 *55:3 47.037205  // $poly_conn
2 *55:2 *3:g 58.227421  // $poly_conn
3 *55:3 *55:5 0.268941  // $metal1_conn
4 *55:5 *10:d 62.075836  // $metal1_conn
5 *55:5 *59:s 75.254959  // $metal1_conn

*END

