*SPEF "IEEE 1481-1999"
*DESIGN  "EDFFHQX8"
*DATE "Mon Sep 27 09:46:15 2010"
*VENDOR "Cadence Design Systems"
*PROGRAM "Assura RCX"
*VERSION "3.2 Red Hat Linux release 7.2 (Enigma) - (09/09/2009-10:39)"
*DESIGN_FLOW "Physical Verification"
*DIVIDER /
*DELIMITER :
*BUS_DELIMITER []
*T_UNIT 1 PS
*C_UNIT 1e15 FF
*R_UNIT 1 OHM
*L_UNIT 1 MH
// DeviceFingerDelim "@"
// MATCHED
// caps2d version: 10

*NAME_MAP
*1 mn45
*2 mn45\@1
*3 mn45\@2
*4 mn1
*5 mp45
*6 mn3
*7 mp45\@1
*8 mn2
*9 mp45\@2
*10 mn0
*11 mp1
*12 mn55
*13 mp3
*14 mn55\@1
*15 mp2
*16 mp0
*17 mp55
*18 mp55\@1
*19 VSS
*20 mp55\@2
*21 mp55\@3
*22 mp55\@4
*23 mp20
*24 mp21
*25 mp25
*26 mp36
*27 mp35
*28 mp30
*29 mp40
*30 CKb
*31 mp51
*32 qbint
*33 mp50
*34 CKbb
*35 mp55\@5
*36 n30
*37 mp55\@6
*38 Db
*39 net309
*40 D
*41 net317
*42 E
*43 net328
*44 net340
*45 net380
*46 mout
*47 net333
*48 n20
*49 Q
*50 Eb
*51 CK
*52 VDD
*53 mn55\@2
*54 mn55\@3
*55 mn55\@4
*56 mn20
*57 mn21
*58 mn25
*59 mn36
*60 mn35
*61 mn30
*62 mn40
*63 mn51
*64 mn50
*65 mn55\@5
*66 mn55\@6

*GROUND_NETS VSS

*PORTS
*52 I
*19 I
*51 I
*40 I
*42 I
*49 O

*D_NET *52 8.22751e-16

*CONN
*P *52 I *C 0.1000 1.7100 
*I *5:s B *C 4.9300 1.1600 
*I *7:s B *C 5.4000 1.1600 
*I *9:s B *C 5.4000 1.1600 
*I *15:s B *C 6.2850 1.0725 
*I *16:s B *C 6.2850 1.0725 
*I *17:s B *C 3.2600 1.1525 
*I *18:s B *C 3.6700 1.1525 
*I *20:s B *C 3.6700 1.1525 
*I *21:s B *C 4.0800 1.1525 
*I *22:s B *C 4.0800 1.1525 
*I *23:s B *C 0.3650 1.3725 
*I *24:s B *C 0.3650 1.3725 
*I *27:s B *C 1.7425 1.1250 
*I *28:s B *C 1.7425 1.1250 
*I *33:s B *C 2.8800 1.1525 
*I *35:s B *C 2.8800 1.1525 
*I *37:s B *C 3.2600 1.1525 
*N *52:2 *C 5.7000 1.7100 
*N *52:3 *C 5.7000 1.7100 
*N *52:11 *C 1.6700 1.7100 
*N *52:12 *C 1.2000 1.7100 
*N *52:13 *C 0.3650 1.7100 

*CAP
0 *27:s 4.96677e-17
1 *23:s 3.3866e-17
2 *21:s 1.91068e-16
3 *15:s 4.04814e-17
4 *7:s 9.82357e-17
5 *52:13 1.91006e-17
6 *52:11 3.06455e-17
7 *52:2 3.4958e-16
8 *52 1.0106e-17

*RES
0 *52:13 *52 0.132424  // $metal1_conn
1 *52:2 *52:3 6.818182  // $metal1_conn
2 *52:2 *21:s 6.818182  // $metal1_conn
3 *52:2 *52:12 6.25  // $metal1_conn
4 *15:s *52:3 62.553246  // $metal1_conn
5 *52:11 *27:s 62.31274  // $metal1_conn
6 *52:13 *23:s 62.178913  // $metal1_conn
7 *52:3 *7:s 0.207885  // $metal1_conn
8 *7:s *21:s 0.383178  // $metal1_conn
9 *21:s *52:11 0.576217  // $metal1_conn
10 *52:11 *52:12 0.235462  // $metal1_conn
11 *52:12 *52:13 0.418472  // $metal1_conn

*END

*D_NET *19 0

*CONN
*P *19 I *C 0.1000 0.0000 
*I *1:s B *C 4.8300 0.4450 
*I *2:s B *C 5.2300 0.4450 
*I *3:s B *C 5.2300 0.4450 
*I *8:s B *C 6.2750 0.4775 
*I *10:s B *C 6.2750 0.4775 
*I *12:s B *C 3.3800 0.5125 
*I *14:s B *C 3.8500 0.5125 
*I *53:s B *C 3.8500 0.5125 
*I *54:s B *C 4.3200 0.5125 
*I *55:s B *C 4.3200 0.5125 
*I *56:s B *C 0.3750 0.4475 
*I *57:s B *C 0.3750 0.4475 
*I *60:s B *C 1.8000 0.4675 
*I *61:s B *C 1.8000 0.4675 
*I *64:s B *C 2.8850 0.5125 
*I *65:s B *C 2.8850 0.5125 
*I *66:s B *C 3.3800 0.5125 
*N *19:2 *C 5.7000 0.0000 
*N *19:3 *C 5.7000 0.0000 
*N *19:11 *C 1.7300 0.0000 
*N *19:12 *C 1.2000 0.0000 
*N *19:13 *C 0.3750 0.0000 


*RES
0 *19:13 *19 0.137438  // $metal1_conn
1 *19:2 *19:3 5.636364  // $metal1_conn
2 *19:2 *54:s 5.636364  // $metal1_conn
3 *19:2 *19:12 5.166667  // $metal1_conn
4 *8:s *19:3 75.62439  // $metal1_conn
5 *19:11 *60:s 75.117203  // $metal1_conn
6 *19:13 *56:s 75.282845  // $metal1_conn
7 *19:3 *2:s 0.235462  // $metal1_conn
8 *2:s *54:s 0.307019  // $metal1_conn
9 *54:s *19:11 0.506021  // $metal1_conn
10 *19:11 *19:12 0.265546  // $metal1_conn
11 *19:12 *19:13 0.413458  // $metal1_conn

*END

*D_NET *51 2.4421e-16

*CONN
*P *51 I *C 0.3000 0.8550 
*I *56:g B *C 0.2725 0.4475 
*I *23:g B *C 0.2625 1.3725 
*N *51:2 *C 0.2900 0.8200 
*N *51:4 *C 0.2900 0.8200 

*CAP
0 *23:g 4.55465e-17
1 *56:g 3.63994e-17
2 *51:4 2.56977e-17
3 *51:2 5.15254e-17
4 *51 8.50408e-17

*RES
0 *56:g *51:2 66.116623  // $poly_conn
1 *51:2 *23:g 103.296112  // $poly_conn
2 *51:4 *51 0.021776  // $metal1_conn
3 *51:2 *51:4 45  // $metal1_conn

*END

*D_NET *40 3.44088e-16

*CONN
*P *40 I *C 6.3000 0.8550 
*I *8:g B *C 6.1175 0.4450 
*I *15:g B *C 6.0975 1.1600 
*N *40:2 *C 6.1450 0.8450 

*CAP
0 *15:g 5.48573e-17
1 *8:g 8.61467e-17
2 *40:2 9.55041e-17
3 *40 1.0758e-16

*RES
0 *8:g *40:2 57.555679  // $poly_conn
1 *40:2 *15:g 22.598145  // $poly_conn
2 *40 *40:2 45.094959  // $metal1_conn

*END

*D_NET *42 6.30632e-16

*CONN
*P *42 I *C 6.5000 0.6650 
*I *6:g B *C 6.0125 0.4450 
*I *10:g B *C 6.3325 0.4775 
*I *11:g B *C 5.6525 1.1600 
*I *16:g B *C 6.3325 1.0725 
*N *42:2 *C 5.6250 0.8350 
*N *42:4 *C 5.9750 0.6750 
*N *42:6 *C 6.3050 0.6850 
*N *42:8 *C 6.0700 0.6750 
*N *42:9 *C 6.3050 0.6850 

*CAP
0 *16:g 4.58934e-17
1 *11:g 4.2445e-17
2 *10:g 3.05382e-17
3 *6:g 6.4265e-17
4 *42:8 1.01696e-16
5 *42:2 1.43888e-16
6 *42:4 7.06292e-17
7 *42:6 8.23104e-17
8 *42 4.89669e-17

*RES
0 *11:g *42:2 69.82016  // $poly_conn
1 *6:g *42:4 61.15522  // $poly_conn
2 *16:g *42:6 63.281693  // $poly_conn
3 *42:6 *10:g 26.102209  // $poly_conn
4 *42:4 *42:8 0.074081  // $metal1_conn
5 *42:8 *42:2 0.866824  // $metal1_conn
6 *42:8 *42:9 0.182347  // $metal1_conn
7 *42:9 *42 0.11843  // $metal1_conn
8 *42:6 *42:9 45  // $metal1_conn

*END

*D_NET *49 5.2818e-16

*CONN
*P *49 O *C 3.1000 0.8550 
*I *12:d B *C 3.5300 0.5125 
*I *14:d B *C 3.5300 0.5125 
*I *53:d B *C 4.0000 0.5125 
*I *54:d B *C 4.0000 0.5125 
*I *55:d B *C 4.4600 0.5125 
*I *65:d B *C 3.0600 0.5125 
*I *66:d B *C 3.0600 0.5125 
*I *17:d B *C 3.4650 1.1525 
*I *18:d B *C 3.4650 1.1525 
*I *20:d B *C 3.8750 1.1525 
*I *21:d B *C 3.8750 1.1525 
*I *22:d B *C 4.2750 1.1525 
*I *35:d B *C 3.0550 1.1525 
*I *37:d B *C 3.0550 1.1525 

*CAP
0 *22:d 2.59048e-16
1 *12:d 2.52777e-16
2 *49 1.63544e-17

*RES
0 *12:d *49 0.172465  // $metal1_conn
1 *49 *22:d 0.08158  // $metal1_conn

*END

*D_NET *47 2.2582e-18

*CONN
*I *6:s B *C 6.0650 0.4450 
*I *8:d B *C 6.0650 0.4450 

*CAP
0 *6:s 2.2582e-18

*RES
0 *8:d *6:s 0.001  // $mwires

*END

*D_NET *45 0

*CONN
*I *63:s B *C 2.5850 0.4675 
*I *64:d B *C 2.5850 0.4675 


*RES
0 *64:d *63:s 0.001  // $mwires

*END

*D_NET *44 1.12663e-18

*CONN
*I *59:s B *C 1.4975 0.4675 
*I *60:d B *C 1.4975 0.4675 

*CAP
0 *59:s 1.12663e-18

*RES
0 *60:d *59:s 0.001  // $mwires

*END

*D_NET *43 4.75926e-18

*CONN
*I *13:s B *C 6.0025 1.1600 
*I *15:d B *C 6.0025 1.1600 

*CAP
0 *13:s 4.75926e-18

*RES
0 *15:d *13:s 0.001  // $mwires

*END

*D_NET *41 3.92324e-18

*CONN
*I *31:s B *C 2.6450 1.1250 
*I *33:d B *C 2.6450 1.1250 

*CAP
0 *31:s 3.92324e-18

*RES
0 *33:d *31:s 0.001  // $mwires

*END

*D_NET *39 3.8505e-18

*CONN
*I *26:s B *C 1.4550 1.1250 
*I *27:d B *C 1.4550 1.1250 

*CAP
0 *26:s 3.8505e-18

*RES
0 *27:d *26:s 0.001  // $mwires

*END

*D_NET *38 1.14768e-15

*CONN
*I *4:s B *C 5.8950 0.4450 
*I *6:d B *C 5.8950 0.4450 
*I *58:s B *C 0.8400 0.4675 
*I *11:s B *C 5.7800 1.1600 
*I *13:d B *C 5.7800 1.1600 
*I *25:s B *C 1.0450 1.1250 
*N *38:3 *C 5.7850 1.1600 
*N *38:5 *C 1.0350 1.1100 

*CAP
0 *25:s 4.41826e-16
1 *11:s 5.16959e-16
2 *58:s 8.61899e-17
3 *4:s 1.02709e-16

*RES
0 *4:s *38:3 75.495171  // $metal1_conn
1 *38:3 *38:5 3.861204  // $metal1_conn
2 *38:5 *58:s 75.574074  // $metal1_conn
3 *11:s *38:3 20.666666  // $metal1_conn
4 *25:s *38:5 31  // $metal1_conn

*END

*D_NET *36 7.99422e-16

*CONN
*I *1:g B *C 4.9225 0.4450 
*I *2:g B *C 5.1275 0.4450 
*I *3:g B *C 5.3325 0.4450 
*I *62:s B *C 2.4100 0.4675 
*I *63:d B *C 2.4100 0.4675 
*I *5:g B *C 4.9775 1.1600 
*I *7:g B *C 5.1825 1.1600 
*I *9:g B *C 5.4475 1.1600 
*I *29:s B *C 2.4700 1.1250 
*I *31:d B *C 2.4700 1.1250 
*N *36:7 *C 4.8350 0.6750 
*N *36:13 *C 2.6950 0.6150 
*N *36:15 *C 2.4700 1.0300 

*CAP
0 *29:s 8.01699e-17
1 *9:g 1.96647e-16
2 *62:s 5.57587e-17
3 *36:13 2.31873e-16
4 *36:7 2.34973e-16

*RES
0 *9:g *36:7 51.221382  // $poly_conn
1 *36:7 *36:13 1.884831  // $metal1_conn
2 *36:13 *62:s 75.267906  // $metal1_conn
3 *29:s *36:15 62  // $metal1_conn
4 *36:13 *36:15 0.405561  // $metal1_conn

*END

*D_NET *34 9.95258e-16

*CONN
*I *57:d B *C 0.5700 0.4475 
*I *59:g B *C 1.4275 0.4675 
*I *62:g B *C 2.2875 0.4675 
*I *24:d B *C 0.5600 1.3725 
*I *25:g B *C 1.1375 1.1250 
*I *31:g B *C 2.5725 1.1250 
*N *34:2 *C 1.0800 0.8100 
*N *34:4 *C 1.4000 0.6800 
*N *34:6 *C 2.2600 0.7350 
*N *34:8 *C 2.5350 0.8050 
*N *34:9 *C 1.4000 0.3650 
*N *34:10 *C 1.0200 0.3350 
*N *34:12 *C 0.5800 0.4350 

*CAP
0 *31:g 5.69751e-17
1 *25:g 3.41468e-17
2 *24:d 7.46145e-17
3 *62:g 3.07568e-17
4 *59:g 4.4054e-17
5 *57:d 1.06588e-16
6 *34:10 6.3041e-17
7 *34:9 1.23642e-16
8 *34:2 1.25251e-16
9 *34:4 8.58525e-17
10 *34:6 1.46721e-16
11 *34:8 1.03614e-16

*RES
0 *25:g *34:2 80.541206  // $poly_conn
1 *59:g *34:4 64.691956  // $poly_conn
2 *62:g *34:6 78.794518  // $poly_conn
3 *31:g *34:8 77.821884  // $poly_conn
4 *34:4 *34:9 0.225132  // $metal1_conn
5 *34:9 *34:6 0.995727  // $metal1_conn
6 *34:9 *34:10 0.344849  // $metal1_conn
7 *34:10 *34:12 0.341737  // $metal1_conn
8 *34:12 *24:d 62.666412  // $metal1_conn
9 *34:6 *34:8 0.181179  // $metal1_conn
10 *34:10 *34:2 0.402545  // $metal1_conn
11 *57:d *34:12 75  // $metal1_conn

*END

*D_NET *32 8.41555e-16

*CONN
*I *1:d B *C 5.0250 0.4450 
*I *2:d B *C 5.0250 0.4450 
*I *3:d B *C 5.5550 0.4450 
*I *4:d B *C 5.5550 0.4450 
*I *12:g B *C 3.4275 0.5125 
*I *14:g B *C 3.6325 0.5125 
*I *53:g B *C 3.8975 0.5125 
*I *54:g B *C 4.1025 0.5125 
*I *55:g B *C 4.3675 0.5125 
*I *64:g B *C 2.6375 0.4675 
*I *65:g B *C 2.9575 0.5125 
*I *66:g B *C 3.1625 0.5125 
*I *5:d B *C 5.0800 1.1600 
*I *7:d B *C 5.0800 1.1600 
*I *9:d B *C 5.5500 1.1600 
*I *11:d B *C 5.5500 1.1600 
*I *17:g B *C 3.3625 1.1525 
*I *18:g B *C 3.5675 1.1525 
*I *20:g B *C 3.7725 1.1525 
*I *21:g B *C 3.9775 1.1525 
*I *22:g B *C 4.1825 1.1525 
*I *33:g B *C 2.7175 1.1250 
*I *35:g B *C 2.9525 1.1525 
*I *37:g B *C 3.1575 1.1525 
*N *32:14 *C 2.7175 0.8025 
*N *32:33 *C 5.0250 0.8350 

*CAP
0 *33:g 4.35356e-17
1 *22:g 4.30348e-16
2 *9:d 1.08394e-16
3 *64:g 5.98213e-17
4 *1:d 9.03425e-17
5 *32:33 8.15167e-17
6 *32:14 2.75964e-17

*RES
0 *32:14 *33:g 41.41394  // $poly_conn
1 *22:g *32:14 55.107712  // $poly_conn
2 *32:14 *64:g 66.765396  // $poly_conn
3 *32:33 *22:g 45.729889  // $metal1_conn
4 *9:d *32:33 0.126748  // $metal1_conn
5 *32:33 *1:d 0.196513  // $metal1_conn

*END

*D_NET *30 7.35345e-16

*CONN
*I *56:d B *C 0.1800 0.4475 
*I *57:g B *C 0.4775 0.4475 
*I *58:g B *C 0.9325 0.4675 
*I *63:g B *C 2.5325 0.4675 
*I *23:d B *C 0.1700 1.3725 
*I *24:g B *C 0.4675 1.3725 
*I *26:g B *C 1.3425 1.1250 
*I *29:g B *C 2.3675 1.1250 
*N *30:4 *C 0.9325 0.6675 
*N *30:5 *C 0.4500 0.6300 
*N *30:9 *C 0.1700 0.6300 

*CAP
0 *29:g 1.09095e-16
1 *26:g 1.28706e-16
2 *24:g 5.52061e-17
3 *23:d 7.02075e-17
4 *63:g 9.87813e-17
5 *58:g 2.32192e-17
6 *57:g 2.04963e-17
7 *56:d 1.83943e-17
8 *30:9 7.00136e-17
9 *30:4 4.89e-17
10 *30:5 9.23262e-17

*RES
0 *63:g *29:g 130.235046  // $poly_conn
1 *29:g *26:g 354.838623  // $poly_conn
2 *26:g *30:4 163.798264  // $poly_conn
3 *30:4 *30:5 112.202782  // $poly_conn
4 *30:4 *58:g 20.300484  // $poly_conn
5 *30:5 *57:g 18.077364  // $poly_conn
6 *30:5 *24:g 152.014053  // $poly_conn
7 *30:5 *30:9 45.207722  // $metal1_conn
8 *30:9 *23:d 62.672298  // $metal1_conn
9 *30:9 *56:d 75.095528  // $metal1_conn

*END

*D_NET *50 4.31458e-16

*CONN
*I *4:g B *C 5.7775 0.4450 
*I *10:d B *C 6.4250 0.4775 
*I *13:g B *C 5.9075 1.1600 
*I *16:d B *C 6.4250 1.0725 
*N *50:2 *C 5.9450 0.8650 
*N *50:6 *C 6.4350 1.0550 

*CAP
0 *16:d 1.17821e-16
1 *13:g 4.09749e-17
2 *10:d 8.73525e-17
3 *4:g 5.87465e-17
4 *50:2 1.26563e-16

*RES
0 *13:g *50:2 16.15522  // $poly_conn
1 *50:2 *4:g 81.464455  // $poly_conn
2 *10:d *50:6 75.728294  // $metal1_conn
3 *50:6 *50:2 45.465343  // $metal1_conn
4 *16:d *50:6 62  // $metal1_conn

*END

*D_NET *48 3.92703e-16

*CONN
*I *58:d B *C 1.1800 0.4675 
*I *59:d B *C 1.1800 0.4675 
*I *61:g B *C 1.8625 0.4675 
*I *25:d B *C 1.2400 1.1250 
*I *26:d B *C 1.2400 1.1250 
*I *28:g B *C 1.9175 1.1250 
*N *48:2 *C 1.8900 0.6800 
*N *48:5 *C 1.2400 0.8700 

*CAP
0 *28:g 5.07527e-17
1 *25:d 3.00268e-17
2 *61:g 3.18091e-17
3 *58:d 7.44015e-17
4 *48:5 8.75471e-17
5 *48:2 1.18165e-16

*RES
0 *28:g *48:2 65.845795  // $poly_conn
1 *48:2 *61:g 19.691952  // $poly_conn
2 *25:d *48:5 62.109612  // $metal1_conn
3 *48:5 *58:d 75.278458  // $metal1_conn
4 *48:5 *48:2 45.586243  // $metal1_conn

*END

*D_NET *46 3.52131e-16

*CONN
*I *60:g B *C 1.5675 0.4675 
*I *61:d B *C 2.0750 0.4675 
*I *62:d B *C 2.0750 0.4675 
*I *27:g B *C 1.5675 1.1250 
*I *28:d B *C 2.1425 1.1250 
*I *29:d B *C 2.1425 1.1250 
*N *46:1 *C 1.7200 0.8400 
*N *46:2 *C 1.5675 0.8400 
*N *46:6 *C 2.0500 0.8700 

*CAP
0 *28:d 3.1834e-17
1 *27:g 4.58915e-17
2 *61:d 6.36697e-17
3 *60:g 6.03942e-17
4 *46:6 3.68639e-17
5 *46:2 2.84564e-17
6 *46:1 8.50213e-17

*RES
0 *46:1 *46:2 55.805012  // $poly_conn
1 *46:2 *60:g 64.153229  // $poly_conn
2 *46:2 *27:g 28.255793  // $poly_conn
3 *28:d *46:6 62.111683  // $metal1_conn
4 *46:6 *46:1 0.225061  // $metal1_conn
5 *46:6 *61:d 75.266113  // $metal1_conn

*END

