*SPEF "IEEE 1481-1999"
*DESIGN  "EDFFHQX4"
*DATE "Mon Sep 27 09:45:52 2010"
*VENDOR "Cadence Design Systems"
*PROGRAM "Assura RCX"
*VERSION "3.2 Red Hat Linux release 7.2 (Enigma) - (09/09/2009-10:39)"
*DESIGN_FLOW "Physical Verification"
*DIVIDER /
*DELIMITER :
*BUS_DELIMITER []
*T_UNIT 1 PS
*C_UNIT 1e15 FF
*R_UNIT 1 OHM
*L_UNIT 1 MH
// DeviceFingerDelim "@"
// MATCHED
// caps2d version: 10

*NAME_MAP
*1 mn35
*2 mn30
*3 mn40
*4 mn51
*5 mn50
*6 mn55\@3
*7 mp0
*8 mp20
*9 mp21
*10 mp25
*11 mp36
*12 mp35
*13 mp30
*14 mp40
*15 mp51
*16 mp50
*17 CKb
*18 mp55
*19 qbint
*20 mp55\@1
*21 CKbb
*22 mp55\@2
*23 n30
*24 mp55\@3
*25 Db
*26 mp45
*27 net309
*28 mp45\@1
*29 net317
*30 mp1
*31 net328
*32 mp3
*33 net340
*34 mp2
*35 net380
*36 net333
*37 CK
*38 VSS
*39 D
*40 E
*41 mn55
*42 mn55\@1
*43 mn55\@2
*44 mn45
*45 Q
*46 mn45\@1
*47 VDD
*48 mn1
*49 mn3
*50 mn2
*51 mout
*52 mn0
*53 n20
*54 Eb
*55 mn20
*56 mn21
*57 mn25
*58 mn36

*GROUND_NETS VSS

*PORTS
*47 I
*38 I
*37 I
*39 I
*40 I
*45 O

*D_NET *47 7.94253e-16

*CONN
*P *47 I *C 0.1000 1.7100 
*I *18:s B *C 3.0450 1.2350 
*I *20:s B *C 3.5150 1.2350 
*I *22:s B *C 3.5150 1.2350 
*I *24:s B *C 3.9925 1.1950 
*I *26:s B *C 3.9925 1.1950 
*I *28:s B *C 4.3850 1.3350 
*I *34:s B *C 5.7100 1.0625 
*I *7:s B *C 5.7100 1.0625 
*I *8:s B *C 0.4800 1.3725 
*I *9:s B *C 0.4800 1.3725 
*I *12:s B *C 1.7950 1.1950 
*I *13:s B *C 1.7950 1.1950 
*I *16:s B *C 3.0450 1.2350 
*N *47:2 *C 5.2000 1.7100 
*N *47:3 *C 5.2000 1.7100 
*N *47:9 *C 1.7800 1.7100 
*N *47:10 *C 1.1000 1.7100 
*N *47:11 *C 0.3950 1.7100 

*CAP
0 *12:s 4.8553e-17
1 *8:s 8.25694e-18
2 *34:s 3.80593e-17
3 *28:s 1.81316e-16
4 *47:11 1.83764e-17
5 *47:9 4.19135e-17
6 *47:2 4.46172e-16
7 *47 1.16068e-17

*RES
0 *47:11 *47 0.147466  // $metal1_conn
1 *47:2 *47:3 7.5  // $metal1_conn
2 *47:2 *28:s 7.5  // $metal1_conn
3 *47:2 *47:10 6.818182  // $metal1_conn
4 *34:s *47:3 62.479893  // $metal1_conn
5 *47:9 *12:s 62.267948  // $metal1_conn
6 *47:11 *8:s 62.074516  // $metal1_conn
7 *47:3 *28:s 0.408444  // $metal1_conn
8 *28:s *47:9 0.576217  // $metal1_conn
9 *47:9 *47:10 0.340755  // $metal1_conn
10 *47:10 *47:11 0.35329  // $metal1_conn

*END

*D_NET *38 0

*CONN
*P *38 I *C 0.1000 0.0000 
*I *41:s B *C 3.4300 0.5300 
*I *42:s B *C 3.4300 0.5300 
*I *43:s B *C 4.1675 0.5025 
*I *44:s B *C 4.1675 0.5025 
*I *46:s B *C 4.6550 0.1400 
*I *50:s B *C 5.7100 0.4525 
*I *52:s B *C 5.7100 0.4525 
*I *55:s B *C 0.4200 0.5025 
*I *56:s B *C 0.4200 0.5025 
*I *1:s B *C 1.8200 0.5375 
*I *2:s B *C 1.8200 0.5375 
*I *5:s B *C 2.9050 0.5300 
*I *6:s B *C 2.9050 0.5300 
*N *38:2 *C 5.2000 0.0000 
*N *38:3 *C 5.2000 0.0000 
*N *38:9 *C 1.7200 0.0000 
*N *38:10 *C 1.1000 0.0000 
*N *38:11 *C 0.4200 0.0000 


*RES
0 *38:11 *38 0.160001  // $metal1_conn
1 *38:2 *38:3 6.2  // $metal1_conn
2 *38:2 *46:s 6.2  // $metal1_conn
3 *38:2 *38:10 5.636364  // $metal1_conn
4 *50:s *38:3 75.419182  // $metal1_conn
5 *38:9 *1:s 75.137482  // $metal1_conn
6 *38:11 *55:s 75.31987  // $metal1_conn
7 *38:3 *46:s 0.285602  // $metal1_conn
8 *46:s *38:9 0.506021  // $metal1_conn
9 *38:9 *38:10 0.310671  // $metal1_conn
10 *38:10 *38:11 0.340755  // $metal1_conn

*END

*D_NET *37 2.16761e-16

*CONN
*P *37 I *C 0.3000 1.0450 
*I *55:g B *C 0.3175 0.5025 
*I *8:g B *C 0.2625 1.3725 
*N *37:2 *C 0.2900 1.0400 
*N *37:4 *C 0.2900 1.0400 

*CAP
0 *8:g 3.51098e-17
1 *55:g 4.51554e-17
2 *37:2 3.98359e-17
3 *37 9.66598e-17

*RES
0 *55:g *37:2 110.71759  // $poly_conn
1 *37:2 *8:g 49.179131  // $poly_conn
2 *37:4 *37 0.003111  // $metal1_conn
3 *37:2 *37:4 45  // $metal1_conn

*END

*D_NET *39 2.90942e-16

*CONN
*P *39 I *C 5.5000 0.8550 
*I *50:g B *C 5.4425 0.3950 
*I *34:g B *C 5.4425 1.1500 
*N *39:2 *C 5.4900 0.8500 
*N *39:4 *C 5.4900 0.8500 

*CAP
0 *34:g 5.06872e-17
1 *50:g 8.0464e-17
2 *39:2 4.94586e-17
3 *39 1.10332e-16

*RES
0 *34:g *39:2 17.437269  // $poly_conn
1 *39:2 *50:g 73.847527  // $poly_conn
2 *39:4 *39 0.003678  // $metal1_conn
3 *39:2 *39:4 45  // $metal1_conn

*END

*D_NET *40 6.01258e-16

*CONN
*P *40 I *C 5.9000 0.6650 
*I *49:g B *C 5.3375 0.3950 
*I *52:g B *C 5.8375 0.4525 
*I *30:g B *C 5.0075 1.1500 
*I *7:g B *C 5.8375 1.0625 
*N *40:2 *C 4.9500 0.8550 
*N *40:4 *C 5.3000 0.6550 
*N *40:6 *C 5.8650 0.6350 
*N *40:8 *C 5.8650 0.6350 
*N *40:9 *C 5.3300 0.5150 

*CAP
0 *7:g 3.80979e-17
1 *30:g 3.92182e-17
2 *52:g 2.13188e-17
3 *49:g 5.96984e-17
4 *40:9 1.24785e-16
5 *40:2 1.33358e-16
6 *40:4 7.56271e-17
7 *40:6 8.27292e-17
8 *40 2.64249e-17

*RES
0 *30:g *40:2 65.156593  // $poly_conn
1 *49:g *40:4 68.847527  // $poly_conn
2 *7:g *40:6 73.538101  // $poly_conn
3 *40:6 *52:g 19.691952  // $poly_conn
4 *40 *40:8 0.019795  // $metal1_conn
5 *40:8 *40:9 0.433089  // $metal1_conn
6 *40:9 *40:2 0.862625  // $metal1_conn
7 *40:9 *40:4 0.093389  // $metal1_conn
8 *40:6 *40:8 45  // $metal1_conn

*END

*D_NET *45 3.74071e-16

*CONN
*P *45 O *C 3.1000 1.0450 
*I *41:d B *C 3.1375 0.5300 
*I *42:d B *C 3.7525 0.5300 
*I *43:d B *C 3.7525 0.5300 
*I *6:d B *C 3.1375 0.5300 
*I *18:d B *C 3.1950 1.2350 
*I *20:d B *C 3.1950 1.2350 
*I *22:d B *C 3.6650 1.2350 
*I *24:d B *C 3.6650 1.2350 

*CAP
0 *22:d 1.30192e-16
1 *41:d 2.15439e-16
2 *45 2.84402e-17

*RES
0 *22:d *45 0.057404  // $metal1_conn
1 *45 *41:d 0.18472  // $metal1_conn

*END

*D_NET *36 8.93728e-19

*CONN
*I *49:s B *C 5.3900 0.3950 
*I *50:d B *C 5.3900 0.3950 

*CAP
0 *49:s 8.93728e-19

*RES
0 *50:d *49:s 0.001  // $mwires

*END

*D_NET *35 0

*CONN
*I *4:s B *C 2.5750 0.5375 
*I *5:d B *C 2.5750 0.5375 


*RES
0 *5:d *4:s 0.001  // $mwires

*END

*D_NET *33 1.32742e-20

*CONN
*I *58:s B *C 1.5050 0.5375 
*I *1:d B *C 1.5050 0.5375 

*CAP
0 *58:s 1.32742e-20

*RES
0 *1:d *58:s 0.001  // $mwires

*END

*D_NET *31 4.86067e-18

*CONN
*I *32:s B *C 5.3525 1.1500 
*I *34:d B *C 5.3525 1.1500 

*CAP
0 *32:s 4.86067e-18

*RES
0 *34:d *32:s 0.001  // $mwires

*END

*D_NET *29 3.20786e-18

*CONN
*I *15:s B *C 2.6050 1.1950 
*I *16:d B *C 2.6050 1.1950 

*CAP
0 *15:s 3.20786e-18

*RES
0 *16:d *15:s 0.001  // $mwires

*END

*D_NET *27 6.81732e-18

*CONN
*I *11:s B *C 1.5050 1.1950 
*I *12:d B *C 1.5050 1.1950 

*CAP
0 *11:s 6.81732e-18

*RES
0 *12:d *11:s 0.001  // $mwires

*END

*D_NET *25 9.92643e-16

*CONN
*I *48:s B *C 5.2025 0.3950 
*I *49:d B *C 5.2025 0.3950 
*I *57:s B *C 0.8900 0.5375 
*I *30:s B *C 5.1350 1.1500 
*I *32:d B *C 5.1350 1.1500 
*I *10:s B *C 1.0350 1.1950 
*N *25:3 *C 5.1100 1.1500 
*N *25:5 *C 1.0250 1.1800 

*CAP
0 *10:s 3.96225e-16
1 *30:s 4.00519e-16
2 *57:s 8.99337e-17
3 *48:s 1.05965e-16

*RES
0 *48:s *25:3 75.536476  // $metal1_conn
1 *25:3 *25:5 3.30125  // $metal1_conn
2 *25:5 *57:s 75.536133  // $metal1_conn
3 *30:s *25:3 20.666666  // $metal1_conn
4 *10:s *25:5 31  // $metal1_conn

*END

*D_NET *23 7.6663e-16

*CONN
*I *44:g B *C 4.2925 0.5025 
*I *46:g B *C 4.4975 0.5025 
*I *3:s B *C 2.3775 0.5375 
*I *4:d B *C 2.3775 0.5375 
*I *26:g B *C 4.0475 1.1950 
*I *28:g B *C 4.2525 1.1950 
*I *14:s B *C 2.4500 1.1950 
*I *15:d B *C 2.4500 1.1950 
*N *23:9 *C 2.6850 0.6850 

*CAP
0 *14:s 7.53801e-17
1 *28:g 4.29144e-16
2 *3:s 5.85012e-17
3 *23:9 2.03605e-16

*RES
0 *28:g *23:9 1.645341  // $metal1_conn
1 *23:9 *14:s 62.452358  // $metal1_conn
2 *23:9 *3:s 75.267906  // $metal1_conn

*END

*D_NET *21 1.01743e-15

*CONN
*I *56:d B *C 0.6150 0.5025 
*I *58:g B *C 1.4525 0.5375 
*I *3:g B *C 2.2325 0.5375 
*I *9:d B *C 0.6200 1.3725 
*I *10:g B *C 1.1275 1.1950 
*I *15:g B *C 2.5525 1.1950 
*N *21:2 *C 1.0700 0.8800 
*N *21:4 *C 1.4250 0.7500 
*N *21:6 *C 2.2600 0.7500 
*N *21:8 *C 2.5250 0.9150 
*N *21:9 *C 1.4500 0.4000 
*N *21:10 *C 1.0700 0.4000 
*N *21:11 *C 0.6900 0.4600 

*CAP
0 *15:g 6.90175e-17
1 *10:g 3.81183e-17
2 *9:d 5.68193e-17
3 *3:g 3.16517e-17
4 *58:g 5.16782e-17
5 *56:d 2.52675e-17
6 *21:11 1.04781e-16
7 *21:10 7.08087e-17
8 *21:9 1.03484e-16
9 *21:2 1.09318e-16
10 *21:4 8.68538e-17
11 *21:6 1.5843e-16
12 *21:8 1.11205e-16

*RES
0 *10:g *21:2 80.541206  // $poly_conn
1 *58:g *21:4 64.691956  // $poly_conn
2 *3:g *21:6 64.691956  // $poly_conn
3 *15:g *21:8 68.538101  // $poly_conn
4 *21:8 *21:6 0.296582  // $metal1_conn
5 *21:6 *21:9 0.833849  // $metal1_conn
6 *21:9 *21:10 0.283654  // $metal1_conn
7 *21:10 *21:11 0.298296  // $metal1_conn
8 *21:11 *56:d 75.024734  // $metal1_conn
9 *21:9 *21:4 0.233243  // $metal1_conn
10 *21:10 *21:2 0.362375  // $metal1_conn
11 *21:11 *9:d 62.619087  // $metal1_conn

*END

*D_NET *19 7.77295e-16

*CONN
*I *41:g B *C 3.2975 0.5300 
*I *42:g B *C 3.5625 0.5300 
*I *43:g B *C 3.9425 0.5300 
*I *44:d B *C 4.3950 0.5025 
*I *46:d B *C 4.3950 0.5025 
*I *48:d B *C 4.9950 0.3950 
*I *5:g B *C 2.6275 0.5375 
*I *6:g B *C 2.9775 0.5300 
*I *18:g B *C 3.0925 1.2350 
*I *20:g B *C 3.2975 1.2350 
*I *22:g B *C 3.5625 1.2350 
*I *24:g B *C 3.7675 1.2350 
*I *26:d B *C 4.1500 1.1950 
*I *28:d B *C 4.1500 1.1950 
*I *30:d B *C 4.9150 1.1500 
*I *16:g B *C 2.6575 1.1950 
*N *19:8 *C 2.6575 0.7375 
*N *19:19 *C 4.5100 0.4950 
*N *19:20 *C 4.5100 0.9900 
*N *19:21 *C 4.1500 0.9900 

*CAP
0 *16:g 7.69136e-17
1 *30:d 4.42972e-17
2 *26:d 2.3287e-17
3 *24:g 3.35204e-16
4 *5:g 4.31803e-17
5 *48:d 3.72712e-17
6 *44:d 2.2851e-17
7 *19:21 5.69372e-17
8 *19:20 5.74269e-17
9 *19:19 3.77176e-17
10 *19:8 4.22086e-17

*RES
0 *19:8 *16:g 72.959076  // $poly_conn
1 *24:g *19:8 82.96991  // $poly_conn
2 *19:8 *5:g 31.042923  // $poly_conn
3 *19:21 *24:g 45.399456  // $metal1_conn
4 *19:20 *30:d 62.315819  // $metal1_conn
5 *48:d *19:19 75.193687  // $metal1_conn
6 *19:19 *44:d 75.083733  // $metal1_conn
7 *19:21 *26:d 62.065868  // $metal1_conn
8 *19:19 *19:20 0.329509  // $metal1_conn
9 *19:20 *19:21 0.243306  // $metal1_conn

*END

*D_NET *17 6.9145e-16

*CONN
*I *55:d B *C 0.2250 0.5025 
*I *56:g B *C 0.5225 0.5025 
*I *57:g B *C 0.9825 0.5375 
*I *4:g B *C 2.5225 0.5375 
*I *8:d B *C 0.1550 1.3725 
*I *9:g B *C 0.5275 1.3725 
*I *11:g B *C 1.3325 1.1950 
*I *14:g B *C 2.3475 1.1950 
*N *17:4 *C 0.9825 0.7375 
*N *17:5 *C 0.5000 0.7000 
*N *17:10 *C 0.2150 0.6800 

*CAP
0 *14:g 1.04452e-16
1 *11:g 1.14031e-16
2 *9:g 5.00793e-17
3 *8:d 5.78019e-17
4 *4:g 9.59761e-17
5 *57:g 2.20641e-17
6 *56:g 2.04675e-17
7 *55:d 1.7471e-17
8 *17:10 7.24737e-17
9 *17:4 5.07281e-17
10 *17:5 8.59051e-17

*RES
0 *4:g *14:g 123.779839  // $poly_conn
1 *14:g *11:g 352.274506  // $poly_conn
2 *11:g *17:4 148.413635  // $poly_conn
3 *17:4 *17:5 111.988319  // $poly_conn
4 *17:4 *57:g 20.300484  // $poly_conn
5 *17:5 *56:g 21.244829  // $poly_conn
6 *17:5 *9:g 134.25618  // $poly_conn
7 *55:d *17:10 75.09343  // $metal1_conn
8 *17:10 *8:d 62.592243  // $metal1_conn
9 *17:10 *17:5 45.212204  // $metal1_conn

*END

*D_NET *54 4.04222e-16

*CONN
*I *48:g B *C 5.0675 0.3950 
*I *52:d B *C 5.9725 0.4525 
*I *32:g B *C 5.2625 1.1500 
*I *7:d B *C 5.9300 1.0625 
*N *54:2 *C 5.3000 0.8550 
*N *54:6 *C 5.9400 1.1100 

*CAP
0 *7:d 8.9994e-17
1 *32:g 4.05839e-17
2 *52:d 7.06157e-17
3 *48:g 5.51867e-17
4 *54:2 1.47842e-16

*RES
0 *32:g *54:2 16.15522  // $poly_conn
1 *54:2 *48:g 108.387527  // $poly_conn
2 *52:d *54:6 75.537849  // $metal1_conn
3 *54:6 *54:2 45.590462  // $metal1_conn
4 *7:d *54:6 62  // $metal1_conn

*END

*D_NET *53 4.15371e-16

*CONN
*I *57:d B *C 1.2175 0.5375 
*I *58:d B *C 1.2175 0.5375 
*I *2:g B *C 1.9125 0.5375 
*I *10:d B *C 1.2300 1.1950 
*I *11:d B *C 1.2300 1.1950 
*I *13:g B *C 1.9125 1.1950 
*N *53:2 *C 1.9400 0.7500 
*N *53:5 *C 1.2300 0.9400 

*CAP
0 *13:g 5.7576e-17
1 *10:d 3.14122e-17
2 *2:g 3.23084e-17
3 *57:d 7.09004e-17
4 *53:5 9.97112e-17
5 *53:2 1.23463e-16

*RES
0 *13:g *53:2 65.845795  // $poly_conn
1 *53:2 *2:g 19.691952  // $poly_conn
2 *10:d *53:5 62.109612  // $metal1_conn
3 *53:5 *57:d 75.304375  // $metal1_conn
4 *53:5 *53:2 45.624374  // $metal1_conn

*END

*D_NET *51 3.83626e-16

*CONN
*I *1:g B *C 1.5575 0.5375 
*I *2:d B *C 2.0725 0.5375 
*I *3:d B *C 2.0725 0.5375 
*I *12:g B *C 1.6775 1.1950 
*I *13:d B *C 2.1300 1.1950 
*I *14:d B *C 2.1300 1.1950 
*N *51:1 *C 1.7700 0.9100 
*N *51:2 *C 1.6775 0.9100 
*N *51:6 *C 2.1000 0.9400 

*CAP
0 *13:d 4.04943e-17
1 *12:g 4.70867e-17
2 *2:d 5.82719e-17
3 *1:g 7.59841e-17
4 *51:6 4.77372e-17
5 *51:2 2.69914e-17
6 *51:1 8.70602e-17

*RES
0 *51:1 *51:2 49.422031  // $poly_conn
1 *51:2 *1:g 83.094437  // $poly_conn
2 *51:2 *12:g 28.255793  // $poly_conn
3 *13:d *51:6 62.11903  // $metal1_conn
4 *51:6 *51:1 0.230614  // $metal1_conn
5 *51:6 *2:d 75.292526  // $metal1_conn

*END

