*SPEF "IEEE 1481-1999"
*DESIGN  "EDFFXL"
*DATE "Mon Sep 27 09:49:18 2010"
*VENDOR "Cadence Design Systems"
*PROGRAM "Assura RCX"
*VERSION "3.2 Red Hat Linux release 7.2 (Enigma) - (09/09/2009-10:39)"
*DESIGN_FLOW "Physical Verification"
*DIVIDER /
*DELIMITER :
*BUS_DELIMITER []
*T_UNIT 1 PS
*C_UNIT 1e15 FF
*R_UNIT 1 OHM
*L_UNIT 1 MH
// DeviceFingerDelim "@"
// MATCHED
// caps2d version: 10

*NAME_MAP
*1 VDD
*2 net411
*3 net415
*4 n0
*5 VSS
*6 qint
*7 n30
*8 QN
*9 mn45
*10 mn1
*11 mn3
*12 mp21
*13 mn2
*14 mp25
*15 mn0
*16 mp36
*17 mp45
*18 mn55
*19 mp35
*20 mp1
*21 mn56
*22 mp30
*23 mp3
*24 mn21
*25 mn57
*26 mp40
*27 mp2
*28 mn25
*29 mn20
*30 mp51
*31 mp0
*32 mn36
*33 mp50
*34 mp55
*35 mn35
*36 mp56
*37 mn30
*38 mp57
*39 mn40
*40 mp20
*41 mn51
*42 mn50
*43 CK
*44 D
*45 E
*46 Eb
*47 mout
*48 n20
*49 Ckb
*50 qbint
*51 CKbb
*52 Db
*53 net342
*54 Q
*55 net362
*56 n1

*GROUND_NETS VSS

*PORTS
*1 I
*5 I
*43 I
*44 I
*45 I
*54 O
*8 O

*D_NET *1 6.75553e-16

*CONN
*P *1 I *C 0.1000 1.7100 
*I *17:s B *C 2.9300 1.1375 
*I *27:s B *C 4.0425 1.1375 
*I *31:s B *C 4.0425 1.1375 
*I *34:s B *C 4.7150 1.0075 
*I *36:s B *C 4.7150 1.0075 
*I *38:s B *C 5.2550 1.1325 
*I *40:s B *C 0.4025 1.3725 
*I *12:s B *C 0.4025 1.3725 
*I *19:s B *C 1.7600 1.1375 
*I *22:s B *C 1.7600 1.1375 
*I *33:s B *C 2.9300 1.1375 
*N *1:2 *C 4.7000 1.7100 
*N *1:3 *C 4.7000 1.7100 
*N *1:4 *C 3.9000 1.7100 
*N *1:5 *C 2.9000 1.7100 
*N *1:6 *C 1.7050 1.7100 
*N *1:7 *C 1.0000 1.7100 
*N *1:8 *C 0.4250 1.7100 

*CAP
0 *19:s 2.91933e-17
1 *40:s 2.3941e-17
2 *38:s 2.29034e-17
3 *34:s 2.71964e-17
4 *27:s 3.5328e-17
5 *17:s 8.49956e-18
6 *1:8 1.76137e-17
7 *1:6 4.56346e-17
8 *1:4 3.2969e-17
9 *1:2 4.18152e-16
10 *1 1.41222e-17

*RES
0 *38:s *1:3 62.640694  // $metal1_conn
1 *1:3 *1:4 0.401077  // $metal1_conn
2 *1:4 *1:5 0.501203  // $metal1_conn
3 *1:5 *1:6 0.598976  // $metal1_conn
4 *1:6 *1:7 0.35329  // $metal1_conn
5 *1:7 *1:8 0.288109  // $metal1_conn
6 *1:8 *1 0.162508  // $metal1_conn
7 *1:3 *34:s 62.432503  // $metal1_conn
8 *1:4 *27:s 62.15081  // $metal1_conn
9 *1:5 *17:s 62.080051  // $metal1_conn
10 *1:6 *19:s 62.117207  // $metal1_conn
11 *1:8 *40:s 62.174473  // $metal1_conn
12 *1:2 *1:3 8.333333  // $metal1_conn
13 *1:2 *1:5 8.333333  // $metal1_conn
14 *1:2 *1:7 7.5  // $metal1_conn

*END

*D_NET *5 0

*CONN
*P *5 I *C 0.1000 0.0000 
*I *9:s B *C 2.8450 0.5825 
*I *13:s B *C 4.0425 0.5825 
*I *15:s B *C 4.0425 0.5825 
*I *18:s B *C 4.7600 0.5875 
*I *21:s B *C 4.7600 0.5875 
*I *25:s B *C 5.2475 0.4625 
*I *29:s B *C 0.3950 0.4575 
*I *24:s B *C 0.3950 0.4575 
*I *35:s B *C 1.7600 0.5825 
*I *37:s B *C 1.7600 0.5825 
*I *42:s B *C 2.8450 0.5825 
*N *5:2 *C 4.7000 0.0000 
*N *5:3 *C 4.7000 0.0000 
*N *5:4 *C 3.9000 0.0000 
*N *5:5 *C 2.9000 0.0000 
*N *5:6 *C 2.7850 0.0000 
*N *5:7 *C 1.6450 0.0000 
*N *5:8 *C 1.0000 0.0000 
*N *5:9 *C 0.3950 0.0000 


*RES
0 *25:s *5:3 75.58049  // $metal1_conn
1 *5:3 *5:4 0.400923  // $metal1_conn
2 *5:4 *5:5 0.501203  // $metal1_conn
3 *5:5 *5:6 0.057465  // $metal1_conn
4 *5:6 *5:7 0.571203  // $metal1_conn
5 *5:7 *5:8 0.323206  // $metal1_conn
6 *5:8 *5:9 0.30315  // $metal1_conn
7 *5:9 *5 0.147466  // $metal1_conn
8 *5:3 *18:s 75.082596  // $metal1_conn
9 *5:4 *13:s 75.140816  // $metal1_conn
10 *5:6 *9:s 75.357384  // $metal1_conn
11 *5:7 *35:s 75.147476  // $metal1_conn
12 *5:9 *29:s 75.283394  // $metal1_conn
13 *5:2 *5:3 6.888889  // $metal1_conn
14 *5:2 *5:5 6.888889  // $metal1_conn
15 *5:2 *5:8 6.2  // $metal1_conn

*END

*D_NET *43 2.24378e-16

*CONN
*P *43 I *C 0.3000 0.8550 
*I *29:g B *C 0.2925 0.4575 
*I *40:g B *C 0.2775 1.3725 
*N *43:2 *C 0.2900 0.8250 
*N *43:4 *C 0.2900 0.8250 

*CAP
0 *40:g 4.11908e-17
1 *29:g 3.45407e-17
2 *43:4 2.81149e-17
3 *43:2 4.9806e-17
4 *43 7.07261e-17

*RES
0 *29:g *43:2 66.15522  // $poly_conn
1 *43:2 *40:g 103.334709  // $poly_conn
2 *43:4 *43 0.018665  // $metal1_conn
3 *43:2 *43:4 45  // $metal1_conn

*END

*D_NET *44 2.3808e-16

*CONN
*P *44 I *C 3.9000 0.8550 
*I *13:g B *C 3.7975 0.5825 
*I *27:g B *C 3.7975 1.1375 
*N *44:2 *C 3.8250 0.7850 
*N *44:4 *C 3.8250 0.7850 
*N *44:5 *C 3.8250 0.8200 
*N *44:6 *C 3.9005 0.8200 

*CAP
0 *27:g 3.40023e-17
1 *13:g 3.02981e-17
2 *44:5 7.14522e-17
3 *44:2 3.26712e-17
4 *44 6.96564e-17

*RES
0 *27:g *44:2 54.307335  // $poly_conn
1 *44:2 *13:g 24.820156  // $poly_conn
2 *44:4 *44:5 0.011929  // $metal1_conn
3 *44:6 *44 0.011929  // $metal1_conn
4 *44:5 *44:6 0.011981  // $metal1_conn
5 *44:2 *44:4 45  // $metal1_conn

*END

*D_NET *45 6.06143e-16

*CONN
*P *45 I *C 4.1000 0.8550 
*I *11:g B *C 3.4925 0.5825 
*I *15:g B *C 4.1175 0.5825 
*I *20:g B *C 3.2025 1.1375 
*I *31:g B *C 4.1175 1.1375 
*N *45:2 *C 3.2300 1.4350 
*N *45:4 *C 3.4650 0.7650 
*N *45:6 *C 4.0900 0.8500 
*N *45:8 *C 3.4650 1.2900 

*CAP
0 *31:g 2.94204e-17
1 *20:g 5.17415e-17
2 *15:g 3.72347e-17
3 *11:g 3.38667e-17
4 *45:8 1.34031e-16
5 *45:2 6.87333e-17
6 *45:4 1.19254e-16
7 *45:6 2.21235e-17
8 *45 1.09738e-16

*RES
0 *20:g *45:2 85.204773  // $poly_conn
1 *11:g *45:4 64.691956  // $poly_conn
2 *31:g *45:6 37.640671  // $poly_conn
3 *45:6 *15:g 41.486824  // $poly_conn
4 *45:4 *45:8 0.418088  // $metal1_conn
5 *45:8 *45:2 0.272144  // $metal1_conn
6 *45:8 *45 0.777699  // $metal1_conn
7 *45 *45:6 45.002922  // $metal1_conn

*END

*D_NET *54 9.3506e-17

*CONN
*P *54 O *C 4.5000 0.6650 
*I *18:d B *C 4.4900 0.5875 
*I *34:d B *C 4.4900 1.0075 

*CAP
0 *34:d 4.38815e-17
1 *18:d 3.14108e-17
2 *54 1.82138e-17

*RES
0 *18:d *54 75.037926  // $metal1_conn
1 *54 *34:d 62.177486  // $metal1_conn

*END

*D_NET *8 8.12007e-17

*CONN
*P *8 O *C 5.5000 0.8550 
*I *25:d B *C 5.4650 0.4625 
*I *38:d B *C 5.4600 1.1325 

*CAP
0 *38:d 2.08118e-17
1 *25:d 3.25521e-17
2 *8 2.78368e-17

*RES
0 *25:d *8 75.237534  // $metal1_conn
1 *8 *38:d 62.153259  // $metal1_conn

*END

*D_NET *4 3.15131e-18

*CONN
*I *11:s B *C 3.6450 0.5825 
*I *13:d B *C 3.6450 0.5825 

*CAP
0 *11:s 3.15131e-18

*RES
0 *13:d *11:s 0.001  // $mwires

*END

*D_NET *3 0

*CONN
*I *41:s B *C 2.6600 0.5825 
*I *42:d B *C 2.6600 0.5825 


*RES
0 *42:d *41:s 0.001  // $mwires

*END

*D_NET *2 0

*CONN
*I *32:s B *C 1.4200 0.5825 
*I *35:d B *C 1.4200 0.5825 


*RES
0 *35:d *32:s 0.001  // $mwires

*END

*D_NET *56 6.96623e-18

*CONN
*I *23:s B *C 3.6025 1.1375 
*I *27:d B *C 3.6025 1.1375 

*CAP
0 *23:s 6.96623e-18

*RES
0 *27:d *23:s 0.001  // $mwires

*END

*D_NET *55 4.46496e-19

*CONN
*I *30:s B *C 2.6500 1.1375 
*I *33:d B *C 2.6500 1.1375 

*CAP
0 *30:s 4.46496e-19

*RES
0 *33:d *30:s 0.001  // $mwires

*END

*D_NET *53 6.53343e-18

*CONN
*I *16:s B *C 1.3625 1.1375 
*I *19:d B *C 1.3625 1.1375 

*CAP
0 *16:s 6.53343e-18

*RES
0 *19:d *16:s 0.001  // $mwires

*END

*D_NET *52 7.37353e-16

*CONN
*I *10:s B *C 3.3475 0.5825 
*I *11:d B *C 3.3475 0.5825 
*I *28:d B *C 0.8550 0.5825 
*I *20:s B *C 3.3050 1.1375 
*I *23:d B *C 3.3050 1.1375 
*I *14:s B *C 0.8700 1.1375 
*N *52:2 *C 3.3050 1.0900 
*N *52:4 *C 0.8450 1.0900 

*CAP
0 *14:s 3.01702e-16
1 *20:s 3.04055e-16
2 *28:d 6.83222e-17
3 *10:s 6.32734e-17

*RES
0 *52:2 *52:4 2.224218  // $metal1_conn
1 *52:4 *28:d 75.402596  // $metal1_conn
2 *52:2 *10:s 75.40213  // $metal1_conn
3 *20:s *52:2 62  // $metal1_conn
4 *14:s *52:4 62  // $metal1_conn

*END

*D_NET *51 8.94042e-16

*CONN
*I *24:d B *C 0.6050 0.4575 
*I *32:g B *C 1.2975 0.5825 
*I *39:g B *C 2.2125 0.5825 
*I *12:d B *C 0.6200 1.3725 
*I *14:g B *C 0.9775 1.1375 
*I *30:g B *C 2.5875 1.1375 
*N *51:2 *C 1.0050 0.8950 
*N *51:4 *C 1.2600 0.3050 
*N *51:6 *C 2.1850 0.7650 
*N *51:8 *C 2.4500 0.9200 
*N *51:9 *C 2.3450 0.7650 
*N *51:10 *C 1.2600 0.4050 
*N *51:11 *C 1.0050 0.4050 
*N *51:13 *C 0.6300 0.4450 

*CAP
0 *30:g 5.90872e-17
1 *14:g 4.03147e-17
2 *12:d 7.61973e-17
3 *39:g 2.26584e-17
4 *32:g 4.12685e-17
5 *24:d 8.9918e-17
6 *51:11 5.80101e-17
7 *51:10 1.11914e-16
8 *51:9 1.13469e-16
9 *51:2 1.15045e-16
10 *51:4 3.55042e-17
11 *51:6 5.90898e-17
12 *51:8 7.15652e-17

*RES
0 *14:g *51:2 71.102211  // $poly_conn
1 *32:g *51:4 88.078293  // $poly_conn
2 *39:g *51:6 64.691956  // $poly_conn
3 *30:g *51:8 76.350235  // $poly_conn
4 *51:6 *51:9 0.065182  // $metal1_conn
5 *51:9 *51:10 1.026154  // $metal1_conn
6 *51:10 *51:11 0.20596  // $metal1_conn
7 *51:11 *51:13 0.262649  // $metal1_conn
8 *51:9 *51:8 0.154879  // $metal1_conn
9 *51:10 *51:4 0.035098  // $metal1_conn
10 *51:11 *51:2 0.369779  // $metal1_conn
11 *51:13 *12:d 62.643883  // $metal1_conn
12 *24:d *51:13 75  // $metal1_conn

*END

*D_NET *50 6.57159e-16

*CONN
*I *9:d B *C 3.0900 0.5825 
*I *10:d B *C 3.0900 0.5825 
*I *18:g B *C 4.5825 0.5875 
*I *21:g B *C 4.8075 0.5875 
*I *42:g B *C 2.7125 0.5825 
*I *17:d B *C 3.0900 1.1375 
*I *20:d B *C 3.0900 1.1375 
*I *34:g B *C 4.5825 1.0075 
*I *36:g B *C 4.8475 1.0075 
*I *33:g B *C 2.7125 1.1375 
*N *50:1 *C 2.7700 0.9250 
*N *50:2 *C 2.7125 0.9250 
*N *50:6 *C 4.8050 0.8025 
*N *50:7 *C 4.5825 0.8025 
*N *50:9 *C 4.5550 0.4050 
*N *50:13 *C 3.1000 0.5700 
*N *50:14 *C 3.0850 0.9550 

*CAP
0 *33:g 5.01706e-17
1 *36:g 1.81738e-17
2 *34:g 1.90136e-17
3 *17:d 3.76388e-17
4 *42:g 5.90462e-17
5 *21:g 1.57992e-17
6 *18:g 1.17999e-17
7 *9:d 1.38667e-16
8 *50:14 5.06105e-17
9 *50:7 7.63829e-18
10 *50:6 8.65893e-18
11 *50:2 4.17938e-17
12 *50:1 4.59428e-17
13 *50:9 1.52206e-16

*RES
0 *50:1 *50:2 45.794373  // $poly_conn
1 *50:2 *42:g 64.153229  // $poly_conn
2 *50:2 *33:g 21.845535  // $poly_conn
3 *36:g *50:6 30.449844  // $poly_conn
4 *50:6 *50:7 51.536694  // $poly_conn
5 *50:7 *18:g 35.003685  // $poly_conn
6 *18:g *50:9 64.691956  // $poly_conn
7 *50:6 *21:g 32.277519  // $poly_conn
8 *50:7 *34:g 23.465221  // $poly_conn
9 *50:9 *50:13 1.156714  // $metal1_conn
10 *50:13 *50:14 0.286163  // $metal1_conn
11 *50:14 *50:1 0.19996  // $metal1_conn
12 *50:14 *17:d 62.093269  // $metal1_conn
13 *9:d *50:13 75  // $metal1_conn

*END

*D_NET *49 8.73292e-16

*CONN
*I *29:d B *C 0.2000 0.4575 
*I *24:g B *C 0.4975 0.4575 
*I *28:g B *C 0.9475 0.5825 
*I *41:g B *C 2.6075 0.5825 
*I *40:d B *C 0.1850 1.3725 
*I *12:g B *C 0.5275 1.3725 
*I *16:g B *C 1.1825 1.1375 
*I *26:g B *C 2.3175 1.1375 
*N *49:2 *C 0.9475 0.7525 
*N *49:3 *C 0.5350 0.7525 
*N *49:4 *C 0.4700 0.7150 
*N *49:6 *C 1.2100 1.4100 
*N *49:11 *C 2.1350 1.4100 
*N *49:12 *C 0.1900 0.6350 

*CAP
0 *26:g 7.12271e-17
1 *16:g 5.38711e-17
2 *12:g 4.74233e-17
3 *40:d 7.31845e-17
4 *41:g 8.03123e-17
5 *28:g 2.26718e-17
6 *24:g 2.5158e-17
7 *29:d 1.87076e-17
8 *49:12 7.22104e-17
9 *49:2 4.17985e-17
10 *49:4 9.31283e-17
11 *49:6 1.37135e-16
12 *49:11 1.36464e-16

*RES
0 *28:g *49:2 20.491871  // $poly_conn
1 *49:2 *49:3 103.513191  // $poly_conn
2 *49:3 *49:4 9.839872  // $poly_conn
3 *49:2 *16:g 112.133423  // $poly_conn
4 *16:g *49:6 78.794518  // $poly_conn
5 *49:3 *12:g 128.926514  // $poly_conn
6 *49:4 *24:g 38.099056  // $poly_conn
7 *41:g *26:g 158.684784  // $poly_conn
8 *26:g *49:11 112.624084  // $poly_conn
9 *49:4 *49:12 45.261982  // $metal1_conn
10 *49:12 *40:d 62.643482  // $metal1_conn
11 *49:12 *29:d 75.092239  // $metal1_conn
12 *49:11 *49:6 0.772733  // $metal1_conn

*END

*D_NET *48 3.14888e-16

*CONN
*I *28:s B *C 1.1225 0.5825 
*I *32:d B *C 1.1225 0.5825 
*I *37:g B *C 1.8075 0.5825 
*I *14:d B *C 1.0800 1.1375 
*I *16:d B *C 1.0800 1.1375 
*I *22:g B *C 1.8075 1.1375 
*N *48:2 *C 1.7800 0.7650 
*N *48:4 *C 1.1650 0.7650 

*CAP
0 *22:g 4.10826e-17
1 *14:d 4.50536e-17
2 *37:g 3.08665e-17
3 *28:s 3.64179e-17
4 *48:4 6.2715e-17
5 *48:2 9.87524e-17

*RES
0 *22:g *48:2 59.435539  // $poly_conn
1 *48:2 *37:g 19.691952  // $poly_conn
2 *48:2 *48:4 45.420845  // $metal1_conn
3 *48:4 *14:d 62.294601  // $metal1_conn
4 *48:4 *28:s 75.118057  // $metal1_conn

*END

*D_NET *47 3.37164e-16

*CONN
*I *35:g B *C 1.5425 0.5825 
*I *37:d B *C 2.0100 0.5825 
*I *39:d B *C 2.0100 0.5825 
*I *19:g B *C 1.5425 1.1375 
*I *22:d B *C 2.0625 1.1375 
*I *26:s B *C 2.0625 1.1375 
*N *47:2 *C 1.5800 0.9300 
*N *47:4 *C 2.0250 0.9550 

*CAP
0 *22:d 5.31469e-17
1 *19:g 3.36429e-17
2 *37:d 4.88377e-17
3 *35:g 4.63118e-17
4 *47:4 6.04707e-17
5 *47:2 9.4754e-17

*RES
0 *19:g *47:2 16.15522  // $poly_conn
1 *47:2 *35:g 61.027016  // $poly_conn
2 *47:2 *47:4 45.268581  // $metal1_conn
3 *47:4 *37:d 75.251869  // $metal1_conn
4 *47:4 *22:d 62.194511  // $metal1_conn

*END

*D_NET *46 4.58045e-16

*CONN
*I *10:g B *C 3.2025 0.5825 
*I *15:d B *C 4.2400 0.5825 
*I *23:g B *C 3.4075 1.1375 
*I *31:d B *C 4.2300 1.1375 
*N *46:2 *C 3.4075 0.9325 
*N *46:4 *C 3.6350 0.9300 
*N *46:7 *C 4.2800 0.5950 

*CAP
0 *31:d 6.14087e-17
1 *23:g 2.90084e-17
2 *15:d 1.22276e-16
3 *10:g 5.10066e-17
4 *46:2 5.07242e-17
5 *46:4 1.43621e-16

*RES
0 *23:g *46:2 15.736043  // $poly_conn
1 *46:2 *10:g 99.62886  // $poly_conn
2 *46:2 *46:4 66.972931  // $poly_conn
3 *31:d *46:7 62.404034  // $metal1_conn
4 *46:7 *46:4 0.706716  // $metal1_conn
5 *15:d *46:7 75  // $metal1_conn

*END

*D_NET *7 3.16828e-16

*CONN
*I *9:g B *C 2.9775 0.5825 
*I *39:s B *C 2.4100 0.5825 
*I *41:d B *C 2.4100 0.5825 
*I *17:g B *C 2.9775 1.1375 
*I *26:d B *C 2.4525 1.1375 
*I *30:d B *C 2.4525 1.1375 
*N *7:2 *C 2.9400 0.7650 
*N *7:5 *C 2.6100 0.7300 

*CAP
0 *26:d 5.99127e-17
1 *17:g 4.90736e-17
2 *39:s 3.51837e-17
3 *9:g 2.31855e-17
4 *7:5 6.00135e-17
5 *7:2 8.94588e-17

*RES
0 *17:g *7:2 57.142265  // $poly_conn
1 *7:2 *9:g 17.398676  // $poly_conn
2 *39:s *7:5 75.175728  // $metal1_conn
3 *7:5 *26:d 62.340866  // $metal1_conn
4 *7:5 *7:2 45.248669  // $metal1_conn

*END

*D_NET *6 1.68411e-16

*CONN
*I *21:d B *C 4.9000 0.5875 
*I *25:g B *C 5.3475 0.4625 
*I *36:d B *C 4.9400 1.0075 
*I *38:g B *C 5.3475 1.1325 
*N *6:2 *C 5.3100 0.6400 
*N *6:5 *C 4.9100 0.6000 

*CAP
0 *38:g 3.1505e-17
1 *36:d 2.29987e-17
2 *25:g 2.22781e-17
3 *21:d 3.23608e-17
4 *6:2 5.92683e-17

*RES
0 *38:g *6:2 89.23214  // $poly_conn
1 *6:2 *25:g 17.437269  // $poly_conn
2 *6:2 *6:5 45.222576  // $metal1_conn
3 *6:5 *36:d 62.212563  // $metal1_conn
4 *21:d *6:5 75  // $metal1_conn

*END

