*SPEF "IEEE 1481-1999"
*DESIGN  "EDFFTRX4"
*DATE "Mon Sep 27 09:47:24 2010"
*VENDOR "Cadence Design Systems"
*PROGRAM "Assura RCX"
*VERSION "3.2 Red Hat Linux release 7.2 (Enigma) - (09/09/2009-10:39)"
*DESIGN_FLOW "Physical Verification"
*DIVIDER /
*DELIMITER :
*BUS_DELIMITER []
*T_UNIT 1 PS
*C_UNIT 1e15 FF
*R_UNIT 1 OHM
*L_UNIT 1 MH
// DeviceFingerDelim "@"
// MATCHED
// caps2d version: 10

*NAME_MAP
*1 n21
*2 net516
*3 net496
*4 mp50
*5 mp21
*6 mp20
*7 mn51
*8 mp45
*9 mn50
*10 mp45\@1
*11 mn21
*12 mp55\@3
*13 mn20
*14 mp3
*15 mn45
*16 mp2
*17 mn45\@1
*18 mp25
*19 mn2
*20 mp26
*21 mn25
*22 mn26
*23 mn36
*24 mp36
*25 mp35
*26 mp30
*27 mn35
*28 mp40
*29 mn30
*30 mp1
*31 mn40
*32 mp0
*33 mn1
*34 mp7
*35 mn0
*36 mp6
*37 mn7
*38 mp4
*39 mn6
*40 mp5
*41 mn4
*42 mn5
*43 mn3
*44 qint
*45 QN
*46 D
*47 E
*48 VSS
*49 Q
*50 RN
*51 mp55
*52 VDD
*53 mp55\@1
*54 mp55\@2
*55 mp57
*56 mp57\@1
*57 mp57\@2
*58 mp57\@3
*59 mp56
*60 mp51
*61 CK
*62 CKbb
*63 n30
*64 mout
*65 n20
*66 CKb
*67 RNb
*68 qbint
*69 n2
*70 n3
*71 Eb
*72 mn55
*73 mn55\@1
*74 mn55\@2
*75 mn55\@3
*76 mn57
*77 mn57\@1
*78 mn57\@2
*79 Dp
*80 mn57\@3
*81 Db
*82 mn56
*83 n22
*84 net427
*85 net411
*86 n1
*87 n0

*GROUND_NETS VSS

*PORTS
*52 I
*48 I
*61 I
*46 I
*47 I
*50 I
*49 O
*45 O

*D_NET *52 1.08036e-15

*CONN
*P *52 I *C 0.1000 1.7100 
*I *51:s B *C 6.7400 1.0950 
*I *53:s B *C 6.7400 1.0950 
*I *54:s B *C 7.2100 1.0950 
*I *55:s B *C 7.2100 1.0950 
*I *56:s B *C 7.6800 1.0950 
*I *57:s B *C 7.6800 1.0950 
*I *58:s B *C 8.1500 1.0950 
*I *59:s B *C 8.1500 1.0950 
*I *4:s B *C 4.9100 1.5700 
*I *5:s B *C 4.9100 1.5700 
*I *6:s B *C 5.8100 1.5700 
*I *8:s B *C 5.8100 1.5700 
*I *10:s B *C 6.2700 1.0950 
*I *12:s B *C 6.2700 1.0950 
*I *14:s B *C 2.6000 1.5700 
*I *16:s B *C 2.9950 1.5700 
*I *18:s B *C 2.9950 1.5700 
*I *25:s B *C 3.9200 1.1075 
*I *26:s B *C 3.9200 1.1075 
*I *30:s B *C 0.7750 1.0825 
*I *32:s B *C 0.7750 1.0825 
*N *52:3 *C 5.2000 1.7100 
*N *52:4 *C 5.2000 1.7100 
*N *52:5 *C 4.8850 1.7100 
*N *52:6 *C 3.8350 1.7100 
*N *52:7 *C 3.2000 1.7100 
*N *52:8 *C 2.9700 1.7100 
*N *52:9 *C 2.5750 1.7100 
*N *52:10 *C 1.1000 1.7100 
*N *52:11 *C 0.6900 1.7100 

*CAP
0 *30:s 2.29574e-17
1 *25:s 8.52999e-18
2 *16:s 8.4176e-18
3 *14:s 8.92225e-18
4 *4:s 2.29511e-17
5 *58:s 2.75365e-16
6 *52:11 2.1284e-17
7 *52:9 3.64135e-17
8 *52:8 8.24892e-18
9 *52:6 3.25526e-17
10 *52:5 3.21629e-17
11 *52:3 5.93086e-16
12 *52 9.4671e-18

*RES
0 *52:11 *52 0.294528  // $metal1_conn
1 *52:3 *52:4 7.5  // $metal1_conn
2 *52:3 *52:7 7.5  // $metal1_conn
3 *52:3 *52:10 6.818182  // $metal1_conn
4 *52:3 *58:s 6.818182  // $metal1_conn
5 *52:5 *4:s 62.045826  // $metal1_conn
6 *52:6 *25:s 62.07473  // $metal1_conn
7 *52:8 *16:s 62.07473  // $metal1_conn
8 *52:9 *14:s 62.07473  // $metal1_conn
9 *52:11 *30:s 62.045826  // $metal1_conn
10 *58:s *52:4 0.289871  // $metal1_conn
11 *52:4 *52:5 0.156848  // $metal1_conn
12 *52:5 *52:6 0.525303  // $metal1_conn
13 *52:6 *52:7 0.318299  // $metal1_conn
14 *52:7 *52:8 0.115164  // $metal1_conn
15 *52:8 *52:9 0.197727  // $metal1_conn
16 *52:9 *52:10 0.739615  // $metal1_conn
17 *52:10 *52:11 0.204496  // $metal1_conn

*END

*D_NET *48 0

*CONN
*P *48 I *C 0.1000 0.0000 
*I *72:s B *C 6.3000 0.4250 
*I *73:s B *C 6.7000 0.4250 
*I *74:s B *C 6.7000 0.4250 
*I *75:s B *C 7.1100 0.4250 
*I *76:s B *C 7.1100 0.4250 
*I *77:s B *C 7.5200 0.4250 
*I *78:s B *C 7.5200 0.4250 
*I *80:s B *C 7.9350 0.4250 
*I *82:s B *C 7.9350 0.4250 
*I *9:s B *C 4.8125 0.5875 
*I *11:s B *C 4.8125 0.5875 
*I *13:s B *C 5.8100 0.4525 
*I *15:s B *C 5.8100 0.4525 
*I *17:s B *C 6.3000 0.4250 
*I *19:s B *C 2.8975 0.5875 
*I *21:s B *C 2.8975 0.5875 
*I *27:s B *C 3.8500 0.5875 
*I *29:s B *C 3.8500 0.5875 
*I *33:s B *C 0.6600 0.5875 
*I *35:s B *C 0.6600 0.5875 
*I *39:s B *C 1.4700 0.5050 
*I *41:s B *C 1.8375 0.5775 
*I *43:s B *C 2.3550 0.3650 
*N *48:3 *C 7.3000 0.0000 
*N *48:9 *C 5.2000 0.0000 
*N *48:10 *C 4.7400 0.0000 
*N *48:11 *C 3.7200 0.0000 
*N *48:12 *C 3.2000 0.0000 
*N *48:13 *C 2.7550 0.0000 
*N *48:14 *C 2.3200 0.0000 
*N *48:15 *C 1.6600 0.0000 
*N *48:16 *C 1.5000 0.0000 
*N *48:17 *C 1.1000 0.0000 
*N *48:18 *C 0.6600 0.0000 


*RES
0 *48:18 *48 0.28043  // $metal1_conn
1 *48:3 *80:s 5.636364  // $metal1_conn
2 *48:3 *48:9 6.2  // $metal1_conn
3 *48:3 *48:12 6.2  // $metal1_conn
4 *48:3 *48:17 5.636364  // $metal1_conn
5 *48:10 *9:s 75.401001  // $metal1_conn
6 *48:11 *27:s 75.258904  // $metal1_conn
7 *48:13 *19:s 75.045822  // $metal1_conn
8 *48:14 *43:s 75.07473  // $metal1_conn
9 *48:15 *41:s 75.275703  // $metal1_conn
10 *48:16 *39:s 75.275238  // $metal1_conn
11 *48:18 *33:s 75.38324  // $metal1_conn
12 *80:s *48:9 0.300744  // $metal1_conn
13 *48:9 *48:10 0.230525  // $metal1_conn
14 *48:10 *48:11 0.511206  // $metal1_conn
15 *48:11 *48:12 0.260619  // $metal1_conn
16 *48:12 *48:13 0.222051  // $metal1_conn
17 *48:13 *48:14 0.216839  // $metal1_conn
18 *48:14 *48:15 0.330642  // $metal1_conn
19 *48:15 *48:16 0.079858  // $metal1_conn
20 *48:16 *48:17 0.200431  // $metal1_conn
21 *48:17 *48:18 0.220493  // $metal1_conn

*END

*D_NET *61 2.32628e-16

*CONN
*P *61 I *C 5.5000 0.8550 
*I *13:g B *C 5.6525 0.4825 
*I *6:g B *C 5.6525 1.0425 
*N *61:2 *C 5.6250 0.6900 

*CAP
0 *6:g 4.65002e-17
1 *13:g 2.67484e-17
2 *61:2 8.36681e-17
3 *61 7.57109e-17

*RES
0 *6:g *61:2 54.307335  // $poly_conn
1 *61:2 *13:g 26.102209  // $poly_conn
2 *61:2 *61 45.047306  // $metal1_conn

*END

*D_NET *46 1.97134e-16

*CONN
*P *46 I *C 0.3000 0.8550 
*I *33:g B *C 0.5575 0.5875 
*I *30:g B *C 0.5575 1.0825 
*N *46:2 *C 0.5300 0.8600 

*CAP
0 *30:g 2.84351e-17
1 *33:g 3.09618e-17
2 *46:2 8.14468e-17
3 *46 5.62899e-17

*RES
0 *30:g *46:2 20.974003  // $poly_conn
1 *46:2 *33:g 42.768875  // $poly_conn
2 *46:2 *46 45.105297  // $metal1_conn

*END

*D_NET *47 4.96922e-16

*CONN
*P *47 I *C 0.7000 1.2350 
*I *35:g B *C 0.7625 0.5875 
*I *39:g B *C 1.3375 0.5875 
*I *32:g B *C 0.8225 1.0825 
*I *36:g B *C 1.6275 1.0975 
*N *47:2 *C 0.7350 0.8650 
*N *47:5 *C 1.3900 0.8900 
*N *47:7 *C 0.7350 1.2350 

*CAP
0 *36:g 3.78556e-17
1 *32:g 3.1547e-17
2 *39:g 5.77734e-17
3 *35:g 2.82812e-17
4 *47:7 9.75459e-17
5 *47:2 8.24892e-17
6 *47:5 1.3741e-16
7 *47 2.40196e-17

*RES
0 *32:g *47:2 23.537739  // $poly_conn
1 *47:2 *35:g 40.889011  // $poly_conn
2 *36:g *47:5 68.93351  // $poly_conn
3 *47:5 *39:g 60.737446  // $poly_conn
4 *47:2 *47:7 45.251751  // $metal1_conn
5 *47:7 *47 0.024298  // $metal1_conn
6 *47:7 *47:5 45.712399  // $metal1_conn

*END

*D_NET *50 2.32853e-16

*CONN
*P *50 I *C 2.9000 0.8550 
*I *19:g B *C 2.6225 0.5875 
*I *16:g B *C 2.8375 1.1075 
*N *50:2 *C 2.8000 0.8450 

*CAP
0 *16:g 4.63089e-17
1 *19:g 4.96959e-17
2 *50:2 8.33429e-17
3 *50 5.35052e-17

*RES
0 *16:g *50:2 30.257782  // $poly_conn
1 *50:2 *19:g 68.308334  // $poly_conn
2 *50:2 *50 45.038929  // $metal1_conn

*END

*D_NET *49 2.01289e-16

*CONN
*P *49 O *C 6.7000 0.8550 
*I *72:d B *C 6.4950 0.4250 
*I *73:d B *C 6.4950 0.4250 
*I *74:d B *C 6.9050 0.4250 
*I *75:d B *C 6.9050 0.4250 
*I *51:d B *C 6.4200 1.0950 
*I *53:d B *C 6.8900 1.0950 
*I *54:d B *C 6.8900 1.0950 
*I *12:d B *C 6.4200 1.0950 

*CAP
0 *53:d 1.16996e-16
1 *72:d 6.83474e-17
2 *49 1.59459e-17

*RES
0 *72:d *49 0.197513  // $metal1_conn
1 *49 *53:d 0.046661  // $metal1_conn

*END

*D_NET *45 1.96718e-16

*CONN
*P *45 O *C 7.3000 0.8550 
*I *76:d B *C 7.3150 0.4250 
*I *77:d B *C 7.3150 0.4250 
*I *78:d B *C 7.7275 0.4250 
*I *80:d B *C 7.7275 0.4250 
*I *55:d B *C 7.3600 1.0950 
*I *56:d B *C 7.3600 1.0950 
*I *57:d B *C 7.8300 1.0950 
*I *58:d B *C 7.8300 1.0950 

*CAP
0 *57:d 1.087e-16
1 *76:d 6.64186e-17
2 *45 2.15987e-17

*RES
0 *45 *76:d 0.250016  // $metal1_conn
1 *57:d *45 0.067552  // $metal1_conn

*END

*D_NET *3 4.27756e-20

*CONN
*I *7:s B *C 4.6150 0.5875 
*I *9:d B *C 4.6150 0.5875 

*CAP
0 *7:s 4.27756e-20

*RES
0 *9:d *7:s 0.001  // $mwires

*END

*D_NET *2 1.23407e-18

*CONN
*I *23:s B *C 3.5325 0.5875 
*I *27:d B *C 3.5325 0.5875 

*CAP
0 *23:s 1.23407e-18

*RES
0 *27:d *23:s 0.001  // $mwires

*END

*D_NET *1 0

*CONN
*I *21:d B *C 3.0550 0.5875 
*I *22:s B *C 3.0550 0.5875 


*RES
0 *22:s *21:d 0.001  // $mwires

*END

*D_NET *87 0

*CONN
*I *41:d B *C 2.0000 0.5775 
*I *42:s B *C 2.0000 0.5775 


*RES
0 *42:s *41:d 0.001  // $mwires

*END

*D_NET *86 7.12818e-19

*CONN
*I *37:s B *C 1.2850 0.5875 
*I *39:d B *C 1.2850 0.5875 

*CAP
0 *37:s 7.12818e-19

*RES
0 *39:d *37:s 0.001  // $mwires

*END

*D_NET *85 1.04525e-18

*CONN
*I *60:s B *C 4.6625 1.1075 
*I *4:d B *C 4.6625 1.1075 

*CAP
0 *60:s 1.04525e-18

*RES
0 *4:d *60:s 0.001  // $mwires

*END

*D_NET *84 5.75394e-19

*CONN
*I *24:s B *C 3.6200 1.1075 
*I *25:d B *C 3.6200 1.1075 

*CAP
0 *24:s 5.75394e-19

*RES
0 *25:d *24:s 0.001  // $mwires

*END

*D_NET *83 1.22539e-18

*CONN
*I *18:d B *C 3.1450 1.1075 
*I *20:s B *C 3.1450 1.1075 

*CAP
0 *18:d 1.22539e-18

*RES
0 *20:s *18:d 0.001  // $mwires

*END

*D_NET *81 4.83011e-16

*CONN
*I *33:d B *C 0.4650 0.5875 
*I *37:g B *C 1.2325 0.5875 
*I *30:d B *C 0.4650 1.0825 
*I *34:g B *C 1.2475 1.0975 
*N *81:3 *C 1.2200 1.4050 
*N *81:5 *C 0.4550 1.1300 

*CAP
0 *34:g 4.35481e-17
1 *30:d 1.5424e-16
2 *37:g 6.72594e-17
3 *33:d 8.06996e-17
4 *81:3 1.37264e-16

*RES
0 *37:g *34:g 82.59269  // $poly_conn
1 *34:g *81:3 85.475601  // $poly_conn
2 *81:3 *81:5 0.752651  // $metal1_conn
3 *81:5 *33:d 75.793823  // $metal1_conn
4 *30:d *81:5 62  // $metal1_conn

*END

*D_NET *79 6.17023e-16

*CONN
*I *21:g B *C 3.0025 0.5875 
*I *37:d B *C 1.1200 0.5875 
*I *42:d B *C 2.1550 0.5775 
*I *43:d B *C 2.1550 0.5775 
*I *18:g B *C 3.0325 1.1075 
*I *34:d B *C 1.1550 1.0975 
*I *36:d B *C 1.7200 1.0975 
*N *79:3 *C 2.9750 0.4050 
*N *79:5 *C 2.1550 0.5650 
*N *79:6 *C 1.7300 0.7300 
*N *79:7 *C 1.1200 0.7300 

*CAP
0 *36:d 4.4628e-17
1 *34:d 5.0638e-17
2 *18:g 6.69859e-17
3 *42:d 1.07728e-16
4 *37:d 3.59366e-17
5 *21:g 5.08474e-17
6 *79:7 6.99369e-17
7 *79:6 9.4319e-17
8 *79:3 9.60035e-17

*RES
0 *18:g *21:g 94.339104  // $poly_conn
1 *21:g *79:3 62.398674  // $poly_conn
2 *79:3 *79:5 0.663378  // $metal1_conn
3 *79:5 *79:6 0.430351  // $metal1_conn
4 *79:6 *79:7 0.452621  // $metal1_conn
5 *79:7 *37:d 75.090668  // $metal1_conn
6 *79:6 *36:d 62.210636  // $metal1_conn
7 *79:7 *34:d 62.247398  // $metal1_conn
8 *42:d *79:5 75  // $metal1_conn

*END

*D_NET *71 4.8824e-16

*CONN
*I *35:d B *C 0.8550 0.5875 
*I *41:g B *C 1.9475 0.5775 
*I *32:d B *C 0.9150 1.0825 
*I *38:g B *C 2.0325 1.0975 
*N *71:3 *C 1.9100 0.4050 
*N *71:5 *C 0.8650 0.5750 

*CAP
0 *38:g 7.16764e-17
1 *32:d 6.15921e-17
2 *41:g 4.18745e-17
3 *35:d 1.43423e-16
4 *71:3 1.69675e-16

*RES
0 *38:g *41:g 97.146332  // $poly_conn
1 *41:g *71:3 61.15522  // $poly_conn
2 *71:3 *71:5 1.024797  // $metal1_conn
3 *71:5 *32:d 62.419018  // $metal1_conn
4 *35:d *71:5 75  // $metal1_conn

*END

*D_NET *70 1.4189e-16

*CONN
*I *34:s B *C 1.4375 1.0975 
*I *36:s B *C 1.4375 1.0975 
*I *38:d B *C 2.1350 1.0975 
*I *40:d B *C 2.1350 1.0975 

*CAP
0 *38:d 6.66054e-17
1 *34:s 7.52845e-17

*RES
0 *38:d *34:s 124.518356  // $metal1_conn

*END

*D_NET *69 1.28206e-16

*CONN
*I *14:d B *C 2.3400 1.0975 
*I *38:s B *C 1.9400 1.0975 
*I *40:s B *C 2.3400 1.0975 

*CAP
0 *38:s 7.13765e-17
1 *14:d 5.68299e-17

*RES
0 *14:d *38:s 124.331314  // $metal1_conn

*END

*D_NET *68 1.8839e-15

*CONN
*I *72:g B *C 6.3925 0.4250 
*I *73:g B *C 6.5975 0.4250 
*I *74:g B *C 6.8025 0.4250 
*I *75:g B *C 7.0075 0.4250 
*I *82:g B *C 8.0375 0.4250 
*I *9:g B *C 4.6675 0.5875 
*I *15:d B *C 6.0200 0.4525 
*I *17:d B *C 6.0200 0.4525 
*I *42:g B *C 2.0525 0.5775 
*I *51:g B *C 6.5225 1.0950 
*I *53:g B *C 6.7875 1.0950 
*I *54:g B *C 6.9925 1.0950 
*I *59:g B *C 8.1975 1.0950 
*I *4:g B *C 4.7525 1.1075 
*I *8:d B *C 5.9500 1.0550 
*I *10:d B *C 5.9500 1.0550 
*I *12:g B *C 6.3175 1.0950 
*I *40:g B *C 2.2375 1.0975 
*N *68:1 *C 2.2950 1.3050 
*N *68:4 *C 4.7250 1.4000 
*N *68:21 *C 8.0650 0.7650 
*N *68:23 *C 5.9500 1.1200 
*N *68:25 *C 5.9500 1.0550 
*N *68:26 *C 6.0350 0.7050 

*CAP
0 *40:g 5.60565e-17
1 *8:d 3.41334e-17
2 *4:g 6.16064e-17
3 *59:g 3.98243e-17
4 *54:g 2.73968e-16
5 *42:g 8.48395e-17
6 *15:d 2.25967e-17
7 *9:g 7.61439e-17
8 *82:g 3.69686e-17
9 *68:26 3.81357e-17
10 *68:23 3.04984e-16
11 *68:1 2.27288e-16
12 *68:4 3.57467e-16
13 *68:21 2.69884e-16

*RES
0 *59:g *68:21 43.574535  // $poly_conn
1 *4:g *9:g 97.146332  // $poly_conn
2 *68:4 *4:g 83.922714  // $poly_conn
3 *40:g *42:g 110.959328  // $poly_conn
4 *68:1 *40:g 65.732071  // $poly_conn
5 *68:21 *82:g 42.171066  // $poly_conn
6 *68:26 *54:g 45.199871  // $metal1_conn
7 *68:21 *68:23 46.791546  // $metal1_conn
8 *68:4 *68:1 1.78991  // $metal1_conn
9 *68:23 *68:4 1.090024  // $metal1_conn
10 *8:d *68:25 31  // $metal1_conn
11 *68:26 *15:d 75.151138  // $metal1_conn
12 *68:23 *68:25 0.054285  // $metal1_conn
13 *68:25 *68:26 0.309719  // $metal1_conn

*END

*D_NET *67 2.80547e-16

*CONN
*I *19:d B *C 2.5300 0.5875 
*I *43:g B *C 2.2575 0.5775 
*I *14:g B *C 2.4425 1.0975 
*I *16:d B *C 2.7650 1.1075 
*N *67:2 *C 2.4800 0.7750 
*N *67:5 *C 2.5500 0.7750 

*CAP
0 *16:d 7.49753e-17
1 *14:g 4.58626e-17
2 *43:g 5.07135e-17
3 *19:d 2.4854e-17
4 *67:5 3.55174e-17
5 *67:2 4.86242e-17

*RES
0 *14:g *67:2 45.642399  // $poly_conn
1 *67:2 *43:g 65.087357  // $poly_conn
2 *16:d *67:5 62.394619  // $metal1_conn
3 *67:5 *67:2 45.035774  // $metal1_conn
4 *67:5 *19:d 75.116211  // $metal1_conn

*END

*D_NET *66 1.38486e-15

*CONN
*I *7:g B *C 4.5625 0.5875 
*I *11:g B *C 4.9575 0.5875 
*I *13:d B *C 5.5600 0.4825 
*I *22:g B *C 3.1075 0.5875 
*I *5:g B *C 4.9575 1.1075 
*I *6:d B *C 5.5600 1.0425 
*I *24:g B *C 3.5375 1.1075 
*I *28:g B *C 4.2225 1.1075 
*N *66:1 *C 3.3150 0.4050 
*N *66:4 *C 3.4000 0.8900 
*N *66:6 *C 4.2600 0.8900 
*N *66:8 *C 4.5350 0.2350 
*N *66:11 *C 4.9300 0.4050 
*N *66:14 *C 5.5500 0.4700 
*N *66:15 *C 4.5425 0.4100 
*N *66:16 *C 4.2600 0.4100 
*N *66:17 *C 3.4000 0.5800 

*CAP
0 *28:g 4.02283e-17
1 *24:g 4.77876e-17
2 *6:d 1.44235e-16
3 *5:g 5.58797e-17
4 *22:g 6.95034e-17
5 *13:d 1.12628e-16
6 *11:g 2.29955e-17
7 *7:g 6.27225e-17
8 *66:17 1.02657e-16
9 *66:16 1.14663e-16
10 *66:15 1.09358e-16
11 *66:1 6.57827e-17
12 *66:4 9.85435e-17
13 *66:6 1.17459e-16
14 *66:8 6.31569e-17
15 *66:11 1.57257e-16

*RES
0 *66:1 *22:g 87.672913  // $poly_conn
1 *24:g *66:4 81.371155  // $poly_conn
2 *28:g *66:6 63.719322  // $poly_conn
3 *7:g *66:8 108.281693  // $poly_conn
4 *5:g *11:g 87.179489  // $poly_conn
5 *11:g *66:11 64.691956  // $poly_conn
6 *6:d *66:14 62.826591  // $metal1_conn
7 *66:14 *66:11 0.543121  // $metal1_conn
8 *66:11 *66:15 0.787688  // $metal1_conn
9 *66:15 *66:16 0.177339  // $metal1_conn
10 *66:16 *66:17 0.726195  // $metal1_conn
11 *66:17 *66:1 0.179238  // $metal1_conn
12 *66:15 *66:8 0.089617  // $metal1_conn
13 *66:16 *66:6 0.365263  // $metal1_conn
14 *66:17 *66:4 0.252906  // $metal1_conn
15 *13:d *66:14 75  // $metal1_conn

*END

*D_NET *65 4.18251e-16

*CONN
*I *22:d B *C 3.2775 0.5875 
*I *23:d B *C 3.2775 0.5875 
*I *29:g B *C 3.9125 0.5875 
*I *20:d B *C 3.3975 1.1075 
*I *24:d B *C 3.3975 1.1075 
*I *26:g B *C 3.9675 1.1075 
*N *65:2 *C 3.9400 0.7700 
*N *65:6 *C 3.3600 1.0800 

*CAP
0 *26:g 4.59084e-17
1 *20:d 1.16877e-16
2 *29:g 3.82933e-17
3 *22:d 6.81602e-17
4 *65:2 1.49012e-16

*RES
0 *26:g *65:2 50.461182  // $poly_conn
1 *65:2 *29:g 19.691952  // $poly_conn
2 *22:d *65:6 75.424957  // $metal1_conn
3 *65:6 *65:2 45.69173  // $metal1_conn
4 *20:d *65:6 62  // $metal1_conn

*END

*D_NET *64 3.22e-16

*CONN
*I *27:g B *C 3.6175 0.5875 
*I *29:d B *C 4.0575 0.5875 
*I *31:s B *C 4.0575 0.5875 
*I *25:g B *C 3.7025 1.1075 
*I *26:d B *C 4.0950 1.1075 
*I *28:s B *C 4.0950 1.1075 
*N *64:2 *C 3.7500 0.9000 
*N *64:5 *C 4.1000 0.9600 

*CAP
0 *26:d 2.2877e-17
1 *25:g 4.1483e-17
2 *29:d 6.3689e-17
3 *27:g 5.22297e-17
4 *64:5 4.59155e-17
5 *64:2 9.58059e-17

*RES
0 *25:g *64:2 16.15522  // $poly_conn
1 *64:2 *27:g 62.019497  // $poly_conn
2 *26:d *64:5 62.077633  // $metal1_conn
3 *64:5 *64:2 45.245403  // $metal1_conn
4 *64:5 *29:d 75.287949  // $metal1_conn

*END

*D_NET *63 7.04717e-16

*CONN
*I *7:d B *C 4.3825 0.5875 
*I *15:g B *C 5.9025 0.4525 
*I *17:g B *C 6.1375 0.4525 
*I *31:d B *C 4.3825 0.5875 
*I *60:d B *C 4.3975 1.1075 
*I *8:g B *C 5.8475 1.0550 
*I *10:g B *C 6.0525 1.0550 
*I *28:d B *C 4.3975 1.1075 
*N *63:8 *C 4.4200 1.1100 

*CAP
0 *10:g 4.03744e-16
1 *60:d 2.20562e-16
2 *7:d 8.04119e-17

*RES
0 *10:g *63:8 46.515736  // $metal1_conn
1 *60:d *63:8 62  // $metal1_conn
2 *63:8 *7:d 75.357521  // $metal1_conn

*END

*D_NET *62 5.90433e-16

*CONN
*I *11:d B *C 5.0800 0.5875 
*I *23:g B *C 3.4475 0.5875 
*I *31:g B *C 4.2025 0.5875 
*I *60:g B *C 4.5725 1.1075 
*I *5:d B *C 5.0500 1.1075 
*I *20:g B *C 3.2575 1.1075 
*N *62:2 *C 4.6100 0.9000 
*N *62:7 *C 5.1200 0.9000 

*CAP
0 *20:g 7.83999e-17
1 *5:d 3.6581e-17
2 *60:g 3.54367e-17
3 *31:g 8.45199e-17
4 *23:g 1.10927e-16
5 *11:d 5.63988e-17
6 *62:7 5.99428e-17
7 *62:2 1.28227e-16

*RES
0 *60:g *62:2 16.15522  // $poly_conn
1 *62:2 *31:g 130.182404  // $poly_conn
2 *31:g *23:g 298.428375  // $poly_conn
3 *23:g *20:g 124.069405  // $poly_conn
4 *11:d *62:7 75.246643  // $metal1_conn
5 *62:7 *62:2 45.361736  // $metal1_conn
6 *62:7 *5:d 62.167503  // $metal1_conn

*END

*D_NET *44 4.18124e-16

*CONN
*I *76:g B *C 7.2125 0.4250 
*I *77:g B *C 7.4175 0.4250 
*I *78:g B *C 7.6225 0.4250 
*I *80:g B *C 7.8325 0.4250 
*I *82:d B *C 8.1300 0.4250 
*I *55:g B *C 7.2575 1.0950 
*I *56:g B *C 7.4625 1.0950 
*I *57:g B *C 7.7275 1.0950 
*I *58:g B *C 7.9325 1.0950 
*I *59:d B *C 8.2900 1.0950 
*N *44:17 *C 8.1400 0.5750 

*CAP
0 *59:d 5.38929e-17
1 *58:g 3.17143e-16
2 *82:d 8.87326e-18
3 *44:17 3.82153e-17

*RES
0 *44:17 *58:g 45.246765  // $metal1_conn
1 *59:d *44:17 21.144299  // $metal1_conn
2 *44:17 *82:d 75.03949  // $metal1_conn

*END

