*SPEF "IEEE 1481-1999"
*DESIGN  "EDFFTRX2"
*DATE "Mon Sep 27 09:47:01 2010"
*VENDOR "Cadence Design Systems"
*PROGRAM "Assura RCX"
*VERSION "3.2 Red Hat Linux release 7.2 (Enigma) - (09/09/2009-10:39)"
*DESIGN_FLOW "Physical Verification"
*DIVIDER /
*DELIMITER :
*BUS_DELIMITER []
*T_UNIT 1 PS
*C_UNIT 1e15 FF
*R_UNIT 1 OHM
*L_UNIT 1 MH
// DeviceFingerDelim "@"
// MATCHED
// caps2d version: 10

*NAME_MAP
*1 mn5
*2 Dp
*3 Db
*4 n22
*5 net427
*6 net411
*7 n1
*8 n0
*9 n21
*10 mn3
*11 net516
*12 mn2
*13 net496
*14 mn21
*15 mn25
*16 mn26
*17 mp40
*18 mp51
*19 mp50
*20 mp45
*21 mp1
*22 mp0
*23 mp7
*24 mp6
*25 mp4
*26 mp5
*27 mp3
*28 mp2
*29 VDD
*30 mp21
*31 mp25
*32 mp26
*33 qint
*34 mn45
*35 mn20
*36 mp20
*37 mn55
*38 QN
*39 mp55
*40 mn55\@1
*41 VSS
*42 mp55\@1
*43 mn57
*44 mp57
*45 mn57\@1
*46 mp57\@1
*47 mn56
*48 mp56
*49 mn36
*50 mp36
*51 mn35
*52 mp35
*53 mp30
*54 D
*55 E
*56 CK
*57 RN
*58 Q
*59 n30
*60 mout
*61 n20
*62 CKbb
*63 CKb
*64 RNb
*65 qbint
*66 n2
*67 mn30
*68 n3
*69 mn40
*70 Eb
*71 mn51
*72 mn50
*73 mn1
*74 mn0
*75 mn7
*76 mn6
*77 mn4

*GROUND_NETS VSS

*PORTS
*29 I
*41 I
*56 I
*54 I
*55 I
*57 I
*58 O
*38 O

*D_NET *29 1.01285e-15

*CONN
*P *29 I *C 0.1000 1.7100 
*I *36:s B *C 6.5350 1.1950 
*I *39:s B *C 6.5350 1.1950 
*I *42:s B *C 7.0050 1.1950 
*I *44:s B *C 7.0050 1.1950 
*I *46:s B *C 7.4150 1.5700 
*I *48:s B *C 7.4150 1.5700 
*I *52:s B *C 4.6450 1.1075 
*I *53:s B *C 4.6450 1.1075 
*I *19:s B *C 5.7700 1.1950 
*I *20:s B *C 5.7700 1.1950 
*I *21:s B *C 0.7750 1.0075 
*I *22:s B *C 0.7750 1.0075 
*I *27:s B *C 2.6650 1.5700 
*I *28:s B *C 2.6650 1.5700 
*I *30:s B *C 3.5650 1.1075 
*I *31:s B *C 3.5650 1.1075 
*N *29:3 *C 6.8000 1.7100 
*N *29:6 *C 5.7100 1.7100 
*N *29:7 *C 4.9000 1.7100 
*N *29:8 *C 4.5600 1.7100 
*N *29:9 *C 3.4800 1.7100 
*N *29:10 *C 3.0000 1.7100 
*N *29:11 *C 2.6400 1.7100 
*N *29:12 *C 1.0000 1.7100 
*N *29:13 *C 0.6900 1.7100 

*CAP
0 *30:s 1.52207e-17
1 *27:s 1.59117e-17
2 *21:s 1.33397e-17
3 *19:s 7.51682e-17
4 *52:s 1.91724e-17
5 *46:s 1.00059e-16
6 *29:13 1.3687e-17
7 *29:11 4.28308e-17
8 *29:9 3.56498e-17
9 *29:8 3.15976e-17
10 *29:6 3.37188e-17
11 *29:3 6.08349e-16
12 *29 8.14116e-18

*RES
0 *29:13 *29 0.294479  // $metal1_conn
1 *29:3 *46:s 7.5  // $metal1_conn
2 *29:3 *29:7 8.333333  // $metal1_conn
3 *29:3 *29:10 7.5  // $metal1_conn
4 *29:3 *29:12 7.5  // $metal1_conn
5 *29:6 *19:s 62.378094  // $metal1_conn
6 *29:8 *52:s 62.045818  // $metal1_conn
7 *29:9 *30:s 62.074623  // $metal1_conn
8 *29:11 *27:s 62.074623  // $metal1_conn
9 *29:13 *21:s 62.045818  // $metal1_conn
10 *46:s *29:6 0.370705  // $metal1_conn
11 *29:6 *29:7 0.406005  // $metal1_conn
12 *29:7 *29:8 0.169358  // $metal1_conn
13 *29:8 *29:9 0.54026  // $metal1_conn
14 *29:9 *29:10 0.240516  // $metal1_conn
15 *29:10 *29:11 0.180338  // $metal1_conn
16 *29:11 *29:12 0.822236  // $metal1_conn
17 *29:12 *29:13 0.154314  // $metal1_conn

*END

*D_NET *41 0

*CONN
*P *41 I *C 0.1000 0.0000 
*I *34:s B *C 5.7950 0.5300 
*I *35:s B *C 6.5100 0.5300 
*I *37:s B *C 6.5100 0.5300 
*I *40:s B *C 6.9100 0.5300 
*I *43:s B *C 6.9100 0.5300 
*I *45:s B *C 7.4050 0.5875 
*I *47:s B *C 7.4050 0.5875 
*I *51:s B *C 4.6450 0.5325 
*I *67:s B *C 4.6450 0.5325 
*I *72:s B *C 5.7950 0.5300 
*I *73:s B *C 0.6600 0.4525 
*I *74:s B *C 0.6600 0.4525 
*I *76:s B *C 1.5150 0.4450 
*I *77:s B *C 1.9875 0.4425 
*I *10:s B *C 2.6250 0.4425 
*I *12:s B *C 2.6250 0.4425 
*I *14:s B *C 3.5450 0.5325 
*I *15:s B *C 3.5450 0.5325 
*N *41:3 *C 6.8000 0.0000 
*N *41:6 *C 5.7100 0.0000 
*N *41:7 *C 4.9000 0.0000 
*N *41:8 *C 4.5300 0.0000 
*N *41:9 *C 3.4700 0.0000 
*N *41:10 *C 3.0000 0.0000 
*N *41:11 *C 2.5400 0.0000 
*N *41:12 *C 1.8100 0.0000 
*N *41:13 *C 1.5150 0.0000 
*N *41:14 *C 1.0000 0.0000 
*N *41:15 *C 0.6600 0.0000 


*RES
0 *41:15 *41 0.280384  // $metal1_conn
1 *41:3 *45:s 6.2  // $metal1_conn
2 *41:3 *41:7 6.888889  // $metal1_conn
3 *41:3 *41:10 6.2  // $metal1_conn
4 *41:3 *41:14 6.2  // $metal1_conn
5 *41:6 *34:s 75.045815  // $metal1_conn
6 *41:8 *51:s 75.246994  // $metal1_conn
7 *41:9 *14:s 75.117203  // $metal1_conn
8 *41:11 *10:s 75.163971  // $metal1_conn
9 *41:12 *77:s 75.194771  // $metal1_conn
10 *41:13 *76:s 75.174721  // $metal1_conn
11 *41:15 *73:s 75.282158  // $metal1_conn
12 *45:s *41:6 0.377278  // $metal1_conn
13 *41:6 *41:7 0.405055  // $metal1_conn
14 *41:7 *41:8 0.185353  // $metal1_conn
15 *41:8 *41:9 0.53118  // $metal1_conn
16 *41:9 *41:10 0.235501  // $metal1_conn
17 *41:10 *41:11 0.230486  // $metal1_conn
18 *41:11 *41:12 0.36569  // $metal1_conn
19 *41:12 *41:13 0.147545  // $metal1_conn
20 *41:13 *41:14 0.258068  // $metal1_conn
21 *41:14 *41:15 0.170308  // $metal1_conn

*END

*D_NET *56 2.28316e-16

*CONN
*P *56 I *C 6.3000 1.0450 
*I *35:g B *C 6.3625 0.4875 
*I *36:g B *C 6.3075 1.1075 
*N *56:2 *C 6.3350 0.8900 

*CAP
0 *36:g 2.95444e-17
1 *35:g 3.86464e-17
2 *56:2 1.14602e-16
3 *56 4.55239e-17

*RES
0 *35:g *56:2 76.102211  // $poly_conn
1 *56:2 *36:g 19.691952  // $poly_conn
2 *56:2 *56 45.088924  // $metal1_conn

*END

*D_NET *54 2.02513e-16

*CONN
*P *54 I *C 0.3000 0.6650 
*I *73:g B *C 0.5575 0.4525 
*I *21:g B *C 0.5575 1.0075 
*N *54:2 *C 0.5300 0.6600 

*CAP
0 *21:g 3.72248e-17
1 *73:g 2.85326e-17
2 *54:2 5.87529e-17
3 *54 7.80022e-17

*RES
0 *21:g *54:2 53.025284  // $poly_conn
1 *54:2 *73:g 26.102209  // $poly_conn
2 *54:2 *54 45.100815  // $metal1_conn

*END

*D_NET *55 4.8156e-16

*CONN
*P *55 I *C 0.7000 1.0450 
*I *74:g B *C 0.7625 0.4525 
*I *76:g B *C 1.3825 0.5875 
*I *22:g B *C 0.8225 1.0075 
*I *24:g B *C 1.6275 1.0075 
*N *55:2 *C 0.7350 0.7900 
*N *55:5 *C 1.4200 0.8000 
*N *55:7 *C 0.7350 1.0450 

*CAP
0 *24:g 3.59012e-17
1 *22:g 3.32037e-17
2 *76:g 4.47274e-17
3 *74:g 2.8927e-17
4 *55:7 1.11991e-16
5 *55:2 6.08926e-17
6 *55:5 1.46516e-16
7 *55 1.94014e-17

*RES
0 *22:g *55:2 23.537739  // $poly_conn
1 *55:2 *74:g 56.273628  // $poly_conn
2 *24:g *55:5 60.440365  // $poly_conn
3 *55:5 *76:g 26.411629  // $poly_conn
4 *55:5 *55:7 45.809479  // $metal1_conn
5 *55:7 *55 0.002707  // $metal1_conn
6 *55:7 *55:2 45.198997  // $metal1_conn

*END

*D_NET *57 2.00293e-16

*CONN
*P *57 I *C 2.7000 1.0450 
*I *12:g B *C 2.6725 0.4425 
*I *28:g B *C 2.7275 1.0175 
*N *57:2 *C 2.6900 0.8100 

*CAP
0 *28:g 3.23244e-17
1 *12:g 4.10828e-17
2 *57:2 7.49252e-17
3 *57 5.19603e-17

*RES
0 *28:g *57:2 16.15522  // $poly_conn
1 *57:2 *12:g 66.15522  // $poly_conn
2 *57 *57:2 45.141022  // $metal1_conn

*END

*D_NET *58 1.61397e-16

*CONN
*P *58 O *C 6.9000 0.8550 
*I *37:d B *C 6.6950 0.5300 
*I *40:d B *C 6.6950 0.5300 
*I *39:d B *C 6.6850 1.1950 
*I *42:d B *C 6.6850 1.1950 
*N *58:1 *C 6.7150 0.8550 

*CAP
0 *39:d 5.8159e-17
1 *37:d 2.6216e-17
2 *58:1 3.91255e-17
3 *58 3.78964e-17

*RES
0 *58 *58:1 0.070406  // $metal1_conn
1 *58:1 *39:d 62.140549  // $metal1_conn
2 *58:1 *37:d 75.151283  // $metal1_conn

*END

*D_NET *38 1.0258e-16

*CONN
*P *38 O *C 7.1000 1.0450 
*I *43:d B *C 7.1150 0.5300 
*I *45:d B *C 7.1150 0.5300 
*I *44:d B *C 7.1550 1.1950 
*I *46:d B *C 7.1550 1.1950 

*CAP
0 *44:d 5.97913e-18
1 *43:d 4.06619e-17
2 *38 5.59391e-17

*RES
0 *38 *44:d 62.005524  // $metal1_conn
1 *43:d *38 75.26857  // $metal1_conn

*END

*D_NET *13 5.58966e-19

*CONN
*I *71:s B *C 5.5200 0.5325 
*I *72:d B *C 5.5200 0.5325 

*CAP
0 *71:s 5.58966e-19

*RES
0 *72:d *71:s 0.001  // $mwires

*END

*D_NET *11 3.34635e-18

*CONN
*I *49:s B *C 4.2850 0.5325 
*I *51:d B *C 4.2850 0.5325 

*CAP
0 *49:s 3.34635e-18

*RES
0 *51:d *49:s 0.001  // $mwires

*END

*D_NET *9 1.92358e-18

*CONN
*I *15:d B *C 3.7750 0.5325 
*I *16:s B *C 3.7750 0.5325 

*CAP
0 *15:d 1.92358e-18

*RES
0 *16:s *15:d 0.001  // $mwires

*END

*D_NET *8 0

*CONN
*I *77:d B *C 2.1500 0.4425 
*I *1:s B *C 2.1500 0.4425 


*RES
0 *1:s *77:d 0.001  // $mwires

*END

*D_NET *7 6.6159e-19

*CONN
*I *75:s B *C 1.3300 0.5875 
*I *76:d B *C 1.3300 0.5875 

*CAP
0 *75:s 6.6159e-19

*RES
0 *76:d *75:s 0.001  // $mwires

*END

*D_NET *6 3.08724e-18

*CONN
*I *18:s B *C 5.4800 1.1075 
*I *19:d B *C 5.4800 1.1075 

*CAP
0 *18:s 3.08724e-18

*RES
0 *19:d *18:s 0.001  // $mwires

*END

*D_NET *5 1.65611e-18

*CONN
*I *50:s B *C 4.3750 1.1075 
*I *52:d B *C 4.3750 1.1075 

*CAP
0 *50:s 1.65611e-18

*RES
0 *52:d *50:s 0.001  // $mwires

*END

*D_NET *4 2.49654e-18

*CONN
*I *31:d B *C 3.7925 1.1075 
*I *32:s B *C 3.7925 1.1075 

*CAP
0 *31:d 2.49654e-18

*RES
0 *32:s *31:d 0.001  // $mwires

*END

*D_NET *3 4.63175e-16

*CONN
*I *73:d B *C 0.4650 0.4525 
*I *75:g B *C 1.2775 0.5875 
*I *21:d B *C 0.4650 1.0075 
*I *23:g B *C 1.2775 1.0075 
*N *3:2 *C 1.2500 1.2800 
*N *3:5 *C 0.4550 1.0400 

*CAP
0 *23:g 3.48228e-17
1 *21:d 1.4366e-16
2 *75:g 6.3449e-17
3 *73:d 9.94786e-17
4 *3:2 1.21764e-16

*RES
0 *23:g *3:2 78.794518  // $poly_conn
1 *23:g *75:g 61.538464  // $poly_conn
2 *3:2 *3:5 0.735993  // $metal1_conn
3 *3:5 *73:d 75.823837  // $metal1_conn
4 *21:d *3:5 62  // $metal1_conn

*END

*D_NET *2 7.56741e-16

*CONN
*I *75:d B *C 1.1850 0.5875 
*I *1:d B *C 2.3050 0.4425 
*I *10:d B *C 2.3050 0.4425 
*I *15:g B *C 3.6125 0.5325 
*I *23:d B *C 1.1700 1.0075 
*I *24:d B *C 1.7200 1.0075 
*I *31:g B *C 3.6125 1.1075 
*N *2:3 *C 3.6600 0.3600 
*N *2:5 *C 2.3050 0.4300 
*N *2:6 *C 1.7300 0.6400 
*N *2:8 *C 1.1750 0.6000 

*CAP
0 *31:g 6.11897e-17
1 *24:d 3.80154e-17
2 *23:d 5.71909e-17
3 *15:g 5.47297e-17
4 *1:d 1.93204e-16
5 *75:d 8.22309e-17
6 *2:6 1.12862e-16
7 *2:3 1.57318e-16

*RES
0 *31:g *15:g 101.282051  // $poly_conn
1 *15:g *2:3 61.833908  // $poly_conn
2 *2:5 *2:6 0.590356  // $metal1_conn
3 *2:6 *2:8 0.426454  // $metal1_conn
4 *2:8 *23:d 62.258427  // $metal1_conn
5 *2:5 *2:3 1.175272  // $metal1_conn
6 *2:6 *24:d 62.199585  // $metal1_conn
7 *1:d *2:5 75  // $metal1_conn
8 *75:d *2:8 75  // $metal1_conn

*END

*D_NET *70 4.85347e-16

*CONN
*I *74:d B *C 0.8700 0.4525 
*I *77:g B *C 2.0975 0.4425 
*I *22:d B *C 0.9150 1.0075 
*I *25:g B *C 2.0975 1.0175 
*N *70:3 *C 2.0600 0.2700 
*N *70:5 *C 0.8950 0.4400 

*CAP
0 *25:g 5.78064e-17
1 *22:d 7.59829e-17
2 *77:g 4.85583e-17
3 *74:d 1.45788e-16
4 *70:3 1.57212e-16

*RES
0 *25:g *77:g 101.282051  // $poly_conn
1 *77:g *70:3 61.15522  // $poly_conn
2 *70:3 *70:5 1.008765  // $metal1_conn
3 *70:5 *22:d 62.343323  // $metal1_conn
4 *74:d *70:5 75  // $metal1_conn

*END

*D_NET *68 1.42749e-16

*CONN
*I *23:s B *C 1.4525 1.0075 
*I *24:s B *C 1.4525 1.0075 
*I *25:d B *C 2.2000 1.0175 
*I *26:d B *C 2.2000 1.0175 

*CAP
0 *25:d 6.99743e-17
1 *23:s 7.27745e-17

*RES
0 *25:d *23:s 124.568405  // $metal1_conn

*END

*D_NET *66 1.2865e-16

*CONN
*I *25:s B *C 2.0050 1.0175 
*I *26:s B *C 2.4050 1.0175 
*I *27:d B *C 2.4050 1.0175 

*CAP
0 *26:s 5.83583e-17
1 *25:s 7.02915e-17

*RES
0 *26:s *25:s 124.3311  // $metal1_conn

*END

*D_NET *65 1.74319e-15

*CONN
*I *34:d B *C 5.9450 0.5300 
*I *37:g B *C 6.5825 0.5300 
*I *40:g B *C 6.8075 0.5300 
*I *47:g B *C 7.4525 0.5875 
*I *72:g B *C 5.5775 0.5325 
*I *1:g B *C 2.2025 0.4425 
*I *39:g B *C 6.5825 1.1950 
*I *42:g B *C 6.7875 1.1950 
*I *48:g B *C 7.4525 1.1075 
*I *19:g B *C 5.5775 1.1075 
*I *20:d B *C 5.9850 1.3150 
*I *26:g B *C 2.3025 1.0175 
*N *65:1 *C 2.3600 1.4100 
*N *65:5 *C 5.5500 1.3250 
*N *65:16 *C 7.5500 1.3250 
*N *65:17 *C 6.4950 1.2825 
*N *65:18 *C 6.5450 0.9000 
*N *65:20 *C 5.9450 1.3000 
*N *65:21 *C 5.9350 0.9950 

*CAP
0 *26:g 6.22159e-17
1 *20:d 5.48208e-17
2 *19:g 4.94832e-17
3 *48:g 4.14917e-17
4 *42:g 2.78329e-16
5 *1:g 8.86484e-17
6 *72:g 7.92908e-17
7 *47:g 4.85723e-17
8 *34:d 6.43635e-17
9 *65:21 9.11247e-17
10 *65:17 1.18863e-16
11 *65:1 2.63043e-16
12 *65:5 3.95076e-16
13 *65:16 1.07871e-16

*RES
0 *48:g *47:g 87.179489  // $poly_conn
1 *48:g *65:16 70.100235  // $poly_conn
2 *19:g *72:g 101.282051  // $poly_conn
3 *19:g *65:5 64.691956  // $poly_conn
4 *26:g *1:g 115.095055  // $poly_conn
5 *65:1 *26:g 113.167961  // $poly_conn
6 *65:18 *42:g 45.117329  // $metal1_conn
7 *65:16 *65:17 0.752307  // $metal1_conn
8 *42:g *65:18 45  // $metal1_conn
9 *65:5 *65:1 2.257663  // $metal1_conn
10 *65:21 *65:5 0.474783  // $metal1_conn
11 *20:d *65:20 62  // $metal1_conn
12 *65:21 *34:d 75.29554  // $metal1_conn
13 *65:17 *65:18 0.283795  // $metal1_conn
14 *65:17 *65:20 0.427869  // $metal1_conn
15 *65:20 *65:21 0.226378  // $metal1_conn

*END

*D_NET *64 3.15795e-16

*CONN
*I *10:g B *C 2.4075 0.4425 
*I *12:d B *C 2.8075 0.4425 
*I *27:g B *C 2.5075 1.0175 
*I *28:d B *C 2.8400 1.0175 
*N *64:2 *C 2.4800 0.6500 
*N *64:5 *C 2.8600 0.6200 

*CAP
0 *28:d 5.02243e-17
1 *27:g 4.86346e-17
2 *12:d 3.63993e-17
3 *10:g 3.30109e-17
4 *64:5 5.62652e-17
5 *64:2 9.12602e-17

*RES
0 *27:g *64:2 54.991577  // $poly_conn
1 *64:2 *10:g 28.189922  // $poly_conn
2 *28:d *64:5 62.260796  // $metal1_conn
3 *64:5 *64:2 45.260593  // $metal1_conn
4 *64:5 *12:d 75.118233  // $metal1_conn

*END

*D_NET *63 1.28831e-15

*CONN
*I *35:d B *C 6.2700 0.4875 
*I *71:g B *C 5.4625 0.5325 
*I *14:g B *C 3.3075 0.5325 
*I *16:g B *C 3.9375 0.5325 
*I *36:d B *C 6.2350 1.1075 
*I *50:g B *C 4.3225 1.1075 
*I *17:g B *C 5.0025 1.1075 
*I *30:g B *C 3.4175 1.1075 
*N *63:2 *C 3.4550 0.7300 
*N *63:5 *C 3.7550 0.7300 
*N *63:7 *C 4.2850 0.7900 
*N *63:9 *C 5.0400 0.8750 
*N *63:11 *C 5.4150 0.1900 
*N *63:12 *C 5.4150 0.3550 
*N *63:13 *C 5.0700 0.3550 
*N *63:14 *C 4.2850 0.5550 
*N *63:15 *C 6.1600 0.4725 

*CAP
0 *30:g 5.40798e-17
1 *17:g 3.49495e-17
2 *50:g 5.84996e-17
3 *36:d 9.84974e-17
4 *16:g 4.32188e-17
5 *14:g 2.99524e-17
6 *71:g 6.18888e-17
7 *35:d 2.81094e-17
8 *63:15 8.61308e-17
9 *63:14 1.43573e-16
10 *63:13 1.1542e-16
11 *63:12 8.35324e-17
12 *63:2 7.83212e-17
13 *63:5 1.27521e-16
14 *63:7 9.15306e-17
15 *63:9 1.00562e-16
16 *63:11 5.25252e-17

*RES
0 *30:g *63:2 59.744961  // $poly_conn
1 *63:2 *14:g 45.85659  // $poly_conn
2 *16:g *63:5 102.367676  // $poly_conn
3 *50:g *63:7 89.360352  // $poly_conn
4 *17:g *63:9 67.565475  // $poly_conn
5 *71:g *63:11 104.744965  // $poly_conn
6 *63:11 *63:12 0.0677  // $metal1_conn
7 *63:12 *63:13 0.250916  // $metal1_conn
8 *63:13 *63:14 0.694021  // $metal1_conn
9 *63:14 *63:5 0.727105  // $metal1_conn
10 *63:5 *63:2 45.222435  // $metal1_conn
11 *63:12 *63:15 0.57134  // $metal1_conn
12 *63:15 *36:d 62.453735  // $metal1_conn
13 *63:13 *63:9 0.374598  // $metal1_conn
14 *63:14 *63:7 0.185815  // $metal1_conn
15 *63:15 *35:d 75.049072  // $metal1_conn

*END

*D_NET *62 8.64113e-16

*CONN
*I *49:g B *C 4.1425 0.5325 
*I *69:g B *C 5.2575 0.5325 
*I *14:d B *C 3.1425 0.5325 
*I *18:g B *C 5.3825 1.1075 
*I *30:d B *C 3.3250 1.1075 
*I *32:g B *C 3.9725 1.1075 
*N *62:2 *C 3.9350 0.9000 
*N *62:5 *C 5.4200 0.8350 
*N *62:8 *C 3.2900 0.9000 
*N *62:10 *C 3.9350 0.9000 

*CAP
0 *32:g 1.95998e-17
1 *30:d 1.67326e-17
2 *18:g 3.60662e-17
3 *14:d 5.20175e-17
4 *69:g 3.84511e-17
5 *49:g 5.20875e-17
6 *62:8 8.21404e-17
7 *62:2 2.81531e-16
8 *62:5 2.85487e-16

*RES
0 *49:g *62:2 104.830948  // $poly_conn
1 *62:2 *32:g 16.15522  // $poly_conn
2 *18:g *62:5 32.821884  // $poly_conn
3 *62:5 *69:g 76.625824  // $poly_conn
4 *14:d *62:8 75.380859  // $metal1_conn
5 *62:8 *30:d 62.11644  // $metal1_conn
6 *62:8 *62:10 0.40521  // $metal1_conn
7 *62:10 *62:5 46.605679  // $metal1_conn
8 *62:2 *62:10 45  // $metal1_conn

*END

*D_NET *61 3.31291e-16

*CONN
*I *49:d B *C 4.0400 0.5325 
*I *67:g B *C 4.6925 0.5325 
*I *16:d B *C 4.0400 0.5325 
*I *50:d B *C 4.1475 1.1075 
*I *53:g B *C 4.6925 1.1075 
*I *32:d B *C 4.1475 1.1075 
*N *61:2 *C 4.6550 0.9000 
*N *61:5 *C 4.1550 0.9800 

*CAP
0 *53:g 3.5217e-17
1 *50:d 3.14667e-17
2 *67:g 3.42706e-17
3 *49:d 7.22391e-17
4 *61:5 6.57899e-17
5 *61:2 9.23075e-17

*RES
0 *53:g *61:2 16.15522  // $poly_conn
1 *61:2 *67:g 66.15522  // $poly_conn
2 *49:d *61:5 75.374947  // $metal1_conn
3 *61:5 *50:d 62.04285  // $metal1_conn
4 *61:5 *61:2 45.353107  // $metal1_conn

*END

*D_NET *60 3.68069e-16

*CONN
*I *51:g B *C 4.4275 0.5325 
*I *67:d B *C 4.9750 0.5325 
*I *69:s B *C 4.9750 0.5325 
*I *52:g B *C 4.4275 1.1075 
*I *53:d B *C 4.8475 1.1075 
*I *17:s B *C 4.8475 1.1075 
*N *60:2 *C 4.4750 0.7150 
*N *60:5 *C 4.8500 0.7150 

*CAP
0 *53:d 5.40011e-17
1 *52:g 7.55769e-17
2 *67:d 4.33856e-17
3 *51:g 2.70375e-17
4 *60:5 6.56046e-17
5 *60:2 1.02463e-16

*RES
0 *52:g *60:2 62.27047  // $poly_conn
1 *60:2 *51:g 17.398676  // $poly_conn
2 *67:d *60:5 75.175606  // $metal1_conn
3 *60:5 *60:2 45.294769  // $metal1_conn
4 *60:5 *53:d 62.224453  // $metal1_conn

*END

*D_NET *59 3.71115e-16

*CONN
*I *34:g B *C 5.8425 0.5300 
*I *69:d B *C 5.3600 0.5325 
*I *71:d B *C 5.3600 0.5325 
*I *17:d B *C 5.1925 1.1075 
*I *18:d B *C 5.1925 1.1075 
*I *20:g B *C 5.8425 1.1950 
*N *59:2 *C 5.8425 0.7850 
*N *59:3 *C 5.7750 0.7850 
*N *59:5 *C 5.3600 0.6750 

*CAP
0 *20:g 5.45266e-17
1 *17:d 6.88391e-17
2 *69:d 2.39819e-17
3 *34:g 4.10963e-17
4 *59:5 8.61879e-17
5 *59:2 1.59036e-17
6 *59:3 8.05799e-17

*RES
0 *20:g *59:2 52.373516  // $poly_conn
1 *59:2 *59:3 46.794373  // $poly_conn
2 *59:2 *34:g 29.296595  // $poly_conn
3 *59:3 *59:5 0.380882  // $metal1_conn
4 *59:5 *17:d 62.38139  // $metal1_conn
5 *59:5 *69:d 75.068939  // $metal1_conn

*END

*D_NET *33 2.7779e-16

*CONN
*I *43:g B *C 7.0125 0.5300 
*I *45:g B *C 7.2175 0.5300 
*I *47:d B *C 7.5450 0.5875 
*I *44:g B *C 7.0525 1.1950 
*I *46:g B *C 7.2575 1.1950 
*I *48:d B *C 7.5450 1.1075 
*N *33:9 *C 7.5550 0.7850 

*CAP
0 *48:d 2.51657e-17
1 *46:g 2.2044e-16
2 *47:d 1.11155e-17
3 *33:9 2.10686e-17

*RES
0 *33:9 *46:g 45.152874  // $metal1_conn
1 *48:d *33:9 62.194302  // $metal1_conn
2 *33:9 *47:d 75.126328  // $metal1_conn

*END

