*SPEF "IEEE 1481-1999"
*DESIGN  "INVX1"
*DATE "Mon Sep 27 09:50:29 2010"
*VENDOR "Cadence Design Systems"
*PROGRAM "Assura RCX"
*VERSION "3.2 Red Hat Linux release 7.2 (Enigma) - (09/09/2009-10:39)"
*DESIGN_FLOW "Physical Verification"
*DIVIDER /
*DELIMITER :
*BUS_DELIMITER []
*T_UNIT 1 PS
*C_UNIT 1e15 FF
*R_UNIT 1 OHM
*L_UNIT 1 MH
// DeviceFingerDelim "@"
// MATCHED
// caps2d version: 10

*NAME_MAP
*1 mn0
*2 VSS
*3 mp0
*4 A
*5 VDD
*6 Y

*GROUND_NETS VSS

*PORTS
*5 I
*2 I
*4 I
*6 O

*D_NET *5 3.30982e-17

*CONN
*P *5 I *C 0.1000 1.7100 
*I *3:s B *C 0.1425 1.5450 
*N *5:1 *C 0.2000 1.7100 

*CAP
0 *3:s 3.7811e-18
1 *5:1 2.93171e-17

*RES
0 *5:1 *5 37.549934  // $metal1_conn
1 *5 *3:s 62.108715  // $metal1_conn

*END

*D_NET *2 0

*CONN
*P *2 I *C 0.1000 0.0000 
*I *1:s B *C 0.1500 0.5000 
*N *2:1 *C 0.2000 0.0000 


*RES
0 *2:1 *2 31.049932  // $metal1_conn
1 *2 *1:s 75.083  // $metal1_conn

*END

*D_NET *4 1.22429e-16

*CONN
*P *4 I *C 0.0900 0.7600 
*I *1:g B *C 0.1975 0.5000 
*I *3:g B *C 0.1975 1.0950 
*N *4:2 *C 0.1975 0.7300 
*N *4:3 *C 0.1300 0.7300 
*N *4:5 *C 0.0905 0.7450 
*N *4:6 *C 0.1300 0.7450 

*CAP
0 *3:g 2.73387e-17
1 *1:g 1.9887e-17
2 *4:6 3.98443e-17
3 *4:2 1.07577e-17
4 *4:3 8.5082e-18
5 *4 1.60929e-17

*RES
0 *3:g *4:2 40.835056  // $poly_conn
1 *4:2 *4:3 46.794373  // $poly_conn
2 *4:2 *1:g 22.886339  // $poly_conn
3 *4:5 *4 0.006574  // $metal1_conn
4 *4:3 *4:6 0.006574  // $metal1_conn
5 *4:5 *4:6 0.011817  // $metal1_conn

*END

*D_NET *6 7.25683e-17

*CONN
*P *6 O *C 0.2900 0.7600 
*I *1:d B *C 0.2900 0.5000 
*I *3:d B *C 0.2900 1.0950 

*CAP
0 *3:d 1.47381e-17
1 *1:d 2.26318e-17
2 *6 3.51984e-17

*RES
0 *3:d *6 20.894264  // $metal1_conn
1 *6 *1:d 37.668667  // $metal1_conn

*END

