*SPEF "IEEE 1481-1999"
*DESIGN  "INVX4"
*DATE "Mon Sep 27 09:52:46 2010"
*VENDOR "Cadence Design Systems"
*PROGRAM "Assura RCX"
*VERSION "3.2 Red Hat Linux release 7.2 (Enigma) - (09/09/2009-10:39)"
*DESIGN_FLOW "Physical Verification"
*DIVIDER /
*DELIMITER :
*BUS_DELIMITER []
*T_UNIT 1 PS
*C_UNIT 1e15 FF
*R_UNIT 1 OHM
*L_UNIT 1 MH
// DeviceFingerDelim "@"
// MATCHED
// caps2d version: 10

*NAME_MAP
*1 mp0
*2 mp0\@1
*3 mp0\@2
*4 mp0\@3
*5 VSS
*6 mn0
*7 mn0\@1
*8 A
*9 VDD
*10 mn0\@2
*11 Y
*12 mn0\@3

*GROUND_NETS VSS

*PORTS
*9 I
*5 I
*8 I
*11 O

*D_NET *9 1.88746e-16

*CONN
*P *9 I *C 0.1000 1.7100 
*I *1:s B *C 0.1100 1.1450 
*I *2:s B *C 0.5100 1.1450 
*I *3:s B *C 0.5100 1.1450 
*I *4:s B *C 0.9250 1.2900 
*N *9:2 *C 0.5000 1.7100 

*CAP
0 *9:2 6.55086e-17
1 *9 1.23237e-16

*RES
0 *9:2 *9 15  // $metal1_conn

*END

*D_NET *5 0

*CONN
*P *5 I *C 0.1000 0.0000 
*I *6:s B *C 0.1100 0.5250 
*I *7:s B *C 0.5100 0.5250 
*I *10:s B *C 0.5100 0.5250 
*I *12:s B *C 0.9250 0.3675 
*N *5:2 *C 0.5000 0.0000 


*RES
0 *5:2 *5 12.4  // $metal1_conn

*END

*D_NET *8 3.7464e-16

*CONN
*P *8 I *C 0.1100 0.7600 
*I *6:g B *C 0.2025 0.5250 
*I *7:g B *C 0.4075 0.5250 
*I *10:g B *C 0.6125 0.5250 
*I *12:g B *C 0.8175 0.5250 
*I *1:g B *C 0.2025 1.1450 
*I *2:g B *C 0.4075 1.1450 
*I *3:g B *C 0.6125 1.1450 
*I *4:g B *C 0.8175 1.1450 
*N *8:8 *C 0.1500 0.7850 
*N *8:16 *C 0.4600 0.7850 

*CAP
0 *4:g 3.0757e-16
1 *8:8 4.72601e-17
2 *8 1.98105e-17

*RES
0 *4:g *8:8 47.07761  // $poly_conn
1 *8:8 *8 0.01652  // $metal1_conn
2 *8:16 *8:8 0.289433  // $metal1_conn
3 *4:g *8:16 45  // $metal1_conn
4 *4:g *8:16 45.29855  // $metal1_conn

*END

*D_NET *11 4.16861e-16

*CONN
*P *11 O *C 0.9100 0.7600 
*I *6:d B *C 0.3050 0.5250 
*I *7:d B *C 0.3050 0.5250 
*I *10:d B *C 0.7150 0.5250 
*I *12:d B *C 0.7150 0.5250 
*I *1:d B *C 0.3050 1.1450 
*I *2:d B *C 0.3050 1.1450 
*I *3:d B *C 0.7150 1.1450 
*I *4:d B *C 0.7150 1.1450 

*CAP
0 *3:d 2.0664e-16
1 *6:d 1.68702e-16
2 *11 4.15192e-17

*RES
0 *3:d *11 0.238476  // $metal1_conn
1 *11 *6:d 0.179042  // $metal1_conn

*END

