*SPEF "IEEE 1481-1999"
*DESIGN  "INVX16"
*DATE "Mon Sep 27 09:51:14 2010"
*VENDOR "Cadence Design Systems"
*PROGRAM "Assura RCX"
*VERSION "3.2 Red Hat Linux release 7.2 (Enigma) - (09/09/2009-10:39)"
*DESIGN_FLOW "Physical Verification"
*DIVIDER /
*DELIMITER :
*BUS_DELIMITER []
*T_UNIT 1 PS
*C_UNIT 1e15 FF
*R_UNIT 1 OHM
*L_UNIT 1 MH
// DeviceFingerDelim "@"
// MATCHED
// caps2d version: 10

*NAME_MAP
*1 mn0\@9
*2 mn0\@10
*3 mn0\@11
*4 mp0\@9
*5 mn0\@12
*6 VDD
*7 mp0\@10
*8 mn0\@13
*9 mp0\@11
*10 VSS
*11 mp0\@12
*12 mp0\@13
*13 Y
*14 mn0
*15 mn0\@1
*16 mn0\@2
*17 mn0\@3
*18 mn0\@4
*19 mn0\@5
*20 mn0\@6
*21 mn0\@7
*22 mn0\@8
*23 mp0
*24 mp0\@1
*25 mp0\@2
*26 mp0\@3
*27 mp0\@4
*28 mp0\@5
*29 mp0\@6
*30 mp0\@7
*31 mp0\@8
*32 A

*GROUND_NETS VSS

*PORTS
*6 I
*10 I
*32 I
*13 O

*D_NET *6 6.333e-16

*CONN
*P *6 I *C 0.1000 1.7100 
*I *23:s B *C 1.7400 1.1225 
*I *24:s B *C 1.7400 1.1225 
*I *25:s B *C 2.1500 1.1225 
*I *26:s B *C 2.1500 1.1225 
*I *27:s B *C 2.5600 1.1225 
*I *28:s B *C 2.5600 1.1225 
*I *29:s B *C 2.9600 1.1225 
*I *30:s B *C 0.1100 1.1225 
*I *31:s B *C 0.5100 1.1225 
*I *4:s B *C 0.5100 1.1225 
*I *7:s B *C 0.9200 1.1225 
*I *9:s B *C 0.9200 1.1225 
*I *11:s B *C 1.3300 1.1225 
*I *12:s B *C 1.3300 1.1225 

*CAP
0 *6 6.333e-16


*END

*D_NET *32 1.22724e-15

*CONN
*P *32 I *C 0.1100 0.7600 
*I *14:g B *C 1.6375 0.5125 
*I *15:g B *C 1.8425 0.5125 
*I *16:g B *C 2.0475 0.5125 
*I *17:g B *C 2.2525 0.5125 
*I *18:g B *C 2.4575 0.5125 
*I *19:g B *C 2.6625 0.5125 
*I *20:g B *C 2.8675 0.5125 
*I *21:g B *C 0.2025 0.5125 
*I *22:g B *C 0.4075 0.5125 
*I *1:g B *C 0.6125 0.5125 
*I *2:g B *C 0.8175 0.5125 
*I *3:g B *C 1.0225 0.5125 
*I *5:g B *C 1.2275 0.5125 
*I *8:g B *C 1.4325 0.5125 
*I *23:g B *C 1.6375 1.1225 
*I *24:g B *C 1.8425 1.1225 
*I *25:g B *C 2.0475 1.1225 
*I *26:g B *C 2.2525 1.1225 
*I *27:g B *C 2.4575 1.1225 
*I *28:g B *C 2.6625 1.1225 
*I *29:g B *C 2.8675 1.1225 
*I *30:g B *C 0.2025 1.1225 
*I *31:g B *C 0.4075 1.1225 
*I *4:g B *C 0.6125 1.1225 
*I *7:g B *C 0.8175 1.1225 
*I *9:g B *C 1.0225 1.1225 
*I *11:g B *C 1.2275 1.1225 
*I *12:g B *C 1.4325 1.1225 

*CAP
0 *29:g 1.20573e-15
1 *32 2.15085e-17

*RES
0 *29:g *32 0.017339  // $metal1_conn

*END

*D_NET *13 1.61139e-15

*CONN
*P *13 O *C 2.9600 0.7600 
*I *14:d B *C 1.5350 0.5125 
*I *15:d B *C 1.9450 0.5125 
*I *16:d B *C 1.9450 0.5125 
*I *17:d B *C 2.3550 0.5125 
*I *18:d B *C 2.3550 0.5125 
*I *19:d B *C 2.7650 0.5125 
*I *20:d B *C 2.7650 0.5125 
*I *21:d B *C 0.3050 0.5125 
*I *22:d B *C 0.3050 0.5125 
*I *1:d B *C 0.7150 0.5125 
*I *2:d B *C 0.7150 0.5125 
*I *3:d B *C 1.1250 0.5125 
*I *5:d B *C 1.1250 0.5125 
*I *8:d B *C 1.5350 0.5125 
*I *23:d B *C 1.5350 1.1225 
*I *24:d B *C 1.9450 1.1225 
*I *25:d B *C 1.9450 1.1225 
*I *26:d B *C 2.3550 1.1225 
*I *27:d B *C 2.3550 1.1225 
*I *28:d B *C 2.7650 1.1225 
*I *29:d B *C 2.7650 1.1225 
*I *30:d B *C 0.3050 1.1225 
*I *31:d B *C 0.3050 1.1225 
*I *4:d B *C 0.7150 1.1225 
*I *7:d B *C 0.7150 1.1225 
*I *9:d B *C 1.1250 1.1225 
*I *11:d B *C 1.1250 1.1225 
*I *12:d B *C 1.5350 1.1225 
*N *13:3 *C 2.7650 0.7375 

*CAP
0 *28:d 8.66831e-16
1 *14:d 6.99842e-16
2 *13:3 1.32927e-17
3 *13 3.14242e-17

*RES
0 *13:3 *13 0.111633  // $metal1_conn
1 *28:d *13:3 0.159374  // $metal1_conn
2 *13:3 *14:d 0.075067  // $metal1_conn

*END

