*SPEF "IEEE 1481-1999"
*DESIGN  "INVXL"
*DATE "Mon Sep 27 09:53:54 2010"
*VENDOR "Cadence Design Systems"
*PROGRAM "Assura RCX"
*VERSION "3.2 Red Hat Linux release 7.2 (Enigma) - (09/09/2009-10:39)"
*DESIGN_FLOW "Physical Verification"
*DIVIDER /
*DELIMITER :
*BUS_DELIMITER []
*T_UNIT 1 PS
*C_UNIT 1e15 FF
*R_UNIT 1 OHM
*L_UNIT 1 MH
// DeviceFingerDelim "@"
// MATCHED
// caps2d version: 10

*NAME_MAP
*1 mn0
*2 VSS
*3 mp0
*4 A
*5 VDD
*6 Y

*GROUND_NETS VSS

*PORTS
*5 I
*2 I
*4 I
*6 O

*D_NET *5 4.88125e-17

*CONN
*P *5 I *C 0.1000 1.7100 
*I *3:s B *C 0.1425 1.5525 
*N *5:2 *C 0.2000 1.7100 

*CAP
0 *3:s 5.7778e-18
1 *5:2 3.8425e-17
2 *5 4.60974e-18

*RES
0 *3:s *5 62.07103  // $metal1_conn
1 *5:2 *5 37.5  // $metal1_conn

*END

*D_NET *2 0

*CONN
*P *2 I *C 0.1000 0.0000 
*I *1:s B *C 0.1300 0.4525 
*N *2:1 *C 0.2000 0.0000 


*RES
0 *2:1 *2 31.050365  // $metal1_conn
1 *2 *1:s 75.086105  // $metal1_conn

*END

*D_NET *4 1.28629e-16

*CONN
*P *4 I *C 0.0950 0.7600 
*I *1:g B *C 0.1775 0.4525 
*I *3:g B *C 0.1775 1.1925 
*N *4:2 *C 0.1400 0.7400 
*N *4:4 *C 0.1400 0.7400 

*CAP
0 *3:g 2.7578e-17
1 *1:g 2.04451e-17
2 *4:2 6.47233e-17
3 *4 1.58831e-17

*RES
0 *3:g *4:2 78.345901  // $poly_conn
1 *4:2 *1:g 45.012573  // $poly_conn
2 *4 *4:4 0.013348  // $metal1_conn
3 *4:2 *4:4 45  // $metal1_conn

*END

*D_NET *6 8.34257e-17

*CONN
*P *6 O *C 0.3100 0.7600 
*I *1:d B *C 0.2800 0.4525 
*I *3:d B *C 0.3300 1.1450 

*CAP
0 *3:d 1.84746e-17
1 *1:d 2.31746e-17
2 *6 4.17765e-17

*RES
0 *6 *1:d 75.176353  // $metal1_conn
1 *6 *3:d 62.230152  // $metal1_conn

*END

