*SPEF "IEEE 1481-1999"
*DESIGN  "INVX20"
*DATE "Mon Sep 27 09:51:59 2010"
*VENDOR "Cadence Design Systems"
*PROGRAM "Assura RCX"
*VERSION "3.2 Red Hat Linux release 7.2 (Enigma) - (09/09/2009-10:39)"
*DESIGN_FLOW "Physical Verification"
*DIVIDER /
*DELIMITER :
*BUS_DELIMITER []
*T_UNIT 1 PS
*C_UNIT 1e15 FF
*R_UNIT 1 OHM
*L_UNIT 1 MH
// DeviceFingerDelim "@"
// MATCHED
// caps2d version: 10

*NAME_MAP
*1 Y
*2 mp0\@9
*3 mp0\@10
*4 mp0\@11
*5 mp0\@12
*6 mp0\@13
*7 mp0\@14
*8 mp0\@15
*9 mp0\@16
*10 VDD
*11 mn0
*12 mn0\@1
*13 mn0\@2
*14 mn0\@3
*15 mn0\@4
*16 VSS
*17 mn0\@5
*18 mp0
*19 mn0\@6
*20 mp0\@1
*21 mn0\@7
*22 mp0\@2
*23 mn0\@8
*24 mp0\@3
*25 mp0\@4
*26 mp0\@5
*27 mp0\@6
*28 mp0\@7
*29 mp0\@8
*30 A
*31 mn0\@9
*32 mn0\@10
*33 mn0\@11
*34 mn0\@12
*35 mn0\@13
*36 mn0\@14
*37 mn0\@15
*38 mn0\@16

*GROUND_NETS VSS

*PORTS
*10 I
*16 I
*30 I
*1 O

*D_NET *10 7.46351e-16

*CONN
*P *10 I *C 0.1000 1.7100 
*I *18:s B *C 2.1500 1.1300 
*I *20:s B *C 2.1500 1.1300 
*I *22:s B *C 2.5600 1.1300 
*I *24:s B *C 2.5600 1.1300 
*I *25:s B *C 2.9700 1.1300 
*I *26:s B *C 2.9700 1.1300 
*I *27:s B *C 3.3800 1.1300 
*I *28:s B *C 3.3800 1.1300 
*I *29:s B *C 1.7400 1.1300 
*I *2:s B *C 0.1100 1.1300 
*I *3:s B *C 0.5100 1.1300 
*I *4:s B *C 0.5100 1.1300 
*I *5:s B *C 0.9200 1.1300 
*I *6:s B *C 0.9200 1.1300 
*I *7:s B *C 1.3300 1.1300 
*I *8:s B *C 1.3300 1.1300 
*I *9:s B *C 1.7400 1.1300 

*CAP
0 *10 7.46351e-16


*END

*D_NET *30 1.56705e-15

*CONN
*P *30 I *C 0.1100 0.7600 
*I *11:g B *C 2.0475 0.5075 
*I *12:g B *C 2.2525 0.5075 
*I *13:g B *C 2.4575 0.5075 
*I *14:g B *C 2.6625 0.5075 
*I *15:g B *C 2.8675 0.5075 
*I *17:g B *C 3.0725 0.5075 
*I *19:g B *C 3.2775 0.5075 
*I *21:g B *C 3.4825 0.5075 
*I *23:g B *C 1.8425 0.5075 
*I *31:g B *C 0.2025 0.5075 
*I *32:g B *C 0.4075 0.5075 
*I *33:g B *C 0.6125 0.5075 
*I *34:g B *C 0.8175 0.5075 
*I *35:g B *C 1.0225 0.5075 
*I *36:g B *C 1.2275 0.5075 
*I *37:g B *C 1.4325 0.5075 
*I *38:g B *C 1.6375 0.5075 
*I *18:g B *C 2.0475 1.1300 
*I *20:g B *C 2.2525 1.1300 
*I *22:g B *C 2.4575 1.1300 
*I *24:g B *C 2.6625 1.1300 
*I *25:g B *C 2.8675 1.1300 
*I *26:g B *C 3.0725 1.1300 
*I *27:g B *C 3.2775 1.1300 
*I *28:g B *C 3.4825 1.1300 
*I *29:g B *C 1.8425 1.1300 
*I *2:g B *C 0.2025 1.1300 
*I *3:g B *C 0.4075 1.1300 
*I *4:g B *C 0.6125 1.1300 
*I *5:g B *C 0.8175 1.1300 
*I *6:g B *C 1.0225 1.1300 
*I *7:g B *C 1.2275 1.1300 
*I *8:g B *C 1.4325 1.1300 
*I *9:g B *C 1.6375 1.1300 

*CAP
0 *28:g 1.54555e-15
1 *30 2.15085e-17

*RES
0 *28:g *30 0.017339  // $metal1_conn

*END

*D_NET *1 2.00466e-15

*CONN
*P *1 O *C 3.5750 0.7600 
*I *11:d B *C 1.9450 0.5075 
*I *12:d B *C 2.3550 0.5075 
*I *13:d B *C 2.3550 0.5075 
*I *14:d B *C 2.7650 0.5075 
*I *15:d B *C 2.7650 0.5075 
*I *17:d B *C 3.1750 0.5075 
*I *19:d B *C 3.1750 0.5075 
*I *21:d B *C 3.5750 0.5075 
*I *23:d B *C 1.9450 0.5075 
*I *31:d B *C 0.3050 0.5075 
*I *32:d B *C 0.3050 0.5075 
*I *33:d B *C 0.7150 0.5075 
*I *34:d B *C 0.7150 0.5075 
*I *35:d B *C 1.1250 0.5075 
*I *36:d B *C 1.1250 0.5075 
*I *37:d B *C 1.5350 0.5075 
*I *38:d B *C 1.5350 0.5075 
*I *18:d B *C 1.9450 1.1300 
*I *20:d B *C 2.3550 1.1300 
*I *22:d B *C 2.3550 1.1300 
*I *24:d B *C 2.7650 1.1300 
*I *25:d B *C 2.7650 1.1300 
*I *26:d B *C 3.1750 1.1300 
*I *27:d B *C 3.1750 1.1300 
*I *28:d B *C 3.5750 1.1300 
*I *29:d B *C 1.9450 1.1300 
*I *2:d B *C 0.3050 1.1300 
*I *3:d B *C 0.3050 1.1300 
*I *4:d B *C 0.7150 1.1300 
*I *5:d B *C 0.7150 1.1300 
*I *6:d B *C 1.1250 1.1300 
*I *7:d B *C 1.1250 1.1300 
*I *8:d B *C 1.5350 1.1300 
*I *9:d B *C 1.5350 1.1300 

*CAP
0 *28:d 1.09418e-15
1 *11:d 8.94705e-16
2 *1 1.57717e-17

*RES
0 *28:d *1 0.10757  // $metal1_conn
1 *1 *11:d 0.06532  // $metal1_conn

*END

