*SPEF "IEEE 1481-1999"
*DESIGN  "MDFFHQX4"
*DATE "Mon Sep 27 09:55:03 2010"
*VENDOR "Cadence Design Systems"
*PROGRAM "Assura RCX"
*VERSION "3.2 Red Hat Linux release 7.2 (Enigma) - (09/09/2009-10:39)"
*DESIGN_FLOW "Physical Verification"
*DIVIDER /
*DELIMITER :
*BUS_DELIMITER []
*T_UNIT 1 PS
*C_UNIT 1e15 FF
*R_UNIT 1 OHM
*L_UNIT 1 MH
// DeviceFingerDelim "@"
// MATCHED
// caps2d version: 10

*NAME_MAP
*1 mp10
*2 mp20
*3 mp55
*4 CK
*5 mp55\@1
*6 mp55\@2
*7 mp55\@3
*8 mp45
*9 mp45\@1
*10 mp50
*11 mp51
*12 mp40
*13 VDD
*14 mn30
*15 mn35
*16 mn36
*17 mn25
*18 mn21
*19 mn11
*20 mn12
*21 mp30
*22 mn14
*23 S0
*24 mp35
*25 mn13
*26 mp36
*27 mp25
*28 mp21
*29 mp11
*30 mp12
*31 mp14
*32 mp13
*33 n30
*34 n20
*35 S0b
*36 D0b
*37 CKbb
*38 CKb
*39 n36
*40 n26
*41 n11
*42 n13
*43 n35
*44 n25
*45 n10
*46 Q
*47 n12
*48 mn10
*49 mn20
*50 mn55
*51 mn55\@1
*52 mn55\@2
*53 mn55\@3
*54 VSS
*55 mn45
*56 mn45\@1
*57 mn50
*58 qbint
*59 mn51
*60 mout
*61 D0
*62 D1
*63 mn40

*GROUND_NETS VSS

*PORTS
*13 I
*54 I
*4 I
*61 I
*62 I
*23 I
*46 O

*D_NET *13 7.01047e-16

*CONN
*P *13 I *C 0.1000 1.7100 
*I *21:s B *C 2.9950 1.1400 
*I *24:s B *C 2.9950 1.1400 
*I *28:s B *C 4.2500 1.1850 
*I *29:s B *C 4.2500 1.1850 
*I *32:s B *C 5.0525 1.0975 
*I *1:s B *C 5.0525 1.0975 
*I *2:s B *C 0.3850 1.1800 
*I *3:s B *C 0.3850 1.1800 
*I *5:s B *C 0.8550 1.1800 
*I *6:s B *C 0.8550 1.1800 
*I *7:s B *C 1.3250 1.1400 
*I *8:s B *C 1.3250 1.1400 
*I *9:s B *C 1.7950 1.1400 
*I *10:s B *C 1.7950 1.1400 
*N *13:2 *C 4.5000 1.7100 
*N *13:3 *C 4.5000 1.7100 
*N *13:4 *C 4.2200 1.7100 
*N *13:5 *C 2.8800 1.7100 
*N *13:6 *C 2.7000 1.7100 

*CAP
0 *9:s 1.68434e-16
1 *32:s 4.32099e-17
2 *28:s 3.39841e-17
3 *21:s 3.09801e-17
4 *13:5 2.85199e-17
5 *13:4 2.63716e-17
6 *13:2 3.61315e-16
7 *13 8.2322e-18

*RES
0 *9:s *13 0.0998  // $metal1_conn
1 *13:2 *13:3 8.333333  // $metal1_conn
2 *13:2 *13:6 8.333333  // $metal1_conn
3 *13:2 *9:s 8.333333  // $metal1_conn
4 *32:s *13:3 62.498203  // $metal1_conn
5 *13:4 *28:s 62.240425  // $metal1_conn
6 *13:5 *21:s 62.16367  // $metal1_conn
7 *13:3 *13:4 0.140149  // $metal1_conn
8 *13:4 *13:5 0.671259  // $metal1_conn
9 *13:5 *13:6 0.090026  // $metal1_conn
10 *13:6 *9:s 0.511061  // $metal1_conn

*END

*D_NET *54 0

*CONN
*P *54 I *C 0.1000 0.0000 
*I *14:s B *C 2.9950 0.5025 
*I *15:s B *C 2.9950 0.5025 
*I *18:s B *C 4.2500 0.4450 
*I *19:s B *C 4.2500 0.4450 
*I *25:s B *C 5.0700 0.4775 
*I *48:s B *C 5.0700 0.4775 
*I *49:s B *C 0.3600 0.5300 
*I *50:s B *C 0.3600 0.5300 
*I *51:s B *C 0.7950 0.5300 
*I *52:s B *C 0.7950 0.5300 
*I *53:s B *C 1.3150 0.5025 
*I *55:s B *C 1.3150 0.5025 
*I *56:s B *C 1.7100 0.5025 
*I *57:s B *C 1.7100 0.5025 
*N *54:2 *C 4.5000 0.0000 
*N *54:3 *C 4.5000 0.0000 
*N *54:4 *C 4.1500 0.0000 
*N *54:5 *C 2.9400 0.0000 
*N *54:6 *C 2.7000 0.0000 


*RES
0 *56:s *54 0.124861  // $metal1_conn
1 *54:2 *54:3 6.888889  // $metal1_conn
2 *54:2 *54:6 6.888889  // $metal1_conn
3 *54:2 *56:s 6.888889  // $metal1_conn
4 *25:s *54:3 75.583466  // $metal1_conn
5 *54:4 *18:s 75.316841  // $metal1_conn
6 *54:5 *14:s 75.120369  // $metal1_conn
7 *54:3 *54:4 0.175235  // $metal1_conn
8 *54:4 *54:5 0.606099  // $metal1_conn
9 *54:5 *54:6 0.1201  // $metal1_conn
10 *54:6 *56:s 0.511061  // $metal1_conn

*END

*D_NET *4 2.12655e-16

*CONN
*P *4 I *C 0.3000 1.0450 
*I *49:g B *C 0.2175 0.5875 
*I *2:g B *C 0.2175 1.0925 
*N *4:1 *C 0.2900 0.7600 
*N *4:2 *C 0.2175 0.7600 

*CAP
0 *2:g 3.45756e-17
1 *49:g 2.8835e-17
2 *4:2 3.54339e-17
3 *4:1 5.21075e-17
4 *4 6.17034e-17

*RES
0 *4:1 *4:2 47.294373  // $poly_conn
1 *4:2 *49:g 20.563484  // $poly_conn
2 *4:2 *2:g 52.614765  // $poly_conn
3 *4 *4:1 0.1707  // $metal1_conn

*END

*D_NET *61 2.95302e-16

*CONN
*P *61 I *C 3.9000 0.8550 
*I *19:g B *C 4.3225 0.4450 
*I *29:g B *C 4.3225 1.1850 
*N *61:2 *C 4.3225 0.8450 
*N *61:3 *C 4.1800 0.8450 

*CAP
0 *29:g 8.76047e-17
1 *19:g 4.15209e-17
2 *61:2 3.6022e-17
3 *61:3 8.23726e-17
4 *61 4.77818e-17

*RES
0 *29:g *61:2 33.86845  // $poly_conn
1 *61:2 *61:3 53.124924  // $poly_conn
2 *61:2 *19:g 65.919731  // $poly_conn
3 *61:3 *61 0.152531  // $metal1_conn

*END

*D_NET *62 2.88024e-16

*CONN
*P *62 I *C 4.9000 0.8550 
*I *25:g B *C 4.9175 0.4450 
*I *32:g B *C 4.8425 1.1850 
*N *62:2 *C 4.8800 0.8450 
*N *62:4 *C 4.8800 0.8450 

*CAP
0 *32:g 5.49526e-17
1 *25:g 8.52313e-17
2 *62:2 5.25734e-17
3 *62 9.52667e-17

*RES
0 *25:g *62:2 62.01527  // $poly_conn
1 *62:2 *32:g 29.963991  // $poly_conn
2 *62:4 *62 0.007054  // $metal1_conn
3 *62:2 *62:4 45  // $metal1_conn

*END

*D_NET *23 5.27952e-16

*CONN
*P *23 I *C 5.1000 0.6650 
*I *22:g B *C 4.8125 0.4450 
*I *48:g B *C 5.1225 0.4775 
*I *30:g B *C 4.4275 1.1850 
*I *1:g B *C 5.1225 1.0975 
*N *23:1 *C 4.5000 0.8700 
*N *23:4 *C 4.7750 0.6850 
*N *23:6 *C 5.0950 0.6850 
*N *23:8 *C 5.0950 0.6850 

*CAP
0 *1:g 4.20031e-17
1 *30:g 7.27496e-17
2 *48:g 3.06125e-17
3 *22:g 6.88892e-17
4 *23:1 1.19136e-16
5 *23:4 9.82553e-17
6 *23:6 3.52507e-17
7 *23 6.10563e-17

*RES
0 *23:1 *30:g 70.145912  // $poly_conn
1 *22:g *23:4 63.719322  // $poly_conn
2 *1:g *23:6 69.691948  // $poly_conn
3 *23:6 *48:g 26.102209  // $poly_conn
4 *23:1 *23:4 0.339091  // $metal1_conn
5 *23:4 *23:8 0.236433  // $metal1_conn
6 *23:8 *23 0.003322  // $metal1_conn
7 *23:6 *23:8 45  // $metal1_conn

*END

*D_NET *46 1.85799e-16

*CONN
*P *46 O *C 0.5000 0.8550 
*I *50:d B *C 0.5550 0.5300 
*I *51:d B *C 0.5550 0.5300 
*I *52:d B *C 1.0450 0.5300 
*I *53:d B *C 1.0450 0.5300 
*I *3:d B *C 0.5350 1.1800 
*I *5:d B *C 0.5350 1.1800 
*I *6:d B *C 1.0050 1.1800 
*I *7:d B *C 1.0050 1.1800 

*CAP
0 *46 1.85799e-16


*END

*D_NET *47 0

*CONN
*I *22:s B *C 4.8650 0.4450 
*I *25:d B *C 4.8650 0.4450 


*RES
0 *25:d *22:s 0.001  // $mwires

*END

*D_NET *45 6.83961e-18

*CONN
*I *19:d B *C 4.4650 0.4450 
*I *20:s B *C 4.4650 0.4450 

*CAP
0 *19:d 6.83961e-18

*RES
0 *20:s *19:d 0.001  // $mwires

*END

*D_NET *44 1.08109e-18

*CONN
*I *15:d B *C 3.1225 0.5025 
*I *16:s B *C 3.1225 0.5025 

*CAP
0 *15:d 1.08109e-18

*RES
0 *16:s *15:d 0.001  // $mwires

*END

*D_NET *43 5.29027e-18

*CONN
*I *57:d B *C 1.9450 0.5025 
*I *59:s B *C 1.9450 0.5025 

*CAP
0 *57:d 5.29027e-18

*RES
0 *59:s *57:d 0.001  // $mwires

*END

*D_NET *42 4.31396e-18

*CONN
*I *31:s B *C 4.7475 1.1850 
*I *32:d B *C 4.7475 1.1850 

*CAP
0 *31:s 4.31396e-18

*RES
0 *32:d *31:s 0.001  // $mwires

*END

*D_NET *41 1.8945e-18

*CONN
*I *29:d B *C 4.3750 1.1850 
*I *30:s B *C 4.3750 1.1850 

*CAP
0 *29:d 1.8945e-18

*RES
0 *30:s *29:d 0.001  // $mwires

*END

*D_NET *40 1.78927e-18

*CONN
*I *24:d B *C 3.1375 1.1400 
*I *26:s B *C 3.1375 1.1400 

*CAP
0 *24:d 1.78927e-18

*RES
0 *26:s *24:d 0.001  // $mwires

*END

*D_NET *39 5.48591e-18

*CONN
*I *10:d B *C 1.9275 1.1400 
*I *11:s B *C 1.9275 1.1400 

*CAP
0 *10:d 5.48591e-18

*RES
0 *11:s *10:d 0.001  // $mwires

*END

*D_NET *38 1.06046e-15

*CONN
*I *17:g B *C 3.4675 0.5025 
*I *18:g B *C 4.0475 0.5025 
*I *49:d B *C 0.1250 0.5875 
*I *59:g B *C 2.0475 0.5025 
*I *26:g B *C 3.2325 1.1400 
*I *28:g B *C 4.1175 1.2725 
*I *2:d B *C 0.1250 1.0925 
*I *12:g B *C 2.2175 1.1400 
*N *38:1 *C 2.4750 0.8600 
*N *38:2 *C 2.2175 0.8875 
*N *38:6 *C 4.0475 0.7025 
*N *38:7 *C 3.4675 0.7025 
*N *38:9 *C 3.1950 1.3950 
*N *38:12 *C 2.4750 1.2650 
*N *38:14 *C 0.1150 1.1400 

*CAP
0 *12:g 2.66244e-17
1 *2:d 2.20786e-16
2 *28:g 6.10848e-17
3 *26:g 6.07562e-17
4 *59:g 5.08359e-17
5 *49:d 4.1002e-17
6 *18:g 2.40342e-17
7 *17:g 2.47439e-17
8 *38:12 2.30209e-16
9 *38:7 5.31165e-17
10 *38:6 4.77904e-17
11 *38:2 5.33196e-17
12 *38:1 6.43789e-17
13 *38:9 1.01777e-16

*RES
0 *38:1 *38:2 101.360458  // $poly_conn
1 *38:2 *59:g 97.131592  // $poly_conn
2 *38:2 *12:g 20.300484  // $poly_conn
3 *28:g *38:6 123.558426  // $poly_conn
4 *38:6 *38:7 142.866425  // $poly_conn
5 *38:7 *26:g 113.798256  // $poly_conn
6 *26:g *38:9 61.15522  // $poly_conn
7 *38:6 *18:g 31.540302  // $poly_conn
8 *38:7 *17:g 20.300484  // $poly_conn
9 *38:1 *38:12 0.298909  // $metal1_conn
10 *38:12 *38:14 1.797953  // $metal1_conn
11 *38:14 *49:d 75.392036  // $metal1_conn
12 *38:12 *38:9 0.549397  // $metal1_conn
13 *2:d *38:14 62  // $metal1_conn

*END

*D_NET *37 9.71487e-16

*CONN
*I *16:g B *C 3.2025 0.5025 
*I *18:d B *C 3.9550 0.5025 
*I *63:g B *C 2.3325 0.5025 
*I *27:g B *C 3.4575 1.1400 
*I *28:d B *C 4.0250 1.2725 
*I *11:g B *C 2.0125 1.1400 
*N *37:2 *C 2.0400 0.8450 
*N *37:4 *C 2.3050 0.7250 
*N *37:6 *C 3.1750 0.7150 
*N *37:8 *C 3.4950 0.8700 
*N *37:10 *C 3.5550 0.3850 
*N *37:11 *C 3.1750 0.3850 

*CAP
0 *11:g 4.74322e-17
1 *28:d 8.44495e-17
2 *27:g 3.87715e-17
3 *63:g 2.73175e-17
4 *18:d 4.99937e-17
5 *16:g 4.18237e-17
6 *37:11 1.08924e-16
7 *37:10 7.43753e-17
8 *37:2 9.83938e-17
9 *37:4 1.32679e-16
10 *37:6 9.03332e-17
11 *37:8 1.76993e-16

*RES
0 *11:g *37:2 72.384262  // $poly_conn
1 *63:g *37:4 67.256058  // $poly_conn
2 *16:g *37:6 64.691956  // $poly_conn
3 *27:g *37:8 65.001373  // $poly_conn
4 *28:d *37:8 62.658882  // $metal1_conn
5 *37:8 *37:10 0.377817  // $metal1_conn
6 *37:10 *37:11 0.280307  // $metal1_conn
7 *37:11 *37:4 0.817843  // $metal1_conn
8 *37:10 *18:d 75.34877  // $metal1_conn
9 *37:11 *37:6 0.222917  // $metal1_conn
10 *37:4 *37:2 0.235377  // $metal1_conn

*END

*D_NET *36 4.66614e-16

*CONN
*I *17:d B *C 3.6475 0.5025 
*I *20:d B *C 4.7100 0.4450 
*I *22:d B *C 4.7100 0.4450 
*I *27:s B *C 3.6625 1.0525 
*I *30:d B *C 4.5400 1.1850 
*I *31:d B *C 4.5400 1.1850 
*N *36:2 *C 4.3400 1.0600 
*N *36:4 *C 3.6850 1.0600 
*N *36:6 *C 4.5300 1.0900 

*CAP
0 *30:d 6.36714e-17
1 *27:s 1.22241e-16
2 *20:d 8.72209e-17
3 *17:d 7.03798e-17
4 *36:2 1.231e-16

*RES
0 *20:d *36:2 75.618126  // $metal1_conn
1 *36:2 *36:4 0.517937  // $metal1_conn
2 *36:2 *36:6 0.136667  // $metal1_conn
3 *36:6 *30:d 62.156891  // $metal1_conn
4 *36:4 *17:d 75.373428  // $metal1_conn
5 *27:s *36:4 62  // $metal1_conn
6 *30:d *36:6 62  // $metal1_conn

*END

*D_NET *35 3.73276e-16

*CONN
*I *20:g B *C 4.6075 0.4450 
*I *48:d B *C 5.2500 0.4775 
*I *31:g B *C 4.6525 1.1850 
*I *1:d B *C 5.2150 1.0975 
*N *35:2 *C 4.6325 0.8900 
*N *35:4 *C 4.6900 0.8900 
*N *35:7 *C 5.2250 1.1450 

*CAP
0 *1:d 8.86968e-17
1 *31:g 4.41369e-17
2 *48:d 4.64378e-17
3 *20:g 5.88546e-17
4 *35:2 5.7013e-17
5 *35:4 7.81364e-17

*RES
0 *31:g *35:2 44.983788  // $poly_conn
1 *35:2 *20:g 98.44281  // $poly_conn
2 *35:2 *35:4 45.794373  // $poly_conn
3 *48:d *35:7 75.462051  // $metal1_conn
4 *35:7 *35:4 0.536248  // $metal1_conn
5 *1:d *35:7 62  // $metal1_conn

*END

*D_NET *34 3.66113e-16

*CONN
*I *14:g B *C 2.7775 0.5025 
*I *16:d B *C 3.3350 0.5025 
*I *17:s B *C 3.3350 0.5025 
*I *21:g B *C 2.7775 1.1400 
*I *26:d B *C 3.3450 1.1400 
*I *27:d B *C 3.3450 1.1400 
*N *34:2 *C 2.8250 0.8750 
*N *34:5 *C 3.3350 0.9050 

*CAP
0 *26:d 5.705e-17
1 *21:g 3.8222e-17
2 *16:d 6.20877e-17
3 *14:g 4.58695e-17
4 *34:5 6.08642e-17
5 *34:2 1.02019e-16

*RES
0 *21:g *34:2 17.398676  // $poly_conn
1 *34:2 *14:g 58.424316  // $poly_conn
2 *26:d *34:5 31.154099  // $metal1_conn
3 *34:5 *34:2 45.341228  // $metal1_conn
4 *34:5 *16:d 75.286903  // $metal1_conn

*END

*D_NET *33 4.13716e-16

*CONN
*I *55:g B *C 1.3725 0.5025 
*I *56:g B *C 1.5775 0.5025 
*I *59:d B *C 2.1900 0.5025 
*I *63:s B *C 2.1900 0.5025 
*I *8:g B *C 1.3725 1.1400 
*I *9:g B *C 1.5775 1.1400 
*I *11:d B *C 2.1150 1.1400 
*I *12:d B *C 2.1150 1.1400 
*N *33:8 *C 1.8800 0.8950 

*CAP
0 *11:d 5.3157e-17
1 *9:g 2.27254e-16
2 *59:d 5.69096e-17
3 *33:8 7.63952e-17

*RES
0 *33:8 *9:g 45.214272  // $metal1_conn
1 *33:8 *11:d 62.298737  // $metal1_conn
2 *59:d *33:8 75.447296  // $metal1_conn

*END

*D_NET *60 3.82086e-16

*CONN
*I *14:d B *C 2.5550 0.5025 
*I *15:g B *C 3.0425 0.5025 
*I *63:d B *C 2.5550 0.5025 
*I *21:d B *C 2.4975 1.1400 
*I *24:g B *C 3.0425 1.1400 
*I *12:s B *C 2.4975 1.1400 
*N *60:2 *C 3.0425 0.7150 
*N *60:3 *C 2.9850 0.7150 
*N *60:5 *C 2.6350 0.7150 

*CAP
0 *24:g 7.01132e-17
1 *21:d 6.06613e-17
2 *15:g 4.38013e-17
3 *14:d 4.72986e-17
4 *60:5 5.42033e-17
5 *60:2 4.19512e-17
6 *60:3 6.40572e-17

*RES
0 *24:g *60:2 65.919731  // $poly_conn
1 *60:2 *60:3 45.778431  // $poly_conn
2 *60:2 *15:g 24.894089  // $poly_conn
3 *60:3 *60:5 0.236186  // $metal1_conn
4 *60:5 *14:d 75.193726  // $metal1_conn
5 *60:5 *21:d 62.257378  // $metal1_conn

*END

*D_NET *58 6.11238e-16

*CONN
*I *50:g B *C 0.4525 0.5300 
*I *51:g B *C 0.6575 0.5300 
*I *52:g B *C 0.9325 0.5300 
*I *53:g B *C 1.1575 0.5300 
*I *55:d B *C 1.4750 0.5025 
*I *56:d B *C 1.4750 0.5025 
*I *57:g B *C 1.8425 0.5025 
*I *3:g B *C 0.4325 1.1800 
*I *5:g B *C 0.6375 1.1800 
*I *6:g B *C 0.9025 1.1800 
*I *7:g B *C 1.1075 1.1800 
*I *8:d B *C 1.4750 1.1400 
*I *9:d B *C 1.4750 1.1400 
*I *10:g B *C 1.8425 1.1400 
*N *58:16 *C 1.8425 0.7050 
*N *58:17 *C 1.7200 0.7050 
*N *58:20 *C 1.3900 0.6750 
*N *58:21 *C 1.4750 0.6750 

*CAP
0 *10:g 6.31531e-17
1 *8:d 4.48147e-17
2 *7:g 3.1757e-16
3 *57:g 2.98269e-17
4 *55:d 2.30906e-17
5 *58:21 1.36968e-17
6 *58:20 2.30151e-17
7 *58:16 2.5053e-17
8 *58:17 7.1018e-17

*RES
0 *10:g *58:16 69.040184  // $poly_conn
1 *58:16 *57:g 22.886339  // $poly_conn
2 *58:16 *58:17 52.613522  // $poly_conn
3 *58:20 *7:g 45.205078  // $metal1_conn
4 *58:21 *58:17 0.186123  // $metal1_conn
5 *8:d *58:20 62.302475  // $metal1_conn
6 *58:21 *55:d 75.068726  // $metal1_conn
7 *58:20 *58:21 0.075429  // $metal1_conn

*END

