*SPEF "IEEE 1481-1999"
*DESIGN  "MX2X4"
*DATE "Mon Sep 27 09:56:34 2010"
*VENDOR "Cadence Design Systems"
*PROGRAM "Assura RCX"
*VERSION "3.2 Red Hat Linux release 7.2 (Enigma) - (09/09/2009-10:39)"
*DESIGN_FLOW "Physical Verification"
*DIVIDER /
*DELIMITER :
*BUS_DELIMITER []
*T_UNIT 1 PS
*C_UNIT 1e15 FF
*R_UNIT 1 OHM
*L_UNIT 1 MH
// DeviceFingerDelim "@"
// MATCHED
// caps2d version: 10

*NAME_MAP
*1 mp1
*2 mp2
*3 mp4
*4 S0
*5 mp3
*6 mp5
*7 mp5\@1
*8 mp5\@2
*9 mp5\@3
*10 mn0
*11 mn1
*12 mn2
*13 mn4
*14 mn3
*15 mn5
*16 mn5\@1
*17 mn5\@2
*18 mn5\@3
*19 A
*20 B
*21 n0
*22 S0b
*23 VSS
*24 n4
*25 n6
*26 n3
*27 n5
*28 VDD
*29 Y
*30 mp0

*GROUND_NETS VSS

*PORTS
*28 I
*23 I
*19 I
*20 I
*4 I
*29 O

*D_NET *28 4.23065e-16

*CONN
*P *28 I *C 0.1000 1.7100 
*I *30:s B *C 0.4850 1.3250 
*I *1:s B *C 0.4850 1.3250 
*I *5:s B *C 1.2800 1.2850 
*I *6:s B *C 1.2800 1.2850 
*I *7:s B *C 1.7600 1.2850 
*I *8:s B *C 1.7600 1.2850 
*I *9:s B *C 2.1600 1.2850 
*N *28:4 *C 1.2000 1.7100 
*N *28:5 *C 1.2000 1.7100 
*N *28:6 *C 0.4550 1.7100 

*CAP
0 *9:s 1.67909e-16
1 *30:s 3.71122e-17
2 *28:6 2.12691e-17
3 *28:4 1.83421e-16
4 *28 1.33541e-17

*RES
0 *28:6 *28 0.176542  // $metal1_conn
1 *28:4 *28:5 6.25  // $metal1_conn
2 *28:6 *30:s 62.120979  // $metal1_conn
3 *9:s *28:5 0.034883  // $metal1_conn
4 *28:5 *28:6 0.372273  // $metal1_conn

*END

*D_NET *23 0

*CONN
*P *23 I *C 0.1000 0.0000 
*I *10:s B *C 0.4800 0.3525 
*I *11:s B *C 0.4800 0.3525 
*I *14:s B *C 1.3000 0.3800 
*I *15:s B *C 1.3000 0.3800 
*I *16:s B *C 1.7600 0.3800 
*I *17:s B *C 1.7600 0.3800 
*I *18:s B *C 2.1600 0.3800 
*N *23:3 *C 1.2000 0.0000 
*N *23:5 *C 0.4700 0.0000 


*RES
0 *23:5 *23 0.185009  // $metal1_conn
1 *23:3 *18:s 5.166667  // $metal1_conn
2 *23:5 *10:s 75.187263  // $metal1_conn
3 *18:s *23:5 0.365703  // $metal1_conn

*END

*D_NET *19 2.97297e-16

*CONN
*P *19 I *C 0.5000 1.0450 
*I *11:g B *C 0.5725 0.3525 
*I *1:g B *C 0.5575 1.3250 
*N *19:2 *C 0.5100 1.0350 
*N *19:4 *C 0.5050 1.0350 

*CAP
0 *1:g 5.48116e-17
1 *11:g 6.55636e-17
2 *19:4 7.56699e-17
3 *19:2 6.88736e-17
4 *19 3.23783e-17

*RES
0 *11:g *19:2 137.431992  // $poly_conn
1 *19:2 *1:g 34.787193  // $poly_conn
2 *19:4 *19 0.006216  // $metal1_conn
3 *19:2 *19:4 45  // $metal1_conn

*END

*D_NET *20 3.05817e-16

*CONN
*P *20 I *C 1.3000 0.8550 
*I *14:g B *C 1.1675 0.3525 
*I *5:g B *C 1.1375 1.3250 
*N *20:2 *C 1.1750 0.9800 
*N *20:4 *C 1.2400 0.9800 

*CAP
0 *5:g 5.34325e-17
1 *14:g 7.05648e-17
2 *20:2 4.92362e-17
3 *20:4 7.0223e-17
4 *20 6.23609e-17

*RES
0 *14:g *20:2 124.931763  // $poly_conn
1 *20:2 *5:g 48.791496  // $poly_conn
2 *20:2 *20:4 48.800945  // $poly_conn
3 *20:4 *20 0.066161  // $metal1_conn

*END

*D_NET *4 5.79575e-16

*CONN
*P *4 I *C 0.3000 1.0450 
*I *10:g B *C 0.3375 0.3825 
*I *13:g B *C 1.0025 0.3525 
*I *30:g B *C 0.3375 1.3725 
*I *2:g B *C 0.7375 1.3250 
*N *4:2 *C 0.3100 1.0400 
*N *4:5 *C 0.7000 0.9400 
*N *4:7 *C 0.3100 1.0400 

*CAP
0 *2:g 5.37009e-17
1 *30:g 4.00215e-17
2 *13:g 8.9375e-17
3 *10:g 5.11545e-17
4 *4:2 5.93261e-17
5 *4:5 1.77748e-16
6 *4 1.08249e-16

*RES
0 *30:g *4:2 49.179131  // $poly_conn
1 *4:2 *10:g 141.486816  // $poly_conn
2 *13:g *4:5 177.907883  // $poly_conn
3 *4:5 *2:g 49.488552  // $poly_conn
4 *4:7 *4 0.003108  // $metal1_conn
5 *4 *4:5 45.628448  // $metal1_conn
6 *4:2 *4:7 45  // $metal1_conn

*END

*D_NET *29 2.65998e-16

*CONN
*P *29 O *C 1.7000 1.0450 
*I *15:d B *C 1.5150 0.3800 
*I *16:d B *C 1.5150 0.3800 
*I *17:d B *C 1.9650 0.3800 
*I *18:d B *C 1.9650 0.3800 
*I *6:d B *C 1.5150 1.2850 
*I *7:d B *C 1.5150 1.2850 
*I *8:d B *C 1.9650 1.2850 
*I *9:d B *C 1.9650 1.2850 

*CAP
0 *8:d 1.41457e-16
1 *15:d 8.39938e-17
2 *29 4.05474e-17

*RES
0 *8:d *29 0.00172  // $metal1_conn
1 *29 *15:d 0.360496  // $metal1_conn

*END

*D_NET *27 1.93143e-18

*CONN
*I *13:s B *C 1.0850 0.3525 
*I *14:d B *C 1.0850 0.3525 

*CAP
0 *13:s 1.93143e-18

*RES
0 *14:d *13:s 0.001  // $mwires

*END

*D_NET *26 0

*CONN
*I *11:d B *C 0.6850 0.3525 
*I *12:s B *C 0.6850 0.3525 


*RES
0 *12:s *11:d 0.001  // $mwires

*END

*D_NET *25 3.63977e-18

*CONN
*I *3:s B *C 1.0400 1.3250 
*I *5:d B *C 1.0400 1.3250 

*CAP
0 *3:s 3.63977e-18

*RES
0 *5:d *3:s 0.001  // $mwires

*END

*D_NET *24 3.9716e-18

*CONN
*I *1:d B *C 0.6475 1.3250 
*I *2:s B *C 0.6475 1.3250 

*CAP
0 *1:d 3.9716e-18

*RES
0 *2:s *1:d 0.001  // $mwires

*END

*D_NET *22 5.42276e-16

*CONN
*I *10:d B *C 0.2450 0.3825 
*I *12:g B *C 0.7975 0.3525 
*I *30:d B *C 0.2450 1.3725 
*I *3:g B *C 0.9425 1.3250 
*N *22:1 *C 0.8600 0.6300 
*N *22:4 *C 0.8900 1.0450 
*N *22:5 *C 0.2350 0.5000 

*CAP
0 *3:g 4.62171e-17
1 *30:d 1.00226e-16
2 *12:g 4.15034e-17
3 *10:d 1.30961e-17
4 *22:5 9.73215e-17
5 *22:1 1.36309e-16
6 *22:4 1.07603e-16

*RES
0 *22:1 *12:g 85.462837  // $poly_conn
1 *3:g *22:4 72.536453  // $poly_conn
2 *22:4 *22:1 0.312652  // $metal1_conn
3 *22:1 *22:5 0.493166  // $metal1_conn
4 *22:5 *10:d 75.055878  // $metal1_conn
5 *22:5 *30:d 62.779003  // $metal1_conn

*END

*D_NET *21 5.882e-16

*CONN
*I *12:d B *C 0.9000 0.3525 
*I *13:d B *C 0.9000 0.3525 
*I *15:g B *C 1.3725 0.3800 
*I *16:g B *C 1.6575 0.3800 
*I *17:g B *C 1.8625 0.3800 
*I *18:g B *C 2.0675 0.3800 
*I *2:d B *C 0.8400 1.3250 
*I *3:d B *C 0.8400 1.3250 
*I *6:g B *C 1.3725 1.2850 
*I *7:g B *C 1.6575 1.2850 
*I *8:g B *C 1.8625 1.2850 
*I *9:g B *C 2.0675 1.2850 
*N *21:14 *C 1.0500 0.6850 

*CAP
0 *9:g 3.49701e-16
1 *2:d 8.22753e-17
2 *12:d 5.22108e-17
3 *21:14 1.04012e-16

*RES
0 *21:14 *2:d 62.566048  // $metal1_conn
1 *21:14 *12:d 75.350281  // $metal1_conn
2 *9:g *21:14 45.23951  // $metal1_conn

*END

