*SPEF "IEEE 1481-1999"
*DESIGN  "MX2X1"
*DATE "Mon Sep 27 09:55:48 2010"
*VENDOR "Cadence Design Systems"
*PROGRAM "Assura RCX"
*VERSION "3.2 Red Hat Linux release 7.2 (Enigma) - (09/09/2009-10:39)"
*DESIGN_FLOW "Physical Verification"
*DIVIDER /
*DELIMITER :
*BUS_DELIMITER []
*T_UNIT 1 PS
*C_UNIT 1e15 FF
*R_UNIT 1 OHM
*L_UNIT 1 MH
// DeviceFingerDelim "@"
// MATCHED
// caps2d version: 10

*NAME_MAP
*1 S0b
*2 mp0
*3 n6
*4 mp1
*5 mp2
*6 mn0
*7 n4
*8 mp4
*9 mn1
*10 n5
*11 VSS
*12 mp3
*13 mn2
*14 n3
*15 mp5
*16 mn4
*17 mn3
*18 mn5
*19 Y
*20 S0
*21 A
*22 B
*23 VDD
*24 n0

*GROUND_NETS VSS

*PORTS
*23 I
*11 I
*21 I
*22 I
*20 I
*19 O

*D_NET *23 2.41155e-16

*CONN
*P *23 I *C 0.1000 1.7100 
*I *2:s B *C 0.3050 1.3075 
*I *4:s B *C 0.3050 1.3075 
*I *12:s B *C 1.0100 1.2200 
*I *15:s B *C 1.0100 1.2200 
*N *23:2 *C 0.6000 1.7100 
*N *23:3 *C 0.6000 1.7100 
*N *23:4 *C 0.3050 1.7100 

*CAP
0 *12:s 5.50064e-17
1 *2:s 3.87083e-17
2 *23:4 7.31157e-18
3 *23:2 1.31508e-16
4 *23 8.62113e-18

*RES
0 *12:s *23:3 62.479279  // $metal1_conn
1 *23:3 *23:4 0.147914  // $metal1_conn
2 *23:4 *23 0.102477  // $metal1_conn
3 *23:4 *2:s 62.224781  // $metal1_conn
4 *23:2 *23:3 12.5  // $metal1_conn

*END

*D_NET *11 0

*CONN
*P *11 I *C 0.1000 0.0000 
*I *6:s B *C 0.3050 0.3025 
*I *9:s B *C 0.3050 0.3025 
*I *17:s B *C 0.9950 0.3600 
*I *18:s B *C 0.9950 0.3600 
*N *11:2 *C 0.6000 0.0000 
*N *11:3 *C 0.6000 0.0000 
*N *11:4 *C 0.3050 0.0000 


*RES
0 *17:s *11:3 75.376747  // $metal1_conn
1 *11:3 *11:4 0.147914  // $metal1_conn
2 *11:4 *11 0.102477  // $metal1_conn
3 *11:4 *6:s 75.180969  // $metal1_conn
4 *11:2 *11:3 10.333333  // $metal1_conn

*END

*D_NET *21 3.35716e-16

*CONN
*P *21 I *C 0.3650 0.7250 
*I *9:g B *C 0.4075 0.3025 
*I *4:g B *C 0.4075 1.3075 
*N *21:2 *C 0.3800 0.8500 
*N *21:4 *C 0.3725 0.7250 
*N *21:5 *C 0.3725 0.8500 
*N *21:6 *C 0.3800 0.8500 

*CAP
0 *4:g 7.72192e-17
1 *9:g 8.03309e-17
2 *21:5 5.48341e-17
3 *21:4 3.42807e-17
4 *21:2 8.90515e-17

*RES
0 *4:g *21:2 81.230408  // $poly_conn
1 *21:2 *9:g 113.281693  // $poly_conn
2 *21 *21:4 0.001117  // $metal1_conn
3 *21:5 *21:6 0.001197  // $metal1_conn
4 *21:4 *21:5 0.074443  // $metal1_conn
5 *21:2 *21:6 45  // $metal1_conn

*END

*D_NET *22 3.67298e-16

*CONN
*P *22 I *C 0.9250 0.8850 
*I *17:g B *C 0.8225 0.3025 
*I *12:g B *C 0.8225 1.3075 
*N *22:1 *C 0.9150 0.7800 
*N *22:2 *C 0.8225 0.7800 

*CAP
0 *12:g 8.17969e-17
1 *17:g 7.73934e-17
2 *22:2 7.8685e-17
3 *22:1 6.21393e-17
4 *22 6.72839e-17

*RES
0 *22:1 *22:2 49.422031  // $poly_conn
1 *22:2 *17:g 98.768608  // $poly_conn
2 *22:2 *12:g 102.614769  // $poly_conn
3 *22:1 *22 0.072708  // $metal1_conn

*END

*D_NET *20 6.0893e-16

*CONN
*P *20 I *C 0.2200 1.0450 
*I *6:g B *C 0.2025 0.3025 
*I *16:g B *C 0.7175 0.3025 
*I *2:g B *C 0.2025 1.3075 
*I *5:g B *C 0.5125 1.3075 
*N *20:2 *C 0.2300 1.0400 
*N *20:5 *C 0.5500 0.8950 

*CAP
0 *5:g 7.26725e-17
1 *2:g 3.20777e-17
2 *16:g 1.00144e-16
3 *6:g 5.50487e-17
4 *20:2 5.83551e-17
5 *20:5 2.02614e-16
6 *20 8.80181e-17

*RES
0 *2:g *20:2 32.512466  // $poly_conn
1 *20:2 *6:g 161.999634  // $poly_conn
2 *16:g *20:5 165.744217  // $poly_conn
3 *20:5 *5:g 68.719322  // $poly_conn
4 *20:5 *20 45.543297  // $metal1_conn
5 *20 *20:2 45.003643  // $metal1_conn

*END

*D_NET *19 1.28219e-16

*CONN
*P *19 O *C 1.1700 0.5650 
*I *18:d B *C 1.1500 0.3600 
*I *15:d B *C 1.1500 1.2200 

*CAP
0 *15:d 5.5333e-17
1 *18:d 2.59718e-17
2 *19 4.69145e-17

*RES
0 *15:d *19 21.112511  // $metal1_conn
1 *19 *18:d 37.638447  // $metal1_conn

*END

*D_NET *14 0

*CONN
*I *9:d B *C 0.4600 0.3025 
*I *13:s B *C 0.4600 0.3025 


*RES
0 *13:s *9:d 0.001  // $mwires

*END

*D_NET *10 1.30431e-18

*CONN
*I *16:s B *C 0.7700 0.3025 
*I *17:d B *C 0.7700 0.3025 

*CAP
0 *16:s 1.30431e-18

*RES
0 *17:d *16:s 0.001  // $mwires

*END

*D_NET *7 0

*CONN
*I *4:d B *C 0.4600 1.3075 
*I *5:s B *C 0.4600 1.3075 


*RES
0 *5:s *4:d 0.001  // $mwires

*END

*D_NET *3 1.44762e-18

*CONN
*I *8:s B *C 0.7700 1.3075 
*I *12:d B *C 0.7700 1.3075 

*CAP
0 *8:s 1.44762e-18

*RES
0 *12:d *8:s 0.001  // $mwires

*END

*D_NET *1 6.17865e-16

*CONN
*I *6:d B *C 0.1100 0.3025 
*I *13:g B *C 0.5125 0.3025 
*I *2:d B *C 0.1100 1.3075 
*I *8:g B *C 0.7175 1.3075 
*N *1:2 *C 0.5550 0.6500 
*N *1:4 *C 0.6700 1.0650 
*N *1:5 *C 0.0850 0.4800 
*N *1:7 *C 0.1000 0.2900 

*CAP
0 *8:g 5.6782e-17
1 *2:d 7.94683e-17
2 *13:g 5.82011e-17
3 *6:d 2.1492e-17
4 *1:5 8.01992e-17
5 *1:2 1.86828e-16
6 *1:4 1.34894e-16

*RES
0 *13:g *1:2 104.706375  // $poly_conn
1 *8:g *1:4 68.808929  // $poly_conn
2 *1:4 *1:2 0.403563  // $metal1_conn
3 *1:2 *1:5 0.398871  // $metal1_conn
4 *1:5 *1:7 0.128358  // $metal1_conn
5 *1:5 *2:d 62.633186  // $metal1_conn
6 *6:d *1:7 75  // $metal1_conn

*END

*D_NET *24 4.72443e-16

*CONN
*I *13:d B *C 0.6150 0.3025 
*I *16:d B *C 0.6150 0.3025 
*I *18:g B *C 1.0575 0.3600 
*I *5:d B *C 0.6150 1.3075 
*I *8:d B *C 0.6150 1.3075 
*I *15:g B *C 1.0575 1.2200 
*N *24:2 *C 1.0575 0.5900 
*N *24:3 *C 0.9700 0.5900 
*N *24:5 *C 0.7950 0.5900 

*CAP
0 *15:g 5.34975e-17
1 *5:d 1.02187e-16
2 *18:g 3.36026e-17
3 *13:d 6.45367e-17
4 *24:5 1.38644e-16
5 *24:2 2.83777e-17
6 *24:3 5.1597e-17

*RES
0 *15:g *24:2 108.783775  // $poly_conn
1 *24:2 *24:3 48.890118  // $poly_conn
2 *24:2 *18:g 22.886339  // $poly_conn
3 *24:3 *24:5 0.103364  // $metal1_conn
4 *24:5 *13:d 75.324982  // $metal1_conn
5 *24:5 *5:d 62.801357  // $metal1_conn

*END

