*SPEF "IEEE 1481-1999"
*DESIGN  "MX2X2"
*DATE "Mon Sep 27 09:56:12 2010"
*VENDOR "Cadence Design Systems"
*PROGRAM "Assura RCX"
*VERSION "3.2 Red Hat Linux release 7.2 (Enigma) - (09/09/2009-10:39)"
*DESIGN_FLOW "Physical Verification"
*DIVIDER /
*DELIMITER :
*BUS_DELIMITER []
*T_UNIT 1 PS
*C_UNIT 1e15 FF
*R_UNIT 1 OHM
*L_UNIT 1 MH
// DeviceFingerDelim "@"
// MATCHED
// caps2d version: 10

*NAME_MAP
*1 S0b
*2 mp0
*3 n4
*4 mp1
*5 mp2
*6 mn0
*7 n6
*8 mp4
*9 mn1
*10 n3
*11 VSS
*12 mp3
*13 mn2
*14 n5
*15 mp5
*16 mn4
*17 mp5\@1
*18 mn3
*19 mn5
*20 mn5\@1
*21 Y
*22 S0
*23 A
*24 B
*25 VDD
*26 n0

*GROUND_NETS VSS

*PORTS
*25 I
*11 I
*23 I
*24 I
*22 I
*21 O

*D_NET *25 3.22697e-16

*CONN
*P *25 I *C 0.1000 1.7100 
*I *2:s B *C 0.4475 1.3275 
*I *4:s B *C 0.4475 1.3275 
*I *12:s B *C 1.3200 1.2400 
*I *15:s B *C 1.3200 1.2400 
*I *17:s B *C 1.6900 1.2400 
*N *25:3 *C 0.9000 1.7100 
*N *25:4 *C 0.9000 1.7100 
*N *25:5 *C 0.4400 1.7100 

*CAP
0 *17:s 1.0485e-16
1 *2:s 3.64406e-17
2 *25:5 1.36586e-17
3 *25:3 1.54218e-16
4 *25 1.35289e-17

*RES
0 *25:5 *25 0.170143  // $metal1_conn
1 *25:3 *25:4 8.333333  // $metal1_conn
2 *25:5 *2:s 62.210094  // $metal1_conn
3 *17:s *25:4 0.19548  // $metal1_conn
4 *25:4 *25:5 0.230602  // $metal1_conn

*END

*D_NET *11 0

*CONN
*P *11 I *C 0.1000 0.0000 
*I *6:s B *C 0.4475 0.3275 
*I *9:s B *C 0.4475 0.3275 
*I *18:s B *C 1.3200 0.3850 
*I *19:s B *C 1.3200 0.3850 
*I *20:s B *C 1.6900 0.3850 
*N *11:3 *C 0.9000 0.0000 
*N *11:4 *C 0.9000 0.0000 
*N *11:5 *C 0.4400 0.0000 


*RES
0 *11:5 *11 0.170143  // $metal1_conn
1 *11:3 *11:4 6.888889  // $metal1_conn
2 *11:5 *6:s 75.194832  // $metal1_conn
3 *20:s *11:4 0.19548  // $metal1_conn
4 *11:4 *11:5 0.230602  // $metal1_conn

*END

*D_NET *23 3.05528e-16

*CONN
*P *23 I *C 0.5000 0.8550 
*I *9:g B *C 0.5575 0.3275 
*I *4:g B *C 0.5575 1.3275 
*N *23:2 *C 0.5200 0.9850 

*CAP
0 *4:g 3.99019e-17
1 *9:g 9.07722e-17
2 *23:2 1.24394e-16
3 *23 5.04599e-17

*RES
0 *4:g *23:2 50.770603  // $poly_conn
1 *23:2 *9:g 140.514191  // $poly_conn
2 *23 *23:2 45.076714  // $metal1_conn

*END

*D_NET *24 2.96237e-16

*CONN
*P *24 I *C 1.3000 0.8550 
*I *18:g B *C 1.1875 0.3275 
*I *12:g B *C 1.1875 1.3275 
*N *24:1 *C 1.2500 0.8750 
*N *24:2 *C 1.1875 0.8750 

*CAP
0 *12:g 6.59048e-17
1 *18:g 5.48373e-17
2 *24:2 6.41223e-17
3 *24:1 5.96938e-17
4 *24 5.16792e-17

*RES
0 *24:1 *24:2 46.294373  // $poly_conn
1 *24:2 *18:g 116.717331  // $poly_conn
2 *24:2 *12:g 83.383995  // $poly_conn
3 *24 *24:1 0.007972  // $metal1_conn

*END

*D_NET *22 4.79719e-16

*CONN
*P *22 I *C 0.3000 1.0450 
*I *6:g B *C 0.3375 0.3275 
*I *16:g B *C 0.8675 0.3275 
*I *2:g B *C 0.3375 1.3275 
*I *5:g B *C 0.7875 1.3275 
*N *22:2 *C 0.3100 1.0800 
*N *22:5 *C 0.7500 0.9900 
*N *22:7 *C 0.3100 1.0800 

*CAP
0 *5:g 3.93374e-17
1 *2:g 2.92513e-17
2 *16:g 5.84346e-17
3 *6:g 5.20041e-17
4 *22:2 1.2342e-16
5 *22:5 1.4974e-16
6 *22 2.75311e-17

*RES
0 *2:g *22:2 27.384262  // $poly_conn
1 *22:2 *6:g 165.845795  // $poly_conn
2 *16:g *22:5 157.39505  // $poly_conn
3 *22:5 *5:g 49.488552  // $poly_conn
4 *22:5 *22:7 45.415913  // $metal1_conn
5 *22:7 *22 0.021044  // $metal1_conn
6 *22:2 *22:7 45  // $metal1_conn

*END

*D_NET *21 2.00227e-16

*CONN
*P *21 O *C 1.7000 0.6650 
*I *19:d B *C 1.4950 0.3850 
*I *20:d B *C 1.4950 0.3850 
*I *15:d B *C 1.4950 1.2400 
*I *17:d B *C 1.4950 1.2400 
*N *21:1 *C 1.5300 0.6300 
*N *21:3 *C 1.4950 0.4250 

*CAP
0 *15:d 9.33058e-17
1 *19:d 3.0204e-17
2 *21:1 4.84026e-17
3 *21 2.8315e-17

*RES
0 *21 *21:1 0.104241  // $metal1_conn
1 *21:1 *15:d 21.196701  // $metal1_conn
2 *19:d *21:3 75  // $metal1_conn
3 *21:1 *21:3 0.138469  // $metal1_conn

*END

*D_NET *14 6.06747e-18

*CONN
*I *16:s B *C 1.0275 0.3275 
*I *18:d B *C 1.0275 0.3275 

*CAP
0 *16:s 6.06747e-18

*RES
0 *18:d *16:s 0.001  // $mwires

*END

*D_NET *10 0

*CONN
*I *9:d B *C 0.6100 0.3275 
*I *13:s B *C 0.6100 0.3275 


*RES
0 *13:s *9:d 0.001  // $mwires

*END

*D_NET *7 1.61012e-18

*CONN
*I *8:s B *C 1.1200 1.3275 
*I *12:d B *C 1.1200 1.3275 

*CAP
0 *8:s 1.61012e-18

*RES
0 *12:d *8:s 0.001  // $mwires

*END

*D_NET *3 0

*CONN
*I *4:d B *C 0.6725 1.3275 
*I *5:s B *C 0.6725 1.3275 


*RES
0 *5:s *4:d 0.001  // $mwires

*END

*D_NET *1 5.85493e-16

*CONN
*I *6:d B *C 0.2450 0.3275 
*I *13:g B *C 0.6625 0.3275 
*I *2:d B *C 0.2450 1.3275 
*I *8:g B *C 1.0525 1.3275 
*N *1:2 *C 0.7000 0.6550 
*N *1:4 *C 0.9300 1.0950 
*N *1:5 *C 0.2350 0.5050 

*CAP
0 *8:g 4.76663e-17
1 *2:d 8.93059e-17
2 *13:g 6.54137e-17
3 *6:d 2.04749e-17
4 *1:5 7.93859e-17
5 *1:2 1.70848e-16
6 *1:4 1.12398e-16

*RES
0 *13:g *1:2 100.898804  // $poly_conn
1 *8:g *1:4 86.983063  // $poly_conn
2 *1:4 *1:2 0.456926  // $metal1_conn
3 *1:2 *1:5 0.40033  // $metal1_conn
4 *1:5 *6:d 75.092392  // $metal1_conn
5 *1:5 *2:d 62.722786  // $metal1_conn

*END

*D_NET *26 4.74072e-16

*CONN
*I *13:d B *C 0.7650 0.3275 
*I *16:d B *C 0.7650 0.3275 
*I *19:g B *C 1.3925 0.3850 
*I *20:g B *C 1.5975 0.3850 
*I *5:d B *C 0.9200 1.3275 
*I *8:d B *C 0.9200 1.3275 
*I *15:g B *C 1.3925 1.2400 
*I *17:g B *C 1.5975 1.2400 
*N *26:4 *C 1.3400 0.6150 
*N *26:8 *C 1.0900 0.6150 

*CAP
0 *17:g 1.51356e-16
1 *5:d 8.90432e-17
2 *13:d 5.49303e-17
3 *26:8 1.07471e-16
4 *26:4 7.12707e-17

*RES
0 *17:g *26:4 47.756718  // $poly_conn
1 *26:4 *26:8 0.160865  // $metal1_conn
2 *26:8 *5:d 62.592274  // $metal1_conn
3 *26:8 *13:d 75.400566  // $metal1_conn

*END

