*SPEF "IEEE 1481-1999"
*DESIGN  "MX3X2"
*DATE "Mon Sep 27 09:58:30 2010"
*VENDOR "Cadence Design Systems"
*PROGRAM "Assura RCX"
*VERSION "3.2 Red Hat Linux release 7.2 (Enigma) - (09/09/2009-10:39)"
*DESIGN_FLOW "Physical Verification"
*DIVIDER /
*DELIMITER :
*BUS_DELIMITER []
*T_UNIT 1 PS
*C_UNIT 1e15 FF
*R_UNIT 1 OHM
*L_UNIT 1 MH
// DeviceFingerDelim "@"
// MATCHED
// caps2d version: 10

*NAME_MAP
*1 VDD
*2 A
*3 B
*4 C
*5 mp2
*6 mp0
*7 S1b
*8 S0b
*9 n0
*10 net202
*11 net190
*12 net189
*13 net245
*14 net234
*15 net229
*16 Y
*17 n1
*18 VSS
*19 mp9
*20 S0
*21 mp9\@1
*22 S1
*23 mp7
*24 mp8
*25 mp6
*26 mp1
*27 mp4
*28 mn9
*29 mp5
*30 mn9\@1
*31 mp3
*32 mn7
*33 mn8
*34 mn6
*35 mn1
*36 mn4
*37 mn2
*38 mn5
*39 mn0
*40 mn3

*GROUND_NETS VSS

*PORTS
*1 I
*18 I
*2 I
*3 I
*4 I
*20 I
*22 I
*16 O

*D_NET *1 4.86322e-16

*CONN
*P *1 I *C 0.1000 1.7100 
*I *19:s B *C 0.1900 1.2850 
*I *21:s B *C 0.7325 1.1975 
*I *23:s B *C 0.7325 1.1975 
*I *26:s B *C 1.8700 1.2925 
*I *27:s B *C 1.8700 1.2925 
*I *5:s B *C 2.7575 1.2925 
*I *6:s B *C 2.7575 1.2925 
*N *1:2 *C 2.4000 1.7100 
*N *1:3 *C 2.4000 1.7100 
*N *1:4 *C 1.8700 1.7100 
*N *1:5 *C 0.8000 1.7100 

*CAP
0 *5:s 3.43517e-17
1 *26:s 3.62375e-17
2 *21:s 1.01737e-16
3 *1:4 3.16099e-17
4 *1:2 2.82386e-16

*RES
0 *21:s *1 0.039658  // $metal1_conn
1 *1:2 *1:3 9.375  // $metal1_conn
2 *1:2 *1:5 9.375  // $metal1_conn
3 *5:s *1:3 62.440331  // $metal1_conn
4 *1:4 *26:s 62.227779  // $metal1_conn
5 *1:3 *1:4 0.265546  // $metal1_conn
6 *1:4 *1:5 0.536301  // $metal1_conn
7 *1:5 *21:s 0.064986  // $metal1_conn

*END

*D_NET *18 0

*CONN
*P *18 I *C 0.1000 0.0000 
*I *28:s B *C 0.1900 0.5300 
*I *30:s B *C 0.7550 0.5875 
*I *32:s B *C 0.7550 0.5875 
*I *35:s B *C 1.8700 0.3725 
*I *36:s B *C 1.8700 0.3725 
*I *37:s B *C 2.7575 0.3725 
*I *39:s B *C 2.7575 0.3725 
*N *18:2 *C 2.4000 0.0000 
*N *18:3 *C 2.4000 0.0000 
*N *18:4 *C 1.8700 0.0000 
*N *18:5 *C 0.8000 0.0000 


*RES
0 *30:s *18 0.039658  // $metal1_conn
1 *18:2 *18:3 7.75  // $metal1_conn
2 *18:2 *18:5 7.75  // $metal1_conn
3 *37:s *18:3 75.435516  // $metal1_conn
4 *18:4 *35:s 75.225555  // $metal1_conn
5 *18:3 *18:4 0.265546  // $metal1_conn
6 *18:4 *18:5 0.536301  // $metal1_conn
7 *18:5 *30:s 0.080028  // $metal1_conn

*END

*D_NET *2 3.02346e-16

*CONN
*P *2 I *C 2.7000 0.8550 
*I *37:g B *C 2.6525 0.3725 
*I *5:g B *C 2.6525 1.2925 
*N *2:2 *C 2.6800 0.7700 

*CAP
0 *5:g 5.59071e-17
1 *37:g 6.87725e-17
2 *2:2 1.51085e-16
3 *2 2.65816e-17

*RES
0 *5:g *2:2 97.897079  // $poly_conn
1 *2:2 *37:g 74.820152  // $poly_conn
2 *2 *2:2 45.03936  // $metal1_conn

*END

*D_NET *3 2.44046e-16

*CONN
*P *3 I *C 1.9000 0.8550 
*I *36:g B *C 1.9725 0.3725 
*I *27:g B *C 1.9725 1.2925 
*N *3:2 *C 1.9450 0.5800 

*CAP
0 *27:g 6.22851e-17
1 *36:g 2.73626e-17
2 *3:2 9.68053e-17
3 *3 5.75926e-17

*RES
0 *27:g *3:2 146.615021  // $poly_conn
1 *3:2 *36:g 26.102209  // $poly_conn
2 *3:2 *3 45.161797  // $metal1_conn

*END

*D_NET *4 2.46295e-16

*CONN
*P *4 I *C 0.7000 1.0450 
*I *32:g B *C 0.8025 0.5875 
*I *23:g B *C 0.7975 1.1975 
*N *4:2 *C 0.7600 0.8400 

*CAP
0 *23:g 5.22965e-17
1 *32:g 3.74908e-17
2 *4:2 7.78982e-17
3 *4 7.86093e-17

*RES
0 *32:g *4:2 35.633018  // $poly_conn
1 *4:2 *23:g 54.61676  // $poly_conn
2 *4:2 *4 45.138157  // $metal1_conn

*END

*D_NET *20 4.14775e-16

*CONN
*P *20 I *C 2.9000 1.0450 
*I *38:g B *C 2.3425 0.3725 
*I *39:g B *C 2.8625 0.3725 
*I *31:g B *C 2.4425 1.2925 
*I *6:g B *C 2.8625 1.2925 
*N *20:2 *C 2.4350 1.0850 
*N *20:5 *C 2.8900 1.0750 
*N *20:7 *C 2.8900 1.0750 

*CAP
0 *6:g 2.83072e-17
1 *31:g 3.41876e-17
2 *39:g 5.19505e-17
3 *38:g 5.94379e-17
4 *20:2 1.18492e-16
5 *20:5 1.224e-16

*RES
0 *31:g *20:2 16.15522  // $poly_conn
1 *20:2 *38:g 156.891296  // $poly_conn
2 *6:g *20:5 19.691952  // $poly_conn
3 *20:5 *39:g 153.025284  // $poly_conn
4 *20 *20:7 0.003678  // $metal1_conn
5 *20:7 *20:2 45.271538  // $metal1_conn
6 *20:5 *20:7 45  // $metal1_conn

*END

*D_NET *22 4.19573e-16

*CONN
*P *22 I *C 1.7000 0.6650 
*I *33:g B *C 1.0125 0.5875 
*I *35:g B *C 1.7675 0.3725 
*I *25:g B *C 1.2125 1.1975 
*I *26:g B *C 1.7675 1.2925 
*N *22:2 *C 1.7675 0.9050 
*N *22:3 *C 1.7100 0.9050 
*N *22:4 *C 1.2125 0.9325 

*CAP
0 *26:g 3.62055e-17
1 *25:g 3.47005e-17
2 *35:g 5.26678e-17
3 *33:g 5.59704e-17
4 *22:4 6.89467e-17
5 *22:2 3.48685e-17
6 *22:3 7.57613e-17
7 *22 6.04526e-17

*RES
0 *26:g *22:2 69.040184  // $poly_conn
1 *22:2 *22:3 0.794373  // $poly_conn
2 *22:3 *22:4 114.367142  // $poly_conn
3 *22:4 *33:g 107.791039  // $poly_conn
4 *22:2 *35:g 115.194031  // $poly_conn
5 *22:4 *25:g 38.849838  // $poly_conn
6 *22 *22:3 45.143932  // $metal1_conn

*END

*D_NET *16 1.87645e-16

*CONN
*P *16 O *C 0.3000 0.6650 
*I *28:d B *C 0.4250 0.5300 
*I *30:d B *C 0.4250 0.5300 
*I *19:d B *C 0.4250 1.2850 
*I *21:d B *C 0.4250 1.2850 
*N *16:2 *C 0.3400 0.6650 
*N *16:4 *C 0.3855 0.4600 

*CAP
0 *19:d 8.04615e-17
1 *28:d 3.25827e-17
2 *16:2 5.96908e-17
3 *16 1.491e-17

*RES
0 *16:2 *16 0.005712  // $metal1_conn
1 *19:d *16:2 21.159245  // $metal1_conn
2 *28:d *16:4 75  // $metal1_conn
3 *16:2 *16:4 0.142261  // $metal1_conn

*END

*D_NET *15 0

*CONN
*I *40:s B *C 2.6000 0.3725 
*I *37:d B *C 2.6000 0.3725 


*RES
0 *37:d *40:s 0.001  // $mwires

*END

*D_NET *14 7.84632e-18

*CONN
*I *36:d B *C 2.1575 0.3725 
*I *38:s B *C 2.1575 0.3725 

*CAP
0 *36:d 7.84632e-18

*RES
0 *38:s *36:d 0.001  // $mwires

*END

*D_NET *13 4.24668e-18

*CONN
*I *32:d B *C 0.9075 0.5875 
*I *33:s B *C 0.9075 0.5875 

*CAP
0 *32:d 4.24668e-18

*RES
0 *33:s *32:d 0.001  // $mwires

*END

*D_NET *12 0

*CONN
*I *31:s B *C 2.5475 1.2925 
*I *5:d B *C 2.5475 1.2925 


*RES
0 *5:d *31:s 0.001  // $mwires

*END

*D_NET *11 5.91838e-18

*CONN
*I *27:d B *C 2.1050 1.2925 
*I *29:s B *C 2.1050 1.2925 

*CAP
0 *27:d 5.91838e-18

*RES
0 *29:s *27:d 0.001  // $mwires

*END

*D_NET *10 2.20191e-18

*CONN
*I *23:d B *C 0.8850 1.1975 
*I *24:s B *C 0.8850 1.1975 

*CAP
0 *23:d 2.20191e-18

*RES
0 *24:s *23:d 0.001  // $mwires

*END

*D_NET *9 4.7378e-16

*CONN
*I *34:s B *C 1.4325 0.5875 
*I *38:d B *C 2.4450 0.3725 
*I *40:d B *C 2.4450 0.3725 
*I *25:d B *C 1.3625 1.1975 
*I *29:d B *C 2.3400 1.2925 
*I *31:d B *C 2.3400 1.2925 
*N *9:2 *C 2.1050 1.1500 
*N *9:3 *C 1.5050 1.1500 

*CAP
0 *29:d 3.05704e-17
1 *25:d 2.58429e-17
2 *38:d 1.01971e-16
3 *34:s 7.52386e-17
4 *9:3 9.19254e-17
5 *9:2 1.48231e-16

*RES
0 *38:d *9:2 75.783257  // $metal1_conn
1 *9:2 *9:3 0.428959  // $metal1_conn
2 *9:3 *25:d 62.064087  // $metal1_conn
3 *9:2 *29:d 62.250908  // $metal1_conn
4 *9:3 *34:s 75.403435  // $metal1_conn

*END

*D_NET *8 5.30541e-16

*CONN
*I *40:g B *C 2.5475 0.3725 
*I *39:d B *C 2.9550 0.3725 
*I *29:g B *C 2.2375 1.2925 
*I *6:d B *C 2.9550 1.2925 
*N *8:2 *C 2.2650 0.9600 
*N *8:4 *C 2.5200 0.5800 
*N *8:6 *C 3.0700 0.6100 

*CAP
0 *6:d 7.558e-17
1 *29:g 4.05407e-17
2 *39:d 3.04415e-17
3 *40:g 5.7624e-17
4 *8:6 5.19755e-17
5 *8:2 1.05554e-16
6 *8:4 1.68826e-16

*RES
0 *29:g *8:2 94.179131  // $poly_conn
1 *40:g *8:4 71.102211  // $poly_conn
2 *39:d *8:6 75.207596  // $metal1_conn
3 *8:6 *8:4 0.375454  // $metal1_conn
4 *8:4 *8:2 0.449664  // $metal1_conn
5 *8:6 *6:d 62.537071  // $metal1_conn

*END

*D_NET *7 4.9149e-16

*CONN
*I *34:g B *C 1.3175 0.5875 
*I *35:d B *C 1.6750 0.3725 
*I *24:g B *C 0.9725 1.1975 
*I *26:d B *C 1.6750 1.2925 
*N *7:1 *C 1.0800 0.9500 
*N *7:4 *C 1.3450 0.7900 
*N *7:6 *C 1.2400 0.9200 

*CAP
0 *26:d 8.17498e-17
1 *24:g 3.93768e-17
2 *35:d 7.45745e-17
3 *34:g 3.30324e-17
4 *7:6 7.02035e-17
5 *7:1 8.44677e-17
6 *7:4 1.08085e-16

*RES
0 *7:1 *24:g 83.446335  // $poly_conn
1 *34:g *7:4 69.82016  // $poly_conn
2 *26:d *7:6 62.553959  // $metal1_conn
3 *7:6 *7:1 0.103801  // $metal1_conn
4 *7:6 *7:4 0.172806  // $metal1_conn
5 *7:4 *35:d 75.594086  // $metal1_conn

*END

*D_NET *17 4.02246e-16

*CONN
*I *28:g B *C 0.2825 0.5300 
*I *30:g B *C 0.5675 0.5300 
*I *33:d B *C 1.1650 0.5875 
*I *34:d B *C 1.1650 0.5875 
*I *19:g B *C 0.2825 1.2850 
*I *21:g B *C 0.5675 1.2850 
*I *24:d B *C 1.0925 1.1975 
*I *25:s B *C 1.0925 1.1975 
*N *17:8 *C 0.9200 0.6500 

*CAP
0 *24:d 7.68058e-17
1 *21:g 2.27901e-16
2 *33:d 3.8928e-17
3 *17:8 5.86108e-17

*RES
0 *17:8 *21:g 45.331383  // $metal1_conn
1 *17:8 *24:d 62.418331  // $metal1_conn
2 *33:d *17:8 75.127213  // $metal1_conn

*END

