*SPEF "IEEE 1481-1999"
*DESIGN  "MX3X1"
*DATE "Mon Sep 27 09:58:06 2010"
*VENDOR "Cadence Design Systems"
*PROGRAM "Assura RCX"
*VERSION "3.2 Red Hat Linux release 7.2 (Enigma) - (09/09/2009-10:39)"
*DESIGN_FLOW "Physical Verification"
*DIVIDER /
*DELIMITER :
*BUS_DELIMITER []
*T_UNIT 1 PS
*C_UNIT 1e15 FF
*R_UNIT 1 OHM
*L_UNIT 1 MH
// DeviceFingerDelim "@"
// MATCHED
// caps2d version: 10

*NAME_MAP
*1 VDD
*2 mn9
*3 mn7
*4 mn8
*5 mn6
*6 mn1
*7 VSS
*8 mp0
*9 mn4
*10 mn5
*11 mn3
*12 mn2
*13 A
*14 B
*15 C
*16 S0b
*17 S0
*18 n0
*19 S1
*20 S1b
*21 net202
*22 net190
*23 net189
*24 net245
*25 net234
*26 net229
*27 Y
*28 mp9
*29 n1
*30 mp7
*31 mp8
*32 mp6
*33 mp1
*34 mp4
*35 mp5
*36 mp3
*37 mp2
*38 mn0

*GROUND_NETS VSS

*PORTS
*1 I
*7 I
*13 I
*14 I
*15 I
*17 I
*19 I
*27 O

*D_NET *1 3.7776e-16

*CONN
*P *1 I *C 0.1000 1.7100 
*I *28:s B *C 0.4650 1.0625 
*I *30:s B *C 0.4650 1.0625 
*I *33:s B *C 1.6000 1.2525 
*I *34:s B *C 1.6000 1.2525 
*I *37:s B *C 2.4050 1.2525 
*I *8:s B *C 2.4050 1.2525 
*N *1:2 *C 2.3000 1.7100 
*N *1:3 *C 2.3000 1.7100 
*N *1:4 *C 1.6000 1.7100 
*N *1:5 *C 0.8000 1.7100 
*N *1:6 *C 0.3650 1.7100 

*CAP
0 *37:s 2.95147e-17
1 *33:s 4.09064e-17
2 *28:s 3.32316e-17
3 *1:6 6.60267e-18
4 *1:4 2.51056e-17
5 *1:2 2.34803e-16
6 *1 7.59683e-18

*RES
0 *37:s *1:3 62.329948  // $metal1_conn
1 *1:3 *1:4 0.350842  // $metal1_conn
2 *1:4 *1:5 0.40099  // $metal1_conn
3 *1:5 *1:6 0.217949  // $metal1_conn
4 *1:6 *1 0.132446  // $metal1_conn
5 *1:4 *33:s 62.259247  // $metal1_conn
6 *1:6 *28:s 62.269257  // $metal1_conn
7 *1:2 *1:3 10.714286  // $metal1_conn
8 *1:2 *1:5 9.375  // $metal1_conn

*END

*D_NET *7 0

*CONN
*P *7 I *C 0.1000 0.0000 
*I *2:s B *C 0.4650 0.3625 
*I *3:s B *C 0.4650 0.3625 
*I *6:s B *C 1.6750 0.4525 
*I *9:s B *C 1.6750 0.4525 
*I *12:s B *C 2.4800 0.4525 
*I *38:s B *C 2.4800 0.4525 
*N *7:2 *C 1.6750 0.0000 
*N *7:3 *C 0.8000 0.0000 
*N *7:4 *C 0.8000 0.0000 
*N *7:5 *C 0.3350 0.0000 
*N *7:6 *C 2.3000 0.0000 


*RES
0 *6:s *7:2 75.295792  // $metal1_conn
1 *7:2 *7:4 0.43819  // $metal1_conn
2 *7:4 *7:5 0.232993  // $metal1_conn
3 *7:5 *7 0.117402  // $metal1_conn
4 *7:2 *7:6 0.312819  // $metal1_conn
5 *7:6 *12:s 75.378265  // $metal1_conn
6 *7:5 *2:s 75.201073  // $metal1_conn
7 *7:3 *7:4 7.75  // $metal1_conn
8 *7:3 *7:6 8.857142  // $metal1_conn

*END

*D_NET *13 3.1776e-16

*CONN
*P *13 I *C 2.3000 0.8400 
*I *12:g B *C 2.3775 0.4525 
*I *37:g B *C 2.2825 1.2525 
*N *13:2 *C 2.3100 0.8350 

*CAP
0 *37:g 6.38224e-17
1 *12:g 6.49616e-17
2 *13:2 6.42584e-17
3 *13 1.24717e-16

*RES
0 *12:g *13:2 73.252548  // $poly_conn
1 *13:2 *37:g 67.812088  // $poly_conn
2 *13:2 *13 45.004597  // $metal1_conn

*END

*D_NET *14 2.57536e-16

*CONN
*P *14 I *C 1.5000 0.6650 
*I *9:g B *C 1.7775 0.4525 
*I *34:g B *C 1.7025 1.2525 
*N *14:2 *C 1.6300 0.7650 

*CAP
0 *34:g 6.07221e-17
1 *9:g 3.75591e-17
2 *14:2 1.21258e-16
3 *14 3.7996e-17

*RES
0 *9:g *14:2 74.343773  // $poly_conn
1 *14:2 *34:g 85.471245  // $poly_conn
2 *14:2 *14 45.096771  // $metal1_conn

*END

*D_NET *15 2.75649e-16

*CONN
*P *15 I *C 0.5000 1.0450 
*I *3:g B *C 0.5275 0.3625 
*I *30:g B *C 0.5275 1.0625 
*N *15:2 *C 0.4900 0.8550 

*CAP
0 *30:g 5.39736e-17
1 *3:g 7.52941e-17
2 *15:2 1.20503e-16
3 *15 2.5878e-17

*RES
0 *30:g *15:2 16.15522  // $poly_conn
1 *15:2 *3:g 98.206505  // $poly_conn
2 *15 *15:2 45.114017  // $metal1_conn

*END

*D_NET *17 4.37015e-16

*CONN
*P *17 I *C 2.7000 1.0450 
*I *10:g B *C 2.0675 0.4525 
*I *38:g B *C 2.5825 0.4525 
*I *36:g B *C 2.1675 1.2525 
*I *8:g B *C 2.5275 1.2525 
*N *17:2 *C 2.1300 1.0250 
*N *17:5 *C 2.5550 1.0350 
*N *17:7 *C 2.5550 1.0350 

*CAP
0 *8:g 2.58608e-17
1 *36:g 4.72182e-17
2 *38:g 4.44777e-17
3 *10:g 6.89743e-17
4 *17:2 1.24376e-16
5 *17:5 7.97905e-17
6 *17 4.63176e-17

*RES
0 *36:g *17:2 21.283424  // $poly_conn
1 *17:2 *10:g 130.084427  // $poly_conn
2 *38:g *17:5 122.256058  // $poly_conn
3 *17:5 *8:g 19.691952  // $poly_conn
4 *17 *17:7 0.087314  // $metal1_conn
5 *17:7 *17:2 45.251736  // $metal1_conn
6 *17:5 *17:7 45  // $metal1_conn

*END

*D_NET *19 4.5197e-16

*CONN
*P *19 I *C 1.3000 0.8550 
*I *4:g B *C 0.6325 0.3625 
*I *6:g B *C 1.5725 0.4525 
*I *32:g B *C 1.0075 1.0625 
*I *33:g B *C 1.4975 1.2525 
*N *19:2 *C 1.4975 0.6975 
*N *19:3 *C 1.2900 0.6700 
*N *19:4 *C 1.0075 0.6975 

*CAP
0 *33:g 4.66668e-17
1 *32:g 3.10776e-17
2 *6:g 2.42596e-17
3 *4:g 9.56486e-17
4 *19:4 7.47001e-17
5 *19:2 4.76246e-17
6 *19:3 8.76173e-17
7 *19 4.43757e-17

*RES
0 *6:g *19:2 50.481503  // $poly_conn
1 *19:2 *19:3 39.992439  // $poly_conn
2 *19:3 *19:4 62.770718  // $poly_conn
3 *19:4 *4:g 156.395508  // $poly_conn
4 *19:2 *33:g 113.591591  // $poly_conn
5 *19:4 *32:g 61.326126  // $poly_conn
6 *19 *19:3 45.111019  // $metal1_conn

*END

*D_NET *27 1.26449e-16

*CONN
*P *27 O *C 0.1000 0.4750 
*I *2:d B *C 0.1700 0.4050 
*I *28:d B *C 0.1700 1.1500 

*CAP
0 *28:d 4.91432e-17
1 *27 7.73054e-17

*RES
0 *28:d *27 21.167385  // $metal1_conn
1 *27 *2:d 75.015396  // $metal1_conn

*END

*D_NET *26 0

*CONN
*I *11:s B *C 2.3250 0.4525 
*I *12:d B *C 2.3250 0.4525 


*RES
0 *12:d *11:s 0.001  // $mwires

*END

*D_NET *25 3.54279e-18

*CONN
*I *9:d B *C 1.9225 0.4525 
*I *10:s B *C 1.9225 0.4525 

*CAP
0 *9:d 3.54279e-18

*RES
0 *10:s *9:d 0.001  // $mwires

*END

*D_NET *24 0

*CONN
*I *3:d B *C 0.5800 0.3625 
*I *4:s B *C 0.5800 0.3625 


*RES
0 *4:s *3:d 0.001  // $mwires

*END

*D_NET *23 0

*CONN
*I *36:s B *C 2.2250 1.2525 
*I *37:d B *C 2.2250 1.2525 


*RES
0 *37:d *36:s 0.001  // $mwires

*END

*D_NET *22 0

*CONN
*I *34:d B *C 1.8075 1.2525 
*I *35:s B *C 1.8075 1.2525 


*RES
0 *35:s *34:d 0.001  // $mwires

*END

*D_NET *21 0

*CONN
*I *30:d B *C 0.5800 1.0625 
*I *31:s B *C 0.5800 1.0625 


*RES
0 *31:s *30:d 0.001  // $mwires

*END

*D_NET *20 6.51294e-16

*CONN
*I *5:g B *C 1.0125 0.3625 
*I *6:d B *C 1.4800 0.4525 
*I *31:g B *C 0.6325 1.0625 
*I *33:d B *C 1.4050 1.2525 
*N *20:1 *C 0.8650 0.8300 
*N *20:4 *C 0.8950 0.5650 
*N *20:6 *C 0.9250 0.8300 

*CAP
0 *33:d 9.41061e-17
1 *31:g 6.72623e-17
2 *6:d 1.28727e-16
3 *5:g 2.21324e-17
4 *20:1 1.58909e-16
5 *20:4 1.80156e-16

*RES
0 *20:1 *31:g 115.188194  // $poly_conn
1 *5:g *20:4 79.136131  // $poly_conn
2 *6:d *20:4 75.850899  // $metal1_conn
3 *20:4 *20:6 0.222832  // $metal1_conn
4 *20:6 *20:1 0.015042  // $metal1_conn
5 *20:6 *33:d 62.702854  // $metal1_conn

*END

*D_NET *18 4.88705e-16

*CONN
*I *5:s B *C 1.1050 0.3625 
*I *10:d B *C 2.1700 0.4525 
*I *11:d B *C 2.1700 0.4525 
*I *32:d B *C 1.1025 1.0625 
*I *35:d B *C 2.0400 1.2525 
*I *36:d B *C 2.0400 1.2525 
*N *18:2 *C 1.7900 1.1100 
*N *18:4 *C 1.1150 1.1100 

*CAP
0 *35:d 4.69023e-17
1 *32:d 1.27232e-16
2 *10:d 8.81501e-17
3 *5:s 1.01414e-16
4 *18:2 1.25008e-16

*RES
0 *10:d *18:2 75.713379  // $metal1_conn
1 *18:2 *18:4 0.500376  // $metal1_conn
2 *18:4 *5:s 75.601715  // $metal1_conn
3 *18:2 *35:d 62.219265  // $metal1_conn
4 *32:d *18:4 62  // $metal1_conn

*END

*D_NET *16 5.3581e-16

*CONN
*I *11:g B *C 2.2725 0.4525 
*I *38:d B *C 2.6750 0.4525 
*I *35:g B *C 1.9125 1.2525 
*I *8:d B *C 2.6200 1.2525 
*N *16:2 *C 1.9500 0.9150 
*N *16:4 *C 2.2350 0.6450 
*N *16:6 *C 2.8950 0.6450 

*CAP
0 *8:d 7.41313e-17
1 *35:g 4.09064e-17
2 *38:d 2.17665e-17
3 *11:g 6.23055e-17
4 *16:6 8.29168e-17
5 *16:2 1.01305e-16
6 *16:4 1.52479e-16

*RES
0 *35:g *16:2 94.488556  // $poly_conn
1 *11:g *16:4 66.69355  // $poly_conn
2 *38:d *16:6 75.262383  // $metal1_conn
3 *16:6 *16:4 0.487547  // $metal1_conn
4 *16:4 *16:2 0.377293  // $metal1_conn
5 *16:6 *8:d 62.581211  // $metal1_conn

*END

*D_NET *29 3.51808e-16

*CONN
*I *2:g B *C 0.2625 0.4050 
*I *4:d B *C 0.8225 0.3625 
*I *5:d B *C 0.8225 0.3625 
*I *28:g B *C 0.2625 1.1500 
*I *31:d B *C 0.8200 1.0625 
*I *32:s B *C 0.8200 1.0625 
*N *29:2 *C 0.3000 0.6350 
*N *29:4 *C 0.7050 0.4950 

*CAP
0 *31:d 7.60144e-17
1 *28:g 4.81205e-17
2 *4:d 3.18274e-17
3 *2:g 3.16144e-17
4 *29:4 6.60469e-17
5 *29:2 9.81842e-17

*RES
0 *28:g *29:2 72.565475  // $poly_conn
1 *29:2 *2:g 16.15522  // $poly_conn
2 *29:2 *29:4 45.34124  // $metal1_conn
3 *29:4 *4:d 75.089088  // $metal1_conn
4 *29:4 *31:d 62.431545  // $metal1_conn

*END

