*SPEF "IEEE 1481-1999"
*DESIGN  "MX4X2"
*DATE "Mon Sep 27 10:00:00 2010"
*VENDOR "Cadence Design Systems"
*PROGRAM "Assura RCX"
*VERSION "3.2 Red Hat Linux release 7.2 (Enigma) - (09/09/2009-10:39)"
*DESIGN_FLOW "Physical Verification"
*DIVIDER /
*DELIMITER :
*BUS_DELIMITER []
*T_UNIT 1 PS
*C_UNIT 1e15 FF
*R_UNIT 1 OHM
*L_UNIT 1 MH
// DeviceFingerDelim "@"
// MATCHED
// caps2d version: 10

*NAME_MAP
*1 VSS
*2 mn3
*3 mn5
*4 mn11
*5 mn4
*6 mn1
*7 mn6
*8 mn12
*9 mn7
*10 mn12\@1
*11 mn9
*12 mn2
*13 mn8
*14 mn0
*15 mn10
*16 Y
*17 VDD
*18 mp1
*19 mp12
*20 mp12\@1
*21 mp2
*22 mp3
*23 S1b
*24 S0
*25 n2
*26 S1
*27 S0b
*28 n0
*29 n1
*30 n4
*31 n6
*32 n8
*33 mp5
*34 n10
*35 mp4
*36 n3
*37 mp6
*38 mp7
*39 mp9
*40 mp8
*41 mp0
*42 mp10
*43 mp11
*44 n5
*45 n7
*46 n9
*47 A
*48 B
*49 C
*50 D

*GROUND_NETS VSS

*PORTS
*17 I
*1 I
*47 I
*48 I
*49 I
*50 I
*24 I
*26 I
*16 O

*D_NET *17 6.31346e-16

*CONN
*P *17 I *C 0.1000 1.7100 
*I *35:s B *C 3.2450 1.2425 
*I *37:s B *C 3.2450 1.2425 
*I *40:s B *C 4.4375 1.2425 
*I *41:s B *C 4.4375 1.2425 
*I *18:s B *C 1.5100 1.1000 
*I *19:s B *C 1.5100 1.1000 
*I *20:s B *C 2.0525 1.2425 
*I *21:s B *C 2.0525 1.2425 
*N *17:2 *C 4.2000 1.7100 
*N *17:3 *C 4.2000 1.7100 
*N *17:4 *C 3.0750 1.7100 
*N *17:5 *C 2.6000 1.7100 
*N *17:8 *C 0.9000 1.7100 

*CAP
0 *20:s 9.21103e-17
1 *40:s 3.91314e-17
2 *35:s 2.95048e-17
3 *17:4 3.91577e-17
4 *17:2 4.17846e-16
5 *17 1.35958e-17

*RES
0 *17:8 *17 0.401003  // $metal1_conn
1 *17:2 *17:3 9.375  // $metal1_conn
2 *17:2 *17:5 9.375  // $metal1_conn
3 *17:2 *17:8 8.333333  // $metal1_conn
4 *40:s *17:3 62.368206  // $metal1_conn
5 *17:4 *35:s 62.045826  // $metal1_conn
6 *17:3 *17:4 0.563117  // $metal1_conn
7 *17:4 *17:5 0.237098  // $metal1_conn
8 *17:5 *20:s 0.368455  // $metal1_conn
9 *20:s *17:8 0.262177  // $metal1_conn

*END

*D_NET *1 0

*CONN
*P *1 I *C 0.1000 0.0000 
*I *5:s B *C 3.2775 0.4725 
*I *7:s B *C 3.2775 0.4725 
*I *13:s B *C 4.4375 0.4725 
*I *14:s B *C 4.4375 0.4725 
*I *6:s B *C 1.5075 0.4150 
*I *8:s B *C 1.5075 0.4150 
*I *10:s B *C 2.1250 0.4725 
*I *12:s B *C 2.1250 0.4725 
*N *1:2 *C 3.1700 0.0000 
*N *1:3 *C 2.6000 0.0000 
*N *1:4 *C 2.6000 0.0000 
*N *1:7 *C 0.9000 0.0000 
*N *1:8 *C 4.2000 0.0000 


*RES
0 *1:7 *1 0.401003  // $metal1_conn
1 *1:3 *1:4 7.75  // $metal1_conn
2 *1:3 *1:7 6.888889  // $metal1_conn
3 *1:3 *1:8 7.75  // $metal1_conn
4 *1:8 *13:s 75.364662  // $metal1_conn
5 *5:s *1:2 75.20269  // $metal1_conn
6 *1:2 *1:4 0.285285  // $metal1_conn
7 *1:2 *1:8 0.516006  // $metal1_conn
8 *1:4 *10:s 0.280681  // $metal1_conn
9 *10:s *1:7 0.240556  // $metal1_conn

*END

*D_NET *47 1.9282e-16

*CONN
*P *47 I *C 1.9000 0.8550 
*I *12:g B *C 2.1725 0.4725 
*I *21:g B *C 2.1725 1.2425 
*N *47:2 *C 2.1450 0.7150 

*CAP
0 *21:g 4.70108e-17
1 *12:g 2.62097e-17
2 *47:2 8.06169e-17
3 *47 3.89824e-17

*RES
0 *21:g *47:2 99.179131  // $poly_conn
1 *47:2 *12:g 35.076569  // $poly_conn
2 *47:2 *47 45.189907  // $metal1_conn

*END

*D_NET *48 2.64158e-16

*CONN
*P *48 I *C 2.9000 1.0450 
*I *5:g B *C 2.9975 0.4725 
*I *35:g B *C 2.9425 1.2425 
*N *48:2 *C 2.9700 1.0250 

*CAP
0 *35:g 3.00335e-17
1 *5:g 8.31725e-17
2 *48:2 9.81213e-17
3 *48 5.28308e-17

*RES
0 *5:g *48:2 114.563744  // $poly_conn
1 *48:2 *35:g 19.691952  // $poly_conn
2 *48 *48:2 45.01218  // $metal1_conn

*END

*D_NET *49 2.03387e-16

*CONN
*P *49 I *C 3.3000 1.0450 
*I *7:g B *C 3.3775 0.4725 
*I *37:g B *C 3.3775 1.2425 
*N *49:2 *C 3.3500 0.9000 

*CAP
0 *37:g 3.62169e-17
1 *7:g 4.07825e-17
2 *49:2 6.87687e-17
3 *49 5.76195e-17

*RES
0 *37:g *49:2 51.743229  // $poly_conn
1 *49:2 *7:g 82.512466  // $poly_conn
2 *49:2 *49 45.102814  // $metal1_conn

*END

*D_NET *50 2.57149e-16

*CONN
*P *50 I *C 4.3000 0.8550 
*I *13:g B *C 4.2125 0.4725 
*I *40:g B *C 4.2125 1.2425 
*N *50:2 *C 4.2400 0.8100 

*CAP
0 *40:g 6.12974e-17
1 *13:g 4.09617e-17
2 *50:2 8.31522e-17
3 *50 7.17379e-17

*RES
0 *40:g *50:2 74.820152  // $poly_conn
1 *50:2 *13:g 59.435539  // $poly_conn
2 *50 *50:2 45.019848  // $metal1_conn

*END

*D_NET *24 8.57731e-16

*CONN
*P *24 I *C 4.7000 0.8550 
*I *3:g B *C 2.8925 0.4725 
*I *11:g B *C 4.0325 0.4725 
*I *14:g B *C 4.6625 0.4725 
*I *38:g B *C 3.5975 1.2425 
*I *41:g B *C 4.6625 1.2425 
*I *22:g B *C 2.4375 1.2425 
*N *24:2 *C 2.4650 0.9150 
*N *24:4 *C 2.8650 0.6800 
*N *24:6 *C 4.0700 0.6500 
*N *24:7 *C 3.5600 0.7950 
*N *24:10 *C 4.6900 0.6550 
*N *24:12 *C 4.6900 0.6550 

*CAP
0 *22:g 3.53876e-17
1 *41:g 3.37954e-17
2 *38:g 3.68225e-17
3 *14:g 1.62116e-17
4 *11:g 3.132e-17
5 *3:g 6.46534e-17
6 *24:2 9.51225e-17
7 *24:4 1.32157e-16
8 *24:7 1.37891e-16
9 *24:6 1.42104e-16
10 *24:10 8.65567e-17
11 *24 4.57091e-17

*RES
0 *22:g *24:2 92.897079  // $poly_conn
1 *3:g *24:4 71.102211  // $poly_conn
2 *11:g *24:6 17.437269  // $poly_conn
3 *24:6 *24:7 134.020874  // $poly_conn
4 *24:7 *38:g 77.69368  // $poly_conn
5 *41:g *24:10 114.563744  // $poly_conn
6 *24:10 *14:g 19.691952  // $poly_conn
7 *24:7 *24:4 45.550983  // $metal1_conn
8 *24:4 *24:2 0.434981  // $metal1_conn
9 *24 *24:12 0.152957  // $metal1_conn
10 *24:12 *24:6 45.447826  // $metal1_conn
11 *24:10 *24:12 45  // $metal1_conn

*END

*D_NET *26 3.45635e-16

*CONN
*P *26 I *C 1.3000 0.6650 
*I *4:g B *C 0.6425 0.4825 
*I *6:g B *C 1.2025 0.4725 
*I *42:g B *C 0.5325 1.0125 
*I *18:g B *C 1.2025 1.0125 
*N *26:2 *C 1.2400 0.6800 
*N *26:3 *C 0.6425 0.6525 

*CAP
0 *18:g 3.91027e-17
1 *42:g 5.46368e-17
2 *6:g 2.25694e-17
3 *4:g 2.285e-17
4 *26:3 5.27651e-17
5 *26:2 1.27766e-16
6 *26 2.59448e-17

*RES
0 *18:g *26:2 48.206497  // $poly_conn
1 *26:2 *26:3 141.00322  // $poly_conn
2 *26:3 *42:g 83.073997  // $poly_conn
3 *26:2 *6:g 25.129578  // $poly_conn
4 *26:3 *4:g 20.300484  // $poly_conn
5 *26 *26:2 45.019295  // $metal1_conn

*END

*D_NET *16 1.32083e-16

*CONN
*P *16 O *C 1.7000 0.6650 
*I *8:d B *C 1.7000 0.4150 
*I *10:d B *C 1.7000 0.4150 
*I *19:d B *C 1.6600 1.1000 
*I *20:d B *C 1.6600 1.1000 

*CAP
0 *19:d 6.76576e-17
1 *8:d 3.1332e-17
2 *16 3.30933e-17

*RES
0 *16 *8:d 75.107071  // $metal1_conn
1 *19:d *16 62.195957  // $metal1_conn

*END

*D_NET *46 0

*CONN
*I *11:s B *C 4.1225 0.4725 
*I *13:d B *C 4.1225 0.4725 


*RES
0 *13:d *11:s 0.001  // $mwires

*END

*D_NET *45 1.03267e-17

*CONN
*I *7:d B *C 3.5775 0.4725 
*I *9:s B *C 3.5775 0.4725 

*CAP
0 *7:d 1.03267e-17

*RES
0 *9:s *7:d 0.001  // $mwires

*END

*D_NET *44 4.70652e-19

*CONN
*I *3:s B *C 2.9450 0.4725 
*I *5:d B *C 2.9450 0.4725 

*CAP
0 *3:s 4.70652e-19

*RES
0 *5:d *3:s 0.001  // $mwires

*END

*D_NET *36 6.49284e-18

*CONN
*I *2:s B *C 2.4300 0.4725 
*I *12:d B *C 2.4300 0.4725 

*CAP
0 *2:s 6.49284e-18

*RES
0 *12:d *2:s 0.001  // $mwires

*END

*D_NET *34 1.44701e-19

*CONN
*I *39:s B *C 4.1550 1.2425 
*I *40:d B *C 4.1550 1.2425 

*CAP
0 *39:s 1.44701e-19

*RES
0 *40:d *39:s 0.001  // $mwires

*END

*D_NET *32 0

*CONN
*I *37:d B *C 3.4875 1.2425 
*I *38:s B *C 3.4875 1.2425 


*RES
0 *38:s *37:d 0.001  // $mwires

*END

*D_NET *31 3.47858e-18

*CONN
*I *33:s B *C 2.8175 1.2425 
*I *35:d B *C 2.8175 1.2425 

*CAP
0 *33:s 3.47858e-18

*RES
0 *35:d *33:s 0.001  // $mwires

*END

*D_NET *30 8.27619e-18

*CONN
*I *21:d B *C 2.3050 1.2425 
*I *22:s B *C 2.3050 1.2425 

*CAP
0 *21:d 8.27619e-18

*RES
0 *22:s *21:d 0.001  // $mwires

*END

*D_NET *29 8.83826e-16

*CONN
*I *9:d B *C 3.9050 0.4725 
*I *11:d B *C 3.9050 0.4725 
*I *4:s B *C 0.7925 0.4825 
*I *38:d B *C 3.8475 1.2425 
*I *39:d B *C 3.8475 1.2425 
*I *43:d B *C 0.8300 1.0125 
*N *29:2 *C 3.9100 0.4600 
*N *29:4 *C 0.8600 0.4700 

*CAP
0 *43:d 8.33077e-17
1 *38:d 1.15132e-16
2 *4:s 3.39785e-16
3 *9:d 3.45602e-16

*RES
0 *29:2 *29:4 2.654407  // $metal1_conn
1 *29:4 *43:d 62.435314  // $metal1_conn
2 *29:2 *38:d 62.624203  // $metal1_conn
3 *9:d *29:2 75  // $metal1_conn
4 *4:s *29:4 75  // $metal1_conn

*END

*D_NET *28 7.106e-16

*CONN
*I *2:d B *C 2.7900 0.4725 
*I *3:d B *C 2.7900 0.4725 
*I *15:s B *C 0.2450 0.4825 
*I *33:d B *C 2.5650 1.2425 
*I *42:s B *C 0.4150 1.0125 
*I *22:d B *C 2.5650 1.2425 
*N *28:2 *C 2.3050 1.1950 
*N *28:4 *C 0.3800 1.0600 

*CAP
0 *42:s 2.14162e-16
1 *33:d 3.18883e-17
2 *15:s 6.08507e-17
3 *2:d 1.34225e-16
4 *28:2 2.69473e-16

*RES
0 *2:d *28:2 75.860916  // $metal1_conn
1 *28:2 *28:4 1.692612  // $metal1_conn
2 *28:4 *15:s 75.47876  // $metal1_conn
3 *28:2 *33:d 62.169064  // $metal1_conn
4 *42:s *28:4 62  // $metal1_conn

*END

*D_NET *27 9.44091e-16

*CONN
*I *2:g B *C 2.6875 0.4725 
*I *9:g B *C 3.7775 0.4725 
*I *14:d B *C 4.7975 0.4725 
*I *33:g B *C 2.6925 1.2425 
*I *39:g B *C 4.0975 1.2425 
*I *41:d B *C 4.7550 1.2425 
*N *27:2 *C 2.7300 1.0350 
*N *27:5 *C 3.7500 0.6800 
*N *27:7 *C 4.0700 1.0250 
*N *27:9 *C 4.7650 1.1000 
*N *27:10 *C 4.1300 1.0900 
*N *27:11 *C 3.7500 1.4150 

*CAP
0 *41:d 6.94482e-18
1 *39:g 4.95179e-17
2 *33:g 2.56546e-17
3 *14:d 5.64769e-17
4 *9:g 3.92252e-17
5 *2:g 5.42123e-17
6 *27:11 1.7334e-16
7 *27:10 1.04111e-16
8 *27:9 7.53711e-17
9 *27:2 1.75757e-16
10 *27:5 1.28223e-16
11 *27:7 5.52589e-17

*RES
0 *33:g *27:2 16.15522  // $poly_conn
1 *27:2 *2:g 115.120193  // $poly_conn
2 *9:g *27:5 71.102211  // $poly_conn
3 *39:g *27:7 64.691956  // $poly_conn
4 *41:d *27:9 62.050789  // $metal1_conn
5 *27:9 *27:10 0.505476  // $metal1_conn
6 *27:10 *27:11 0.495386  // $metal1_conn
7 *27:11 *27:2 45.999557  // $metal1_conn
8 *27:9 *14:d 75.513176  // $metal1_conn
9 *27:10 *27:7 0.12473  // $metal1_conn
10 *27:11 *27:5 0.539579  // $metal1_conn

*END

*D_NET *25 5.67151e-16

*CONN
*I *15:d B *C 0.4975 0.4825 
*I *4:d B *C 0.4975 0.4825 
*I *8:g B *C 1.5975 0.4150 
*I *10:g B *C 1.8025 0.4150 
*I *42:d B *C 0.6350 1.0125 
*I *43:s B *C 0.6350 1.0125 
*I *19:g B *C 1.5575 1.1000 
*I *20:g B *C 1.7625 1.1000 
*N *25:9 *C 0.6350 1.0200 

*CAP
0 *20:g 3.01361e-16
1 *42:d 1.79924e-16
2 *15:d 8.58651e-17

*RES
0 *20:g *25:9 46.030052  // $metal1_conn
1 *25:9 *15:d 75.418617  // $metal1_conn
2 *42:d *25:9 62  // $metal1_conn

*END

*D_NET *23 6.00114e-16

*CONN
*I *15:g B *C 0.3525 0.4825 
*I *6:d B *C 1.0900 0.4725 
*I *43:g B *C 0.7375 1.0125 
*I *18:d B *C 1.1100 1.0125 
*N *23:2 *C 0.3800 0.6650 
*N *23:3 *C 1.0200 0.7950 
*N *23:4 *C 0.7000 0.8000 

*CAP
0 *18:d 5.38805e-17
1 *43:g 3.22798e-17
2 *6:d 5.96766e-17
3 *15:g 3.05208e-17
4 *23:2 1.34987e-16
5 *23:4 1.91066e-16
6 *23:3 9.77036e-17

*RES
0 *15:g *23:2 64.691956  // $poly_conn
1 *23:3 *23:4 106.515564  // $poly_conn
2 *23:4 *43:g 17.437269  // $poly_conn
3 *23:4 *23:2 45.869621  // $metal1_conn
4 *18:d *23:3 62.156651  // $metal1_conn
5 *23:3 *6:d 75.190056  // $metal1_conn

*END

