*SPEF "IEEE 1481-1999"
*DESIGN  "MXI2X6"
*DATE "Mon Sep 27 10:02:16 2010"
*VENDOR "Cadence Design Systems"
*PROGRAM "Assura RCX"
*VERSION "3.2 Red Hat Linux release 7.2 (Enigma) - (09/09/2009-10:39)"
*DESIGN_FLOW "Physical Verification"
*DIVIDER /
*DELIMITER :
*BUS_DELIMITER []
*T_UNIT 1 PS
*C_UNIT 1e15 FF
*R_UNIT 1 OHM
*L_UNIT 1 MH
// DeviceFingerDelim "@"
// MATCHED
// caps2d version: 10

*NAME_MAP
*1 VDD
*2 A
*3 B
*4 mp4
*5 mp3
*6 mp5\@1
*7 n4
*8 n6
*9 n3
*10 n5
*11 Y
*12 n0
*13 S0b
*14 n1
*15 VSS
*16 mp5
*17 S0
*18 mp6
*19 mp6\@1
*20 mp6\@2
*21 mp6\@3
*22 mp6\@4
*23 mp0
*24 mn5
*25 mp1
*26 mn6
*27 mp2
*28 mn6\@1
*29 mn6\@2
*30 mn6\@3
*31 mn6\@4
*32 mn0
*33 mn4
*34 mn1
*35 mn3
*36 mn2
*37 mn5\@1

*GROUND_NETS VSS

*PORTS
*1 I
*15 I
*2 I
*3 I
*17 I
*11 O

*D_NET *1 5.81254e-16

*CONN
*P *1 I *C 0.1000 1.7100 
*I *16:s B *C 1.8850 1.2450 
*I *18:s B *C 1.8850 1.2450 
*I *19:s B *C 2.2650 1.2450 
*I *20:s B *C 2.2650 1.2450 
*I *21:s B *C 2.6750 1.2450 
*I *22:s B *C 2.6750 1.2450 
*I *23:s B *C 0.4600 1.3725 
*I *25:s B *C 0.4600 1.3725 
*I *5:s B *C 1.4250 1.2850 
*I *6:s B *C 1.4250 1.2850 
*N *1:2 *C 2.3000 1.7100 
*N *1:6 *C 0.8000 1.7100 
*N *1:7 *C 0.4600 1.7100 

*CAP
0 *23:s 2.02995e-17
1 *21:s 3.14479e-16
2 *1:7 1.51053e-17
3 *1:2 2.21177e-16
4 *1 1.01942e-17

*RES
0 *1:7 *1 0.180177  // $metal1_conn
1 *1:2 *21:s 10.714286  // $metal1_conn
2 *1:2 *1:6 9.375  // $metal1_conn
3 *1:7 *23:s 62.175468  // $metal1_conn
4 *21:s *1:6 0.298336  // $metal1_conn
5 *1:6 *1:7 0.170393  // $metal1_conn

*END

*D_NET *15 0

*CONN
*P *15 I *C 0.1000 0.0000 
*I *24:s B *C 1.8850 0.4450 
*I *26:s B *C 1.8850 0.4450 
*I *28:s B *C 2.2650 0.4450 
*I *29:s B *C 2.2650 0.4450 
*I *30:s B *C 2.6750 0.4450 
*I *31:s B *C 2.6750 0.4450 
*I *32:s B *C 0.4600 0.3625 
*I *34:s B *C 0.4600 0.3625 
*I *35:s B *C 1.4250 0.4200 
*I *37:s B *C 1.4250 0.4200 
*N *15:2 *C 2.3000 0.0000 
*N *15:6 *C 0.8000 0.0000 
*N *15:7 *C 0.4600 0.0000 


*RES
0 *15:7 *15 0.180177  // $metal1_conn
1 *15:2 *30:s 8.857142  // $metal1_conn
2 *15:2 *15:6 7.75  // $metal1_conn
3 *15:7 *32:s 75.218285  // $metal1_conn
4 *30:s *15:6 0.283284  // $metal1_conn
5 *15:6 *15:7 0.170393  // $metal1_conn

*END

*D_NET *2 2.88997e-16

*CONN
*P *2 I *C 0.5000 0.8550 
*I *34:g B *C 0.5625 0.3625 
*I *25:g B *C 0.5625 1.3725 
*N *2:2 *C 0.5350 0.8500 

*CAP
0 *25:g 4.83609e-17
1 *34:g 7.67397e-17
2 *2:2 1.20343e-16
3 *2 4.35542e-17

*RES
0 *25:g *2:2 97.897079  // $poly_conn
1 *2:2 *34:g 97.897079  // $poly_conn
2 *2 *2:2 45.007122  // $metal1_conn

*END

*D_NET *3 2.52129e-16

*CONN
*P *3 I *C 1.3000 0.8550 
*I *35:g B *C 1.2625 0.3625 
*I *5:g B *C 1.2625 1.3725 
*N *3:2 *C 1.2900 0.8200 
*N *3:4 *C 1.2900 0.8200 

*CAP
0 *5:g 6.08002e-17
1 *35:g 4.24793e-17
2 *3:2 7.88009e-17
3 *3 7.00483e-17

*RES
0 *5:g *3:2 105.589386  // $poly_conn
1 *3:2 *35:g 90.204765  // $poly_conn
2 *3:4 *3 0.02182  // $metal1_conn
3 *3:2 *3:4 45  // $metal1_conn

*END

*D_NET *17 4.96532e-16

*CONN
*P *17 I *C 0.3000 1.0450 
*I *32:g B *C 0.3575 0.3625 
*I *33:g B *C 0.9325 0.3625 
*I *23:g B *C 0.3575 1.3725 
*I *27:g B *C 0.8375 1.3725 
*N *17:2 *C 0.3300 1.1100 
*N *17:5 *C 0.8000 1.0200 
*N *17:7 *C 0.3300 1.1100 

*CAP
0 *27:g 4.02817e-17
1 *23:g 2.98832e-17
2 *33:g 6.53967e-17
3 *32:g 5.2754e-17
4 *17:2 1.32069e-16
5 *17:5 1.38843e-16
6 *17 3.73049e-17

*RES
0 *23:g *17:2 31.230413  // $poly_conn
1 *17:2 *32:g 164.563751  // $poly_conn
2 *33:g *17:5 159.959152  // $poly_conn
3 *17:5 *27:g 53.334705  // $poly_conn
4 *17:5 *17:7 45.554615  // $metal1_conn
5 *17:7 *17 0.036198  // $metal1_conn
6 *17:2 *17:7 45  // $metal1_conn

*END

*D_NET *11 4.87446e-16

*CONN
*P *11 O *C 2.3000 0.8550 
*I *26:d B *C 2.0600 0.4450 
*I *28:d B *C 2.0600 0.4450 
*I *29:d B *C 2.4700 0.4450 
*I *30:d B *C 2.4700 0.4450 
*I *31:d B *C 2.8700 0.4450 
*I *18:d B *C 2.0600 1.2450 
*I *19:d B *C 2.0600 1.2450 
*I *20:d B *C 2.4700 1.2450 
*I *21:d B *C 2.4700 1.2450 
*I *22:d B *C 2.8700 1.2450 

*CAP
0 *11 4.87446e-16


*END

*D_NET *10 5.1952e-18

*CONN
*I *33:s B *C 1.0975 0.3625 
*I *35:d B *C 1.0975 0.3625 

*CAP
0 *33:s 5.1952e-18

*RES
0 *35:d *33:s 0.001  // $mwires

*END

*D_NET *9 0

*CONN
*I *34:d B *C 0.6150 0.3625 
*I *36:s B *C 0.6150 0.3625 


*RES
0 *36:s *34:d 0.001  // $mwires

*END

*D_NET *8 1.6226e-18

*CONN
*I *4:s B *C 1.1775 1.3725 
*I *5:d B *C 1.1775 1.3725 

*CAP
0 *4:s 1.6226e-18

*RES
0 *5:d *4:s 0.001  // $mwires

*END

*D_NET *7 3.06907e-20

*CONN
*I *25:d B *C 0.7000 1.3725 
*I *27:s B *C 0.7000 1.3725 

*CAP
0 *25:d 3.06907e-20

*RES
0 *27:s *25:d 0.001  // $mwires

*END

*D_NET *14 4.80054e-16

*CONN
*I *24:d B *C 1.6000 0.4200 
*I *26:g B *C 1.9575 0.4450 
*I *28:g B *C 2.1625 0.4450 
*I *29:g B *C 2.3675 0.4450 
*I *30:g B *C 2.5725 0.4450 
*I *31:g B *C 2.7775 0.4450 
*I *37:d B *C 1.6000 0.4200 
*I *16:d B *C 1.6000 1.2850 
*I *18:g B *C 1.9575 1.2450 
*I *19:g B *C 2.1625 1.2450 
*I *20:g B *C 2.3675 1.2450 
*I *21:g B *C 2.5725 1.2450 
*I *22:g B *C 2.7775 1.2450 
*I *6:d B *C 1.6000 1.2850 
*N *14:7 *C 1.8700 0.7300 
*N *14:17 *C 1.6950 0.7300 

*CAP
0 *22:g 2.77844e-16
1 *16:d 7.99849e-17
2 *24:d 3.41754e-17
3 *14:17 5.23211e-17
4 *14:7 3.57285e-17

*RES
0 *22:g *14:7 51.346462  // $poly_conn
1 *14:7 *14:17 0.097694  // $metal1_conn
2 *14:17 *16:d 21.105015  // $metal1_conn
3 *14:17 *24:d 75.247169  // $metal1_conn

*END

*D_NET *13 5.79758e-16

*CONN
*I *32:d B *C 0.2650 0.3625 
*I *36:g B *C 0.6675 0.3625 
*I *23:d B *C 0.2225 1.3725 
*I *4:g B *C 1.0925 1.3725 
*N *13:2 *C 0.7900 0.5700 
*N *13:4 *C 0.9700 1.1350 
*N *13:5 *C 0.1300 0.6000 

*CAP
0 *4:g 4.11925e-17
1 *23:d 7.81106e-17
2 *36:g 5.94521e-17
3 *32:d 3.14274e-17
4 *13:5 5.34687e-17
5 *13:2 1.83849e-16
6 *13:4 1.32258e-16

*RES
0 *36:g *13:2 89.547165  // $poly_conn
1 *4:g *13:4 83.003174  // $poly_conn
2 *13:4 *13:2 0.511052  // $metal1_conn
3 *13:2 *13:5 0.45553  // $metal1_conn
4 *13:5 *23:d 62.552666  // $metal1_conn
5 *13:5 *32:d 75.221107  // $metal1_conn

*END

*D_NET *12 5.44053e-16

*CONN
*I *24:g B *C 1.7025 0.4200 
*I *36:d B *C 0.8000 0.3625 
*I *33:d B *C 0.8000 0.3625 
*I *37:g B *C 1.4975 0.4200 
*I *16:g B *C 1.7025 1.2850 
*I *27:d B *C 0.9650 1.3725 
*I *4:d B *C 0.9650 1.3725 
*I *6:g B *C 1.4975 1.2850 
*N *12:8 *C 1.1300 0.6300 

*CAP
0 *27:d 8.81336e-17
1 *16:g 2.55801e-16
2 *36:d 5.54573e-17
3 *12:8 1.44661e-16

*RES
0 *27:d *12:8 62.613083  // $metal1_conn
1 *12:8 *36:d 75.390099  // $metal1_conn
2 *12:8 *16:g 45.25967  // $metal1_conn

*END

