*SPEF "IEEE 1481-1999"
*DESIGN  "MXI2X4"
*DATE "Mon Sep 27 10:01:54 2010"
*VENDOR "Cadence Design Systems"
*PROGRAM "Assura RCX"
*VERSION "3.2 Red Hat Linux release 7.2 (Enigma) - (09/09/2009-10:39)"
*DESIGN_FLOW "Physical Verification"
*DIVIDER /
*DELIMITER :
*BUS_DELIMITER []
*T_UNIT 1 PS
*C_UNIT 1e15 FF
*R_UNIT 1 OHM
*L_UNIT 1 MH
// DeviceFingerDelim "@"
// MATCHED
// caps2d version: 10

*NAME_MAP
*1 VDD
*2 mn0
*3 mn1
*4 mn2
*5 mn4
*6 mn3
*7 VSS
*8 mp5
*9 mn6
*10 mn6\@1
*11 mn6\@2
*12 mn6\@3
*13 A
*14 B
*15 n4
*16 S0
*17 n6
*18 n3
*19 n5
*20 n1
*21 Y
*22 S0b
*23 mp0
*24 n0
*25 mp1
*26 mp2
*27 mp4
*28 mp3
*29 mp6
*30 mp6\@1
*31 mp6\@2
*32 mp6\@3
*33 mn5

*GROUND_NETS VSS

*PORTS
*1 I
*7 I
*13 I
*14 I
*16 I
*21 O

*D_NET *1 4.52011e-16

*CONN
*P *1 I *C 0.1000 1.7100 
*I *23:s B *C 0.4125 1.2425 
*I *25:s B *C 0.4125 1.2425 
*I *28:s B *C 1.6050 1.1550 
*I *29:s B *C 1.6050 1.1550 
*I *30:s B *C 1.9850 1.1550 
*I *31:s B *C 1.9850 1.1550 
*I *32:s B *C 2.4200 1.1550 
*I *8:s B *C 2.4200 1.1550 
*N *1:2 *C 2.3000 1.7100 
*N *1:6 *C 0.8000 1.7100 
*N *1:7 *C 0.3850 1.7100 

*CAP
0 *32:s 2.12845e-16
1 *23:s 3.45145e-17
2 *1:7 9.26835e-18
3 *1:2 1.90751e-16
4 *1 4.63274e-18

*RES
0 *1:7 *1 0.142452  // $metal1_conn
1 *1:2 *32:s 10.714286  // $metal1_conn
2 *1:2 *1:6 9.375  // $metal1_conn
3 *1:7 *23:s 62.261486  // $metal1_conn
4 *32:s *1:6 0.388388  // $metal1_conn
5 *1:6 *1:7 0.207885  // $metal1_conn

*END

*D_NET *7 0

*CONN
*P *7 I *C 0.1000 0.0000 
*I *2:s B *C 0.4400 0.3325 
*I *3:s B *C 0.4400 0.3325 
*I *6:s B *C 1.6550 0.3900 
*I *9:s B *C 1.6550 0.3900 
*I *10:s B *C 2.1500 0.3900 
*I *11:s B *C 2.1500 0.3900 
*I *12:s B *C 2.6000 0.3900 
*I *33:s B *C 2.6000 0.3900 
*N *7:2 *C 2.3000 0.0000 
*N *7:6 *C 0.8000 0.0000 
*N *7:7 *C 0.4400 0.0000 


*RES
0 *7:7 *7 0.170029  // $metal1_conn
1 *7:2 *12:s 8.857142  // $metal1_conn
2 *7:2 *7:6 7.75  // $metal1_conn
3 *7:7 *2:s 75.197052  // $metal1_conn
4 *12:s *7:6 0.340755  // $metal1_conn
5 *7:6 *7:7 0.180308  // $metal1_conn

*END

*D_NET *13 2.49669e-16

*CONN
*P *13 I *C 0.5000 0.8550 
*I *3:g B *C 0.5425 0.3325 
*I *25:g B *C 0.5425 1.2425 
*N *13:2 *C 0.5150 0.7000 

*CAP
0 *25:g 5.06573e-17
1 *3:g 3.79141e-17
2 *13:2 1.03878e-16
3 *13 5.72189e-17

*RES
0 *25:g *13:2 103.025291  // $poly_conn
1 *13:2 *3:g 67.127846  // $poly_conn
2 *13:2 *13 45.039383  // $metal1_conn

*END

*D_NET *14 2.57109e-16

*CONN
*P *14 I *C 1.5000 1.0450 
*I *6:g B *C 1.3475 0.3325 
*I *28:g B *C 1.4425 1.2425 
*N *14:2 *C 1.4800 0.8600 

*CAP
0 *28:g 3.92355e-17
1 *6:g 6.12923e-17
2 *14:2 1.56581e-16

*RES
0 *28:g *14:2 61.027016  // $poly_conn
1 *14:2 *6:g 126.625824  // $poly_conn
2 *14 *14:2 45.002705  // $metal1_conn

*END

*D_NET *16 5.43334e-16

*CONN
*P *16 I *C 0.3000 1.0450 
*I *2:g B *C 0.3375 0.3325 
*I *5:g B *C 1.1975 0.3325 
*I *23:g B *C 0.2825 1.2425 
*I *26:g B *C 0.8125 1.2425 
*N *16:2 *C 0.3100 1.0250 
*N *16:5 *C 0.8400 0.9850 
*N *16:7 *C 1.1600 0.6550 

*CAP
0 *26:g 4.30703e-17
1 *23:g 2.34593e-17
2 *5:g 5.37904e-17
3 *2:g 5.50139e-17
4 *16:2 1.16413e-16
5 *16:5 1.305e-16
6 *16:7 1.21087e-16

*RES
0 *2:g *16:2 150.461182  // $poly_conn
1 *16:2 *23:g 19.691952  // $poly_conn
2 *26:g *16:5 74.948364  // $poly_conn
3 *5:g *16:7 99.61676  // $poly_conn
4 *16:7 *16:5 0.500594  // $metal1_conn
5 *16:5 *16 0.494896  // $metal1_conn
6 *16 *16:2 45.013329  // $metal1_conn

*END

*D_NET *21 3.22851e-16

*CONN
*P *21 O *C 1.9000 0.8550 
*I *9:d B *C 1.8300 0.3900 
*I *10:d B *C 1.8300 0.3900 
*I *11:d B *C 2.3075 0.3900 
*I *12:d B *C 2.3075 0.3900 
*I *29:d B *C 1.7800 1.1550 
*I *30:d B *C 1.7800 1.1550 
*I *31:d B *C 2.2025 1.1550 
*I *32:d B *C 2.2025 1.1550 

*CAP
0 *9:d 1.20209e-16
1 *21 2.02642e-16

*RES
0 *9:d *21 0.233862  // $metal1_conn

*END

*D_NET *19 3.45163e-18

*CONN
*I *5:s B *C 1.2725 0.3325 
*I *6:d B *C 1.2725 0.3325 

*CAP
0 *5:s 3.45163e-18

*RES
0 *6:d *5:s 0.001  // $mwires

*END

*D_NET *18 0

*CONN
*I *3:d B *C 0.7575 0.3325 
*I *4:s B *C 0.7575 0.3325 


*RES
0 *4:s *3:d 0.001  // $mwires

*END

*D_NET *17 1.083e-17

*CONN
*I *27:s B *C 1.2350 1.2425 
*I *28:d B *C 1.2350 1.2425 

*CAP
0 *27:s 1.083e-17

*RES
0 *28:d *27:s 0.001  // $mwires

*END

*D_NET *15 0

*CONN
*I *25:d B *C 0.6775 1.2425 
*I *26:s B *C 0.6775 1.2425 


*RES
0 *26:s *25:d 0.001  // $mwires

*END

*D_NET *24 6.9003e-16

*CONN
*I *4:d B *C 1.0850 0.3325 
*I *5:d B *C 1.0850 0.3325 
*I *33:g B *C 2.7825 0.3900 
*I *26:d B *C 0.9200 1.2425 
*I *27:d B *C 0.9200 1.2425 
*I *8:g B *C 2.5225 1.1550 
*N *24:2 *C 2.5600 0.6450 
*N *24:4 *C 1.3200 0.5100 

*CAP
0 *8:g 5.23667e-17
1 *26:d 9.25348e-17
2 *33:g 3.18711e-17
3 *4:d 3.15652e-17
4 *24:4 2.5466e-16
5 *24:2 2.27032e-16

*RES
0 *33:g *24:2 64.462173  // $poly_conn
1 *24:2 *8:g 71.283424  // $poly_conn
2 *24:2 *24:4 46.262257  // $metal1_conn
3 *24:4 *26:d 62.80426  // $metal1_conn
4 *24:4 *4:d 75.258354  // $metal1_conn

*END

*D_NET *22 4.10201e-16

*CONN
*I *2:d B *C 0.2450 0.3325 
*I *4:g B *C 0.9725 0.3325 
*I *23:d B *C 0.1750 1.2425 
*I *27:g B *C 1.0275 1.2425 
*N *22:2 *C 1.0000 0.8250 
*N *22:4 *C 0.2350 0.5100 

*CAP
0 *27:g 4.13012e-17
1 *23:d 5.55817e-17
2 *4:g 4.09548e-17
3 *2:d 2.06181e-17
4 *22:4 1.17668e-16
5 *22:2 1.34077e-16

*RES
0 *27:g *22:2 70.973999  // $poly_conn
1 *22:2 *4:g 99.179131  // $poly_conn
2 *22:2 *22:4 45.76786  // $metal1_conn
3 *22:4 *23:d 62.584076  // $metal1_conn
4 *22:4 *2:d 75.092239  // $metal1_conn

*END

*D_NET *20 4.58589e-16

*CONN
*I *9:g B *C 1.7275 0.3900 
*I *10:g B *C 1.9325 0.3900 
*I *11:g B *C 2.1975 0.3900 
*I *12:g B *C 2.4175 0.3900 
*I *33:d B *C 2.8750 0.3900 
*I *29:g B *C 1.6775 1.1550 
*I *30:g B *C 1.8825 1.1550 
*I *31:g B *C 2.0875 1.1550 
*I *32:g B *C 2.3175 1.1550 
*I *8:d B *C 2.6150 1.1550 
*N *20:17 *C 2.6250 0.8350 

*CAP
0 *8:d 4.27681e-17
1 *32:g 3.24169e-16
2 *33:d 4.54631e-17
3 *20:17 4.61889e-17

*RES
0 *20:17 *32:g 45.182919  // $metal1_conn
1 *20:17 *8:d 20.880035  // $metal1_conn
2 *33:d *20:17 75.418449  // $metal1_conn

*END

