*SPEF "IEEE 1481-1999"
*DESIGN  "MXI2X1"
*DATE "Mon Sep 27 10:01:09 2010"
*VENDOR "Cadence Design Systems"
*PROGRAM "Assura RCX"
*VERSION "3.2 Red Hat Linux release 7.2 (Enigma) - (09/09/2009-10:39)"
*DESIGN_FLOW "Physical Verification"
*DIVIDER /
*DELIMITER :
*BUS_DELIMITER []
*T_UNIT 1 PS
*C_UNIT 1e15 FF
*R_UNIT 1 OHM
*L_UNIT 1 MH
// DeviceFingerDelim "@"
// MATCHED
// caps2d version: 10

*NAME_MAP
*1 mp3
*2 mp0
*3 mn1
*4 Y
*5 mn2
*6 mn4
*7 mn3
*8 mn0
*9 S0b
*10 n3
*11 A
*12 VDD
*13 n4
*14 n5
*15 B
*16 n6
*17 S0
*18 VSS
*19 mp1
*20 mp2
*21 mp4

*GROUND_NETS VSS

*PORTS
*12 I
*18 I
*11 I
*15 I
*17 I
*4 O

*D_NET *12 1.9006e-16

*CONN
*P *12 I *C 0.1000 1.7100 
*I *19:s B *C 0.2950 1.1700 
*I *1:s B *C 1.1650 1.2575 
*I *2:s B *C 1.1650 1.2575 
*N *12:2 *C 0.8000 1.7100 
*N *12:3 *C 0.8000 1.7100 
*N *12:4 *C 0.2850 1.7100 

*CAP
0 *1:s 3.38742e-17
1 *19:s 3.7158e-17
2 *12:4 5.7625e-18
3 *12:2 1.13265e-16

*RES
0 *1:s *12:3 62.439499  // $metal1_conn
1 *12:3 *12:4 0.257766  // $metal1_conn
2 *12:4 *12 0.09222  // $metal1_conn
3 *12:4 *19:s 62.286129  // $metal1_conn
4 *12:2 *12:3 9.375  // $metal1_conn

*END

*D_NET *18 0

*CONN
*P *18 I *C 0.1000 0.0000 
*I *3:s B *C 0.2950 0.4450 
*I *7:s B *C 1.1900 0.4775 
*I *8:s B *C 1.1900 0.4775 
*N *18:2 *C 0.8000 0.0000 
*N *18:3 *C 0.8000 0.0000 
*N *18:4 *C 0.2850 0.0000 


*RES
0 *7:s *18:3 75.51667  // $metal1_conn
1 *18:3 *18:4 0.257766  // $metal1_conn
2 *18:4 *18 0.09222  // $metal1_conn
3 *18:4 *3:s 75.230484  // $metal1_conn
4 *18:2 *18:3 7.75  // $metal1_conn

*END

*D_NET *11 1.90749e-16

*CONN
*P *11 I *C 0.3000 0.6650 
*I *3:g B *C 0.3875 0.4450 
*I *19:g B *C 0.3875 1.1700 
*N *11:2 *C 0.3875 0.6850 
*N *11:3 *C 0.3100 0.6850 

*CAP
0 *19:g 5.13419e-17
1 *3:g 2.07756e-17
2 *11:2 2.35299e-17
3 *11:3 6.66628e-17
4 *11 2.84388e-17

*RES
0 *19:g *11:2 71.047935  // $poly_conn
1 *11:2 *11:3 47.445099  // $poly_conn
2 *11:2 *3:g 24.894089  // $poly_conn
3 *11 *11:3 0.012415  // $metal1_conn

*END

*D_NET *15 3.35551e-16

*CONN
*P *15 I *C 1.1000 0.8550 
*I *7:g B *C 1.0325 0.4450 
*I *1:g B *C 1.0125 1.1700 
*N *15:2 *C 1.0600 0.8450 

*CAP
0 *1:g 6.05738e-17
1 *7:g 8.5102e-17
2 *15:2 1.02221e-16
3 *15 8.76532e-17

*RES
0 *7:g *15:2 57.555679  // $poly_conn
1 *15:2 *1:g 25.162249  // $poly_conn
2 *15:2 *15 45.013916  // $metal1_conn

*END

*D_NET *17 6.55423e-16

*CONN
*P *17 I *C 1.3000 0.6650 
*I *6:g B *C 0.9275 0.4450 
*I *8:g B *C 1.2475 0.4775 
*I *20:g B *C 0.5675 1.1700 
*I *2:g B *C 1.2175 1.2575 
*N *17:2 *C 0.5300 0.8750 
*N *17:4 *C 0.8900 0.6750 
*N *17:6 *C 1.2200 0.6850 
*N *17:8 *C 0.9850 0.6750 
*N *17:9 *C 1.2200 0.6850 

*CAP
0 *2:g 5.34346e-17
1 *20:g 4.23623e-17
2 *8:g 3.04071e-17
3 *6:g 6.42162e-17
4 *17:8 1.09934e-16
5 *17:2 1.65627e-16
6 *17:4 7.0955e-17
7 *17:6 8.49191e-17
8 *17 3.35685e-17

*RES
0 *20:g *17:2 61.15522  // $poly_conn
1 *6:g *17:4 61.15522  // $poly_conn
2 *8:g *17:6 26.102209  // $poly_conn
3 *17:6 *2:g 108.960976  // $poly_conn
4 *17:4 *17:8 0.074398  // $metal1_conn
5 *17:8 *17:2 0.899415  // $metal1_conn
6 *17:8 *17:9 0.181317  // $metal1_conn
7 *17:9 *17 0.04849  // $metal1_conn
8 *17:6 *17:9 45  // $metal1_conn

*END

*D_NET *4 1.9103e-16

*CONN
*P *4 O *C 0.7000 0.8550 
*I *5:d B *C 0.8100 0.4450 
*I *6:d B *C 0.8100 0.4450 
*I *20:d B *C 0.7000 1.1700 
*I *21:d B *C 0.7000 1.1700 

*CAP
0 *20:d 4.33499e-17
1 *5:d 6.68969e-17
2 *4 8.07831e-17

*RES
0 *5:d *4 75.321198  // $metal1_conn
1 *4 *20:d 20.89333  // $metal1_conn

*END

*D_NET *14 2.2582e-18

*CONN
*I *6:s B *C 0.9800 0.4450 
*I *7:d B *C 0.9800 0.4450 

*CAP
0 *6:s 2.2582e-18

*RES
0 *7:d *6:s 0.001  // $mwires

*END

*D_NET *10 1.45682e-17

*CONN
*I *3:d B *C 0.5400 0.4450 
*I *5:s B *C 0.5400 0.4450 

*CAP
0 *3:d 1.45682e-17

*RES
0 *5:s *3:d 0.001  // $mwires

*END

*D_NET *16 4.33709e-18

*CONN
*I *21:s B *C 0.9225 1.1700 
*I *1:d B *C 0.9225 1.1700 

*CAP
0 *21:s 4.33709e-18

*RES
0 *1:d *21:s 0.001  // $mwires

*END

*D_NET *13 7.63645e-20

*CONN
*I *19:d B *C 0.4775 1.1700 
*I *20:s B *C 0.4775 1.1700 

*CAP
0 *19:d 7.63645e-20

*RES
0 *20:s *19:d 0.001  // $mwires

*END

*D_NET *9 4.23504e-16

*CONN
*I *5:g B *C 0.6925 0.4450 
*I *8:d B *C 1.3400 0.4775 
*I *21:g B *C 0.8325 1.1700 
*I *2:d B *C 1.3100 1.2575 
*N *9:2 *C 0.8700 0.8750 
*N *9:5 *C 1.3200 1.1150 

*CAP
0 *2:d 1.29625e-17
1 *21:g 4.06223e-17
2 *8:d 7.88653e-17
3 *5:g 6.2247e-17
4 *9:5 1.01479e-16
5 *9:2 1.27328e-16

*RES
0 *21:g *9:2 16.15522  // $poly_conn
1 *9:2 *5:g 86.592667  // $poly_conn
2 *8:d *9:5 75.696587  // $metal1_conn
3 *9:5 *9:2 45.50235  // $metal1_conn
4 *9:5 *2:d 62.049091  // $metal1_conn

*END

