*SPEF "IEEE 1481-1999"
*DESIGN  "MXI2X2"
*DATE "Mon Sep 27 10:01:31 2010"
*VENDOR "Cadence Design Systems"
*PROGRAM "Assura RCX"
*VERSION "3.2 Red Hat Linux release 7.2 (Enigma) - (09/09/2009-10:39)"
*DESIGN_FLOW "Physical Verification"
*DIVIDER /
*DELIMITER :
*BUS_DELIMITER []
*T_UNIT 1 PS
*C_UNIT 1e15 FF
*R_UNIT 1 OHM
*L_UNIT 1 MH
// DeviceFingerDelim "@"
// MATCHED
// caps2d version: 10

*NAME_MAP
*1 mp1
*2 mn5
*3 mp2
*4 mp4
*5 VDD
*6 mp3
*7 n4
*8 mp6
*9 n6
*10 mp6\@1
*11 n3
*12 mp5
*13 n5
*14 Y
*15 n1
*16 S0b
*17 n0
*18 S0
*19 A
*20 B
*21 VSS
*22 mn0
*23 mn1
*24 mn2
*25 mn4
*26 mn3
*27 mn6
*28 mp0
*29 mn6\@1

*GROUND_NETS VSS

*PORTS
*5 I
*21 I
*19 I
*20 I
*18 I
*14 O

*D_NET *5 3.24815e-16

*CONN
*P *5 I *C 0.1000 1.7100 
*I *28:s B *C 0.5400 1.2275 
*I *1:s B *C 0.5400 1.2275 
*I *6:s B *C 1.7150 1.1400 
*I *8:s B *C 1.7150 1.1400 
*I *10:s B *C 2.1675 1.0525 
*I *12:s B *C 2.1675 1.0525 
*N *5:2 *C 2.0000 1.7100 
*N *5:5 *C 0.7000 1.7100 
*N *5:6 *C 0.4400 1.7100 

*CAP
0 *10:s 8.43489e-17
1 *28:s 3.90603e-17
2 *5:6 5.41216e-18
3 *5:2 1.85158e-16
4 *5 1.08352e-17

*RES
0 *5:6 *5 0.169435  // $metal1_conn
1 *5:2 *10:s 12.5  // $metal1_conn
2 *5:2 *5:5 10.714286  // $metal1_conn
3 *5:6 *28:s 62.272823  // $metal1_conn
4 *10:s *5:5 0.491957  // $metal1_conn
5 *5:5 *5:6 0.129713  // $metal1_conn

*END

*D_NET *21 0

*CONN
*P *21 I *C 0.1000 0.0000 
*I *22:s B *C 0.5400 0.3925 
*I *23:s B *C 0.5400 0.3925 
*I *26:s B *C 1.7000 0.4500 
*I *27:s B *C 1.7000 0.4500 
*I *29:s B *C 2.1950 0.5075 
*I *2:s B *C 2.1950 0.5075 
*N *21:2 *C 2.0000 0.0000 
*N *21:5 *C 0.7000 0.0000 
*N *21:6 *C 0.4400 0.0000 


*RES
0 *21:6 *21 0.169435  // $metal1_conn
1 *21:2 *29:s 10.333333  // $metal1_conn
2 *21:2 *21:5 8.857142  // $metal1_conn
3 *21:6 *22:s 75.234703  // $metal1_conn
4 *29:s *21:5 0.427003  // $metal1_conn
5 *21:5 *21:6 0.129713  // $metal1_conn

*END

*D_NET *19 2.43311e-16

*CONN
*P *19 I *C 0.5000 0.8550 
*I *23:g B *C 0.7425 0.3925 
*I *1:g B *C 0.7425 1.2275 
*N *19:2 *C 0.7150 0.7600 

*CAP
0 *1:g 5.64309e-17
1 *23:g 3.33462e-17
2 *19:2 1.0435e-16
3 *19 4.91843e-17

*RES
0 *1:g *19:2 83.79451  // $poly_conn
1 *19:2 *23:g 67.127846  // $poly_conn
2 *19:2 *19 45.117638  // $metal1_conn

*END

*D_NET *20 2.09865e-16

*CONN
*P *20 I *C 1.5000 0.8550 
*I *26:g B *C 1.4525 0.3925 
*I *6:g B *C 1.4525 1.2275 
*N *20:2 *C 1.4900 0.8100 

*CAP
0 *6:g 3.73971e-17
1 *26:g 3.86554e-17
2 *20:2 1.33813e-16

*RES
0 *6:g *20:2 70.001373  // $poly_conn
1 *20:2 *26:g 78.975731  // $poly_conn
2 *20 *20:2 45.001621  // $metal1_conn

*END

*D_NET *18 5.19876e-16

*CONN
*P *18 I *C 0.3000 1.0450 
*I *22:g B *C 0.3375 0.3925 
*I *25:g B *C 1.2075 0.3925 
*I *28:g B *C 0.3375 1.2275 
*I *3:g B *C 0.8675 1.2275 
*N *18:2 *C 0.3100 1.0100 
*N *18:5 *C 0.8950 0.9000 
*N *18:7 *C 1.1700 0.7600 

*CAP
0 *3:g 4.92107e-17
1 *28:g 2.13291e-17
2 *25:g 4.08278e-17
3 *22:g 3.93547e-17
4 *18:2 5.75647e-17
5 *18:5 1.31856e-16
6 *18:7 1.07256e-16
7 *18 7.24776e-17

*RES
0 *28:g *18:2 19.691952  // $poly_conn
1 *18:2 *22:g 131.230423  // $poly_conn
2 *3:g *18:5 92.897079  // $poly_conn
3 *25:g *18:7 111.15522  // $poly_conn
4 *18:7 *18:5 0.267031  // $metal1_conn
5 *18:5 *18 0.566817  // $metal1_conn
6 *18 *18:2 45.020897  // $metal1_conn

*END

*D_NET *14 1.43862e-16

*CONN
*P *14 O *C 1.9000 0.6650 
*I *27:d B *C 1.8750 0.4500 
*I *29:d B *C 1.8750 0.4500 
*I *8:d B *C 1.8900 1.1400 
*I *10:d B *C 1.8900 1.1400 
*N *14:3 *C 1.8750 0.5200 

*CAP
0 *8:d 6.56307e-17
1 *27:d 3.50679e-17
2 *14 4.31635e-17

*RES
0 *8:d *14 20.987768  // $metal1_conn
1 *14 *14:3 0.092243  // $metal1_conn
2 *27:d *14:3 75  // $metal1_conn

*END

*D_NET *13 3.95278e-18

*CONN
*I *25:s B *C 1.3300 0.3925 
*I *26:d B *C 1.3300 0.3925 

*CAP
0 *25:s 3.95278e-18

*RES
0 *26:d *25:s 0.001  // $mwires

*END

*D_NET *11 0

*CONN
*I *23:d B *C 0.8725 0.3925 
*I *24:s B *C 0.8725 0.3925 


*RES
0 *24:s *23:d 0.001  // $mwires

*END

*D_NET *9 7.24963e-19

*CONN
*I *4:s B *C 1.3050 1.2275 
*I *6:d B *C 1.3050 1.2275 

*CAP
0 *4:s 7.24963e-19

*RES
0 *6:d *4:s 0.001  // $mwires

*END

*D_NET *7 0

*CONN
*I *1:d B *C 0.8050 1.2275 
*I *3:s B *C 0.8050 1.2275 


*RES
0 *3:s *1:d 0.001  // $mwires

*END

*D_NET *17 4.91544e-16

*CONN
*I *24:d B *C 1.1050 0.3925 
*I *25:d B *C 1.1050 0.3925 
*I *2:g B *C 2.2425 0.5075 
*I *3:d B *C 1.0125 1.2275 
*I *4:d B *C 1.0125 1.2275 
*I *12:g B *C 2.2425 1.0525 
*N *17:1 *C 2.3000 0.3250 
*N *17:5 *C 1.3300 0.5700 

*CAP
0 *12:g 4.58057e-17
1 *3:d 8.79604e-17
2 *2:g 3.33178e-17
3 *24:d 3.14314e-17
4 *17:5 1.62113e-16
5 *17:1 1.30916e-16

*RES
0 *17:1 *2:g 66.323036  // $poly_conn
1 *2:g *12:g 93.589745  // $poly_conn
2 *24:d *17:5 75.24514  // $metal1_conn
3 *17:5 *3:d 62.623604  // $metal1_conn
4 *17:5 *17:1 0.846339  // $metal1_conn

*END

*D_NET *16 4.05908e-16

*CONN
*I *22:d B *C 0.2450 0.3925 
*I *24:g B *C 1.0025 0.3925 
*I *28:d B *C 0.2450 1.2275 
*I *4:g B *C 1.1575 1.2275 
*N *16:2 *C 0.9750 0.6000 
*N *16:5 *C 0.2350 0.5700 

*CAP
0 *4:g 6.29244e-17
1 *28:d 7.3278e-17
2 *24:g 2.98377e-17
3 *22:d 1.93085e-17
4 *16:5 8.28279e-17
5 *16:2 1.37731e-16

*RES
0 *4:g *16:2 146.895813  // $poly_conn
1 *16:2 *24:g 26.444298  // $poly_conn
2 *22:d *16:5 75.092941  // $metal1_conn
3 *16:5 *28:d 62.595081  // $metal1_conn
4 *16:5 *16:2 45.503025  // $metal1_conn

*END

*D_NET *15 2.69456e-16

*CONN
*I *27:g B *C 1.7725 0.4500 
*I *29:g B *C 1.9775 0.4500 
*I *2:d B *C 2.3350 0.5075 
*I *8:g B *C 1.7875 1.1400 
*I *10:g B *C 1.9925 1.1400 
*I *12:d B *C 2.3350 1.0525 
*N *15:6 *C 2.1000 0.7050 
*N *15:9 *C 2.3150 0.7050 

*CAP
0 *12:d 1.7302e-17
1 *10:g 1.52022e-16
2 *2:d 2.58836e-17
3 *15:9 2.46005e-17
4 *15:6 4.96478e-17

*RES
0 *10:g *15:6 54.299767  // $poly_conn
1 *15:9 *15:6 0.13149  // $metal1_conn
2 *12:d *15:9 62.211754  // $metal1_conn
3 *15:9 *2:d 75.118507  // $metal1_conn

*END

