*SPEF "IEEE 1481-1999"
*DESIGN  "MXI3X4"
*DATE "Mon Sep 27 10:04:09 2010"
*VENDOR "Cadence Design Systems"
*PROGRAM "Assura RCX"
*VERSION "3.2 Red Hat Linux release 7.2 (Enigma) - (09/09/2009-10:39)"
*DESIGN_FLOW "Physical Verification"
*DIVIDER /
*DELIMITER :
*BUS_DELIMITER []
*T_UNIT 1 PS
*C_UNIT 1e15 FF
*R_UNIT 1 OHM
*L_UNIT 1 MH
// DeviceFingerDelim "@"
// MATCHED
// caps2d version: 10

*NAME_MAP
*1 VDD
*2 Y
*3 mp11
*4 mp11\@1
*5 mp11\@2
*6 S1b
*7 mp2
*8 mp3
*9 mp5
*10 mp4
*11 mp0
*12 mp1
*13 mp6
*14 mp9
*15 mp10
*16 mp8
*17 mp7
*18 mp11\@3
*19 mn6
*20 mn1
*21 mn9
*22 mn10
*23 mn8
*24 S0
*25 mn7
*26 S1
*27 VSS
*28 Cp
*29 S0b
*30 n1
*31 mn11
*32 n0
*33 mn11\@1
*34 n9
*35 mn11\@2
*36 n7
*37 A
*38 mn2
*39 n3
*40 B
*41 mn3
*42 n5
*43 C
*44 mn5
*45 n8
*46 mn4
*47 n6
*48 mn0
*49 mn11\@3
*50 n2
*51 n4

*GROUND_NETS VSS

*PORTS
*1 I
*27 I
*37 I
*40 I
*43 I
*24 I
*26 I
*2 O

*D_NET *1 5.5861e-16

*CONN
*P *1 I *C 0.1000 1.7100 
*I *3:s B *C 2.2500 1.1550 
*I *4:s B *C 2.2500 1.1550 
*I *5:s B *C 2.7450 1.2175 
*I *7:s B *C 2.7450 1.2175 
*I *10:s B *C 3.5200 1.2175 
*I *11:s B *C 3.5200 1.2175 
*I *13:s B *C 0.1900 1.0075 
*I *12:s B *C 0.9350 1.1950 
*I *14:s B *C 0.9350 1.1950 
*I *17:s B *C 1.7700 1.1550 
*I *18:s B *C 1.7700 1.1550 
*N *1:2 *C 3.0000 1.7100 
*N *1:3 *C 3.0000 1.7100 
*N *1:7 *C 1.0000 1.7100 
*N *1:8 *C 0.9250 1.7100 
*N *1:9 *C 0.1800 1.7100 

*CAP
0 *12:s 2.3857e-17
1 *13:s 2.20483e-17
2 *10:s 4.32907e-17
3 *5:s 2.22632e-16
4 *1:9 8.25303e-18
5 *1:8 2.58295e-17
6 *1:2 2.12699e-16

*RES
0 *1:9 *1 0.039644  // $metal1_conn
1 *1:2 *1:3 7.5  // $metal1_conn
2 *1:2 *1:7 7.5  // $metal1_conn
3 *10:s *1:3 62.576019  // $metal1_conn
4 *1:8 *12:s 62.260357  // $metal1_conn
5 *1:9 *13:s 62.416508  // $metal1_conn
6 *1:3 *5:s 0.170223  // $metal1_conn
7 *5:s *1:7 0.38074  // $metal1_conn
8 *1:7 *1:8 0.037471  // $metal1_conn
9 *1:8 *1:9 0.373026  // $metal1_conn

*END

*D_NET *27 0

*CONN
*P *27 I *C 0.1000 0.0000 
*I *31:s B *C 2.4000 0.4300 
*I *33:s B *C 2.4000 0.4300 
*I *35:s B *C 2.8700 0.4775 
*I *38:s B *C 2.8700 0.4775 
*I *46:s B *C 3.5750 0.4775 
*I *48:s B *C 3.5750 0.4775 
*I *49:s B *C 1.8900 0.4300 
*I *19:s B *C 0.2350 0.5625 
*I *20:s B *C 0.9450 0.4025 
*I *21:s B *C 0.9450 0.4025 
*I *25:s B *C 1.8900 0.4300 
*N *27:2 *C 3.0000 0.0000 
*N *27:3 *C 3.0000 0.0000 
*N *27:7 *C 1.0000 0.0000 
*N *27:8 *C 0.9350 0.0000 
*N *27:9 *C 0.2200 0.0000 


*RES
0 *27:9 *27 0.059701  // $metal1_conn
1 *27:2 *27:3 6.2  // $metal1_conn
2 *27:2 *27:7 6.2  // $metal1_conn
3 *46:s *27:3 75.61541  // $metal1_conn
4 *27:8 *20:s 75.228241  // $metal1_conn
5 *27:9 *19:s 75.07431  // $metal1_conn
6 *27:3 *35:s 0.10662  // $metal1_conn
7 *35:s *27:7 0.365703  // $metal1_conn
8 *27:7 *27:8 0.032449  // $metal1_conn
9 *27:8 *27:9 0.357989  // $metal1_conn

*END

*D_NET *37 2.90248e-16

*CONN
*P *37 I *C 2.7000 0.8550 
*I *38:g B *C 2.9175 0.4775 
*I *7:g B *C 2.7925 1.2175 
*N *37:2 *C 2.7925 0.8500 
*N *37:3 *C 2.7100 0.8500 

*CAP
0 *7:g 5.56602e-17
1 *38:g 4.76453e-17
2 *37:2 4.5215e-17
3 *37:3 1.41728e-16

*RES
0 *38:g *37:2 94.544861  // $poly_conn
1 *37:2 *37:3 50.110134  // $poly_conn
2 *37:2 *7:g 54.769478  // $poly_conn
3 *37:3 *37 0.003108  // $metal1_conn

*END

*D_NET *40 2.98937e-16

*CONN
*P *40 I *C 3.7000 0.8550 
*I *46:g B *C 3.4725 0.4775 
*I *10:g B *C 3.4175 1.2175 
*N *40:2 *C 3.4450 0.8950 

*CAP
0 *10:g 3.97278e-17
1 *46:g 7.6564e-17
2 *40:2 1.13474e-16
3 *40 6.91711e-17

*RES
0 *46:g *40:2 79.948364  // $poly_conn
1 *40:2 *10:g 46.615028  // $poly_conn
2 *40 *40:2 45.154533  // $metal1_conn

*END

*D_NET *43 1.45237e-16

*CONN
*P *43 I *C 0.1000 0.4750 
*I *19:g B *C 0.2825 0.5625 
*I *13:g B *C 0.2825 1.0075 
*N *43:2 *C 0.2825 0.7350 
*N *43:3 *C 0.2250 0.7350 

*CAP
0 *13:g 2.49141e-17
1 *19:g 1.50704e-17
2 *43:2 1.11938e-17
3 *43:3 4.47683e-17
4 *43 4.929e-17

*RES
0 *13:g *43:2 39.553005  // $poly_conn
1 *43:2 *43:3 45.794373  // $poly_conn
2 *43:2 *19:g 22.886339  // $poly_conn
3 *43:3 *43 0.189421  // $metal1_conn

*END

*D_NET *24 5.16126e-16

*CONN
*P *24 I *C 3.3000 0.6650 
*I *44:g B *C 3.3675 0.4775 
*I *48:g B *C 3.6775 0.4775 
*I *8:g B *C 2.9375 1.2175 
*I *11:g B *C 3.6225 1.2175 
*N *24:1 *C 3.0300 0.9550 
*N *24:4 *C 3.2950 0.7050 
*N *24:6 *C 3.6500 0.6750 

*CAP
0 *11:g 4.59747e-17
1 *8:g 4.53567e-17
2 *48:g 2.59953e-17
3 *44:g 6.24239e-17
4 *24:1 1.12142e-16
5 *24:4 5.65226e-17
6 *24:6 9.01658e-17
7 *24 7.75441e-17

*RES
0 *24:1 *8:g 80.822021  // $poly_conn
1 *44:g *24:4 78.31813  // $poly_conn
2 *48:g *24:6 23.538105  // $poly_conn
3 *24:6 *11:g 103.025291  // $poly_conn
4 *24:6 *24 45.263847  // $metal1_conn
5 *24 *24:4 0.002556  // $metal1_conn
6 *24:4 *24:1 0.380543  // $metal1_conn

*END

*D_NET *26 5.617e-16

*CONN
*P *26 I *C 1.1000 0.6650 
*I *20:g B *C 0.7375 0.4325 
*I *22:g B *C 1.1425 0.4025 
*I *12:g B *C 0.7925 1.1475 
*I *16:g B *C 1.4375 1.1950 
*N *26:2 *C 0.7650 0.8200 
*N *26:5 *C 1.0600 0.7450 
*N *26:7 *C 1.4100 0.9250 
*N *26:8 *C 0.7650 0.8200 

*CAP
0 *16:g 5.04122e-17
1 *12:g 3.96908e-17
2 *22:g 6.53462e-17
3 *20:g 4.35379e-17
4 *26:2 1.09255e-16
5 *26:5 1.28324e-16
6 *26:7 1.05425e-16
7 *26 1.97084e-17

*RES
0 *12:g *26:2 47.897079  // $poly_conn
1 *26:2 *20:g 72.256058  // $poly_conn
2 *22:g *26:5 102.677101  // $poly_conn
3 *16:g *26:7 65.973999  // $poly_conn
4 *26:7 *26:5 0.35816  // $metal1_conn
5 *26:5 *26 0.032876  // $metal1_conn
6 *26:5 *26:8 0.233864  // $metal1_conn
7 *26:2 *26:8 45  // $metal1_conn

*END

*D_NET *2 3.11401e-16

*CONN
*P *2 O *C 2.1000 0.8550 
*I *31:d B *C 2.0725 0.4300 
*I *33:d B *C 2.5500 0.4300 
*I *35:d B *C 2.5500 0.4300 
*I *49:d B *C 2.0725 0.4300 
*I *3:d B *C 2.0050 1.1550 
*I *4:d B *C 2.4550 1.1550 
*I *5:d B *C 2.4550 1.1550 
*I *18:d B *C 2.0050 1.1550 

*CAP
0 *4:d 1.77469e-16
1 *31:d 1.19837e-16
2 *2 1.40946e-17

*RES
0 *4:d *2 0.024474  // $metal1_conn
1 *31:d *4:d 0.264891  // $metal1_conn

*END

*D_NET *51 0

*CONN
*I *44:s B *C 3.4200 0.4775 
*I *46:d B *C 3.4200 0.4775 


*RES
0 *46:d *44:s 0.001  // $mwires

*END

*D_NET *50 5.9365e-18

*CONN
*I *38:d B *C 3.0400 0.4775 
*I *41:s B *C 3.0400 0.4775 

*CAP
0 *38:d 5.9365e-18

*RES
0 *41:s *38:d 0.001  // $mwires

*END

*D_NET *47 0

*CONN
*I *23:s B *C 1.5000 0.4025 
*I *25:d B *C 1.5000 0.4025 


*RES
0 *25:d *23:s 0.001  // $mwires

*END

*D_NET *45 0

*CONN
*I *21:d B *C 1.0900 0.4025 
*I *22:s B *C 1.0900 0.4025 


*RES
0 *22:s *21:d 0.001  // $mwires

*END

*D_NET *42 0

*CONN
*I *9:s B *C 3.2900 1.2175 
*I *10:d B *C 3.2900 1.2175 


*RES
0 *10:d *9:s 0.001  // $mwires

*END

*D_NET *39 2.42348e-18

*CONN
*I *7:d B *C 2.8650 1.2175 
*I *8:s B *C 2.8650 1.2175 

*CAP
0 *7:d 2.42348e-18

*RES
0 *8:s *7:d 0.001  // $mwires

*END

*D_NET *36 4.44765e-18

*CONN
*I *16:s B *C 1.5325 1.1950 
*I *17:d B *C 1.5325 1.1950 

*CAP
0 *16:s 4.44765e-18

*RES
0 *17:d *16:s 0.001  // $mwires

*END

*D_NET *34 2.32254e-19

*CONN
*I *14:d B *C 1.1300 1.1950 
*I *15:s B *C 1.1300 1.1950 

*CAP
0 *14:d 2.32254e-19

*RES
0 *15:s *14:d 0.001  // $mwires

*END

*D_NET *32 6.17885e-16

*CONN
*I *41:d B *C 3.2650 0.4775 
*I *44:d B *C 3.2650 0.4775 
*I *25:g B *C 1.6275 0.4025 
*I *8:d B *C 3.0500 1.2175 
*I *9:d B *C 3.0500 1.2175 
*I *17:g B *C 1.6275 1.1950 
*N *32:1 *C 1.7300 0.6050 
*N *32:2 *C 1.6275 0.6050 
*N *32:5 *C 2.8700 0.4350 

*CAP
0 *17:g 6.849e-17
1 *8:d 9.81859e-17
2 *25:g 2.52057e-17
3 *41:d 4.52556e-17
4 *32:5 2.04521e-16
5 *32:2 3.03002e-17
6 *32:1 1.45927e-16

*RES
0 *32:1 *32:2 50.485863  // $poly_conn
1 *32:2 *25:g 20.563484  // $poly_conn
2 *32:2 *17:g 106.460915  // $poly_conn
3 *32:1 *32:5 1.068324  // $metal1_conn
4 *32:5 *8:d 62.642883  // $metal1_conn
5 *32:5 *41:d 75.275215  // $metal1_conn

*END

*D_NET *30 5.53969e-16

*CONN
*I *31:g B *C 2.1825 0.4300 
*I *33:g B *C 2.4475 0.4300 
*I *35:g B *C 2.6525 0.4300 
*I *49:g B *C 1.9625 0.4300 
*I *22:d B *C 1.2575 0.4025 
*I *23:d B *C 1.2575 0.4025 
*I *3:g B *C 2.1475 1.1550 
*I *4:g B *C 2.3525 1.1550 
*I *5:g B *C 2.5575 1.1550 
*I *15:d B *C 1.3350 1.1950 
*I *16:d B *C 1.3350 1.1950 
*I *18:g B *C 1.8625 1.1550 
*N *30:19 *C 1.6000 0.8350 

*CAP
0 *15:d 5.17282e-17
1 *5:g 3.32318e-16
2 *22:d 5.4382e-17
3 *30:19 1.15541e-16

*RES
0 *5:g *30:19 45.203388  // $metal1_conn
1 *30:19 *22:d 75.493744  // $metal1_conn
2 *30:19 *15:d 31.453819  // $metal1_conn

*END

*D_NET *29 3.6971e-16

*CONN
*I *41:g B *C 3.1625 0.4775 
*I *48:d B *C 3.8300 0.4775 
*I *9:g B *C 3.1625 1.2175 
*I *11:d B *C 3.7150 1.2175 
*N *29:2 *C 3.2000 1.0100 
*N *29:5 *C 3.7250 1.0750 

*CAP
0 *11:d 1.24286e-17
1 *9:g 3.01776e-17
2 *48:d 4.5562e-17
3 *41:g 6.17545e-17
4 *29:5 9.44173e-17
5 *29:2 1.2537e-16

*RES
0 *9:g *29:2 16.15522  // $poly_conn
1 *29:2 *41:g 108.462906  // $poly_conn
2 *48:d *29:5 75.528877  // $metal1_conn
3 *29:5 *29:2 45.432526  // $metal1_conn
4 *29:5 *11:d 62.049232  // $metal1_conn

*END

*D_NET *28 4.90704e-16

*CONN
*I *19:d B *C 0.3750 0.5625 
*I *21:g B *C 1.0375 0.4025 
*I *13:d B *C 0.3750 1.0075 
*I *14:g B *C 1.0275 1.1950 
*N *28:2 *C 0.8700 0.6400 
*N *28:5 *C 0.3850 0.5500 

*CAP
0 *14:g 7.64447e-17
1 *13:d 4.96349e-17
2 *21:g 6.82916e-17
3 *19:d 1.22911e-16
4 *28:2 1.73422e-16

*RES
0 *21:g *28:2 52.548897  // $poly_conn
1 *28:2 *14:g 112.394318  // $poly_conn
2 *28:2 *28:5 45.77142  // $metal1_conn
3 *28:5 *13:d 62.302704  // $metal1_conn
4 *19:d *28:5 75  // $metal1_conn

*END

*D_NET *6 4.24727e-16

*CONN
*I *20:d B *C 0.6200 0.4325 
*I *23:g B *C 1.3725 0.4025 
*I *12:d B *C 0.7000 1.1475 
*I *15:g B *C 1.2325 1.1950 
*N *6:2 *C 1.2200 0.9300 
*N *6:4 *C 0.6900 0.9800 

*CAP
0 *15:g 4.17298e-17
1 *12:d 1.14238e-17
2 *23:g 6.20287e-17
3 *20:d 7.96327e-17
4 *6:4 1.06694e-16
5 *6:2 1.23217e-16

*RES
0 *23:g *6:2 124.370735  // $poly_conn
1 *6:2 *15:g 17.398676  // $poly_conn
2 *6:2 *6:4 45.394249  // $metal1_conn
3 *6:4 *20:d 75.508736  // $metal1_conn
4 *6:4 *12:d 62.065842  // $metal1_conn

*END

