*SPEF "IEEE 1481-1999"
*DESIGN  "MXI3X2"
*DATE "Mon Sep 27 10:03:46 2010"
*VENDOR "Cadence Design Systems"
*PROGRAM "Assura RCX"
*VERSION "3.2 Red Hat Linux release 7.2 (Enigma) - (09/09/2009-10:39)"
*DESIGN_FLOW "Physical Verification"
*DIVIDER /
*DELIMITER :
*BUS_DELIMITER []
*T_UNIT 1 PS
*C_UNIT 1e15 FF
*R_UNIT 1 OHM
*L_UNIT 1 MH
// DeviceFingerDelim "@"
// MATCHED
// caps2d version: 10

*NAME_MAP
*1 C
*2 mn9
*3 mn10
*4 mn8
*5 mp9
*6 mn7
*7 VDD
*8 mp10
*9 mp8
*10 VSS
*11 mp7
*12 Y
*13 n1
*14 Cp
*15 S0b
*16 n0
*17 n9
*18 n7
*19 n3
*20 n5
*21 n8
*22 n6
*23 n2
*24 mn11
*25 n4
*26 mn11\@1
*27 mn2
*28 mn3
*29 mn5
*30 S1b
*31 mn4
*32 mn0
*33 mn6
*34 mn1
*35 S0
*36 S1
*37 mp11
*38 mp11\@1
*39 mp2
*40 mp3
*41 mp5
*42 mp4
*43 mp0
*44 mp6
*45 mp1
*46 A
*47 B

*GROUND_NETS VSS

*PORTS
*7 I
*10 I
*46 I
*47 I
*1 I
*35 I
*36 I
*12 O

*D_NET *7 4.97622e-16

*CONN
*P *7 I *C 0.1000 1.7100 
*I *37:s B *C 1.9350 1.1400 
*I *38:s B *C 2.4150 1.2275 
*I *39:s B *C 2.4150 1.2275 
*I *42:s B *C 3.2100 1.2275 
*I *43:s B *C 3.2100 1.2275 
*I *44:s B *C 0.1750 1.2225 
*I *45:s B *C 0.9100 1.1475 
*I *5:s B *C 0.9100 1.1475 
*I *11:s B *C 1.9350 1.1400 
*N *7:2 *C 2.9000 1.7100 
*N *7:3 *C 2.9000 1.7100 
*N *7:6 *C 1.0000 1.7100 
*N *7:7 *C 0.8250 1.7100 
*N *7:8 *C 0.1650 1.7100 

*CAP
0 *45:s 8.20334e-18
1 *44:s 2.27495e-17
2 *42:s 2.97485e-17
3 *38:s 1.58738e-16
4 *7:8 7.44653e-18
5 *7:7 8.32292e-18
6 *7:2 2.60047e-16
7 *7 2.36597e-18

*RES
0 *7:8 *7 0.032105  // $metal1_conn
1 *7:2 *7:3 8.333333  // $metal1_conn
2 *7:2 *7:6 7.5  // $metal1_conn
3 *42:s *7:3 62.462173  // $metal1_conn
4 *7:7 *45:s 62.074097  // $metal1_conn
5 *7:8 *44:s 62.272877  // $metal1_conn
6 *7:3 *38:s 0.292829  // $metal1_conn
7 *38:s *7:6 0.453116  // $metal1_conn
8 *7:6 *7:7 0.087461  // $metal1_conn
9 *7:7 *7:8 0.330201  // $metal1_conn

*END

*D_NET *10 0

*CONN
*P *10 I *C 0.1000 0.0000 
*I *24:s B *C 1.9600 0.5300 
*I *26:s B *C 2.4300 0.3425 
*I *27:s B *C 2.4300 0.3425 
*I *31:s B *C 3.2875 0.3425 
*I *32:s B *C 3.2875 0.3425 
*I *33:s B *C 0.1525 0.5825 
*I *34:s B *C 0.9100 0.5875 
*I *2:s B *C 0.9100 0.5875 
*I *6:s B *C 1.9600 0.5300 
*N *10:2 *C 2.9000 0.0000 
*N *10:3 *C 2.9000 0.0000 
*N *10:6 *C 1.0000 0.0000 
*N *10:7 *C 0.8250 0.0000 


*RES
0 *10 *33:s 75.363327  // $metal1_conn
1 *10:7 *10 0.36321  // $metal1_conn
2 *10:2 *10:3 6.888889  // $metal1_conn
3 *10:2 *10:6 6.2  // $metal1_conn
4 *31:s *10:3 75.392601  // $metal1_conn
5 *10:7 *34:s 75.074097  // $metal1_conn
6 *10:3 *26:s 0.276854  // $metal1_conn
7 *26:s *10:6 0.437141  // $metal1_conn
8 *10:6 *10:7 0.087461  // $metal1_conn

*END

*D_NET *46 2.85201e-16

*CONN
*P *46 I *C 2.3000 0.8550 
*I *27:g B *C 2.4775 0.3425 
*I *39:g B *C 2.4775 1.2275 
*N *46:2 *C 2.4775 0.7700 
*N *46:3 *C 2.3450 0.7700 

*CAP
0 *39:g 5.20511e-17
1 *27:g 4.13378e-17
2 *46:2 4.23584e-17
3 *46:3 1.13993e-16
4 *46 3.54613e-17

*RES
0 *39:g *46:2 86.432549  // $poly_conn
1 *46:2 *46:3 52.24773  // $poly_conn
2 *46:2 *27:g 87.7146  // $poly_conn
3 *46:3 *46 0.043529  // $metal1_conn

*END

*D_NET *47 2.78131e-16

*CONN
*P *47 I *C 3.1000 0.8550 
*I *31:g B *C 3.1075 0.3425 
*I *42:g B *C 3.1075 1.2275 
*N *47:2 *C 3.1350 0.8500 

*CAP
0 *42:g 4.2704e-17
1 *31:g 7.63413e-17
2 *47:2 1.59086e-16

*RES
0 *42:g *47:2 60.71759  // $poly_conn
1 *47:2 *31:g 103.025291  // $poly_conn
2 *47:2 *47 45.011986  // $metal1_conn

*END

*D_NET *1 1.57067e-16

*CONN
*P *1 I *C 0.1000 1.0450 
*I *33:g B *C 0.2675 0.5825 
*I *44:g B *C 0.2675 1.2225 
*N *1:2 *C 0.2300 0.7900 

*CAP
0 *44:g 2.97624e-17
1 *33:g 1.9985e-17
2 *1:2 5.69124e-17
3 *1 5.04074e-17

*RES
0 *44:g *1:2 73.847527  // $poly_conn
1 *1:2 *33:g 25.129578  // $poly_conn
2 *1:2 *1 45.189178  // $metal1_conn

*END

*D_NET *35 5.74414e-16

*CONN
*P *35 I *C 3.5000 0.6650 
*I *29:g B *C 3.0025 0.3425 
*I *32:g B *C 3.4675 0.3425 
*I *40:g B *C 2.6375 1.2275 
*I *43:g B *C 3.3125 1.2275 
*N *35:2 *C 2.6650 0.9000 
*N *35:4 *C 2.9300 0.6200 
*N *35:6 *C 3.4950 0.5250 
*N *35:8 *C 2.9300 0.5200 
*N *35:9 *C 3.4950 0.5250 

*CAP
0 *43:g 6.38865e-17
1 *40:g 4.77848e-17
2 *32:g 2.06764e-17
3 *29:g 6.12355e-17
4 *35:8 7.55613e-17
5 *35:2 9.69949e-17
6 *35:4 6.82063e-17
7 *35:6 1.04268e-16
8 *35 3.57998e-17

*RES
0 *40:g *35:2 92.897079  // $poly_conn
1 *29:g *35:4 91.296722  // $poly_conn
2 *32:g *35:6 16.530041  // $poly_conn
3 *35:6 *43:g 174.343765  // $poly_conn
4 *35:4 *35:8 0.058827  // $metal1_conn
5 *35:8 *35:2 0.433352  // $metal1_conn
6 *35:8 *35:9 0.391508  // $metal1_conn
7 *35:9 *35 0.069647  // $metal1_conn
8 *35:6 *35:9 45  // $metal1_conn

*END

*D_NET *36 4.99802e-16

*CONN
*P *36 I *C 0.9000 1.0450 
*I *34:g B *C 0.6925 0.5875 
*I *3:g B *C 1.2225 0.5875 
*I *45:g B *C 0.6925 1.1475 
*I *9:g B *C 1.5425 1.1475 
*N *36:1 *C 0.7500 0.9400 
*N *36:2 *C 0.6925 0.9400 
*N *36:6 *C 1.2500 0.7700 
*N *36:8 *C 1.5150 0.9300 
*N *36:9 *C 1.2500 1.0350 

*CAP
0 *9:g 4.77461e-17
1 *45:g 3.45733e-17
2 *3:g 4.79052e-17
3 *34:g 4.73757e-17
4 *36:9 3.69973e-17
5 *36:2 3.37269e-17
6 *36:1 3.98415e-17
7 *36:6 8.55533e-17
8 *36:8 8.71703e-17
9 *36 3.89126e-17

*RES
0 *36:1 *36:2 45.794373  // $poly_conn
1 *36:2 *34:g 66.717331  // $poly_conn
2 *36:2 *45:g 20.563484  // $poly_conn
3 *3:g *36:6 64.691956  // $poly_conn
4 *9:g *36:8 64.691956  // $poly_conn
5 *36:8 *36:9 0.266393  // $metal1_conn
6 *36:9 *36 0.251  // $metal1_conn
7 *36 *36:1 0.169008  // $metal1_conn
8 *36:9 *36:6 0.171672  // $metal1_conn

*END

*D_NET *12 1.54814e-16

*CONN
*P *12 O *C 2.1000 0.8550 
*I *24:d B *C 2.1100 0.5300 
*I *26:d B *C 2.1100 0.5300 
*I *37:d B *C 2.1100 1.1400 
*I *38:d B *C 2.1100 1.1400 

*CAP
0 *37:d 7.75284e-17
1 *24:d 4.47735e-17
2 *12 3.25125e-17

*RES
0 *12 *24:d 75.146553  // $metal1_conn
1 *12 *37:d 20.845034  // $metal1_conn

*END

*D_NET *25 0

*CONN
*I *29:s B *C 3.0550 0.3425 
*I *31:d B *C 3.0550 0.3425 


*RES
0 *31:d *29:s 0.001  // $mwires

*END

*D_NET *23 7.68928e-18

*CONN
*I *27:d B *C 2.6375 0.3425 
*I *28:s B *C 2.6375 0.3425 

*CAP
0 *27:d 7.68928e-18

*RES
0 *28:s *27:d 0.001  // $mwires

*END

*D_NET *22 0

*CONN
*I *4:s B *C 1.6025 0.5875 
*I *6:d B *C 1.6025 0.5875 


*RES
0 *6:d *4:s 0.001  // $mwires

*END

*D_NET *21 0

*CONN
*I *2:d B *C 1.0900 0.5875 
*I *3:s B *C 1.0900 0.5875 


*RES
0 *3:s *2:d 0.001  // $mwires

*END

*D_NET *20 0

*CONN
*I *41:s B *C 2.9750 1.2275 
*I *42:d B *C 2.9750 1.2275 


*RES
0 *42:d *41:s 0.001  // $mwires

*END

*D_NET *19 4.44891e-18

*CONN
*I *39:d B *C 2.5575 1.2275 
*I *40:s B *C 2.5575 1.2275 

*CAP
0 *39:d 4.44891e-18

*RES
0 *40:s *39:d 0.001  // $mwires

*END

*D_NET *18 3.39889e-18

*CONN
*I *9:s B *C 1.6175 1.1475 
*I *11:d B *C 1.6175 1.1475 

*CAP
0 *9:s 3.39889e-18

*RES
0 *11:d *9:s 0.001  // $mwires

*END

*D_NET *17 2.60246e-18

*CONN
*I *5:d B *C 1.0375 1.1475 
*I *8:s B *C 1.0375 1.1475 

*CAP
0 *5:d 2.60246e-18

*RES
0 *8:s *5:d 0.001  // $mwires

*END

*D_NET *16 5.49324e-16

*CONN
*I *28:d B *C 2.9000 0.3425 
*I *29:d B *C 2.9000 0.3425 
*I *6:g B *C 1.6925 0.5875 
*I *40:d B *C 2.7400 1.2275 
*I *41:d B *C 2.7400 1.2275 
*I *11:g B *C 1.6925 1.1475 
*N *16:3 *C 1.6550 0.3000 
*N *16:5 *C 2.5050 0.3000 

*CAP
0 *11:g 6.5252e-17
1 *40:d 9.66811e-17
2 *6:g 4.88675e-17
3 *28:d 5.55109e-17
4 *16:5 1.79268e-16
5 *16:3 1.03744e-16

*RES
0 *11:g *6:g 97.435898  // $poly_conn
1 *6:g *16:3 90.642395  // $poly_conn
2 *40:d *16:5 62.870533  // $metal1_conn
3 *16:5 *16:3 0.596416  // $metal1_conn
4 *16:5 *28:d 75.279503  // $metal1_conn

*END

*D_NET *15 4.06206e-16

*CONN
*I *28:g B *C 2.7975 0.3425 
*I *32:d B *C 3.5600 0.3425 
*I *41:g B *C 2.8425 1.2275 
*I *43:d B *C 3.4050 1.2275 
*N *15:2 *C 2.8800 1.0200 
*N *15:5 *C 3.4150 1.0850 

*CAP
0 *43:d 1.14895e-17
1 *41:g 3.13841e-17
2 *32:d 8.51955e-17
3 *28:g 7.00485e-17
4 *15:5 9.18015e-17
5 *15:2 1.16287e-16

*RES
0 *41:g *15:2 16.15522  // $poly_conn
1 *15:2 *28:g 152.266846  // $poly_conn
2 *32:d *15:5 75.766159  // $metal1_conn
3 *15:5 *15:2 45.431305  // $metal1_conn
4 *15:5 *43:d 62.049091  // $metal1_conn

*END

*D_NET *14 3.76651e-16

*CONN
*I *33:d B *C 0.3700 0.5825 
*I *2:g B *C 0.9575 0.5875 
*I *44:d B *C 0.3700 1.2225 
*I *5:g B *C 0.9575 1.1475 
*N *14:1 *C 1.0150 0.4150 
*N *14:6 *C 0.3900 0.5700 

*CAP
0 *5:g 7.46421e-17
1 *44:d 6.74267e-17
2 *2:g 4.43272e-17
3 *33:d 1.10029e-16
4 *14:1 8.02261e-17

*RES
0 *14:1 *2:g 65.732071  // $poly_conn
1 *2:g *5:g 97.435898  // $poly_conn
2 *44:d *14:6 62.444305  // $metal1_conn
3 *14:6 *14:1 0.526012  // $metal1_conn
4 *33:d *14:6 75  // $metal1_conn

*END

*D_NET *13 3.83272e-16

*CONN
*I *24:g B *C 2.0075 0.5300 
*I *26:g B *C 2.2125 0.5300 
*I *3:d B *C 1.3675 0.5875 
*I *4:d B *C 1.3675 0.5875 
*I *37:g B *C 2.0075 1.1400 
*I *38:g B *C 2.2125 1.1400 
*I *8:d B *C 1.3300 1.1475 
*I *9:d B *C 1.3300 1.1475 
*N *13:4 *C 1.9300 0.7700 
*N *13:9 *C 1.6750 0.7400 

*CAP
0 *8:d 7.0051e-17
1 *38:g 1.66039e-16
2 *3:d 3.52635e-17
3 *13:9 6.2644e-17
4 *13:4 4.92743e-17

*RES
0 *38:g *13:4 50.282635  // $poly_conn
1 *13:9 *13:4 0.17349  // $metal1_conn
2 *13:9 *3:d 75.278214  // $metal1_conn
3 *8:d *13:9 62.470497  // $metal1_conn

*END

*D_NET *30 3.97958e-16

*CONN
*I *34:d B *C 0.6000 0.5875 
*I *4:g B *C 1.5125 0.5875 
*I *45:d B *C 0.6000 1.1475 
*I *8:g B *C 1.1175 1.1475 
*N *30:2 *C 1.0900 0.9125 
*N *30:3 *C 1.0900 0.8450 
*N *30:5 *C 0.5900 0.7500 

*CAP
0 *8:g 3.8137e-17
1 *45:d 4.6371e-17
2 *4:g 7.32381e-17
3 *34:d 2.7634e-17
4 *30:5 6.55467e-17
5 *30:2 5.16951e-17
6 *30:3 9.53363e-17

*RES
0 *4:g *30:2 145.563248  // $poly_conn
1 *30:2 *30:3 49.315495  // $poly_conn
2 *30:2 *8:g 32.957436  // $poly_conn
3 *30:3 *30:5 0.388126  // $metal1_conn
4 *30:5 *34:d 75.108582  // $metal1_conn
5 *30:5 *45:d 62.28067  // $metal1_conn

*END

