*SPEF "IEEE 1481-1999"
*DESIGN  "MXI3XL"
*DATE "Mon Sep 27 10:04:31 2010"
*VENDOR "Cadence Design Systems"
*PROGRAM "Assura RCX"
*VERSION "3.2 Red Hat Linux release 7.2 (Enigma) - (09/09/2009-10:39)"
*DESIGN_FLOW "Physical Verification"
*DIVIDER /
*DELIMITER :
*BUS_DELIMITER []
*T_UNIT 1 PS
*C_UNIT 1e15 FF
*R_UNIT 1 OHM
*L_UNIT 1 MH
// DeviceFingerDelim "@"
// MATCHED
// caps2d version: 10

*NAME_MAP
*1 n6
*2 A
*3 n8
*4 B
*5 C
*6 Cp
*7 mn10
*8 mn9
*9 mn1
*10 mp10
*11 mn6
*12 mp9
*13 mn11
*14 mp1
*15 mn0
*16 mp6
*17 mn2
*18 mp11
*19 mn3
*20 mp0
*21 mn5
*22 mp2
*23 mp3
*24 mp5
*25 mp4
*26 Y
*27 mp7
*28 mp8
*29 VDD
*30 mn4
*31 mn7
*32 mn8
*33 n0
*34 S0b
*35 S1b
*36 n1
*37 n3
*38 n5
*39 n7
*40 n9
*41 n2
*42 S0
*43 n4
*44 S1
*45 VSS

*GROUND_NETS VSS

*PORTS
*29 I
*45 I
*2 I
*4 I
*5 I
*42 I
*44 I
*26 O

*D_NET *29 4.95792e-16

*CONN
*P *29 I *C 0.1000 1.7100 
*I *12:s B *C 2.3200 1.2475 
*I *14:s B *C 2.3200 1.2475 
*I *16:s B *C 3.1400 1.0075 
*I *18:s B *C 3.1400 1.0075 
*I *20:s B *C 0.5300 1.2475 
*I *22:s B *C 0.5300 1.2475 
*I *25:s B *C 1.4100 1.2475 
*I *27:s B *C 1.4100 1.2475 
*N *29:2 *C 2.2350 1.7100 
*N *29:3 *C 1.4050 1.7100 
*N *29:4 *C 0.9000 1.7100 
*N *29:5 *C 0.9000 1.7100 
*N *29:6 *C 0.5300 1.7100 
*N *29:7 *C 2.6000 1.7100 

*CAP
0 *25:s 3.84711e-17
1 *20:s 2.63493e-17
2 *16:s 5.33462e-17
3 *12:s 2.12725e-17
4 *29:6 1.18504e-17
5 *29:3 2.16502e-17
6 *29:2 2.54168e-17
7 *29:4 2.86185e-16
8 *29 1.12508e-17

*RES
0 *12:s *29:2 62.047016  // $metal1_conn
1 *29:2 *29:3 0.41249  // $metal1_conn
2 *29:3 *29:5 0.253053  // $metal1_conn
3 *29:5 *29:6 0.185353  // $metal1_conn
4 *29:6 *29 0.215191  // $metal1_conn
5 *29:2 *29:7 0.179496  // $metal1_conn
6 *29:7 *16:s 62.444504  // $metal1_conn
7 *29:3 *25:s 62.258133  // $metal1_conn
8 *29:6 *20:s 62.258873  // $metal1_conn
9 *29:4 *29:5 8.333333  // $metal1_conn
10 *29:4 *29:7 9.375  // $metal1_conn

*END

*D_NET *45 0

*CONN
*P *45 I *C 0.1000 0.0000 
*I *8:s B *C 2.3650 0.5025 
*I *9:s B *C 2.3650 0.5025 
*I *11:s B *C 3.0850 0.5875 
*I *13:s B *C 3.0850 0.5875 
*I *15:s B *C 0.5300 0.5025 
*I *17:s B *C 0.5300 0.5025 
*I *30:s B *C 1.4050 0.5025 
*I *31:s B *C 1.4050 0.5025 
*N *45:2 *C 2.6000 0.0000 
*N *45:3 *C 2.6000 0.0000 
*N *45:4 *C 2.3350 0.0000 
*N *45:5 *C 1.3750 0.0000 
*N *45:6 *C 0.9000 0.0000 
*N *45:7 *C 0.5300 0.0000 


*RES
0 *11:s *45:3 75.650528  // $metal1_conn
1 *45:3 *45:4 0.132697  // $metal1_conn
2 *45:4 *45:5 0.481031  // $metal1_conn
3 *45:5 *45:6 0.238008  // $metal1_conn
4 *45:6 *45:7 0.185353  // $metal1_conn
5 *45:7 *45 0.215191  // $metal1_conn
6 *45:4 *8:s 75.304695  // $metal1_conn
7 *45:5 *30:s 75.306831  // $metal1_conn
8 *45:7 *15:s 75.310776  // $metal1_conn
9 *45:2 *45:3 7.75  // $metal1_conn
10 *45:2 *45:6 6.888889  // $metal1_conn

*END

*D_NET *2 3.1336e-16

*CONN
*P *2 I *C 0.5000 0.8550 
*I *17:g B *C 0.6325 0.5025 
*I *22:g B *C 0.6325 1.2475 
*N *2:2 *C 0.6050 0.8450 

*CAP
0 *22:g 4.58331e-17
1 *17:g 6.29467e-17
2 *2:2 1.64402e-16
3 *2 4.01785e-17

*RES
0 *22:g *2:2 67.127846  // $poly_conn
1 *2:2 *17:g 60.71759  // $poly_conn
2 *2:2 *2 45.06271  // $metal1_conn

*END

*D_NET *4 2.49785e-16

*CONN
*P *4 I *C 1.5000 1.0450 
*I *30:g B *C 1.3025 0.5025 
*I *25:g B *C 1.3025 1.2475 
*N *4:1 *C 1.3750 1.0400 
*N *4:2 *C 1.3025 1.0400 

*CAP
0 *25:g 3.12424e-17
1 *30:g 4.94733e-17
2 *4:2 5.63351e-17
3 *4:1 6.28209e-17
4 *4 4.9913e-17

*RES
0 *4:1 *4:2 47.294373  // $poly_conn
1 *4:2 *30:g 114.153229  // $poly_conn
2 *4:2 *25:g 20.563484  // $poly_conn
3 *4 *4:1 0.027601  // $metal1_conn

*END

*D_NET *5 2.04012e-16

*CONN
*P *5 I *C 3.1000 0.8550 
*I *11:g B *C 2.9825 0.5875 
*I *16:g B *C 2.9075 1.0075 
*N *5:2 *C 2.9450 0.8000 

*CAP
0 *16:g 3.71192e-17
1 *11:g 2.54052e-17
2 *5:2 8.2186e-17
3 *5 5.93014e-17

*RES
0 *11:g *5:2 28.681942  // $poly_conn
1 *5:2 *16:g 18.425531  // $poly_conn
2 *5 *5:2 45.032417  // $metal1_conn

*END

*D_NET *42 4.15889e-16

*CONN
*P *42 I *C 0.3000 1.0450 
*I *15:g B *C 0.4275 0.5025 
*I *21:g B *C 0.9425 0.5025 
*I *20:g B *C 0.4275 1.2475 
*I *23:g B *C 0.8775 1.2475 
*N *42:2 *C 0.4275 1.0150 
*N *42:3 *C 0.2950 1.0250 
*N *42:6 *C 0.8975 1.0250 
*N *42:7 *C 0.8400 1.0250 

*CAP
0 *23:g 3.51486e-17
1 *20:g 2.90421e-17
2 *21:g 4.94103e-17
3 *15:g 4.13559e-17
4 *42:2 3.38554e-17
5 *42:3 1.81283e-17
6 *42:7 1.28951e-16
7 *42 7.99972e-17

*RES
0 *20:g *42:2 29.296595  // $poly_conn
1 *42:2 *42:3 53.677353  // $poly_conn
2 *42:2 *15:g 110.065826  // $poly_conn
3 *21:g *42:6 129.167068  // $poly_conn
4 *42:6 *42:7 45.794373  // $poly_conn
5 *42:6 *23:g 48.829941  // $poly_conn
6 *42:7 *42 0.321612  // $metal1_conn
7 *42 *42:3 0.00264  // $metal1_conn

*END

*D_NET *44 4.64016e-16

*CONN
*P *44 I *C 2.1000 0.8550 
*I *7:g B *C 2.0275 0.5025 
*I *9:g B *C 2.4675 0.5025 
*I *14:g B *C 2.3675 1.2475 
*I *28:g B *C 1.6425 1.2475 
*N *44:2 *C 2.0650 0.8800 
*N *44:5 *C 2.5050 0.9700 
*N *44:7 *C 2.0650 0.8800 

*CAP
0 *28:g 9.9102e-17
1 *14:g 4.5628e-17
2 *9:g 4.06301e-17
3 *7:g 3.16232e-17
4 *44:2 1.33716e-16
5 *44:5 1.13317e-16

*RES
0 *7:g *44:2 68.719322  // $poly_conn
1 *44:2 *28:g 150.984787  // $poly_conn
2 *9:g *44:5 91.796249  // $poly_conn
3 *44:5 *14:g 54.830944  // $poly_conn
4 *44:5 *44:7 45.267792  // $metal1_conn
5 *44:7 *44 0.012097  // $metal1_conn
6 *44:2 *44:7 45  // $metal1_conn

*END

*D_NET *26 7.0205e-17

*CONN
*P *26 O *C 3.3000 0.6650 
*I *13:d B *C 3.2800 0.5875 
*I *18:d B *C 3.2800 1.0075 

*CAP
0 *18:d 3.65908e-17
1 *13:d 1.76426e-17
2 *26 1.59716e-17

*RES
0 *26 *13:d 75.05101  // $metal1_conn
1 *26 *18:d 62.177029  // $metal1_conn

*END

*D_NET *3 0

*CONN
*I *7:s B *C 2.1450 0.5025 
*I *8:d B *C 2.1450 0.5025 


*RES
0 *8:d *7:s 0.001  // $mwires

*END

*D_NET *1 0

*CONN
*I *31:d B *C 1.5600 0.5025 
*I *32:s B *C 1.5600 0.5025 


*RES
0 *32:s *31:d 0.001  // $mwires

*END

*D_NET *43 9.23005e-18

*CONN
*I *21:s B *C 1.1225 0.5025 
*I *30:d B *C 1.1225 0.5025 

*CAP
0 *21:s 9.23005e-18

*RES
0 *30:d *21:s 0.001  // $mwires

*END

*D_NET *41 0

*CONN
*I *17:d B *C 0.6850 0.5025 
*I *19:s B *C 0.6850 0.5025 


*RES
0 *19:s *17:d 0.001  // $mwires

*END

*D_NET *40 3.37608e-18

*CONN
*I *10:s B *C 2.0075 1.2475 
*I *12:d B *C 2.0075 1.2475 

*CAP
0 *10:s 3.37608e-18

*RES
0 *12:d *10:s 0.001  // $mwires

*END

*D_NET *39 0

*CONN
*I *27:d B *C 1.5800 1.2475 
*I *28:s B *C 1.5800 1.2475 


*RES
0 *28:s *27:d 0.001  // $mwires

*END

*D_NET *38 5.56852e-18

*CONN
*I *24:s B *C 1.1925 1.2475 
*I *25:d B *C 1.1925 1.2475 

*CAP
0 *24:s 5.56852e-18

*RES
0 *25:d *24:s 0.001  // $mwires

*END

*D_NET *37 0

*CONN
*I *22:d B *C 0.7550 1.2475 
*I *23:s B *C 0.7550 1.2475 


*RES
0 *23:s *22:d 0.001  // $mwires

*END

*D_NET *36 5.36657e-16

*CONN
*I *7:d B *C 1.8200 0.5025 
*I *13:g B *C 3.1875 0.5875 
*I *32:d B *C 1.8200 0.5025 
*I *10:d B *C 1.7775 1.2475 
*I *18:g B *C 3.1875 1.0075 
*I *28:d B *C 1.7775 1.2475 
*N *36:3 *C 3.2250 1.2150 
*N *36:5 *C 1.7450 1.2300 

*CAP
0 *18:g 2.36584e-17
1 *10:d 2.23115e-16
2 *13:g 3.44403e-17
3 *7:d 7.97219e-17
4 *36:3 1.75721e-16

*RES
0 *18:g *13:g 61.538464  // $poly_conn
1 *18:g *36:3 61.15522  // $poly_conn
2 *36:3 *36:5 1.251094  // $metal1_conn
3 *36:5 *7:d 75.537056  // $metal1_conn
4 *10:d *36:5 62  // $metal1_conn

*END

*D_NET *35 6.26262e-16

*CONN
*I *9:d B *C 2.5600 0.5025 
*I *32:g B *C 1.6125 0.5025 
*I *10:g B *C 1.9125 1.2475 
*I *14:d B *C 2.4600 1.2475 
*N *35:2 *C 1.6400 0.2700 
*N *35:4 *C 1.8750 1.0400 
*N *35:6 *C 1.9050 0.6500 

*CAP
0 *14:d 9.44211e-17
1 *10:g 4.22538e-17
2 *32:g 7.14803e-17
3 *9:d 9.52335e-17
4 *35:6 8.45962e-17
5 *35:2 9.38513e-17
6 *35:4 1.44426e-16

*RES
0 *32:g *35:2 77.512466  // $poly_conn
1 *10:g *35:4 61.15522  // $poly_conn
2 *9:d *35:6 75.562904  // $metal1_conn
3 *35:6 *35:2 0.422421  // $metal1_conn
4 *35:6 *35:4 0.307351  // $metal1_conn
5 *35:4 *14:d 62.55735  // $metal1_conn

*END

*D_NET *34 5.26171e-16

*CONN
*I *15:d B *C 0.3350 0.5025 
*I *19:g B *C 0.7375 0.5025 
*I *20:d B *C 0.3350 1.2475 
*I *24:g B *C 1.0825 1.2475 
*N *34:2 *C 0.7650 0.6850 
*N *34:4 *C 1.0550 0.9200 
*N *34:5 *C 0.3250 0.6850 

*CAP
0 *24:g 4.43417e-17
1 *20:d 8.8028e-17
2 *19:g 6.48354e-17
3 *15:d 1.85252e-17
4 *34:5 7.46987e-17
5 *34:2 1.2774e-16
6 *34:4 1.08001e-16

*RES
0 *19:g *34:2 64.691956  // $poly_conn
1 *24:g *34:4 92.897079  // $poly_conn
2 *34:4 *34:2 0.402913  // $metal1_conn
3 *34:2 *34:5 0.335177  // $metal1_conn
4 *34:5 *15:d 75.095558  // $metal1_conn
5 *34:5 *20:d 62.662239  // $metal1_conn

*END

*D_NET *33 4.5879e-16

*CONN
*I *19:d B *C 0.8400 0.5025 
*I *21:d B *C 0.8400 0.5025 
*I *31:g B *C 1.5075 0.5025 
*I *23:d B *C 0.9800 1.2475 
*I *24:d B *C 0.9800 1.2475 
*I *27:g B *C 1.5175 1.2475 
*N *33:2 *C 1.4800 0.6850 
*N *33:4 *C 1.2150 0.7150 

*CAP
0 *27:g 8.50903e-17
1 *23:d 5.86422e-17
2 *31:g 4.69344e-17
3 *19:d 5.73737e-17
4 *33:4 1.02069e-16
5 *33:2 1.0868e-16

*RES
0 *27:g *33:2 106.526855  // $poly_conn
1 *33:2 *31:g 19.691952  // $poly_conn
2 *33:2 *33:4 45.176388  // $metal1_conn
3 *33:4 *19:d 75.411797  // $metal1_conn
4 *33:4 *23:d 62.530708  // $metal1_conn

*END

*D_NET *6 3.65225e-16

*CONN
*I *8:g B *C 2.2625 0.5025 
*I *11:d B *C 2.8900 0.5875 
*I *12:g B *C 2.1025 1.2475 
*I *16:d B *C 2.8050 1.0075 
*N *6:1 *C 2.3250 0.8100 
*N *6:2 *C 2.2625 0.8100 
*N *6:6 *C 2.7850 0.8100 

*CAP
0 *16:d 2.94499e-17
1 *12:g 6.49833e-17
2 *11:d 4.0829e-17
3 *8:g 3.65054e-17
4 *6:6 4.48656e-17
5 *6:2 7.5757e-17
6 *6:1 7.28348e-17

*RES
0 *6:1 *6:2 46.294373  // $poly_conn
1 *6:2 *12:g 108.735451  // $poly_conn
2 *6:2 *8:g 55.178871  // $poly_conn
3 *11:d *6:6 75.207146  // $metal1_conn
4 *6:6 *6:1 0.335642  // $metal1_conn
5 *6:6 *16:d 62.111351  // $metal1_conn

*END

