*SPEF "IEEE 1481-1999"
*DESIGN  "MXI4X4"
*DATE "Mon Sep 27 10:05:40 2010"
*VENDOR "Cadence Design Systems"
*PROGRAM "Assura RCX"
*VERSION "3.2 Red Hat Linux release 7.2 (Enigma) - (09/09/2009-10:39)"
*DESIGN_FLOW "Physical Verification"
*DIVIDER /
*DELIMITER :
*BUS_DELIMITER []
*T_UNIT 1 PS
*C_UNIT 1e15 FF
*R_UNIT 1 OHM
*L_UNIT 1 MH
// DeviceFingerDelim "@"
// MATCHED
// caps2d version: 10

*NAME_MAP
*1 Y
*2 VDD
*3 net284
*4 net349
*5 net361
*6 VSS
*7 net369
*8 net377
*9 net329
*10 net345
*11 S0
*12 S1
*13 mn11
*14 mn13
*15 mn12
*16 mp2
*17 mn14
*18 mp3
*19 mn14\@1
*20 mp5
*21 mp11
*22 mn14\@2
*23 mp4
*24 mp13
*25 mn14\@3
*26 mp6
*27 mp12
*28 mn2
*29 mn1
*30 mp7
*31 mp14
*32 mn3
*33 mn0
*34 mp9
*35 mp14\@1
*36 mn5
*37 mp8
*38 mp14\@2
*39 mn4
*40 mp10
*41 mp14\@3
*42 mn6
*43 mp1
*44 mn7
*45 mp0
*46 mn9
*47 mn8
*48 mn10
*49 A
*50 B
*51 C
*52 D
*53 n2
*54 n1
*55 n0
*56 S0b
*57 S1b
*58 net296
*59 net304
*60 net312
*61 net320
*62 net280

*GROUND_NETS VSS

*PORTS
*2 I
*6 I
*49 I
*50 I
*51 I
*52 I
*11 I
*12 I
*1 O

*D_NET *2 6.7178e-16

*CONN
*P *2 I *C 0.1000 1.7100 
*I *27:s B *C 3.9650 1.1000 
*I *31:s B *C 3.9650 1.1000 
*I *35:s B *C 4.4600 1.1000 
*I *38:s B *C 4.4600 1.1000 
*I *41:s B *C 5.0575 1.0625 
*I *43:s B *C 5.0575 1.0625 
*I *45:s B *C 0.4400 1.3175 
*I *16:s B *C 0.4400 1.3175 
*I *23:s B *C 1.6575 1.3125 
*I *26:s B *C 1.6575 1.3125 
*I *37:s B *C 2.6700 1.1000 
*I *40:s B *C 2.6700 1.1000 
*N *2:4 *C 2.9000 1.7100 
*N *2:5 *C 2.9000 1.7100 
*N *2:6 *C 2.5400 1.7100 
*N *2:7 *C 1.5000 1.7100 
*N *2:8 *C 1.0000 1.7100 
*N *2:9 *C 0.4400 1.7100 

*CAP
0 *37:s 2.92372e-17
1 *23:s 3.64103e-17
2 *45:s 2.874e-17
3 *41:s 1.26174e-16
4 *2:9 1.29506e-17
5 *2:7 3.51311e-17
6 *2:6 3.38261e-17
7 *2:4 3.60577e-16
8 *2 8.73332e-18

*RES
0 *2:9 *2 0.170143  // $metal1_conn
1 *2:4 *2:5 8.333333  // $metal1_conn
2 *2:4 *2:8 7.5  // $metal1_conn
3 *2:4 *41:s 8.333333  // $metal1_conn
4 *2:6 *37:s 62.117207  // $metal1_conn
5 *2:7 *23:s 62.117207  // $metal1_conn
6 *2:9 *45:s 62.212326  // $metal1_conn
7 *41:s *2:5 0.40275  // $metal1_conn
8 *2:5 *2:6 0.180428  // $metal1_conn
9 *2:6 *2:7 0.521411  // $metal1_conn
10 *2:7 *2:8 0.250671  // $metal1_conn
11 *2:8 *2:9 0.280775  // $metal1_conn

*END

*D_NET *6 0

*CONN
*P *6 I *C 0.1000 0.0000 
*I *15:s B *C 3.8000 0.3850 
*I *17:s B *C 3.8000 0.3850 
*I *19:s B *C 4.5000 0.3650 
*I *22:s B *C 4.5000 0.3650 
*I *25:s B *C 5.1225 0.4225 
*I *29:s B *C 5.1225 0.4225 
*I *33:s B *C 0.4400 0.4075 
*I *28:s B *C 0.4400 0.4075 
*I *39:s B *C 1.6750 0.4425 
*I *42:s B *C 1.6750 0.4425 
*I *47:s B *C 2.6600 0.4125 
*I *48:s B *C 2.6600 0.4125 
*N *6:2 *C 4.7000 0.0000 
*N *6:6 *C 2.9000 0.0000 
*N *6:7 *C 2.5400 0.0000 
*N *6:8 *C 1.6350 0.0000 
*N *6:9 *C 1.0000 0.0000 
*N *6:10 *C 0.4100 0.0000 


*RES
0 *6:10 *6 0.155091  // $metal1_conn
1 *6:2 *25:s 6.888889  // $metal1_conn
2 *6:2 *6:6 6.888889  // $metal1_conn
3 *6:2 *6:9 6.2  // $metal1_conn
4 *6:7 *47:s 75.271156  // $metal1_conn
5 *6:8 *39:s 75.074944  // $metal1_conn
6 *6:10 *33:s 75.258591  // $metal1_conn
7 *25:s *6:6 0.436313  // $metal1_conn
8 *6:6 *6:7 0.180428  // $metal1_conn
9 *6:7 *6:8 0.453677  // $metal1_conn
10 *6:8 *6:9 0.318405  // $metal1_conn
11 *6:9 *6:10 0.295827  // $metal1_conn

*END

*D_NET *49 2.4422e-16

*CONN
*P *49 I *C 0.5000 1.0450 
*I *28:g B *C 0.5425 0.4075 
*I *16:g B *C 0.5425 1.3175 
*N *49:2 *C 0.5150 0.9850 
*N *49:4 *C 0.5075 0.9850 
*N *49:5 *C 0.5150 0.9850 
*N *49:6 *C 0.5075 1.0450 

*CAP
0 *16:g 3.5147e-17
1 *28:g 8.3587e-17
2 *49:6 2.90478e-17
3 *49:4 3.7863e-17
4 *49:2 5.85747e-17

*RES
0 *16:g *49:2 49.179131  // $poly_conn
1 *49:2 *28:g 120.973999  // $poly_conn
2 *49:4 *49:5 0.001415  // $metal1_conn
3 *49 *49:6 0.001321  // $metal1_conn
4 *49:4 *49:6 0.030149  // $metal1_conn
5 *49:2 *49:5 45  // $metal1_conn

*END

*D_NET *50 2.83323e-16

*CONN
*P *50 I *C 1.5000 1.0450 
*I *39:g B *C 1.5025 0.4075 
*I *23:g B *C 1.3975 1.3125 
*N *50:2 *C 1.5300 1.0400 
*N *50:4 *C 1.5300 1.0400 

*CAP
0 *23:g 4.39198e-17
1 *39:g 7.86391e-17
2 *50:2 5.42874e-17
3 *50 1.06477e-16

*RES
0 *39:g *50:2 131.914658  // $poly_conn
1 *50:2 *23:g 51.266846  // $poly_conn
2 *50 *50:4 0.003982  // $metal1_conn
3 *50:2 *50:4 45  // $metal1_conn

*END

*D_NET *51 3.1216e-16

*CONN
*P *51 I *C 1.7000 1.0450 
*I *42:g B *C 1.7475 0.4425 
*I *26:g B *C 1.7475 1.3125 
*N *51:2 *C 1.7200 1.0400 

*CAP
0 *26:g 5.59125e-17
1 *42:g 7.12432e-17
2 *51:2 6.0385e-17
3 *51 1.24619e-16

*RES
0 *26:g *51:2 33.794518  // $poly_conn
1 *51:2 *42:g 126.102203  // $poly_conn
2 *51:2 *51 45.002632  // $metal1_conn

*END

*D_NET *52 2.34391e-16

*CONN
*P *52 I *C 2.5000 1.0450 
*I *47:g B *C 2.4375 0.4425 
*I *37:g B *C 2.4375 1.3125 
*N *52:2 *C 2.4750 1.0400 

*CAP
0 *37:g 2.69368e-17
1 *47:g 5.35953e-17
2 *52:2 1.53859e-16

*RES
0 *37:g *52:2 32.821884  // $poly_conn
1 *52:2 *47:g 125.129578  // $poly_conn
2 *52 *52:2 45.007328  // $metal1_conn

*END

*D_NET *11 8.8496e-16

*CONN
*P *11 I *C 0.3000 0.8550 
*I *33:g B *C 0.3375 0.4075 
*I *36:g B *C 1.3425 0.4075 
*I *46:g B *C 2.1825 0.4425 
*I *45:g B *C 0.3375 1.3175 
*I *18:g B *C 0.8875 1.3175 
*I *30:g B *C 1.8625 1.3125 
*N *11:2 *C 0.3100 0.8500 
*N *11:5 *C 1.3700 0.5900 
*N *11:6 *C 0.8600 0.8800 
*N *11:9 *C 1.8900 0.9850 
*N *11:11 *C 2.1550 0.6650 
*N *11:12 *C 0.3100 0.8500 
*N *11:13 *C 1.8900 0.5900 

*CAP
0 *30:g 5.97743e-17
1 *18:g 3.83813e-17
2 *45:g 4.03317e-17
3 *46:g 4.24503e-17
4 *36:g 2.86929e-17
5 *33:g 3.70853e-17
6 *11:13 6.79853e-17
7 *11:2 5.14218e-17
8 *11:6 1.26517e-16
9 *11:5 1.09203e-16
10 *11:9 1.00193e-16
11 *11:11 8.03295e-17
12 *11 1.02594e-16

*RES
0 *45:g *11:2 83.79451  // $poly_conn
1 *11:2 *33:g 86.35862  // $poly_conn
2 *36:g *11:5 16.530041  // $poly_conn
3 *11:5 *11:6 155.097794  // $poly_conn
4 *11:6 *18:g 72.9403  // $poly_conn
5 *30:g *11:9 92.897079  // $poly_conn
6 *46:g *11:11 74.948364  // $poly_conn
7 *11:6 *11:12 45.470024  // $metal1_conn
8 *11:12 *11 0.003006  // $metal1_conn
9 *11:2 *11:12 45  // $metal1_conn
10 *11:11 *11:13 0.247098  // $metal1_conn
11 *11:13 *11:5 45.371239  // $metal1_conn
12 *11:13 *11:9 0.270436  // $metal1_conn

*END

*D_NET *12 7.59401e-16

*CONN
*P *12 I *C 4.9000 0.8550 
*I *14:g B *C 3.1575 0.4125 
*I *29:g B *C 5.2325 0.4225 
*I *21:g B *C 2.9975 1.1000 
*I *43:g B *C 5.2325 1.0625 
*N *12:2 *C 2.9975 0.8425 
*N *12:3 *C 2.8650 0.8350 
*N *12:6 *C 5.2325 0.8450 
*N *12:7 *C 5.1450 0.8450 
*N *12:9 *C 4.9350 0.8550 

*CAP
0 *43:g 1.85534e-17
1 *21:g 2.54149e-17
2 *29:g 3.19099e-17
3 *14:g 5.64916e-17
4 *12:9 2.28647e-16
5 *12:6 1.62071e-17
6 *12:2 5.18661e-17
7 *12:3 2.85009e-16
8 *12:7 3.60206e-17
9 *12 9.28161e-18

*RES
0 *14:g *12:2 117.933983  // $poly_conn
1 *12:2 *12:3 68.336548  // $poly_conn
2 *12:2 *21:g 21.582537  // $poly_conn
3 *43:g *12:6 24.894089  // $poly_conn
4 *12:6 *12:7 48.300362  // $poly_conn
5 *12:6 *29:g 86.432549  // $poly_conn
6 *12:7 *12:9 0.153046  // $metal1_conn
7 *12:9 *12:3 2.087852  // $metal1_conn
8 *12:9 *12 0.025753  // $metal1_conn

*END

*D_NET *1 3.56447e-16

*CONN
*P *1 O *C 4.5000 0.6650 
*I *17:d B *C 4.2200 0.3650 
*I *19:d B *C 4.2200 0.3650 
*I *22:d B *C 4.8100 0.3650 
*I *25:d B *C 4.8100 0.3650 
*I *31:d B *C 4.1400 1.1000 
*I *35:d B *C 4.1400 1.1000 
*I *38:d B *C 4.6100 1.1000 
*I *41:d B *C 4.6100 1.1000 

*CAP
0 *1 3.56447e-16


*END

*D_NET *10 3.07689e-18

*CONN
*I *14:s B *C 3.3125 0.4125 
*I *15:d B *C 3.3125 0.4125 

*CAP
0 *14:s 3.07689e-18

*RES
0 *15:d *14:s 0.001  // $mwires

*END

*D_NET *9 2.47212e-18

*CONN
*I *13:s B *C 2.8425 0.4125 
*I *48:d B *C 2.8425 0.4125 

*CAP
0 *13:s 2.47212e-18

*RES
0 *48:d *13:s 0.001  // $mwires

*END

*D_NET *8 4.66777e-18

*CONN
*I *46:s B *C 2.3100 0.4425 
*I *47:d B *C 2.3100 0.4425 

*CAP
0 *46:s 4.66777e-18

*RES
0 *47:d *46:s 0.001  // $mwires

*END

*D_NET *7 0

*CONN
*I *42:d B *C 1.8375 0.4425 
*I *44:s B *C 1.8375 0.4425 


*RES
0 *44:s *42:d 0.001  // $mwires

*END

*D_NET *5 9.50734e-19

*CONN
*I *36:s B *C 1.4225 0.4075 
*I *39:d B *C 1.4225 0.4075 

*CAP
0 *36:s 9.50734e-19

*RES
0 *39:d *36:s 0.001  // $mwires

*END

*D_NET *4 0

*CONN
*I *28:d B *C 0.5950 0.4075 
*I *32:s B *C 0.5950 0.4075 


*RES
0 *32:s *28:d 0.001  // $mwires

*END

*D_NET *3 6.49498e-18

*CONN
*I *24:s B *C 3.4450 1.1000 
*I *27:d B *C 3.4450 1.1000 

*CAP
0 *24:s 6.49498e-18

*RES
0 *27:d *24:s 0.001  // $mwires

*END

*D_NET *62 4.20266e-18

*CONN
*I *21:s B *C 2.8650 1.1000 
*I *40:d B *C 2.8650 1.1000 

*CAP
0 *21:s 4.20266e-18

*RES
0 *40:d *21:s 0.001  // $mwires

*END

*D_NET *61 8.74928e-18

*CONN
*I *34:s B *C 2.2525 1.3125 
*I *37:d B *C 2.2525 1.3125 

*CAP
0 *34:s 8.74928e-18

*RES
0 *37:d *34:s 0.001  // $mwires

*END

*D_NET *60 1.37987e-18

*CONN
*I *26:d B *C 1.8050 1.3125 
*I *30:s B *C 1.8050 1.3125 

*CAP
0 *26:d 1.37987e-18

*RES
0 *30:s *26:d 0.001  // $mwires

*END

*D_NET *59 3.92613e-18

*CONN
*I *20:s B *C 1.3025 1.3125 
*I *23:d B *C 1.3025 1.3125 

*CAP
0 *20:s 3.92613e-18

*RES
0 *23:d *20:s 0.001  // $mwires

*END

*D_NET *58 0

*CONN
*I *16:d B *C 0.7150 1.3175 
*I *18:s B *C 0.7150 1.3175 


*RES
0 *18:s *16:d 0.001  // $mwires

*END

*D_NET *57 9.19507e-16

*CONN
*I *13:g B *C 2.9525 0.4125 
*I *29:d B *C 5.3250 0.4225 
*I *24:g B *C 3.3175 1.1000 
*I *43:d B *C 5.3250 1.0625 
*N *57:2 *C 3.0250 0.7000 
*N *57:4 *C 3.2900 0.8200 
*N *57:6 *C 5.3350 0.6000 

*CAP
0 *43:d 2.48197e-17
1 *24:g 3.02466e-17
2 *29:d 1.82931e-17
3 *13:g 3.9189e-17
4 *57:6 3.18401e-16
5 *57:2 1.0748e-16
6 *57:4 3.81077e-16

*RES
0 *13:g *57:2 86.010437  // $poly_conn
1 *24:g *57:4 68.538101  // $poly_conn
2 *43:d *57:6 62.293427  // $metal1_conn
3 *57:6 *57:4 2.720457  // $metal1_conn
4 *57:4 *57:2 0.280938  // $metal1_conn
5 *57:6 *29:d 75.11554  // $metal1_conn

*END

*D_NET *56 9.17637e-16

*CONN
*I *33:d B *C 0.2450 0.4075 
*I *32:g B *C 0.6475 0.4075 
*I *44:g B *C 1.9275 0.4425 
*I *45:d B *C 0.2450 1.3175 
*I *20:g B *C 1.2075 1.3125 
*I *34:g B *C 2.0675 1.3125 
*N *56:2 *C 0.6850 0.2150 
*N *56:4 *C 1.1800 0.9850 
*N *56:7 *C 1.8900 0.2700 
*N *56:8 *C 1.1800 0.3300 
*N *56:9 *C 0.2350 0.5550 

*CAP
0 *34:g 6.29906e-17
1 *20:g 4.17394e-17
2 *45:d 6.47408e-17
3 *44:g 7.51909e-17
4 *32:g 6.50465e-17
5 *33:d 1.72533e-17
6 *56:9 1.12915e-16
7 *56:8 1.3676e-16
8 *56:2 1.21332e-16
9 *56:4 1.12314e-16
10 *56:7 1.07354e-16

*RES
0 *32:g *56:2 66.283424  // $poly_conn
1 *20:g *56:4 92.897079  // $poly_conn
2 *34:g *44:g 189.164459  // $poly_conn
3 *44:g *56:7 61.15522  // $poly_conn
4 *56:7 *56:8 0.505  // $metal1_conn
5 *56:8 *56:2 0.441029  // $metal1_conn
6 *56:2 *56:9 0.551784  // $metal1_conn
7 *56:9 *33:d 75.070747  // $metal1_conn
8 *56:8 *56:4 0.451699  // $metal1_conn
9 *56:9 *45:d 62.639942  // $metal1_conn

*END

*D_NET *55 7.21479e-16

*CONN
*I *32:d B *C 0.9950 0.4075 
*I *36:d B *C 0.9950 0.4075 
*I *48:g B *C 2.7325 0.4125 
*I *18:d B *C 1.1350 1.3125 
*I *20:d B *C 1.1350 1.3125 
*I *40:g B *C 2.7325 1.1000 
*N *55:2 *C 2.7050 0.8350 
*N *55:5 *C 1.0200 1.3600 

*CAP
0 *40:g 3.92151e-17
1 *18:d 2.32778e-16
2 *48:g 4.52255e-17
3 *32:d 1.23483e-16
4 *55:2 2.80777e-16

*RES
0 *40:g *55:2 19.691952  // $poly_conn
1 *55:2 *48:g 73.538109  // $poly_conn
2 *55:2 *55:5 46.706295  // $metal1_conn
3 *55:5 *32:d 75.676498  // $metal1_conn
4 *18:d *55:5 62  // $metal1_conn

*END

*D_NET *54 6.46554e-16

*CONN
*I *15:g B *C 3.4675 0.4125 
*I *44:d B *C 2.0550 0.4425 
*I *46:d B *C 2.0550 0.4425 
*I *27:g B *C 3.5725 1.1000 
*I *30:d B *C 1.9650 1.3125 
*I *34:d B *C 1.9650 1.3125 
*N *54:2 *C 3.6100 0.6150 
*N *54:4 *C 2.3150 0.6200 

*CAP
0 *30:d 8.89147e-17
1 *27:g 5.34858e-17
2 *44:d 4.24523e-17
3 *15:g 2.63589e-17
4 *54:4 2.26863e-16
5 *54:2 2.08479e-16

*RES
0 *27:g *54:2 75.129578  // $poly_conn
1 *54:2 *15:g 52.266846  // $poly_conn
2 *54:2 *54:4 46.403187  // $metal1_conn
3 *54:4 *30:d 62.694714  // $metal1_conn
4 *54:4 *44:d 75.307457  // $metal1_conn

*END

*D_NET *53 8.69932e-16

*CONN
*I *13:d B *C 3.0550 0.4125 
*I *14:d B *C 3.0550 0.4125 
*I *17:g B *C 3.8725 0.3850 
*I *19:g B *C 4.2925 0.3650 
*I *22:g B *C 4.7075 0.3650 
*I *25:g B *C 4.9125 0.3650 
*I *21:d B *C 3.1575 1.1000 
*I *24:d B *C 3.1575 1.1000 
*I *31:g B *C 4.0375 1.1000 
*I *35:g B *C 4.2425 1.1000 
*I *38:g B *C 4.5075 1.1000 
*I *41:g B *C 4.7125 1.1000 
*N *53:8 *C 3.7900 0.7750 

*CAP
0 *41:g 4.46986e-16
1 *21:d 1.91291e-16
2 *13:d 1.02936e-16
3 *53:8 1.28718e-16

*RES
0 *41:g *53:8 52.325283  // $poly_conn
1 *41:g *21:d 108.2071  // $metal1_conn
2 *53:8 *13:d 75.722908  // $metal1_conn

*END

