*SPEF "IEEE 1481-1999"
*DESIGN  "MXI4X1"
*DATE "Mon Sep 27 10:04:54 2010"
*VENDOR "Cadence Design Systems"
*PROGRAM "Assura RCX"
*VERSION "3.2 Red Hat Linux release 7.2 (Enigma) - (09/09/2009-10:39)"
*DESIGN_FLOW "Physical Verification"
*DIVIDER /
*DELIMITER :
*BUS_DELIMITER []
*T_UNIT 1 PS
*C_UNIT 1e15 FF
*R_UNIT 1 OHM
*L_UNIT 1 MH
// DeviceFingerDelim "@"
// MATCHED
// caps2d version: 10

*NAME_MAP
*1 net329
*2 net377
*3 net369
*4 net361
*5 net349
*6 VDD
*7 Y
*8 mp9
*9 mp7
*10 mp6
*11 mp4
*12 mp5
*13 mp3
*14 mp2
*15 mp0
*16 mp1
*17 mp14
*18 mp12
*19 mp13
*20 mp11
*21 mp10
*22 mp8
*23 mn1
*24 mn12
*25 mn13
*26 mn11
*27 mn10
*28 S0
*29 mn8
*30 S1
*31 VSS
*32 S1b
*33 n2
*34 n1
*35 mn9
*36 n0
*37 mn7
*38 S0b
*39 mn6
*40 net284
*41 A
*42 mn4
*43 net280
*44 B
*45 mn5
*46 net320
*47 C
*48 mn3
*49 net312
*50 D
*51 mn2
*52 net304
*53 mn0
*54 mn14
*55 net296
*56 net345

*GROUND_NETS VSS

*PORTS
*6 I
*31 I
*41 I
*44 I
*47 I
*50 I
*28 I
*30 I
*7 O

*D_NET *6 5.90267e-16

*CONN
*P *6 I *C 0.1000 1.7100 
*I *10:s B *C 2.8550 1.3025 
*I *11:s B *C 2.8550 1.3025 
*I *14:s B *C 3.6750 1.3025 
*I *15:s B *C 3.6750 1.3025 
*I *17:s B *C 0.4800 1.0075 
*I *16:s B *C 0.4800 1.0075 
*I *18:s B *C 0.9250 1.1375 
*I *21:s B *C 1.9350 1.1475 
*I *22:s B *C 1.9350 1.1475 
*N *6:2 *C 3.2000 1.7100 
*N *6:3 *C 3.2000 1.7100 
*N *6:4 *C 2.8000 1.7100 
*N *6:5 *C 1.8500 1.7100 
*N *6:6 *C 1.1000 1.7100 
*N *6:7 *C 0.7850 1.7100 
*N *6:8 *C 0.3550 1.7100 

*CAP
0 *21:s 2.65417e-17
1 *18:s 4.12876e-17
2 *17:s 3.90293e-17
3 *14:s 4.87249e-17
4 *10:s 3.05563e-17
5 *6:8 6.46837e-18
6 *6:7 5.7636e-18
7 *6:5 4.29059e-17
8 *6:4 2.81963e-17
9 *6:2 3.13015e-16
10 *6 7.77817e-18

*RES
0 *14:s *6:3 62.482262  // $metal1_conn
1 *6:3 *6:4 0.200464  // $metal1_conn
2 *6:4 *6:5 0.475226  // $metal1_conn
3 *6:5 *6:6 0.375092  // $metal1_conn
4 *6:6 *6:7 0.157824  // $metal1_conn
5 *6:7 *6:8 0.215317  // $metal1_conn
6 *6:8 *6 0.127474  // $metal1_conn
7 *6:4 *10:s 62.131378  // $metal1_conn
8 *6:5 *21:s 62.045834  // $metal1_conn
9 *6:7 *18:s 62.26968  // $metal1_conn
10 *6:8 *17:s 62.267452  // $metal1_conn
11 *6:2 *6:3 7.5  // $metal1_conn
12 *6:2 *6:6 6.818182  // $metal1_conn

*END

*D_NET *31 0

*CONN
*P *31 I *C 0.1000 0.0000 
*I *39:s B *C 2.8600 0.5075 
*I *42:s B *C 2.8600 0.5075 
*I *51:s B *C 3.8250 0.5875 
*I *53:s B *C 3.8250 0.5875 
*I *54:s B *C 0.4600 0.5875 
*I *23:s B *C 0.4600 0.5875 
*I *24:s B *C 0.9850 0.5075 
*I *27:s B *C 1.7875 0.5075 
*I *29:s B *C 1.7875 0.5075 
*N *31:2 *C 3.2000 0.0000 
*N *31:3 *C 3.2000 0.0000 
*N *31:4 *C 2.7750 0.0000 
*N *31:5 *C 1.6950 0.0000 
*N *31:6 *C 1.1000 0.0000 
*N *31:7 *C 0.9000 0.0000 
*N *31:8 *C 0.4150 0.0000 


*RES
0 *51:s *31:3 75.385597  // $metal1_conn
1 *31:3 *31:4 0.213005  // $metal1_conn
2 *31:4 *31:5 0.54139  // $metal1_conn
3 *31:5 *31:6 0.298286  // $metal1_conn
4 *31:6 *31:7 0.099184  // $metal1_conn
5 *31:7 *31:8 0.241008  // $metal1_conn
6 *31:8 *31 0.156623  // $metal1_conn
7 *31:4 *39:s 75.196037  // $metal1_conn
8 *31:5 *27:s 75.322144  // $metal1_conn
9 *31:7 *24:s 75.04583  // $metal1_conn
10 *31:8 *54:s 75.04583  // $metal1_conn
11 *31:2 *31:3 6.2  // $metal1_conn
12 *31:2 *31:6 5.636364  // $metal1_conn

*END

*D_NET *41 2.86527e-16

*CONN
*P *41 I *C 3.5000 1.0450 
*I *51:g B *C 3.6075 0.5075 
*I *14:g B *C 3.5325 1.3025 
*N *41:2 *C 3.5700 1.0950 

*CAP
0 *14:g 4.87188e-17
1 *51:g 6.27892e-17
2 *41:2 1.39231e-16
3 *41 3.57879e-17

*RES
0 *51:g *41:2 124.835785  // $poly_conn
1 *41:2 *14:g 18.425531  // $poly_conn
2 *41 *41:2 45.019131  // $metal1_conn

*END

*D_NET *44 2.5699e-16

*CONN
*P *44 I *C 2.9000 1.0450 
*I *42:g B *C 2.9075 0.5075 
*I *11:g B *C 2.9025 1.3025 
*N *44:2 *C 2.8650 0.9700 
*N *44:4 *C 2.8650 0.9700 
*N *44:5 *C 2.8825 0.9700 
*N *44:6 *C 2.8825 1.0450 

*CAP
0 *11:g 4.3849e-17
1 *42:g 5.60527e-17
2 *44:5 2.93565e-17
3 *44:2 7.27091e-17
4 *44 5.50228e-17

*RES
0 *42:g *44:2 117.302658  // $poly_conn
1 *44:2 *11:g 48.206497  // $poly_conn
2 *44:4 *44:5 0.004455  // $metal1_conn
3 *44:6 *44 0.004583  // $metal1_conn
4 *44:5 *44:6 0.026326  // $metal1_conn
5 *44:2 *44:4 45  // $metal1_conn

*END

*D_NET *47 2.66795e-16

*CONN
*P *47 I *C 2.5000 1.0450 
*I *39:g B *C 2.5875 0.5075 
*I *10:g B *C 2.5875 1.1475 
*N *47:2 *C 2.6150 0.9050 

*CAP
0 *10:g 3.89789e-17
1 *39:g 7.35505e-17
2 *47:2 1.14063e-16
3 *47 4.02021e-17

*RES
0 *10:g *47:2 26.102209  // $poly_conn
1 *47:2 *39:g 74.820152  // $poly_conn
2 *47:2 *47 45.13419  // $metal1_conn

*END

*D_NET *50 2.42573e-16

*CONN
*P *50 I *C 1.7000 0.8550 
*I *29:g B *C 1.9825 0.5075 
*I *22:g B *C 1.9825 1.1475 
*N *50:2 *C 1.9825 0.9300 
*N *50:3 *C 1.9250 0.9300 

*CAP
0 *22:g 6.54557e-17
1 *29:g 2.81673e-17
2 *50:2 3.57932e-17
3 *50:3 4.52722e-17
4 *50 6.78847e-17

*RES
0 *22:g *50:2 25.450441  // $poly_conn
1 *50:2 *50:3 45.794373  // $poly_conn
2 *50:2 *29:g 86.988899  // $poly_conn
3 *50:3 *50 0.139419  // $metal1_conn

*END

*D_NET *28 7.49613e-16

*CONN
*P *28 I *C 3.7000 0.8550 
*I *35:g B *C 2.2775 0.5075 
*I *45:g B *C 3.2025 0.5075 
*I *53:g B *C 3.8725 0.5875 
*I *9:g B *C 2.3975 1.1475 
*I *13:g B *C 3.4275 1.3025 
*I *15:g B *C 3.8175 1.3025 
*N *28:2 *C 2.4350 0.8100 
*N *28:5 *C 3.4650 0.8650 
*N *28:6 *C 3.2025 0.8375 
*N *28:7 *C 2.9250 0.8100 
*N *28:10 *C 3.8450 0.8450 

*CAP
0 *15:g 3.66353e-17
1 *13:g 6.74575e-17
2 *9:g 4.31806e-17
3 *53:g 3.12057e-17
4 *45:g 3.68595e-17
5 *35:g 3.71544e-17
6 *28:6 2.90091e-17
7 *28:2 1.36714e-16
8 *28:7 1.44823e-16
9 *28:5 9.49183e-17
10 *28:10 6.55873e-17
11 *28 2.60673e-17

*RES
0 *9:g *28:2 49.488552  // $poly_conn
1 *28:2 *35:g 75.343773  // $poly_conn
2 *13:g *28:5 75.129578  // $poly_conn
3 *28:5 *28:6 55.105778  // $poly_conn
4 *28:6 *28:7 106.488663  // $poly_conn
5 *28:6 *45:g 61.326126  // $poly_conn
6 *53:g *28:10 38.922722  // $poly_conn
7 *28:10 *15:g 81.230408  // $poly_conn
8 *28:7 *28:2 45.410812  // $metal1_conn
9 *28:10 *28 45.086826  // $metal1_conn
10 *28 *28:5 45.141502  // $metal1_conn

*END

*D_NET *30 6.13059e-16

*CONN
*P *30 I *C 0.5000 0.4750 
*I *23:g B *C 0.5375 0.5875 
*I *25:g B *C 1.1375 0.5075 
*I *16:g B *C 0.5375 1.0075 
*I *20:g B *C 1.4325 1.1375 
*N *30:2 *C 0.5100 0.7700 
*N *30:5 *C 1.1750 0.2750 
*N *30:7 *C 1.4600 0.8200 

*CAP
0 *20:g 4.64244e-17
1 *16:g 3.63469e-17
2 *25:g 9.03041e-17
3 *23:g 2.80137e-17
4 *30:2 6.80995e-17
5 *30:5 1.45525e-16
6 *30:7 1.23986e-16
7 *30 7.43586e-17

*RES
0 *16:g *30:2 24.820158  // $poly_conn
1 *30:2 *23:g 19.691952  // $poly_conn
2 *25:g *30:5 76.539833  // $poly_conn
3 *20:g *30:7 90.332977  // $poly_conn
4 *30:7 *30:5 0.593653  // $metal1_conn
5 *30:5 *30 0.604295  // $metal1_conn
6 *30 *30:2 45.215076  // $metal1_conn

*END

*D_NET *7 1.1418e-16

*CONN
*P *7 O *C 0.1000 0.6650 
*I *54:d B *C 0.1900 0.5300 
*I *17:d B *C 0.1900 1.1450 
*N *7:3 *C 0.1800 0.6000 

*CAP
0 *17:d 6.33095e-17
1 *54:d 3.62293e-17
2 *7 1.46409e-17

*RES
0 *17:d *7:3 21.002817  // $metal1_conn
1 *7:3 *7 0.037142  // $metal1_conn
2 *54:d *7:3 75  // $metal1_conn

*END

*D_NET *5 0

*CONN
*I *48:s B *C 3.5075 0.5075 
*I *51:d B *C 3.5075 0.5075 


*RES
0 *51:d *48:s 0.001  // $mwires

*END

*D_NET *4 4.4952e-18

*CONN
*I *42:d B *C 3.0550 0.5075 
*I *45:s B *C 3.0550 0.5075 

*CAP
0 *42:d 4.4952e-18

*RES
0 *45:s *42:d 0.001  // $mwires

*END

*D_NET *3 0

*CONN
*I *37:s B *C 2.5350 0.5075 
*I *39:d B *C 2.5350 0.5075 


*RES
0 *39:d *37:s 0.001  // $mwires

*END

*D_NET *2 2.75831e-18

*CONN
*I *35:s B *C 2.1300 0.5075 
*I *29:d B *C 2.1300 0.5075 

*CAP
0 *35:s 2.75831e-18

*RES
0 *29:d *35:s 0.001  // $mwires

*END

*D_NET *1 1.81547e-18

*CONN
*I *26:s B *C 1.4675 0.5075 
*I *27:d B *C 1.4675 0.5075 

*CAP
0 *26:s 1.81547e-18

*RES
0 *27:d *26:s 0.001  // $mwires

*END

*D_NET *56 0

*CONN
*I *24:d B *C 1.0850 0.5075 
*I *25:s B *C 1.0850 0.5075 


*RES
0 *25:s *24:d 0.001  // $mwires

*END

*D_NET *55 0

*CONN
*I *13:s B *C 3.4800 1.3025 
*I *14:d B *C 3.4800 1.3025 


*RES
0 *14:d *13:s 0.001  // $mwires

*END

*D_NET *52 3.45332e-18

*CONN
*I *11:d B *C 2.9900 1.3025 
*I *12:s B *C 2.9900 1.3025 

*CAP
0 *11:d 3.45332e-18

*RES
0 *12:s *11:d 0.001  // $mwires

*END

*D_NET *49 1.931e-18

*CONN
*I *9:s B *C 2.4925 1.1475 
*I *10:d B *C 2.4925 1.1475 

*CAP
0 *9:s 1.931e-18

*RES
0 *10:d *9:s 0.001  // $mwires

*END

*D_NET *46 3.13236e-18

*CONN
*I *8:s B *C 2.0350 1.1475 
*I *22:d B *C 2.0350 1.1475 

*CAP
0 *8:s 3.13236e-18

*RES
0 *22:d *8:s 0.001  // $mwires

*END

*D_NET *43 4.58303e-18

*CONN
*I *20:s B *C 1.5125 1.1375 
*I *21:d B *C 1.5125 1.1375 

*CAP
0 *20:s 4.58303e-18

*RES
0 *21:d *20:s 0.001  // $mwires

*END

*D_NET *40 2.1825e-18

*CONN
*I *18:d B *C 1.0875 1.1375 
*I *19:s B *C 1.0875 1.1375 

*CAP
0 *18:d 2.1825e-18

*RES
0 *19:s *18:d 0.001  // $mwires

*END

*D_NET *38 1.02895e-15

*CONN
*I *37:g B *C 2.4825 0.5075 
*I *48:g B *C 3.4075 0.5075 
*I *53:d B *C 3.9950 0.5875 
*I *8:g B *C 2.0875 1.1475 
*I *12:g B *C 3.0775 1.3025 
*I *15:d B *C 3.9100 1.3025 
*N *38:2 *C 2.1150 0.9250 
*N *38:4 *C 2.4200 0.1900 
*N *38:6 *C 3.1150 0.9850 
*N *38:8 *C 3.3800 0.2000 
*N *38:9 *C 3.1150 0.4950 
*N *38:11 *C 4.0350 0.5750 

*CAP
0 *15:d 5.13405e-17
1 *12:g 3.85531e-17
2 *8:g 6.73377e-17
3 *53:d 8.23378e-17
4 *48:g 5.00814e-17
5 *37:g 6.25735e-17
6 *38:9 1.25596e-16
7 *38:2 1.30201e-16
8 *38:4 1.78842e-16
9 *38:6 1.10005e-16
10 *38:8 1.32084e-16

*RES
0 *8:g *38:2 65.973999  // $poly_conn
1 *37:g *38:4 102.88562  // $poly_conn
2 *12:g *38:6 89.360352  // $poly_conn
3 *48:g *38:8 96.743225  // $poly_conn
4 *38:6 *38:9 0.397106  // $metal1_conn
5 *38:9 *38:4 0.703602  // $metal1_conn
6 *38:4 *38:2 0.747869  // $metal1_conn
7 *38:9 *38:8 0.400292  // $metal1_conn
8 *38:8 *38:11 0.691782  // $metal1_conn
9 *38:11 *15:d 62.511444  // $metal1_conn
10 *53:d *38:11 75  // $metal1_conn

*END

*D_NET *36 5.66426e-16

*CONN
*I *45:d B *C 3.3050 0.5075 
*I *48:d B *C 3.3050 0.5075 
*I *27:g B *C 1.5925 0.5075 
*I *12:d B *C 3.2525 1.3025 
*I *13:d B *C 3.2525 1.3025 
*I *21:g B *C 1.5925 1.1375 
*N *36:3 *C 1.6300 1.4100 
*N *36:5 *C 3.2750 1.3500 

*CAP
0 *21:g 6.79371e-17
1 *12:d 1.90939e-16
2 *27:g 4.55446e-17
3 *45:d 9.06633e-17
4 *36:3 1.71343e-16

*RES
0 *21:g *27:g 115.384613  // $poly_conn
1 *21:g *36:3 77.821884  // $poly_conn
2 *36:3 *36:5 1.186537  // $metal1_conn
3 *36:5 *45:d 75.611427  // $metal1_conn
4 *12:d *36:5 62  // $metal1_conn

*END

*D_NET *34 5.49086e-16

*CONN
*I *35:d B *C 2.3800 0.5075 
*I *37:d B *C 2.3800 0.5075 
*I *24:g B *C 1.0325 0.5075 
*I *8:d B *C 2.2425 1.1475 
*I *9:d B *C 2.2425 1.1475 
*I *18:g B *C 0.9975 1.1375 
*N *34:3 *C 1.0350 1.3450 
*N *34:6 *C 2.2750 1.1600 

*CAP
0 *18:g 5.56518e-17
1 *8:d 1.67988e-16
2 *24:g 8.14372e-17
3 *35:d 9.50208e-17
4 *34:3 1.48989e-16

*RES
0 *24:g *18:g 119.325951  // $poly_conn
1 *18:g *34:3 61.15522  // $poly_conn
2 *35:d *34:6 75.575455  // $metal1_conn
3 *34:6 *34:3 1.016354  // $metal1_conn
4 *8:d *34:6 62  // $metal1_conn

*END

*D_NET *33 4.63923e-16

*CONN
*I *54:g B *C 0.2825 0.5300 
*I *25:d B *C 1.2400 0.5075 
*I *26:d B *C 1.2400 0.5075 
*I *17:g B *C 0.2825 1.1450 
*I *19:d B *C 1.3050 1.1375 
*I *20:d B *C 1.3050 1.1375 
*N *33:1 *C 0.3400 0.8000 
*N *33:2 *C 0.2825 0.8000 
*N *33:6 *C 1.2900 1.1050 

*CAP
0 *17:g 3.84052e-17
1 *25:d 6.50326e-17
2 *54:g 3.00688e-17
3 *33:6 1.70837e-16
4 *33:2 3.40246e-17
5 *33:1 1.25555e-16

*RES
0 *33:1 *33:2 45.794373  // $poly_conn
1 *33:2 *54:g 30.819893  // $poly_conn
2 *33:2 *17:g 33.383999  // $poly_conn
3 *25:d *33:6 75.467636  // $metal1_conn
4 *33:6 *33:1 0.961914  // $metal1_conn
5 *33:6 *19:d 62.046131  // $metal1_conn

*END

*D_NET *32 3.31797e-16

*CONN
*I *23:d B *C 0.6600 0.5875 
*I *26:g B *C 1.3425 0.5075 
*I *16:d B *C 0.6300 1.0075 
*I *19:g B *C 1.1775 1.1375 
*N *32:2 *C 1.1400 0.9300 
*N *32:4 *C 0.7300 0.9600 

*CAP
0 *19:g 4.56601e-17
1 *16:d 2.05172e-17
2 *26:g 6.19262e-17
3 *23:d 3.73643e-17
4 *32:4 4.80655e-17
5 *32:2 1.18264e-16

*RES
0 *26:g *32:2 105.823433  // $poly_conn
1 *32:2 *19:g 16.15522  // $poly_conn
2 *32:2 *32:4 45.307537  // $metal1_conn
3 *32:4 *16:d 62.075512  // $metal1_conn
4 *32:4 *23:d 75.238106  // $metal1_conn

*END

