*SPEF "IEEE 1481-1999"
*DESIGN  "MXI4X2"
*DATE "Mon Sep 27 10:05:18 2010"
*VENDOR "Cadence Design Systems"
*PROGRAM "Assura RCX"
*VERSION "3.2 Red Hat Linux release 7.2 (Enigma) - (09/09/2009-10:39)"
*DESIGN_FLOW "Physical Verification"
*DIVIDER /
*DELIMITER :
*BUS_DELIMITER []
*T_UNIT 1 PS
*C_UNIT 1e15 FF
*R_UNIT 1 OHM
*L_UNIT 1 MH
// DeviceFingerDelim "@"
// MATCHED
// caps2d version: 10

*NAME_MAP
*1 Y
*2 mp2
*3 mp3
*4 mp5
*5 mp4
*6 mp6
*7 mp7
*8 mp9
*9 VDD
*10 mn8
*11 mn10
*12 mn11
*13 mn13
*14 mn12
*15 VSS
*16 mn14
*17 mp8
*18 mn14\@1
*19 mp10
*20 mn1
*21 mp11
*22 mn0
*23 mp13
*24 mp12
*25 mp14
*26 S0b
*27 mp14\@1
*28 n2
*29 mp1
*30 n1
*31 mp0
*32 S1b
*33 n0
*34 S0
*35 net296
*36 S1
*37 net304
*38 net312
*39 net320
*40 net280
*41 net284
*42 net349
*43 net361
*44 net369
*45 net377
*46 A
*47 net329
*48 B
*49 net345
*50 C
*51 D
*52 mn2
*53 mn3
*54 mn5
*55 mn4
*56 mn6
*57 mn7
*58 mn9

*GROUND_NETS VSS

*PORTS
*9 I
*15 I
*46 I
*48 I
*50 I
*51 I
*34 I
*36 I
*1 O

*D_NET *9 7.09644e-16

*CONN
*P *9 I *C 0.1000 1.7100 
*I *17:s B *C 3.0200 1.5700 
*I *19:s B *C 3.0200 1.5700 
*I *24:s B *C 4.5250 1.1000 
*I *25:s B *C 4.5250 1.1000 
*I *27:s B *C 5.0400 1.5700 
*I *29:s B *C 5.0400 1.5700 
*I *31:s B *C 0.4550 1.2525 
*I *2:s B *C 0.4550 1.2525 
*I *5:s B *C 1.5650 1.2525 
*I *6:s B *C 1.5650 1.2525 
*N *9:2 *C 4.5000 1.7100 
*N *9:5 *C 2.9950 1.7100 
*N *9:6 *C 2.7000 1.7100 
*N *9:7 *C 1.3800 1.7100 
*N *9:8 *C 0.9000 1.7100 
*N *9:9 *C 0.4550 1.7100 

*CAP
0 *5:s 2.44914e-17
1 *31:s 3.50621e-17
2 *27:s 9.06952e-17
3 *17:s 2.25362e-17
4 *9:9 8.68338e-18
5 *9:7 4.57629e-17
6 *9:5 3.43222e-17
7 *9:2 4.39981e-16
8 *9 8.10965e-18

*RES
0 *9:9 *9 0.177639  // $metal1_conn
1 *9:2 *27:s 8.333333  // $metal1_conn
2 *9:2 *9:6 8.333333  // $metal1_conn
3 *9:2 *9:8 8.333333  // $metal1_conn
4 *9:5 *17:s 62.045834  // $metal1_conn
5 *9:7 *5:s 62.074837  // $metal1_conn
6 *9:9 *31:s 62.255524  // $metal1_conn
7 *27:s *9:5 0.723543  // $metal1_conn
8 *9:5 *9:6 0.146841  // $metal1_conn
9 *9:6 *9:7 0.661983  // $metal1_conn
10 *9:7 *9:8 0.240596  // $metal1_conn
11 *9:8 *9:9 0.223038  // $metal1_conn

*END

*D_NET *15 0

*CONN
*P *15 I *C 0.1000 0.0000 
*I *10:s B *C 3.0800 0.4725 
*I *11:s B *C 3.0800 0.4725 
*I *14:s B *C 4.4900 0.5300 
*I *16:s B *C 4.4900 0.5300 
*I *18:s B *C 5.1000 0.5875 
*I *20:s B *C 5.1000 0.5875 
*I *22:s B *C 0.5100 0.4725 
*I *52:s B *C 0.5100 0.4725 
*I *55:s B *C 1.5750 0.4725 
*I *56:s B *C 1.5750 0.4725 
*N *15:2 *C 4.5000 0.0000 
*N *15:5 *C 2.9950 0.0000 
*N *15:6 *C 2.7000 0.0000 
*N *15:7 *C 1.4550 0.0000 
*N *15:8 *C 0.9000 0.0000 
*N *15:9 *C 0.4250 0.0000 


*RES
0 *15:9 *15 0.162589  // $metal1_conn
1 *15:2 *18:s 6.888889  // $metal1_conn
2 *15:2 *15:6 6.888889  // $metal1_conn
3 *15:2 *15:8 6.888889  // $metal1_conn
4 *15:5 *10:s 37.628372  // $metal1_conn
5 *15:7 *55:s 75.074837  // $metal1_conn
6 *15:9 *22:s 37.639435  // $metal1_conn
7 *18:s *15:5 0.571489  // $metal1_conn
8 *15:5 *15:6 0.147791  // $metal1_conn
9 *15:6 *15:7 0.624359  // $metal1_conn
10 *15:7 *15:8 0.27822  // $metal1_conn
11 *15:8 *15:9 0.238088  // $metal1_conn

*END

*D_NET *46 3.09045e-16

*CONN
*P *46 I *C 0.5000 1.0450 
*I *52:g B *C 0.5575 0.4725 
*I *2:g B *C 0.5575 1.2525 
*N *46:2 *C 0.5200 0.9900 

*CAP
0 *2:g 5.65607e-17
1 *52:g 7.95755e-17
2 *46:2 1.51929e-16
3 *46 2.09803e-17

*RES
0 *2:g *46:2 30.257782  // $poly_conn
1 *46:2 *52:g 104.61676  // $poly_conn
2 *46 *46:2 45.033932  // $metal1_conn

*END

*D_NET *48 2.73869e-16

*CONN
*P *48 I *C 1.3000 1.0450 
*I *55:g B *C 1.3225 0.4725 
*I *5:g B *C 1.2475 1.2525 
*N *48:2 *C 1.2850 1.0450 

*CAP
0 *5:g 3.49476e-17
1 *55:g 6.00655e-17
2 *48:2 5.07863e-17
3 *48 1.28069e-16

*RES
0 *55:g *48:2 120.989639  // $poly_conn
1 *48:2 *5:g 18.425531  // $poly_conn
2 *48:2 *48 45.004025  // $metal1_conn

*END

*D_NET *50 2.50452e-16

*CONN
*P *50 I *C 1.7000 1.0450 
*I *56:g B *C 1.6575 0.4725 
*I *6:g B *C 1.7125 1.2525 
*N *50:2 *C 1.6850 1.0350 
*N *50:4 *C 1.6850 1.0350 

*CAP
0 *6:g 2.48818e-17
1 *56:g 7.39652e-17
2 *50:2 4.08679e-17
3 *50 1.10737e-16

*RES
0 *6:g *50:2 19.691952  // $poly_conn
1 *50:2 *56:g 117.127853  // $poly_conn
2 *50:4 *50 0.004024  // $metal1_conn
3 *50:2 *50:4 45  // $metal1_conn

*END

*D_NET *51 2.17244e-16

*CONN
*P *51 I *C 2.9000 0.8550 
*I *10:g B *C 2.8625 0.4725 
*I *17:g B *C 2.8625 1.2525 
*N *51:2 *C 2.8900 0.8500 
*N *51:4 *C 2.8900 0.8500 

*CAP
0 *17:g 4.15463e-17
1 *10:g 3.59798e-17
2 *51:2 1.39718e-16

*RES
0 *17:g *51:2 67.127846  // $poly_conn
1 *51:2 *10:g 69.691956  // $poly_conn
2 *51:4 *51 0.003116  // $metal1_conn
3 *51:2 *51:4 45  // $metal1_conn

*END

*D_NET *34 9.08791e-16

*CONN
*P *34 I *C 0.3000 0.8550 
*I *22:g B *C 0.2925 0.5025 
*I *54:g B *C 1.1425 0.4725 
*I *58:g B *C 2.4575 0.4725 
*I *31:g B *C 0.3525 1.2525 
*I *3:g B *C 0.6625 1.2525 
*I *7:g B *C 2.0775 1.2525 
*N *34:2 *C 0.3150 0.7100 
*N *34:5 *C 1.1800 0.8000 
*N *34:6 *C 0.7000 0.8000 
*N *34:9 *C 2.0500 0.9250 
*N *34:11 *C 2.4200 0.8250 
*N *34:12 *C 0.3150 0.7100 
*N *34:13 *C 2.0500 0.8300 

*CAP
0 *7:g 2.61047e-17
1 *3:g 6.66762e-17
2 *31:g 4.67597e-17
3 *58:g 3.02164e-17
4 *54:g 3.8319e-17
5 *22:g 2.89718e-17
6 *34:13 1.05983e-16
7 *34:2 9.48831e-17
8 *34:6 1.42247e-16
9 *34:5 1.45467e-16
10 *34:9 5.26602e-17
11 *34:11 9.59605e-17
12 *34 3.45416e-17

*RES
0 *31:g *34:2 102.05265  // $poly_conn
1 *34:2 *22:g 25.129578  // $poly_conn
2 *54:g *34:5 55.898808  // $poly_conn
3 *34:5 *34:6 100.351929  // $poly_conn
4 *34:6 *3:g 78.975731  // $poly_conn
5 *7:g *34:9 92.897079  // $poly_conn
6 *58:g *34:11 107.309067  // $poly_conn
7 *34:6 *34:12 45.277809  // $metal1_conn
8 *34:12 *34 0.08643  // $metal1_conn
9 *34:2 *34:12 45  // $metal1_conn
10 *34:9 *34:13 0.050863  // $metal1_conn
11 *34:13 *34:11 0.279227  // $metal1_conn
12 *34:13 *34:5 45.656311  // $metal1_conn

*END

*D_NET *36 6.34233e-16

*CONN
*P *36 I *C 5.1000 0.8550 
*I *13:g B *C 3.5175 0.4725 
*I *20:g B *C 5.1475 0.5875 
*I *21:g B *C 3.3925 1.0675 
*I *29:g B *C 5.0775 1.0125 
*N *36:2 *C 3.4200 0.8500 
*N *36:5 *C 5.1050 0.7950 

*CAP
0 *29:g 1.54523e-17
1 *21:g 2.63083e-17
2 *20:g 2.12525e-17
3 *13:g 5.22537e-17
4 *36:2 2.85993e-16
5 *36:5 4.51357e-17
6 *36 1.87838e-16

*RES
0 *13:g *36:2 67.521477  // $poly_conn
1 *36:2 *21:g 18.183649  // $poly_conn
2 *20:g *36:5 25.207939  // $poly_conn
3 *36:5 *29:g 16.530039  // $poly_conn
4 *36:5 *36 45.029034  // $metal1_conn
5 *36 *36:2 46.887646  // $metal1_conn

*END

*D_NET *1 1.03568e-16

*CONN
*P *1 O *C 4.7000 0.8550 
*I *16:d B *C 4.6650 0.5300 
*I *18:d B *C 4.6650 0.5300 
*I *25:d B *C 4.6750 1.1000 
*I *27:d B *C 4.6750 1.1000 

*CAP
0 *25:d 2.56798e-17
1 *16:d 4.41004e-17
2 *1 3.37881e-17

*RES
0 *1 *16:d 75.146523  // $metal1_conn
1 *25:d *1 62.061909  // $metal1_conn

*END

*D_NET *49 4.38708e-18

*CONN
*I *13:s B *C 3.6900 0.4725 
*I *14:d B *C 3.6900 0.4725 

*CAP
0 *13:s 4.38708e-18

*RES
0 *14:d *13:s 0.001  // $mwires

*END

*D_NET *47 4.90673e-19

*CONN
*I *11:d B *C 3.2200 0.4725 
*I *12:s B *C 3.2200 0.4725 

*CAP
0 *11:d 4.90673e-19

*RES
0 *12:s *11:d 0.001  // $mwires

*END

*D_NET *45 1.27521e-17

*CONN
*I *10:d B *C 2.6600 0.4725 
*I *58:s B *C 2.6600 0.4725 

*CAP
0 *10:d 1.27521e-17

*RES
0 *58:s *10:d 0.001  // $mwires

*END

*D_NET *44 0

*CONN
*I *56:d B *C 1.7475 0.4725 
*I *57:s B *C 1.7475 0.4725 


*RES
0 *57:s *56:d 0.001  // $mwires

*END

*D_NET *43 0

*CONN
*I *54:s B *C 1.2325 0.4725 
*I *55:d B *C 1.2325 0.4725 


*RES
0 *55:d *54:s 0.001  // $mwires

*END

*D_NET *42 9.72303e-19

*CONN
*I *52:d B *C 0.6100 0.4725 
*I *53:s B *C 0.6100 0.4725 

*CAP
0 *52:d 9.72303e-19

*RES
0 *53:s *52:d 0.001  // $mwires

*END

*D_NET *41 6.19022e-18

*CONN
*I *23:s B *C 3.8250 1.0675 
*I *24:d B *C 3.8250 1.0675 

*CAP
0 *23:s 6.19022e-18

*RES
0 *24:d *23:s 0.001  // $mwires

*END

*D_NET *40 6.3832e-18

*CONN
*I *19:d B *C 3.2600 1.0675 
*I *21:s B *C 3.2600 1.0675 

*CAP
0 *19:d 6.3832e-18

*RES
0 *21:s *19:d 0.001  // $mwires

*END

*D_NET *39 4.09697e-18

*CONN
*I *17:d B *C 2.7200 1.2525 
*I *8:s B *C 2.7200 1.2525 

*CAP
0 *17:d 4.09697e-18

*RES
0 *8:s *17:d 0.001  // $mwires

*END

*D_NET *38 2.658e-18

*CONN
*I *6:d B *C 1.8950 1.2525 
*I *7:s B *C 1.8950 1.2525 

*CAP
0 *6:d 2.658e-18

*RES
0 *7:s *6:d 0.001  // $mwires

*END

*D_NET *37 3.20101e-18

*CONN
*I *4:s B *C 1.1525 1.2525 
*I *5:d B *C 1.1525 1.2525 

*CAP
0 *4:s 3.20101e-18

*RES
0 *5:d *4:s 0.001  // $mwires

*END

*D_NET *35 0

*CONN
*I *2:d B *C 0.6100 1.2525 
*I *3:s B *C 0.6100 1.2525 


*RES
0 *3:s *2:d 0.001  // $mwires

*END

*D_NET *33 7.71474e-16

*CONN
*I *11:g B *C 3.1275 0.4725 
*I *53:d B *C 0.9025 0.4725 
*I *54:d B *C 0.9025 0.4725 
*I *19:g B *C 3.1275 1.0675 
*I *3:d B *C 0.8600 1.2525 
*I *4:d B *C 0.8600 1.2525 
*N *33:2 *C 3.1550 0.8500 
*N *33:5 *C 0.8600 1.2050 

*CAP
0 *3:d 3.07259e-16
1 *19:g 3.00092e-17
2 *53:d 1.05051e-16
3 *11:g 4.74877e-17
4 *33:2 2.81666e-16

*RES
0 *19:g *33:2 19.691952  // $poly_conn
1 *33:2 *11:g 69.691956  // $poly_conn
2 *33:2 *33:5 47.206375  // $metal1_conn
3 *33:5 *53:d 75.521614  // $metal1_conn
4 *3:d *33:5 62  // $metal1_conn

*END

*D_NET *32 7.45335e-16

*CONN
*I *12:g B *C 3.3125 0.4725 
*I *20:d B *C 5.2400 0.5875 
*I *23:g B *C 3.6825 1.0675 
*I *29:d B *C 5.1700 1.0125 
*N *32:2 *C 3.3450 0.6600 
*N *32:4 *C 3.6550 0.8150 
*N *32:7 *C 5.2500 0.6000 

*CAP
0 *29:d 4.48185e-17
1 *23:g 3.93688e-17
2 *20:d 2.11256e-16
3 *12:g 4.60225e-17
4 *32:2 9.95143e-17
5 *32:4 3.04355e-16

*RES
0 *12:g *32:2 63.680725  // $poly_conn
1 *23:g *32:4 73.666313  // $poly_conn
2 *29:d *32:7 62.3643  // $metal1_conn
3 *32:7 *32:4 1.778079  // $metal1_conn
4 *32:4 *32:2 0.344096  // $metal1_conn
5 *20:d *32:7 75  // $metal1_conn

*END

*D_NET *30 6.06589e-16

*CONN
*I *14:g B *C 3.8625 0.4725 
*I *57:d B *C 2.1475 0.4725 
*I *58:d B *C 2.1475 0.4725 
*I *24:g B *C 3.9675 1.0675 
*I *7:d B *C 2.3275 1.2525 
*I *8:d B *C 2.3275 1.2525 
*N *30:2 *C 4.0050 0.6450 
*N *30:5 *C 2.7300 0.4900 

*CAP
0 *7:d 1.29782e-16
1 *24:g 4.10377e-17
2 *57:d 2.95095e-17
3 *14:g 1.86348e-17
4 *30:5 1.94365e-16
5 *30:2 1.9326e-16

*RES
0 *24:g *30:2 71.283424  // $poly_conn
1 *30:2 *14:g 52.266846  // $poly_conn
2 *7:d *30:5 62.743858  // $metal1_conn
3 *30:5 *57:d 75.255524  // $metal1_conn
4 *30:5 *30:2 46.222683  // $metal1_conn

*END

*D_NET *28 7.09397e-16

*CONN
*I *12:d B *C 3.4150 0.4725 
*I *13:d B *C 3.4150 0.4725 
*I *16:g B *C 4.5625 0.5300 
*I *18:g B *C 4.7675 0.5300 
*I *21:d B *C 3.5375 1.0675 
*I *23:d B *C 3.5375 1.0675 
*I *25:g B *C 4.5725 1.1000 
*I *27:g B *C 4.7775 1.1000 
*N *28:4 *C 4.5150 0.8050 
*N *28:5 *C 4.1650 0.8050 

*CAP
0 *27:g 9.23032e-17
1 *21:d 1.697e-16
2 *12:d 1.29243e-16
3 *28:5 1.4258e-16
4 *28:4 1.75571e-16

*RES
0 *28:4 *28:5 76.184494  // $poly_conn
1 *27:g *28:4 2.402768  // $poly_conn
2 *28:4 *21:d 108.06633  // $metal1_conn
3 *28:5 *12:d 75.831505  // $metal1_conn

*END

*D_NET *26 1.07313e-15

*CONN
*I *22:d B *C 0.2000 0.5025 
*I *53:g B *C 0.6625 0.4725 
*I *57:g B *C 1.8375 0.4725 
*I *31:d B *C 0.2600 1.2525 
*I *4:g B *C 1.0575 1.2525 
*I *8:g B *C 2.5775 1.2525 
*N *26:2 *C 0.7000 0.1900 
*N *26:4 *C 1.0200 0.9600 
*N *26:5 *C 1.8000 0.6700 
*N *26:7 *C 1.8000 0.2500 
*N *26:8 *C 2.2400 1.0100 
*N *26:9 *C 2.1800 0.6500 
*N *26:11 *C 2.5400 1.0450 
*N *26:12 *C 1.0200 0.2950 
*N *26:13 *C 0.7000 0.2950 
*N *26:15 *C 0.1900 0.4900 

*CAP
0 *8:g 3.13327e-17
1 *4:g 3.81663e-17
2 *31:d 6.28738e-17
3 *57:g 1.58463e-17
4 *53:g 5.69996e-17
5 *22:d 1.05711e-16
6 *26:13 7.05313e-17
7 *26:12 9.4839e-17
8 *26:2 4.68294e-17
9 *26:4 1.35655e-16
10 *26:7 8.90924e-17
11 *26:5 6.91291e-17
12 *26:9 8.53501e-17
13 *26:8 8.56998e-17
14 *26:11 8.50757e-17

*RES
0 *53:g *26:2 89.360352  // $poly_conn
1 *4:g *26:4 82.950089  // $poly_conn
2 *26:5 *57:g 67.565475  // $poly_conn
3 *57:g *26:7 73.975731  // $poly_conn
4 *26:8 *26:9 171.497025  // $poly_conn
5 *8:g *26:11 61.15522  // $poly_conn
6 *26:7 *26:12 0.597853  // $metal1_conn
7 *26:12 *26:13 0.207008  // $metal1_conn
8 *26:13 *26:15 0.519727  // $metal1_conn
9 *26:12 *26:4 0.481966  // $metal1_conn
10 *26:13 *26:2 0.054665  // $metal1_conn
11 *26:15 *31:d 62.588425  // $metal1_conn
12 *22:d *26:15 75  // $metal1_conn
13 *26:9 *26:5 0.228328  // $metal1_conn
14 *26:11 *26:8 0.167273  // $metal1_conn

*END

