*SPEF "IEEE 1481-1999"
*DESIGN  "NAND2X2"
*DATE "Mon Sep 27 10:08:17 2010"
*VENDOR "Cadence Design Systems"
*PROGRAM "Assura RCX"
*VERSION "3.2 Red Hat Linux release 7.2 (Enigma) - (09/09/2009-10:39)"
*DESIGN_FLOW "Physical Verification"
*DIVIDER /
*DELIMITER :
*BUS_DELIMITER []
*T_UNIT 1 PS
*C_UNIT 1e15 FF
*R_UNIT 1 OHM
*L_UNIT 1 MH
// DeviceFingerDelim "@"
// MATCHED
// caps2d version: 10

*NAME_MAP
*1 mp0
*2 mp1
*3 mp1\@1
*4 mp0\@1
*5 VSS
*6 n0\@1
*7 n0
*8 mn0
*9 mn1
*10 A
*11 VDD
*12 mn1\@1
*13 Y
*14 B
*15 mn0\@1

*GROUND_NETS VSS

*PORTS
*11 I
*5 I
*10 I
*14 I
*13 O

*D_NET *11 2.02384e-16

*CONN
*P *11 I *C 0.1000 1.7100 
*I *1:s B *C 0.1100 1.1450 
*I *2:s B *C 0.5100 1.1450 
*I *3:s B *C 0.5100 1.1450 
*I *4:s B *C 0.9250 1.2900 
*N *11:2 *C 0.5000 1.7100 

*CAP
0 *2:s 8.05234e-17
1 *11:2 6.27423e-17
2 *11 5.91186e-17

*RES
0 *11:2 *11 15  // $metal1_conn
1 *11 *2:s 31.252098  // $metal1_conn

*END

*D_NET *5 0

*CONN
*P *5 I *C 0.1000 0.0000 
*I *8:s B *C 0.1850 0.4450 
*I *15:s B *C 0.8250 0.3275 
*N *5:2 *C 0.5000 0.0000 
*N *5:3 *C 0.5000 0.0000 
*N *5:4 *C 0.1750 0.0200 


*RES
0 *15:s *5:3 37.739273  // $metal1_conn
1 *5:3 *5:4 0.115368  // $metal1_conn
2 *5:4 *5 0.027069  // $metal1_conn
3 *5:4 *8:s 37.757889  // $metal1_conn
4 *5:2 *5:3 12.4  // $metal1_conn

*END

*D_NET *10 5.00949e-16

*CONN
*P *10 I *C 0.1100 0.8200 
*I *8:g B *C 0.2775 0.4450 
*I *15:g B *C 0.6925 0.4450 
*I *1:g B *C 0.2025 1.1450 
*I *4:g B *C 0.8175 1.1450 

*CAP
0 *4:g 3.71486e-16
1 *15:g 5.22025e-17
2 *8:g 5.42882e-17
3 *10 2.29716e-17

*RES
0 *4:g *15:g 29.614433  // $poly_conn
1 *8:g *4:g 30.219189  // $poly_conn
2 *4:g *10 0.08778  // $metal1_conn

*END

*D_NET *14 3.26705e-16

*CONN
*P *14 I *C 0.5200 0.6800 
*I *9:g B *C 0.3825 0.4450 
*I *12:g B *C 0.5875 0.4450 
*I *2:g B *C 0.4075 1.1450 
*I *3:g B *C 0.6125 1.1450 
*N *14:8 *C 0.4600 0.6850 
*N *14:9 *C 0.4600 0.6900 
*N *14:10 *C 0.5205 0.6850 

*CAP
0 *3:g 1.4539e-16
1 *12:g 4.94086e-17
2 *9:g 5.04213e-17
3 *14:10 4.44993e-17
4 *14:8 3.6986e-17

*RES
0 *3:g *12:g 27.232683  // $poly_conn
1 *3:g *9:g 32.806068  // $poly_conn
2 *14 *14:10 0.001288  // $metal1_conn
3 *3:g *14:9 45  // $metal1_conn
4 *14:8 *14:9 0.001288  // $metal1_conn
5 *14:8 *14:10 0.042536  // $metal1_conn

*END

*D_NET *13 4.1391e-16

*CONN
*P *13 O *C 0.9100 0.8000 
*I *9:d B *C 0.4850 0.4450 
*I *12:d B *C 0.4850 0.4450 
*I *1:d B *C 0.3050 1.1450 
*I *2:d B *C 0.3050 1.1450 
*I *3:d B *C 0.7150 1.1450 
*I *4:d B *C 0.7150 1.1450 

*CAP
0 *3:d 2.23698e-16
1 *9:d 9.66356e-17
2 *13 9.35772e-17

*RES
0 *13 *9:d 38.017159  // $metal1_conn
1 *3:d *13 0.259364  // $metal1_conn

*END

*D_NET *7 0

*CONN
*I *8:d B *C 0.3300 0.4450 
*I *9:s B *C 0.3300 0.4450 


*RES
0 *9:s *8:d 0.001  // $mwires

*END

*D_NET *6 1.492e-18

*CONN
*I *12:s B *C 0.6400 0.4450 
*I *15:d B *C 0.6400 0.4450 

*CAP
0 *12:s 1.492e-18

*RES
0 *15:d *12:s 0.001  // $mwires

*END

