*SPEF "IEEE 1481-1999"
*DESIGN  "NAND4BBX1"
*DATE "Mon Sep 27 10:13:54 2010"
*VENDOR "Cadence Design Systems"
*PROGRAM "Assura RCX"
*VERSION "3.2 Red Hat Linux release 7.2 (Enigma) - (09/09/2009-10:39)"
*DESIGN_FLOW "Physical Verification"
*DIVIDER /
*DELIMITER :
*BUS_DELIMITER []
*T_UNIT 1 PS
*C_UNIT 1e15 FF
*R_UNIT 1 OHM
*L_UNIT 1 MH
// DeviceFingerDelim "@"
// MATCHED
// caps2d version: 10

*NAME_MAP
*1 n0
*2 mp1
*3 n1
*4 mp5
*5 mp4
*6 mn1
*7 n2
*8 mp3
*9 mn5
*10 n3
*11 VSS
*12 mp2
*13 mn4
*14 n4
*15 mp0
*16 mn3
*17 mn2
*18 mn0
*19 Y
*20 BN
*21 C
*22 VDD
*23 D
*24 AN

*GROUND_NETS VSS

*PORTS
*22 I
*11 I
*24 I
*20 I
*21 I
*23 I
*19 O

*D_NET *22 3.13537e-16

*CONN
*P *22 I *C 0.1000 1.7100 
*I *2:s B *C 0.1100 1.1475 
*I *4:s B *C 0.7050 1.2850 
*I *5:s B *C 1.0850 1.2850 
*I *8:s B *C 1.0850 1.2850 
*I *12:s B *C 1.6150 1.1975 
*I *15:s B *C 1.6150 1.1975 
*N *22:2 *C 1.0850 1.7100 
*N *22:3 *C 1.0000 1.7100 
*N *22:4 *C 1.0000 1.7100 
*N *22:5 *C 0.6750 1.7100 

*CAP
0 *12:s 7.99003e-17
1 *5:s 3.32339e-17
2 *4:s 1.86448e-17
3 *2:s 2.65495e-17
4 *22:5 8.66755e-18
5 *22:2 1.35195e-17
6 *22:3 1.24054e-16
7 *22 8.96727e-18

*RES
0 *12:s *22:2 21.19677  // $metal1_conn
1 *22:2 *22:4 0.042408  // $metal1_conn
2 *22:4 *22:5 0.162732  // $metal1_conn
3 *22:5 *22 0.288112  // $metal1_conn
4 *22 *2:s 62.333473  // $metal1_conn
5 *22:2 *5:s 62.183289  // $metal1_conn
6 *22:5 *4:s 62.178661  // $metal1_conn
7 *22:3 *22:4 7.5  // $metal1_conn

*END

*D_NET *11 0

*CONN
*P *11 I *C 0.1000 0.0000 
*I *6:s B *C 0.1100 0.4525 
*I *17:s B *C 1.5950 0.4625 
*I *18:s B *C 1.5950 0.4625 
*N *11:2 *C 1.0000 0.0000 
*N *11:3 *C 1.0000 0.0000 


*RES
0 *17:s *11:3 75.484337  // $metal1_conn
1 *11:3 *11 0.451235  // $metal1_conn
2 *11 *6:s 75.286156  // $metal1_conn
3 *11:2 *11:3 6.2  // $metal1_conn

*END

*D_NET *24 2.2236e-16

*CONN
*P *24 I *C 1.7000 0.8550 
*I *18:g B *C 1.6775 0.4625 
*I *15:g B *C 1.6775 1.1975 
*N *24:2 *C 1.7050 0.8350 

*CAP
0 *15:g 3.32708e-17
1 *18:g 3.8115e-17
2 *24:2 1.50974e-16

*RES
0 *15:g *24:2 56.871437  // $poly_conn
1 *24:2 *18:g 68.409897  // $poly_conn
2 *24:2 *24 45.000645  // $metal1_conn

*END

*D_NET *20 1.70976e-16

*CONN
*P *20 I *C 0.1000 0.6650 
*I *6:g B *C 0.2025 0.4525 
*I *2:g B *C 0.2025 1.1475 
*N *20:2 *C 0.2025 0.9400 
*N *20:3 *C 0.1450 0.9400 

*CAP
0 *2:g 2.35301e-17
1 *6:g 3.14912e-17
2 *20:2 1.44848e-17
3 *20:3 5.38041e-17
4 *20 4.76657e-17

*RES
0 *2:g *20:2 22.886339  // $poly_conn
1 *20:2 *20:3 45.794373  // $poly_conn
2 *20:2 *6:g 103.655571  // $poly_conn
3 *20:3 *20 0.158321  // $metal1_conn

*END

*D_NET *21 2.83331e-16

*CONN
*P *21 I *C 0.9000 0.8550 
*I *13:g B *C 0.8825 0.4050 
*I *5:g B *C 0.9825 1.2850 
*N *21:2 *C 0.9100 0.8500 
*N *21:4 *C 0.9100 0.8500 

*CAP
0 *5:g 5.35642e-17
1 *13:g 7.55229e-17
2 *21:2 1.54244e-16

*RES
0 *5:g *21:2 55.271084  // $poly_conn
1 *21:2 *13:g 69.962776  // $poly_conn
2 *21:4 *21 0.002813  // $metal1_conn
3 *21:2 *21:4 45  // $metal1_conn

*END

*D_NET *23 2.76414e-16

*CONN
*P *23 I *C 0.5000 0.8550 
*I *9:g B *C 0.7775 0.4050 
*I *4:g B *C 0.7775 1.2850 
*N *23:2 *C 0.7775 0.6550 
*N *23:3 *C 0.6750 0.6550 

*CAP
0 *4:g 5.88119e-17
1 *9:g 5.88209e-17
2 *23:2 4.45571e-17
3 *23:3 6.71095e-17
4 *23 4.7115e-17

*RES
0 *4:g *23:2 108.227425  // $poly_conn
1 *23:2 *23:3 49.61615  // $poly_conn
2 *23:2 *9:g 27.458193  // $poly_conn
3 *23:3 *23 0.189877  // $metal1_conn

*END

*D_NET *19 3.58088e-16

*CONN
*P *19 O *C 1.3000 1.0450 
*I *9:d B *C 0.6850 0.4050 
*I *4:d B *C 0.8800 1.2850 
*I *5:d B *C 0.8800 1.2850 
*I *8:d B *C 1.3000 1.2850 
*I *12:d B *C 1.3000 1.2850 
*N *19:2 *C 1.3000 1.2300 

*CAP
0 *8:d 3.09523e-17
1 *4:d 6.78864e-17
2 *9:d 1.29834e-16
3 *19:2 3.39748e-17
4 *19 9.54409e-17

*RES
0 *4:d *19:2 31.341183  // $metal1_conn
1 *19:2 *19 0.118475  // $metal1_conn
2 *19 *9:d 75.945343  // $metal1_conn
3 *19:2 *8:d 31.087318  // $metal1_conn

*END

*D_NET *14 5.42928e-18

*CONN
*I *16:s B *C 1.2800 0.4050 
*I *17:d B *C 1.2800 0.4050 

*CAP
0 *16:s 5.42928e-18

*RES
0 *17:d *16:s 0.001  // $mwires

*END

*D_NET *10 9.09633e-18

*CONN
*I *13:s B *C 1.0350 0.4050 
*I *16:d B *C 1.0350 0.4050 

*CAP
0 *13:s 9.09633e-18

*RES
0 *16:d *13:s 0.001  // $mwires

*END

*D_NET *7 3.61197e-18

*CONN
*I *9:s B *C 0.8300 0.4050 
*I *13:d B *C 0.8300 0.4050 

*CAP
0 *9:s 3.61197e-18

*RES
0 *13:d *9:s 0.001  // $mwires

*END

*D_NET *3 4.33341e-16

*CONN
*I *6:d B *C 0.3275 0.4525 
*I *16:g B *C 1.1875 0.4050 
*I *2:d B *C 0.4500 1.1000 
*I *8:g B *C 1.1875 1.2850 
*N *3:2 *C 1.1875 0.6350 
*N *3:3 *C 1.1250 0.6350 
*N *3:7 *C 0.3050 0.4650 

*CAP
0 *8:g 6.64236e-17
1 *2:d 6.05069e-17
2 *16:g 3.40863e-17
3 *6:d 1.17221e-16
4 *3:2 3.49858e-17
5 *3:3 1.20116e-16

*RES
0 *8:g *3:2 113.911972  // $poly_conn
1 *3:2 *3:3 46.294373  // $poly_conn
2 *3:2 *16:g 22.886339  // $poly_conn
3 *2:d *3:7 62.457378  // $metal1_conn
4 *3:7 *3:3 0.650121  // $metal1_conn
5 *6:d *3:7 75  // $metal1_conn

*END

*D_NET *1 3.26711e-16

*CONN
*I *17:g B *C 1.3725 0.4050 
*I *18:d B *C 1.7700 0.4625 
*I *12:g B *C 1.4125 1.2850 
*I *15:d B *C 1.8275 1.1975 
*N *1:2 *C 1.4150 0.6600 
*N *1:4 *C 1.5150 0.6600 
*N *1:6 *C 1.7800 0.6450 

*CAP
0 *15:d 6.63604e-17
1 *12:g 6.33035e-17
2 *18:d 1.26295e-17
3 *17:g 4.40368e-17
4 *1:6 5.36975e-17
5 *1:2 3.57185e-17
6 *1:4 5.09646e-17

*RES
0 *12:g *1:2 101.299316  // $poly_conn
1 *1:2 *17:g 31.286283  // $poly_conn
2 *1:2 *1:4 52.57605  // $poly_conn
3 *15:d *1:6 62.448296  // $metal1_conn
4 *1:6 *1:4 0.197881  // $metal1_conn
5 *1:6 *18:d 75.093071  // $metal1_conn

*END

