*SPEF "IEEE 1481-1999"
*DESIGN  "NAND3BX1"
*DATE "Mon Sep 27 10:10:10 2010"
*VENDOR "Cadence Design Systems"
*PROGRAM "Assura RCX"
*VERSION "3.2 Red Hat Linux release 7.2 (Enigma) - (09/09/2009-10:39)"
*DESIGN_FLOW "Physical Verification"
*DIVIDER /
*DELIMITER :
*BUS_DELIMITER []
*T_UNIT 1 PS
*C_UNIT 1e15 FF
*R_UNIT 1 OHM
*L_UNIT 1 MH
// DeviceFingerDelim "@"
// MATCHED
// caps2d version: 10

*NAME_MAP
*1 mp3
*2 mp2
*3 mp1
*4 AN
*5 mp0
*6 VSS
*7 n0
*8 n2
*9 n1
*10 mn3
*11 mn2
*12 VDD
*13 mn1
*14 Y
*15 B
*16 mn0
*17 C

*GROUND_NETS VSS

*PORTS
*12 I
*6 I
*4 I
*15 I
*17 I
*14 O

*D_NET *12 2.32398e-16

*CONN
*P *12 I *C 0.1000 1.7100 
*I *1:s B *C 0.3800 1.2850 
*I *2:s B *C 0.3800 1.2850 
*I *3:s B *C 0.8775 1.1975 
*I *5:s B *C 0.8775 1.1975 
*N *12:2 *C 0.6000 1.7100 
*N *12:3 *C 0.6000 1.7100 
*N *12:4 *C 0.3800 1.7100 

*CAP
0 *3:s 4.09898e-17
1 *1:s 6.17441e-17
2 *12:4 6.50638e-18
3 *12:2 1.13275e-16
4 *12 9.88261e-18

*RES
0 *3:s *12:3 31.356571  // $metal1_conn
1 *12:3 *12:4 0.110518  // $metal1_conn
2 *12:4 *12 0.139875  // $metal1_conn
3 *12:4 *1:s 31.250038  // $metal1_conn
4 *12:2 *12:3 12.5  // $metal1_conn

*END

*D_NET *6 0

*CONN
*P *6 I *C 0.1000 0.0000 
*I *13:s B *C 0.8300 0.5075 
*I *16:s B *C 0.8300 0.5075 
*N *6:2 *C 0.6000 0.0000 
*N *6:3 *C 0.6000 0.0000 


*RES
0 *13:s *6:3 37.871426  // $metal1_conn
1 *6:3 *6 0.250324  // $metal1_conn
2 *6:2 *6:3 10.333333  // $metal1_conn

*END

*D_NET *4 1.90358e-16

*CONN
*P *4 I *C 0.9000 0.9800 
*I *16:g B *C 0.8775 0.5075 
*I *5:g B *C 0.9275 1.1975 
*N *4:2 *C 0.8900 0.8400 

*CAP
0 *5:g 3.66348e-17
1 *16:g 3.44284e-17
2 *4:2 8.31791e-17
3 *4 3.61153e-17

*RES
0 *5:g *4:2 54.61676  // $poly_conn
1 *4:2 *16:g 57.180859  // $poly_conn
2 *4 *4:2 45.093109  // $metal1_conn

*END

*D_NET *15 2.56174e-16

*CONN
*P *15 I *C 0.5000 0.8200 
*I *11:g B *C 0.4825 0.4500 
*I *2:g B *C 0.4825 1.2850 
*N *15:2 *C 0.5100 0.8600 
*N *15:5 *C 0.5050 0.8600 

*CAP
0 *2:g 5.35771e-17
1 *11:g 6.26893e-17
2 *15:5 4.32112e-17
3 *15:2 5.25349e-17
4 *15 4.41616e-17

*RES
0 *2:g *15:2 50.461182  // $poly_conn
1 *15:2 *11:g 63.281693  // $poly_conn
2 *15 *15:5 0.02485  // $metal1_conn
3 *15:2 *15:5 45  // $metal1_conn

*END

*D_NET *17 2.45415e-16

*CONN
*P *17 I *C 0.3000 0.6600 
*I *10:g B *C 0.3325 0.4500 
*I *1:g B *C 0.2775 1.2850 
*N *17:2 *C 0.3050 0.8500 

*CAP
0 *1:g 4.28955e-17
1 *10:g 4.69968e-17
2 *17:2 1.17573e-16
3 *17 3.79502e-17

*RES
0 *10:g *17:2 60.71759  // $poly_conn
1 *17:2 *1:g 53.025284  // $poly_conn
2 *17 *17:2 45.113728  // $metal1_conn

*END

*D_NET *14 2.89528e-16

*CONN
*P *14 O *C 0.1250 1.1600 
*I *10:d B *C 0.2400 0.4500 
*I *1:d B *C 0.1850 1.2850 
*I *2:d B *C 0.5850 1.2850 
*I *3:d B *C 0.5850 1.2850 
*N *14:2 *C 0.1600 1.1000 

*CAP
0 *2:d 8.86038e-17
1 *1:d 2.82394e-17
2 *10:d 7.4777e-17
3 *14 9.79082e-17

*RES
0 *2:d *14:2 31.508472  // $metal1_conn
1 *14:2 *14 0.044721  // $metal1_conn
2 *14:2 *10:d 37.995228  // $metal1_conn
3 *14 *1:d 31.127394  // $metal1_conn

*END

*D_NET *9 0

*CONN
*I *10:s B *C 0.4075 0.4500 
*I *11:d B *C 0.4075 0.4500 


*RES
0 *11:d *10:s 0.001  // $mwires

*END

*D_NET *8 0

*CONN
*I *11:s B *C 0.5625 0.4500 
*I *13:d B *C 0.5625 0.4500 


*RES
0 *13:d *11:s 0.001  // $mwires

*END

*D_NET *7 3.46376e-16

*CONN
*I *13:g B *C 0.6425 0.4500 
*I *16:d B *C 0.9700 0.5075 
*I *3:g B *C 0.6875 1.2850 
*I *5:d B *C 1.0200 1.1975 
*N *7:2 *C 0.7000 0.7750 
*N *7:5 *C 0.9800 0.6700 

*CAP
0 *5:d 5.21256e-17
1 *3:g 5.90385e-17
2 *16:d 1.5159e-17
3 *13:g 5.06476e-17
4 *7:5 6.13449e-17
5 *7:2 1.08061e-16

*RES
0 *3:g *7:2 68.91848  // $poly_conn
1 *7:2 *13:g 45.707962  // $poly_conn
2 *5:d *7:5 62.418934  // $metal1_conn
3 *7:5 *7:2 45.278198  // $metal1_conn
4 *7:5 *16:d 75.081306  // $metal1_conn

*END

