*SPEF "IEEE 1481-1999"
*DESIGN  "NAND4BBX4"
*DATE "Mon Sep 27 10:14:41 2010"
*VENDOR "Cadence Design Systems"
*PROGRAM "Assura RCX"
*VERSION "3.2 Red Hat Linux release 7.2 (Enigma) - (09/09/2009-10:39)"
*DESIGN_FLOW "Physical Verification"
*DIVIDER /
*DELIMITER :
*BUS_DELIMITER []
*T_UNIT 1 PS
*C_UNIT 1e15 FF
*R_UNIT 1 OHM
*L_UNIT 1 MH
// DeviceFingerDelim "@"
// MATCHED
// caps2d version: 10

*NAME_MAP
*1 Y
*2 VDD
*3 VSS
*4 n0
*5 n3
*6 AN
*7 mn3
*8 mn3\@1
*9 mn4
*10 mp5\@3
*11 mn4\@1
*12 mp1
*13 mn4\@2
*14 mp0
*15 mp3
*16 mn4\@3
*17 BN
*18 mp2
*19 mp3\@1
*20 mn5
*21 mp2\@1
*22 mp4
*23 mn5\@3
*24 mn5\@1
*25 mp2\@2
*26 mp4\@1
*27 mn1
*28 mn5\@2
*29 mp2\@3
*30 mp4\@2
*31 mn0
*32 mp3\@2
*33 mp4\@3
*34 mn2
*35 mp3\@3
*36 mp5
*37 mn2\@1
*38 mp5\@1
*39 mn2\@2
*40 mp5\@2
*41 mn2\@3
*42 mn3\@2
*43 mn3\@3
*44 C
*45 D
*46 n2
*47 n4
*48 n1

*GROUND_NETS VSS

*PORTS
*2 I
*3 I
*6 I
*17 I
*44 I
*45 I
*1 O

*D_NET *2 7.46744e-16

*CONN
*P *2 I *C 0.1000 1.7100 
*I *15:s B *C 2.3200 1.1700 
*I *19:s B *C 2.7300 1.1700 
*I *22:s B *C 2.7300 1.1700 
*I *26:s B *C 3.1400 1.1700 
*I *30:s B *C 3.1400 1.1700 
*I *33:s B *C 3.5500 1.1700 
*I *36:s B *C 3.5500 1.1700 
*I *38:s B *C 3.9600 1.1700 
*I *40:s B *C 3.9600 1.1700 
*I *10:s B *C 4.3600 1.1700 
*I *12:s B *C 0.4350 1.2850 
*I *14:s B *C 0.4350 1.2850 
*I *18:s B *C 1.1000 1.1700 
*I *21:s B *C 1.5000 1.1700 
*I *25:s B *C 1.5000 1.1700 
*I *29:s B *C 1.9100 1.1700 
*I *32:s B *C 1.9100 1.1700 
*I *35:s B *C 2.3200 1.1700 
*N *2:3 *C 3.5000 1.7100 
*N *2:12 *C 0.4350 1.7100 

*CAP
0 *12:s 3.02964e-17
1 *10:s 4.85745e-16
2 *2:12 1.66464e-17
3 *2:3 1.9906e-16
4 *2 1.49961e-17

*RES
0 *2:12 *2 0.16755  // $metal1_conn
1 *2:3 *10:s 6.818182  // $metal1_conn
2 *2:3 *10:s 6.25  // $metal1_conn
3 *2:12 *12:s 62.182064  // $metal1_conn
4 *10:s *2:12 0.328079  // $metal1_conn

*END

*D_NET *3 0

*CONN
*P *3 I *C 0.1000 0.0000 
*I *27:s B *C 0.3975 0.5100 
*I *31:s B *C 0.3975 0.5100 
*I *34:s B *C 1.2100 0.4550 
*I *37:s B *C 1.2100 0.4550 
*I *39:s B *C 1.6200 0.4550 
*I *41:s B *C 1.6200 0.4550 
*N *3:1 *C 3.5000 0.0000 
*N *3:4 *C 0.3600 0.0000 


*RES
0 *3:4 *3 0.129939  // $metal1_conn
1 *3:1 *39:s 6.563911  // $metal1_conn
2 *3:1 *39:s 5.166667  // $metal1_conn
3 *3:4 *27:s 75.280746  // $metal1_conn
4 *39:s *3:4 0.42105  // $metal1_conn

*END

*D_NET *6 2.26927e-16

*CONN
*P *6 I *C 0.5000 1.0450 
*I *31:g B *C 0.5375 0.5100 
*I *14:g B *C 0.5375 1.2850 
*N *6:2 *C 0.5100 0.8200 

*CAP
0 *14:g 4.03921e-17
1 *31:g 3.46115e-17
2 *6:2 7.77486e-17
3 *6 7.41749e-17

*RES
0 *14:g *6:2 60.71759  // $poly_conn
1 *6:2 *31:g 37.640671  // $poly_conn
2 *6 *6:2 45.135021  // $metal1_conn

*END

*D_NET *17 2.40983e-16

*CONN
*P *17 I *C 0.3000 0.8550 
*I *27:g B *C 0.2575 0.5100 
*I *12:g B *C 0.3325 1.2850 
*N *17:2 *C 0.2950 0.8200 
*N *17:4 *C 0.2950 0.8200 

*CAP
0 *12:g 4.41648e-17
1 *27:g 2.7632e-17
2 *17:2 6.56898e-17
3 *17 1.03496e-16

*RES
0 *12:g *17:2 62.01527  // $poly_conn
1 *17:2 *27:g 38.938351  // $poly_conn
2 *17:4 *17 0.021787  // $metal1_conn
3 *17:2 *17:4 45  // $metal1_conn

*END

*D_NET *44 3.53148e-16

*CONN
*P *44 I *C 3.1000 0.8550 
*I *9:g B *C 2.9625 0.4100 
*I *11:g B *C 3.1675 0.4100 
*I *13:g B *C 3.3725 0.4100 
*I *16:g B *C 3.5775 0.4100 
*I *22:g B *C 2.8325 1.1700 
*I *26:g B *C 3.0375 1.1700 
*I *30:g B *C 3.2425 1.1700 
*I *33:g B *C 3.4475 1.1700 

*CAP
0 *33:g 3.26478e-16
1 *44 2.66709e-17

*RES
0 *44 *33:g 45.026058  // $metal1_conn

*END

*D_NET *45 3.41056e-16

*CONN
*P *45 I *C 3.7000 0.6650 
*I *20:g B *C 3.7825 0.4100 
*I *24:g B *C 3.9875 0.4100 
*I *28:g B *C 4.1925 0.4100 
*I *23:g B *C 4.3975 0.4100 
*I *36:g B *C 3.6525 1.1700 
*I *38:g B *C 3.8575 1.1700 
*I *40:g B *C 4.0625 1.1700 
*I *10:g B *C 4.2675 1.1700 

*CAP
0 *10:g 2.87773e-16
1 *45 5.3283e-17

*RES
0 *45 *10:g 45.112167  // $metal1_conn

*END

*D_NET *1 7.31576e-16

*CONN
*P *1 O *C 1.5000 1.0450 
*I *20:d B *C 3.8850 0.4100 
*I *24:d B *C 3.8850 0.4100 
*I *28:d B *C 4.2950 0.4100 
*I *23:d B *C 4.2950 0.4100 
*I *15:d B *C 2.5250 1.1700 
*I *19:d B *C 2.5250 1.1700 
*I *22:d B *C 2.9350 1.1700 
*I *26:d B *C 2.9350 1.1700 
*I *30:d B *C 3.3450 1.1700 
*I *33:d B *C 3.3450 1.1700 
*I *36:d B *C 3.7550 1.1700 
*I *38:d B *C 3.7550 1.1700 
*I *40:d B *C 4.1650 1.1700 
*I *10:d B *C 4.1650 1.1700 
*I *18:d B *C 1.2950 1.1700 
*I *21:d B *C 1.2950 1.1700 
*I *25:d B *C 1.7050 1.1700 
*I *29:d B *C 1.7050 1.1700 
*I *32:d B *C 2.1150 1.1700 
*I *35:d B *C 2.1150 1.1700 

*CAP
0 *25:d 1.23398e-16
1 *40:d 1.63548e-16
2 *30:d 1.59462e-16
3 *15:d 1.32645e-16
4 *20:d 1.23524e-16
5 *1 2.90001e-17

*RES
0 *25:d *1 0.016837  // $metal1_conn
1 *20:d *40:d 0.434896  // $metal1_conn
2 *40:d *30:d 0.303335  // $metal1_conn
3 *30:d *15:d 0.304448  // $metal1_conn
4 *15:d *25:d 0.299628  // $metal1_conn

*END

*D_NET *48 8.15499e-16

*CONN
*I *7:g B *C 2.3525 0.4550 
*I *8:g B *C 2.5575 0.4550 
*I *27:d B *C 0.1650 0.5100 
*I *42:g B *C 1.9425 0.4550 
*I *43:g B *C 2.1475 0.4550 
*I *15:g B *C 2.4225 1.1700 
*I *19:g B *C 2.6275 1.1700 
*I *12:d B *C 0.2400 1.2850 
*I *32:g B *C 2.0125 1.1700 
*I *35:g B *C 2.2175 1.1700 
*N *48:16 *C 0.1550 0.5800 

*CAP
0 *12:d 8.8378e-17
1 *19:g 4.56931e-16
2 *27:d 2.7019e-16

*RES
0 *48:16 *12:d 62.65506  // $metal1_conn
1 *27:d *48:16 75  // $metal1_conn
2 *19:g *48:16 46.727161  // $metal1_conn

*END

*D_NET *47 3.72628e-16

*CONN
*I *7:s B *C 2.2500 0.4550 
*I *8:s B *C 2.6500 0.4550 
*I *34:d B *C 1.0150 0.4550 
*I *37:d B *C 1.4150 0.4550 
*I *39:d B *C 1.4150 0.4550 
*I *41:d B *C 1.8325 0.4550 
*I *42:s B *C 1.8325 0.4550 
*I *43:s B *C 2.2500 0.4550 

*CAP
0 *8:s 3.72628e-16


*END

*D_NET *46 3.08934e-16

*CONN
*I *9:d B *C 2.8700 0.4100 
*I *11:d B *C 3.2700 0.4100 
*I *13:d B *C 3.2700 0.4100 
*I *16:d B *C 3.6800 0.4100 
*I *20:s B *C 3.6800 0.4100 
*I *24:s B *C 4.0900 0.4100 
*I *28:s B *C 4.0900 0.4100 
*I *23:s B *C 4.4900 0.4100 

*CAP
0 *23:s 3.08934e-16


*END

*D_NET *5 2.94569e-16

*CONN
*I *7:d B *C 2.4550 0.4550 
*I *8:d B *C 2.4550 0.4550 
*I *9:s B *C 3.0650 0.4100 
*I *11:s B *C 3.0650 0.4100 
*I *13:s B *C 3.4750 0.4100 
*I *16:s B *C 3.4750 0.4100 
*I *42:d B *C 2.0450 0.4550 
*I *43:d B *C 2.0450 0.4550 

*CAP
0 *13:s 1.57658e-16
1 *7:d 1.36911e-16

*RES
0 *13:s *7:d 0.439621  // $metal1_conn

*END

*D_NET *4 4.85226e-16

*CONN
*I *31:d B *C 0.6500 0.5100 
*I *34:g B *C 1.1075 0.4550 
*I *37:g B *C 1.3125 0.4550 
*I *39:g B *C 1.5175 0.4550 
*I *41:g B *C 1.7225 0.4550 
*I *14:d B *C 0.6450 1.2850 
*I *18:g B *C 1.1925 1.1700 
*I *21:g B *C 1.3975 1.1700 
*I *25:g B *C 1.6025 1.1700 
*I *29:g B *C 1.8075 1.1700 
*N *4:14 *C 0.6800 0.8750 

*CAP
0 *29:g 3.02446e-16
1 *14:d 6.06587e-17
2 *31:d 5.67284e-17
3 *4:14 6.53931e-17

*RES
0 *4:14 *14:d 20.97518  // $metal1_conn
1 *4:14 *31:d 75.224739  // $metal1_conn
2 *29:g *4:14 45.328022  // $metal1_conn

*END

