*SPEF "IEEE 1481-1999"
*DESIGN  "NAND4X1"
*DATE "Mon Sep 27 10:16:56 2010"
*VENDOR "Cadence Design Systems"
*PROGRAM "Assura RCX"
*VERSION "3.2 Red Hat Linux release 7.2 (Enigma) - (09/09/2009-10:39)"
*DESIGN_FLOW "Physical Verification"
*DIVIDER /
*DELIMITER :
*BUS_DELIMITER []
*T_UNIT 1 PS
*C_UNIT 1e15 FF
*R_UNIT 1 OHM
*L_UNIT 1 MH
// DeviceFingerDelim "@"
// MATCHED
// caps2d version: 10

*NAME_MAP
*1 mp0
*2 mp1
*3 mp2
*4 mp3
*5 VSS
*6 n0
*7 n1
*8 n2
*9 mn0
*10 mn1
*11 A
*12 VDD
*13 mn2
*14 Y
*15 B
*16 mn3
*17 C
*18 D

*GROUND_NETS VSS

*PORTS
*12 I
*5 I
*11 I
*15 I
*17 I
*18 I
*14 O

*D_NET *12 2.05189e-16

*CONN
*P *12 I *C 0.1000 1.7100 
*I *1:s B *C 0.2050 1.1050 
*I *2:s B *C 0.6100 1.1050 
*I *3:s B *C 0.6100 1.1050 
*I *4:s B *C 1.0200 1.1050 
*N *12:2 *C 0.6000 1.7100 
*N *12:3 *C 0.6000 1.7100 
*N *12:4 *C 0.1950 1.7100 

*CAP
0 *4:s 3.51373e-17
1 *2:s 4.37335e-17
2 *1:s 4.83023e-17
3 *12:4 5.56639e-18
4 *12:2 6.91512e-17
5 *12 3.2979e-18

*RES
0 *4:s *12:3 62.53236  // $metal1_conn
1 *12:3 *12:4 0.20316  // $metal1_conn
2 *12:4 *12 0.047194  // $metal1_conn
3 *12:3 *2:s 62.322289  // $metal1_conn
4 *12:4 *1:s 31.358601  // $metal1_conn
5 *12:2 *12:3 12.5  // $metal1_conn

*END

*D_NET *5 0

*CONN
*P *5 I *C 0.1000 0.0000 
*I *9:s B *C 0.3050 0.5300 
*N *5:1 *C 0.6000 0.0000 
*N *5:2 *C 0.2950 0.0000 


*RES
0 *5:1 *5:2 10.48609  // $metal1_conn
1 *5:2 *5 0.097342  // $metal1_conn
2 *5:2 *9:s 75.29187  // $metal1_conn

*END

*D_NET *11 1.99243e-16

*CONN
*P *11 I *C 0.3000 0.8550 
*I *9:g B *C 0.3975 0.5300 
*I *1:g B *C 0.2975 1.1050 
*N *11:2 *C 0.2600 0.7850 

*CAP
0 *1:g 3.25771e-17
1 *9:g 5.06585e-17
2 *11:2 6.52725e-17
3 *11 5.07348e-17

*RES
0 *9:g *11:2 43.292484  // $poly_conn
1 *11:2 *1:g 22.565475  // $poly_conn
2 *11:2 *11 45.038757  // $metal1_conn

*END

*D_NET *15 2.67637e-16

*CONN
*P *15 I *C 0.5000 0.4750 
*I *10:g B *C 0.5025 0.5300 
*I *2:g B *C 0.5025 1.1050 
*N *15:2 *C 0.5300 0.7700 

*CAP
0 *2:g 4.7185e-17
1 *10:g 5.40138e-17
2 *15:2 1.05389e-16
3 *15 6.10497e-17

*RES
0 *2:g *15:2 27.384262  // $poly_conn
1 *15:2 *10:g 19.691952  // $poly_conn
2 *15:2 *15 45.174812  // $metal1_conn

*END

*D_NET *17 2.68637e-16

*CONN
*P *17 I *C 0.7000 0.2850 
*I *13:g B *C 0.7175 0.5300 
*I *3:g B *C 0.7175 1.1050 
*N *17:2 *C 0.6900 0.7700 

*CAP
0 *3:g 4.55412e-17
1 *13:g 4.38059e-17
2 *17:2 1.15003e-16
3 *17 6.42868e-17

*RES
0 *3:g *17:2 27.384262  // $poly_conn
1 *17:2 *13:g 19.691952  // $poly_conn
2 *17 *17:2 45.291046  // $metal1_conn

*END

*D_NET *18 2.13034e-16

*CONN
*P *18 I *C 0.9000 0.4750 
*I *16:g B *C 0.8525 0.5300 
*I *4:g B *C 0.9275 1.1050 
*N *18:2 *C 0.8900 0.7600 

*CAP
0 *4:g 3.39472e-17
1 *16:g 3.66317e-17
2 *18:2 9.51124e-17
3 *18 4.73423e-17

*RES
0 *4:g *18:2 31.246044  // $poly_conn
1 *18:2 *16:g 18.425531  // $poly_conn
2 *18 *18:2 45.171028  // $metal1_conn

*END

*D_NET *14 2.48079e-16

*CONN
*P *14 O *C 1.1000 0.8550 
*I *16:d B *C 1.0025 0.5300 
*I *1:d B *C 0.4000 1.1050 
*I *2:d B *C 0.4000 1.1050 
*I *3:d B *C 0.8225 1.1050 
*I *4:d B *C 0.8225 1.1050 
*N *14:2 *C 0.8200 1.0500 

*CAP
0 *3:d 3.13381e-17
1 *1:d 6.83256e-17
2 *16:d 4.70922e-17
3 *14:2 4.66842e-17
4 *14 5.46385e-17

*RES
0 *16:d *14 75.189522  // $metal1_conn
1 *14 *14:2 0.303479  // $metal1_conn
2 *14:2 *1:d 31.378023  // $metal1_conn
3 *14:2 *3:d 31.05945  // $metal1_conn

*END

*D_NET *8 4.51065e-18

*CONN
*I *9:d B *C 0.4500 0.5300 
*I *10:s B *C 0.4500 0.5300 

*CAP
0 *9:d 4.51065e-18

*RES
0 *10:s *9:d 0.001  // $mwires

*END

*D_NET *7 6.45555e-18

*CONN
*I *10:d B *C 0.6100 0.5300 
*I *13:s B *C 0.6100 0.5300 

*CAP
0 *10:d 6.45555e-18

*RES
0 *13:s *10:d 0.001  // $mwires

*END

*D_NET *6 3.68605e-19

*CONN
*I *13:d B *C 0.7850 0.5300 
*I *16:s B *C 0.7850 0.5300 

*CAP
0 *13:d 3.68605e-19

*RES
0 *16:s *13:d 0.001  // $mwires

*END

