*SPEF "IEEE 1481-1999"
*DESIGN  "NAND4BBX2"
*DATE "Mon Sep 27 10:14:19 2010"
*VENDOR "Cadence Design Systems"
*PROGRAM "Assura RCX"
*VERSION "3.2 Red Hat Linux release 7.2 (Enigma) - (09/09/2009-10:39)"
*DESIGN_FLOW "Physical Verification"
*DIVIDER /
*DELIMITER :
*BUS_DELIMITER []
*T_UNIT 1 PS
*C_UNIT 1e15 FF
*R_UNIT 1 OHM
*L_UNIT 1 MH
// DeviceFingerDelim "@"
// MATCHED
// caps2d version: 10

*NAME_MAP
*1 VDD
*2 mn1
*3 mn0
*4 mn2
*5 mn2\@1
*6 mn3
*7 VSS
*8 mp5\@1
*9 mn3\@1
*10 mn4
*11 mn4\@1
*12 mn5
*13 C
*14 D
*15 AN
*16 n4
*17 n0
*18 n1
*19 BN
*20 Y
*21 n3
*22 mp1
*23 n2
*24 mp0
*25 mp2
*26 mp2\@1
*27 mp3
*28 mp3\@1
*29 mp4
*30 mp4\@1
*31 mp5
*32 mn5\@1

*GROUND_NETS VSS

*PORTS
*1 I
*7 I
*15 I
*19 I
*13 I
*14 I
*20 O

*D_NET *1 5.12398e-16

*CONN
*P *1 I *C 0.1000 1.7100 
*I *22:s B *C 0.4900 1.2775 
*I *24:s B *C 0.4900 1.2775 
*I *25:s B *C 1.3850 1.1800 
*I *26:s B *C 1.7850 1.1800 
*I *27:s B *C 1.7850 1.1800 
*I *28:s B *C 2.1950 1.1800 
*I *29:s B *C 2.1950 1.1800 
*I *30:s B *C 2.6050 1.1800 
*I *31:s B *C 2.6050 1.1800 
*I *8:s B *C 3.0450 1.1800 
*N *1:3 *C 2.4000 1.7100 
*N *1:8 *C 0.8000 1.7100 
*N *1:9 *C 0.4900 1.7100 

*CAP
0 *8:s 2.88174e-16
1 *22:s 3.07816e-17
2 *1:9 8.79197e-18
3 *1:3 1.73911e-16
4 *1 1.07398e-17

*RES
0 *1:9 *1 0.195164  // $metal1_conn
1 *1:3 *8:s 9.375  // $metal1_conn
2 *1:3 *1:8 9.375  // $metal1_conn
3 *1:9 *22:s 62.242908  // $metal1_conn
4 *8:s *1:8 0.288205  // $metal1_conn
5 *1:8 *1:9 0.15529  // $metal1_conn

*END

*D_NET *7 0

*CONN
*P *7 I *C 0.1000 0.0000 
*I *2:s B *C 0.6000 0.5125 
*I *3:s B *C 0.6000 0.5125 
*I *4:s B *C 1.4500 0.4550 
*I *5:s B *C 1.4500 0.4550 
*N *7:1 *C 2.4000 0.0000 
*N *7:2 *C 1.4800 0.0000 
*N *7:3 *C 0.8000 0.0000 
*N *7:4 *C 0.5150 0.0000 


*RES
0 *7:4 *7 0.207703  // $metal1_conn
1 *7:1 *7:2 8.212791  // $metal1_conn
2 *7:1 *7:3 7.75  // $metal1_conn
3 *7:2 *4:s 75.23848  // $metal1_conn
4 *7:4 *2:s 75.32795  // $metal1_conn
5 *7:2 *7:3 0.340869  // $metal1_conn
6 *7:3 *7:4 0.14275  // $metal1_conn

*END

*D_NET *15 2.34522e-16

*CONN
*P *15 I *C 0.7000 1.0450 
*I *3:g B *C 0.6475 0.5125 
*I *24:g B *C 0.5925 1.2775 
*N *15:2 *C 0.6100 0.8750 

*CAP
0 *24:g 3.37176e-17
1 *3:g 4.17879e-17
2 *15:2 7.70883e-17
3 *15 8.19284e-17

*RES
0 *3:g *15:2 63.474747  // $poly_conn
1 *15:2 *24:g 64.756798  // $poly_conn
2 *15 *15:2 45.133797  // $metal1_conn

*END

*D_NET *19 2.21985e-16

*CONN
*P *19 I *C 0.3000 0.8550 
*I *2:g B *C 0.3875 0.5125 
*I *22:g B *C 0.3875 1.2775 
*N *19:2 *C 0.4250 0.8750 

*CAP
0 *22:g 3.60945e-17
1 *2:g 3.28472e-17
2 *19:2 1.11776e-16
3 *19 4.12675e-17

*RES
0 *22:g *19:2 64.756798  // $poly_conn
1 *19:2 *2:g 63.474747  // $poly_conn
2 *19 *19:2 45.057602  // $metal1_conn

*END

*D_NET *13 2.87673e-16

*CONN
*P *13 I *C 2.5000 0.8550 
*I *10:g B *C 2.3825 0.4300 
*I *11:g B *C 2.5875 0.4300 
*I *29:g B *C 2.2975 1.1800 
*I *30:g B *C 2.5025 1.1800 

*CAP
0 *30:g 2.54093e-16
1 *13 3.35792e-17

*RES
0 *13 *30:g 45.024837  // $metal1_conn

*END

*D_NET *14 2.63932e-16

*CONN
*P *14 I *C 2.7000 0.6650 
*I *12:g B *C 2.7925 0.4300 
*I *32:g B *C 2.9975 0.4300 
*I *31:g B *C 2.7075 1.1800 
*I *8:g B *C 2.9525 1.1800 
*N *14:7 *C 2.7350 0.7100 

*CAP
0 *8:g 2.28086e-16
1 *14 3.58462e-17

*RES
0 *14:7 *14 0.023994  // $metal1_conn
1 *8:g *14:7 45  // $metal1_conn

*END

*D_NET *20 4.19869e-16

*CONN
*P *20 O *C 1.7000 1.0450 
*I *12:d B *C 2.8950 0.4300 
*I *32:d B *C 2.8950 0.4300 
*I *25:d B *C 1.5800 1.1800 
*I *26:d B *C 1.5800 1.1800 
*I *27:d B *C 1.9900 1.1800 
*I *28:d B *C 1.9900 1.1800 
*I *29:d B *C 2.4000 1.1800 
*I *30:d B *C 2.4000 1.1800 
*I *31:d B *C 2.8300 1.1800 
*I *8:d B *C 2.8300 1.1800 
*N *20:2 *C 2.8500 1.1250 
*N *20:3 *C 2.4000 1.1250 
*N *20:4 *C 1.9900 1.1250 
*N *20:5 *C 1.6575 1.1250 

*CAP
0 *31:d 3.84443e-17
1 *29:d 3.45885e-17
2 *27:d 3.37823e-17
3 *25:d 3.9511e-17
4 *12:d 5.88724e-17
5 *20:5 2.60419e-17
6 *20:4 2.4537e-17
7 *20:3 6.59926e-17
8 *20:2 7.21974e-17
9 *20 2.5902e-17

*RES
0 *20:5 *20 0.025706  // $metal1_conn
1 *20:2 *31:d 31.065475  // $metal1_conn
2 *20:3 *29:d 31.059536  // $metal1_conn
3 *20:4 *27:d 31.059536  // $metal1_conn
4 *20:5 *25:d 20.743214  // $metal1_conn
5 *12:d *20:2 75.544846  // $metal1_conn
6 *20:2 *20:3 0.340893  // $metal1_conn
7 *20:3 *20:4 0.308965  // $metal1_conn
8 *20:4 *20:5 0.192782  // $metal1_conn

*END

*D_NET *18 6.9008e-16

*CONN
*I *2:d B *C 0.2950 0.5125 
*I *6:g B *C 1.7725 0.4550 
*I *9:g B *C 1.9775 0.4550 
*I *22:d B *C 0.2800 1.2775 
*I *27:g B *C 1.8875 1.1800 
*I *28:g B *C 2.0925 1.1800 
*N *18:8 *C 0.2850 0.6850 

*CAP
0 *28:g 3.81293e-16
1 *22:d 5.57329e-17
2 *2:d 1.56822e-17
3 *18:8 2.37373e-16

*RES
0 *18:8 *22:d 62.573711  // $metal1_conn
1 *18:8 *2:d 75.088028  // $metal1_conn
2 *28:g *18:8 46.650185  // $metal1_conn

*END

*D_NET *17 4.19752e-16

*CONN
*I *3:d B *C 0.7825 0.5125 
*I *4:g B *C 1.3475 0.4550 
*I *5:g B *C 1.5525 0.4550 
*I *24:d B *C 0.6850 1.2775 
*I *25:g B *C 1.4775 1.1800 
*I *26:g B *C 1.6825 1.1800 
*N *17:8 *C 0.9250 0.8750 

*CAP
0 *26:g 2.0721e-16
1 *24:d 6.92933e-17
2 *3:d 6.59468e-17
3 *17:8 7.73024e-17

*RES
0 *17:8 *24:d 62.441372  // $metal1_conn
1 *17:8 *3:d 75.289902  // $metal1_conn
2 *26:g *17:8 45.314568  // $metal1_conn

*END

*D_NET *16 2.20489e-16

*CONN
*I *4:d B *C 1.2550 0.4550 
*I *5:d B *C 1.6625 0.4550 
*I *6:s B *C 1.6625 0.4550 
*I *9:s B *C 2.0700 0.4550 

*CAP
0 *9:s 2.20489e-16


*END

*D_NET *23 1.63832e-16

*CONN
*I *10:d B *C 2.2900 0.4300 
*I *11:d B *C 2.6900 0.4300 
*I *12:s B *C 2.6900 0.4300 
*I *32:s B *C 3.0900 0.4300 

*CAP
0 *32:s 1.63832e-16


*END

*D_NET *21 1.60958e-16

*CONN
*I *6:d B *C 1.8750 0.4550 
*I *9:d B *C 1.8750 0.4550 
*I *10:s B *C 2.4850 0.4300 
*I *11:s B *C 2.4850 0.4300 

*CAP
0 *10:s 8.79962e-17
1 *6:d 7.29621e-17

*RES
0 *10:s *6:d 150.477737  // $metal1_conn

*END

