*SPEF "IEEE 1481-1999"
*DESIGN  "NAND4BXL"
*DATE "Mon Sep 27 10:16:34 2010"
*VENDOR "Cadence Design Systems"
*PROGRAM "Assura RCX"
*VERSION "3.2 Red Hat Linux release 7.2 (Enigma) - (09/09/2009-10:39)"
*DESIGN_FLOW "Physical Verification"
*DIVIDER /
*DELIMITER :
*BUS_DELIMITER []
*T_UNIT 1 PS
*C_UNIT 1e15 FF
*R_UNIT 1 OHM
*L_UNIT 1 MH
// DeviceFingerDelim "@"
// MATCHED
// caps2d version: 10

*NAME_MAP
*1 mp1
*2 mp0
*3 mn4
*4 Y
*5 mn3
*6 mn2
*7 mn1
*8 mn0
*9 net126
*10 VDD
*11 net118
*12 net130
*13 B
*14 net122
*15 C
*16 D
*17 VSS
*18 AN
*19 mp4
*20 mp3
*21 mp2

*GROUND_NETS VSS

*PORTS
*10 I
*17 I
*18 I
*13 I
*15 I
*16 I
*4 O

*D_NET *10 1.80433e-16

*CONN
*P *10 I *C 0.1000 1.7100 
*I *19:s B *C 0.2050 1.2325 
*I *20:s B *C 0.6500 1.2325 
*I *21:s B *C 0.6500 1.2325 
*I *1:s B *C 1.1200 1.2325 
*I *2:s B *C 1.1200 1.2325 
*N *10:2 *C 0.7000 1.7100 
*N *10:3 *C 0.7000 1.7100 
*N *10:4 *C 0.5650 1.7100 
*N *10:5 *C 0.1950 1.7100 

*CAP
0 *1:s 1.69116e-17
1 *20:s 7.69203e-18
2 *19:s 2.80035e-17
3 *10:5 4.83468e-18
4 *10:4 4.26613e-18
5 *10:2 1.15052e-16
6 *10 3.67226e-18

*RES
0 *1:s *10:3 62.267864  // $metal1_conn
1 *10:3 *10:4 0.067459  // $metal1_conn
2 *10:4 *10:5 0.185033  // $metal1_conn
3 *10:5 *10 0.047163  // $metal1_conn
4 *10:4 *20:s 62.074203  // $metal1_conn
5 *10:5 *19:s 62.266624  // $metal1_conn
6 *10:2 *10:3 10.714286  // $metal1_conn

*END

*D_NET *17 0

*CONN
*P *17 I *C 0.1000 0.0000 
*I *7:s B *C 0.9900 0.3125 
*I *8:s B *C 0.9900 0.3125 
*N *17:2 *C 0.7000 0.0000 
*N *17:3 *C 0.7000 0.0000 


*RES
0 *7:s *17:3 75.358047  // $metal1_conn
1 *17:3 *17 0.300438  // $metal1_conn
2 *17:2 *17:3 8.857142  // $metal1_conn

*END

*D_NET *18 2.08889e-16

*CONN
*P *18 I *C 1.1000 0.8550 
*I *8:g B *C 1.0925 0.3125 
*I *2:g B *C 1.1675 1.2325 
*N *18:2 *C 1.1300 0.8350 
*N *18:4 *C 1.1005 0.8450 
*N *18:5 *C 1.1300 0.8350 
*N *18:6 *C 1.1300 0.8450 

*CAP
0 *2:g 3.47373e-17
1 *8:g 4.70277e-17
2 *18:2 6.671e-17
3 *18 6.04143e-17

*RES
0 *2:g *18:2 67.143478  // $poly_conn
1 *18:2 *8:g 108.169113  // $poly_conn
2 *18:4 *18 0.004838  // $metal1_conn
3 *18:5 *18:6 0.004838  // $metal1_conn
4 *18:4 *18:6 0.014815  // $metal1_conn
5 *18:2 *18:5 45  // $metal1_conn

*END

*D_NET *13 2.70474e-16

*CONN
*P *13 I *C 0.7000 0.6650 
*I *6:g B *C 0.6625 0.3125 
*I *21:g B *C 0.6975 1.2325 
*N *13:2 *C 0.6900 0.4950 

*CAP
0 *21:g 7.59608e-17
1 *6:g 3.06559e-17
2 *13:2 1.3417e-16
3 *13 2.96872e-17

*RES
0 *21:g *13:2 150.73201  // $poly_conn
1 *13:2 *6:g 17.398676  // $poly_conn
2 *13 *13:2 45.101757  // $metal1_conn

*END

*D_NET *15 2.92102e-16

*CONN
*P *15 I *C 0.5000 0.6650 
*I *5:g B *C 0.5025 0.3125 
*I *20:g B *C 0.5025 1.2325 
*N *15:2 *C 0.5300 0.6600 
*N *15:4 *C 0.5300 0.6600 

*CAP
0 *20:g 6.45567e-17
1 *5:g 4.95712e-17
2 *15:2 6.26118e-17
3 *15 1.15363e-16

*RES
0 *20:g *15:2 110.71759  // $poly_conn
1 *15:2 *5:g 61.999645  // $poly_conn
2 *15 *15:4 0.003963  // $metal1_conn
3 *15:2 *15:4 45  // $metal1_conn

*END

*D_NET *16 2.41042e-16

*CONN
*P *16 I *C 0.3000 0.6650 
*I *3:g B *C 0.3475 0.3125 
*I *19:g B *C 0.2975 1.2325 
*N *16:2 *C 0.3100 0.5200 

*CAP
0 *19:g 4.75217e-17
1 *3:g 3.20204e-17
2 *16:2 8.75931e-17
3 *16 7.39064e-17

*RES
0 *3:g *16:2 25.129578  // $poly_conn
1 *16:2 *19:g 145.642395  // $poly_conn
2 *16 *16:2 45.090607  // $metal1_conn

*END

*D_NET *4 2.44111e-16

*CONN
*P *4 O *C 0.1000 0.4750 
*I *3:d B *C 0.2550 0.3125 
*I *19:d B *C 0.4000 1.2325 
*I *20:d B *C 0.4000 1.2325 
*I *21:d B *C 0.8000 1.2325 
*I *1:d B *C 0.8000 1.2325 
*N *4:2 *C 0.4000 1.0900 

*CAP
0 *21:d 2.53364e-17
1 *19:d 8.80673e-18
2 *3:d 4.17724e-17
3 *4:2 9.88859e-17
4 *4 6.93097e-17

*RES
0 *21:d *4:2 62.345913  // $metal1_conn
1 *4:2 *4 0.663703  // $metal1_conn
2 *4:2 *19:d 62.032574  // $metal1_conn
3 *4 *3:d 75.162727  // $metal1_conn

*END

*D_NET *12 9.49579e-19

*CONN
*I *3:s B *C 0.4250 0.3125 
*I *5:d B *C 0.4250 0.3125 

*CAP
0 *3:s 9.49579e-19

*RES
0 *5:d *3:s 0.001  // $mwires

*END

*D_NET *9 4.53673e-19

*CONN
*I *5:s B *C 0.5825 0.3125 
*I *6:d B *C 0.5825 0.3125 

*CAP
0 *5:s 4.53673e-19

*RES
0 *6:d *5:s 0.001  // $mwires

*END

*D_NET *14 4.42068e-19

*CONN
*I *6:s B *C 0.7750 0.3125 
*I *7:d B *C 0.7750 0.3125 

*CAP
0 *6:s 4.42068e-19

*RES
0 *7:d *6:s 0.001  // $mwires

*END

*D_NET *11 3.29901e-16

*CONN
*I *7:g B *C 0.8875 0.3125 
*I *8:d B *C 1.1850 0.3125 
*I *1:g B *C 0.9025 1.2325 
*I *2:d B *C 1.2725 1.2325 
*N *11:2 *C 0.9150 0.5200 
*N *11:5 *C 1.2950 0.5200 

*CAP
0 *2:d 5.14001e-17
1 *1:g 6.62808e-17
2 *8:d 3.00806e-17
3 *7:g 2.87007e-17
4 *11:5 4.82555e-17
5 *11:2 1.05183e-16

*RES
0 *1:g *11:2 144.321747  // $poly_conn
1 *11:2 *7:g 23.808931  // $poly_conn
2 *2:d *11:5 62.482208  // $metal1_conn
3 *11:5 *11:2 45.247116  // $metal1_conn
4 *11:5 *8:d 75.180176  // $metal1_conn

*END

