*SPEF "IEEE 1481-1999"
*DESIGN  "NAND3BX4"
*DATE "Mon Sep 27 10:10:55 2010"
*VENDOR "Cadence Design Systems"
*PROGRAM "Assura RCX"
*VERSION "3.2 Red Hat Linux release 7.2 (Enigma) - (09/09/2009-10:39)"
*DESIGN_FLOW "Physical Verification"
*DIVIDER /
*DELIMITER :
*BUS_DELIMITER []
*T_UNIT 1 PS
*C_UNIT 1e15 FF
*R_UNIT 1 OHM
*L_UNIT 1 MH
// DeviceFingerDelim "@"
// MATCHED
// caps2d version: 10

*NAME_MAP
*1 B
*2 n0
*3 C
*4 n2\@4
*5 n2\@5
*6 mn2
*7 mn3
*8 mn3\@1
*9 mp2
*10 mn2\@1
*11 mp3
*12 mn1\@1
*13 mp3\@1
*14 mn0
*15 mp2\@1
*16 mn1
*17 mp1
*18 mn1\@2
*19 mp0
*20 mn2\@2
*21 mp1\@1
*22 mp1\@2
*23 mp2\@2
*24 AN
*25 mp3\@2
*26 Y
*27 mp3\@3
*28 mp2\@3
*29 mp1\@3
*30 VDD
*31 mn3\@2
*32 mn3\@3
*33 mn2\@3
*34 mn1\@3
*35 n2\@6
*36 n2\@7
*37 n2\@1
*38 n2
*39 n2\@2
*40 n2\@3
*41 VSS

*GROUND_NETS VSS

*PORTS
*30 I
*41 I
*24 I
*1 I
*3 I
*26 O

*D_NET *30 5.8612e-16

*CONN
*P *30 I *C 0.1000 1.7100 
*I *9:s B *C 1.7650 1.2300 
*I *11:s B *C 1.7650 1.2300 
*I *13:s B *C 2.1750 1.2300 
*I *15:s B *C 2.1750 1.2300 
*I *17:s B *C 2.5850 1.2300 
*I *19:s B *C 2.5850 1.2300 
*I *21:s B *C 1.3550 1.2300 
*I *22:s B *C 0.1350 1.2300 
*I *23:s B *C 0.5350 1.2300 
*I *25:s B *C 0.5350 1.2300 
*I *27:s B *C 0.9450 1.2300 
*I *28:s B *C 0.9450 1.2300 
*I *29:s B *C 1.3550 1.2300 

*CAP
0 *30 5.8612e-16


*END

*D_NET *41 0

*CONN
*P *41 I *C 0.1000 0.0000 
*I *12:s B *C 2.5300 0.4450 
*I *14:s B *C 2.5300 0.4450 
*I *16:s B *C 1.4000 0.4450 
*I *18:s B *C 0.2500 0.4450 
*I *34:s B *C 1.4000 0.4450 
*N *41:2 *C 2.3000 0.0000 
*N *41:3 *C 2.3000 0.0000 
*N *41:4 *C 1.2850 0.0000 
*N *41:5 *C 0.8000 0.0000 
*N *41:6 *C 0.1350 0.0000 


*RES
0 *12:s *41:3 75.379089  // $metal1_conn
1 *41:3 *41:4 0.509234  // $metal1_conn
2 *41:4 *41:5 0.243226  // $metal1_conn
3 *41:5 *41:6 0.333569  // $metal1_conn
4 *41:6 *41 0.017117  // $metal1_conn
5 *41:4 *16:s 75.097549  // $metal1_conn
6 *41:6 *18:s 75.097549  // $metal1_conn
7 *41:2 *41:3 8.857142  // $metal1_conn
8 *41:2 *41:5 7.75  // $metal1_conn

*END

*D_NET *24 2.12987e-16

*CONN
*P *24 I *C 2.5000 0.6650 
*I *14:g B *C 2.6325 0.4450 
*I *19:g B *C 2.6875 1.2300 
*N *24:2 *C 2.6600 0.7450 

*CAP
0 *19:g 4.86492e-17
1 *14:g 3.39327e-17
2 *24:2 7.34695e-17
3 *24 5.69352e-17

*RES
0 *19:g *24:2 65.845795  // $poly_conn
1 *24:2 *14:g 35.076569  // $poly_conn
2 *24:2 *24 45.108891  // $metal1_conn

*END

*D_NET *1 1.03018e-15

*CONN
*P *1 I *C 0.5000 0.6650 
*I *6:g B *C 1.6625 0.4450 
*I *10:g B *C 2.2775 0.4450 
*I *20:g B *C 0.4325 0.4450 
*I *33:g B *C 1.0225 0.4450 
*I *9:g B *C 1.6625 1.2300 
*I *15:g B *C 2.2775 1.2300 
*I *23:g B *C 0.4325 1.2300 
*I *28:g B *C 1.0475 1.2300 

*CAP
0 *33:g 6.17098e-17
1 *20:g 4.78374e-17
2 *10:g 5.1056e-17
3 *6:g 6.00534e-17
4 *1 8.09525e-16

*RES
0 *1 *10:g 63.355629  // $poly_conn
1 *1 *6:g 50.461182  // $poly_conn
2 *1 *33:g 58.153492  // $poly_conn
3 *1 *20:g 19.691952  // $poly_conn

*END

*D_NET *3 6.28375e-16

*CONN
*P *3 I *C 0.9000 0.6650 
*I *7:g B *C 1.7875 0.4450 
*I *8:g B *C 1.9925 0.4450 
*I *31:g B *C 0.6375 0.4450 
*I *32:g B *C 0.8425 0.4450 
*I *11:g B *C 1.8675 1.2300 
*I *13:g B *C 2.0725 1.2300 
*I *25:g B *C 0.6375 1.2300 
*I *27:g B *C 0.8425 1.2300 

*CAP
0 *32:g 2.50148e-17
1 *31:g 3.68642e-17
2 *8:g 2.83693e-17
3 *7:g 3.67133e-17
4 *3 5.01414e-16

*RES
0 *3 *8:g 50.732903  // $poly_conn
1 *3 *7:g 19.332972  // $poly_conn
2 *3 *32:g 16.15522  // $poly_conn
3 *3 *31:g 70.215569  // $poly_conn

*END

*D_NET *26 9.28395e-16

*CONN
*P *26 O *C 0.1000 0.4750 
*I *7:d B *C 1.8900 0.4450 
*I *8:d B *C 1.8900 0.4450 
*I *31:d B *C 0.7400 0.4450 
*I *32:d B *C 0.7400 0.4450 
*I *9:d B *C 1.5600 1.2300 
*I *11:d B *C 1.9700 1.2300 
*I *13:d B *C 1.9700 1.2300 
*I *15:d B *C 2.3800 1.2300 
*I *17:d B *C 2.3800 1.2300 
*I *21:d B *C 1.5600 1.2300 
*I *22:d B *C 0.3300 1.2300 
*I *23:d B *C 0.3300 1.2300 
*I *25:d B *C 0.7400 1.2300 
*I *27:d B *C 0.7400 1.2300 
*I *28:d B *C 1.1500 1.2300 
*I *29:d B *C 1.1500 1.2300 
*N *26:13 *C 0.7400 0.4400 

*CAP
0 *15:d 6.07309e-16
1 *31:d 1.23539e-16
2 *7:d 1.12139e-16
3 *26 8.54078e-17

*RES
0 *15:d *26 0.624875  // $metal1_conn
1 *26 *26:13 0.40979  // $metal1_conn
2 *26:13 *7:d 75.846207  // $metal1_conn
3 *31:d *26:13 75  // $metal1_conn

*END

*D_NET *40 0

*CONN
*I *10:s B *C 2.3525 0.4450 
*I *12:d B *C 2.3525 0.4450 


*RES
0 *12:d *10:s 0.001  // $mwires

*END

*D_NET *39 0

*CONN
*I *8:s B *C 2.1350 0.4450 
*I *10:d B *C 2.1350 0.4450 


*RES
0 *10:d *8:s 0.001  // $mwires

*END

*D_NET *38 2.26498e-18

*CONN
*I *6:s B *C 1.7250 0.4450 
*I *7:s B *C 1.7250 0.4450 

*CAP
0 *6:s 2.26498e-18

*RES
0 *7:s *6:s 0.001  // $mwires

*END

*D_NET *37 5.06525e-18

*CONN
*I *6:d B *C 1.5550 0.4450 
*I *16:d B *C 1.5550 0.4450 

*CAP
0 *6:d 5.06525e-18

*RES
0 *16:d *6:d 0.001  // $mwires

*END

*D_NET *36 3.17994e-18

*CONN
*I *33:s B *C 1.1025 0.4450 
*I *34:d B *C 1.1025 0.4450 

*CAP
0 *33:s 3.17994e-18

*RES
0 *34:d *33:s 0.001  // $mwires

*END

*D_NET *35 3.6124e-18

*CONN
*I *32:s B *C 0.9325 0.4450 
*I *33:d B *C 0.9325 0.4450 

*CAP
0 *32:s 3.6124e-18

*RES
0 *33:d *32:s 0.001  // $mwires

*END

*D_NET *5 4.43422e-18

*CONN
*I *20:s B *C 0.5350 0.4450 
*I *31:s B *C 0.5350 0.4450 

*CAP
0 *20:s 4.43422e-18

*RES
0 *31:s *20:s 0.001  // $mwires

*END

*D_NET *4 3.11501e-18

*CONN
*I *18:d B *C 0.3650 0.4450 
*I *20:d B *C 0.3650 0.4450 

*CAP
0 *18:d 3.11501e-18

*RES
0 *20:d *18:d 0.001  // $mwires

*END

*D_NET *2 1.19631e-15

*CONN
*I *12:g B *C 2.4275 0.4450 
*I *14:d B *C 2.7250 0.4450 
*I *16:g B *C 1.4475 0.4450 
*I *18:g B *C 0.2975 0.4450 
*I *34:g B *C 1.1825 0.4450 
*I *17:g B *C 2.4825 1.2300 
*I *19:d B *C 2.7800 1.2300 
*I *21:g B *C 1.4575 1.2300 
*I *22:g B *C 0.2275 1.2300 
*I *29:g B *C 1.2525 1.2300 
*N *2:6 *C 1.4275 0.6725 
*N *2:14 *C 2.8475 0.9250 

*CAP
0 *19:d 6.90495e-17
1 *17:g 8.12369e-16
2 *34:g 4.85614e-17
3 *18:g 5.03223e-17
4 *16:g 2.80763e-17
5 *14:d 4.14502e-17
6 *12:g 6.23644e-17
7 *2:14 5.79677e-17
8 *2:6 2.61493e-17

*RES
0 *17:g *12:g 81.230408  // $poly_conn
1 *2:6 *16:g 22.187239  // $poly_conn
2 *2:6 *34:g 73.600868  // $poly_conn
3 *18:g *17:g 65.247986  // $poly_conn
4 *17:g *2:6 29.389229  // $poly_conn
5 *2:14 *19:d 20.774017  // $metal1_conn
6 *14:d *2:14 75.363785  // $metal1_conn
7 *2:14 *17:g 0.255285  // $metal1_conn

*END

