*SPEF "IEEE 1481-1999"
*DESIGN  "NAND2BX2"
*DATE "Mon Sep 27 10:06:46 2010"
*VENDOR "Cadence Design Systems"
*PROGRAM "Assura RCX"
*VERSION "3.2 Red Hat Linux release 7.2 (Enigma) - (09/09/2009-10:39)"
*DESIGN_FLOW "Physical Verification"
*DIVIDER /
*DELIMITER :
*BUS_DELIMITER []
*T_UNIT 1 PS
*C_UNIT 1e15 FF
*R_UNIT 1 OHM
*L_UNIT 1 MH
// DeviceFingerDelim "@"
// MATCHED
// caps2d version: 10

*NAME_MAP
*1 mp1\@1
*2 mp0
*3 mn1
*4 Y
*5 mn2
*6 mn2\@1
*7 mn1\@1
*8 mn0
*9 n0
*10 n1\@1
*11 VDD
*12 n1
*13 B
*14 VSS
*15 AN
*16 mp1
*17 mp2
*18 mp2\@1

*GROUND_NETS VSS

*PORTS
*11 I
*14 I
*15 I
*13 I
*4 O

*D_NET *11 2.80849e-16

*CONN
*P *11 I *C 0.0900 1.7100 
*I *16:s B *C 0.1150 1.2850 
*I *17:s B *C 0.5150 1.2850 
*I *18:s B *C 0.5150 1.2850 
*I *1:s B *C 1.0100 1.1975 
*I *2:s B *C 1.0100 1.1975 
*N *11:2 *C 0.6900 1.7100 

*CAP
0 *17:s 5.84379e-17
1 *11:2 1.11665e-16
2 *11 1.10746e-16

*RES
0 *11:2 *11 10.714286  // $metal1_conn
1 *11 *17:s 31.237877  // $metal1_conn

*END

*D_NET *14 0

*CONN
*P *14 I *C 0.0900 0.0000 
*I *3:s B *C 0.3150 0.3800 
*I *7:s B *C 1.0100 0.4375 
*I *8:s B *C 1.0100 0.4375 
*N *14:2 *C 0.6900 0.0000 
*N *14:3 *C 0.6900 0.0000 
*N *14:4 *C 0.3050 0.0000 


*RES
0 *7:s *14:3 37.877617  // $metal1_conn
1 *14:3 *14:4 0.192972  // $metal1_conn
2 *14:4 *14 0.107571  // $metal1_conn
3 *14:4 *3:s 37.72908  // $metal1_conn
4 *14:2 *14:3 8.857142  // $metal1_conn

*END

*D_NET *15 1.72011e-16

*CONN
*P *15 I *C 1.1500 0.8500 
*I *8:g B *C 1.0575 0.4375 
*I *2:g B *C 1.0575 1.1975 
*N *15:2 *C 1.1000 0.8750 
*N *15:4 *C 1.1000 0.8625 
*N *15:5 *C 1.1000 0.8750 
*N *15:6 *C 1.1505 0.8625 

*CAP
0 *2:g 3.77067e-17
1 *8:g 4.15518e-17
2 *15:6 1.81389e-17
3 *15:4 3.50472e-17
4 *15:2 3.95666e-17

*RES
0 *2:g *15:2 45.642399  // $poly_conn
1 *15:2 *8:g 84.103943  // $poly_conn
2 *15:4 *15:5 0.004676  // $metal1_conn
3 *15 *15:6 0.004676  // $metal1_conn
4 *15:4 *15:6 0.017738  // $metal1_conn
5 *15:2 *15:5 45  // $metal1_conn

*END

*D_NET *13 4.15464e-16

*CONN
*P *13 I *C 0.1150 0.9950 
*I *5:g B *C 0.5125 0.3800 
*I *6:g B *C 0.7175 0.3800 
*I *17:g B *C 0.4125 1.2850 
*I *18:g B *C 0.6175 1.2850 
*N *13:2 *C 0.5125 0.6650 

*CAP
0 *18:g 1.90495e-16
1 *6:g 7.37911e-17
2 *5:g 5.12152e-17
3 *13:2 3.95573e-17
4 *13 6.04058e-17

*RES
0 *6:g *13:2 76.217575  // $poly_conn
1 *13:2 *5:g 37.951614  // $poly_conn
2 *13:2 *18:g 61.799145  // $poly_conn
3 *18:g *13 45.225445  // $metal1_conn

*END

*D_NET *4 5.19708e-16

*CONN
*P *4 O *C 0.1150 0.5950 
*I *5:d B *C 0.6150 0.3800 
*I *6:d B *C 0.6150 0.3800 
*I *16:d B *C 0.3100 1.2850 
*I *17:d B *C 0.3100 1.2850 
*I *18:d B *C 0.7200 1.2850 
*I *1:d B *C 0.7200 1.2850 

*CAP
0 *18:d 2.90042e-16
1 *5:d 9.00141e-17
2 *4 1.39652e-16

*RES
0 *4 *5:d 38.033401  // $metal1_conn
1 *18:d *4 0.914519  // $metal1_conn

*END

*D_NET *12 0

*CONN
*I *3:d B *C 0.4600 0.3800 
*I *5:s B *C 0.4600 0.3800 


*RES
0 *5:s *3:d 0.001  // $mwires

*END

*D_NET *10 0

*CONN
*I *6:s B *C 0.7700 0.3800 
*I *7:d B *C 0.7700 0.3800 


*RES
0 *7:d *6:s 0.001  // $mwires

*END

*D_NET *9 6.36898e-16

*CONN
*I *3:g B *C 0.4075 0.3800 
*I *7:g B *C 0.8225 0.3800 
*I *8:d B *C 1.1500 0.4375 
*I *16:g B *C 0.2075 1.2850 
*I *1:g B *C 0.8225 1.2850 
*I *2:d B *C 1.2000 1.1575 
*N *9:8 *C 0.9300 0.7000 

*CAP
0 *2:d 5.74913e-17
1 *1:g 3.50398e-16
2 *8:d 3.73029e-17
3 *7:g 6.71827e-17
4 *3:g 5.67539e-17
5 *9:8 6.77696e-17

*RES
0 *1:g *7:g 40.204773  // $poly_conn
1 *3:g *1:g 37.911495  // $poly_conn
2 *9:8 *2:d 62.49902  // $metal1_conn
3 *8:d *9:8 75.334457  // $metal1_conn
4 *9:8 *1:g 0.039722  // $metal1_conn

*END

