*SPEF "IEEE 1481-1999"
*DESIGN  "NAND4X8"
*DATE "Mon Sep 27 10:18:29 2010"
*VENDOR "Cadence Design Systems"
*PROGRAM "Assura RCX"
*VERSION "3.2 Red Hat Linux release 7.2 (Enigma) - (09/09/2009-10:39)"
*DESIGN_FLOW "Physical Verification"
*DIVIDER /
*DELIMITER :
*BUS_DELIMITER []
*T_UNIT 1 PS
*C_UNIT 1e15 FF
*R_UNIT 1 OHM
*L_UNIT 1 MH
// DeviceFingerDelim "@"
// MATCHED
// caps2d version: 10

*NAME_MAP
*1 mn1\@4
*2 mn1\@5
*3 mn1\@6
*4 mn0
*5 mn0\@1
*6 mn0\@2
*7 mn0\@3
*8 mn0\@4
*9 mn0\@5
*10 mn0\@6
*11 mp2\@2
*12 mp2\@3
*13 mp2\@4
*14 mp2\@5
*15 mp2\@6
*16 mp1
*17 mp1\@1
*18 mp1\@2
*19 mp1\@3
*20 mp1\@4
*21 mp1\@5
*22 mp1\@6
*23 VDD
*24 mp0
*25 mp0\@1
*26 mp0\@2
*27 mp0\@3
*28 mp0\@4
*29 n2
*30 mp0\@5
*31 n1
*32 mp0\@6
*33 mn3
*34 mn3\@1
*35 mp3
*36 mn3\@2
*37 mp3\@1
*38 mn3\@3
*39 VSS
*40 mp3\@2
*41 mn3\@4
*42 mp3\@3
*43 mn3\@5
*44 mp3\@4
*45 mn3\@6
*46 mp3\@5
*47 mn2
*48 mp3\@6
*49 mn2\@1
*50 mp2
*51 A
*52 mp2\@1
*53 B
*54 C
*55 D
*56 Y
*57 n0
*58 mn2\@2
*59 mn2\@3
*60 mn2\@4
*61 mn2\@5
*62 mn2\@6
*63 mn1
*64 mn1\@1
*65 mn1\@2
*66 mn1\@3

*GROUND_NETS VSS

*PORTS
*23 I
*39 I
*51 I
*53 I
*54 I
*55 I
*56 O

*D_NET *23 9.69235e-16

*CONN
*P *23 I *C 0.1000 1.7100 
*I *35:s B *C 4.6250 1.1675 
*I *37:s B *C 4.6250 1.1675 
*I *40:s B *C 5.0350 1.1675 
*I *42:s B *C 5.0350 1.1675 
*I *44:s B *C 5.4450 1.1675 
*I *46:s B *C 5.4450 1.1675 
*I *48:s B *C 5.8450 1.1675 
*I *50:s B *C 2.9850 1.1675 
*I *52:s B *C 3.3950 1.1675 
*I *11:s B *C 3.3950 1.1675 
*I *12:s B *C 3.8050 1.1675 
*I *13:s B *C 3.8050 1.1675 
*I *14:s B *C 4.2150 1.1675 
*I *15:s B *C 4.2150 1.1675 
*I *16:s B *C 1.7550 1.1675 
*I *17:s B *C 1.7550 1.1675 
*I *18:s B *C 2.1650 1.1675 
*I *19:s B *C 2.1650 1.1675 
*I *20:s B *C 2.5750 1.1675 
*I *21:s B *C 2.5750 1.1675 
*I *22:s B *C 2.9850 1.1675 
*I *24:s B *C 0.1250 1.1675 
*I *25:s B *C 0.5250 1.1675 
*I *26:s B *C 0.5250 1.1675 
*I *27:s B *C 0.9350 1.1675 
*I *28:s B *C 0.9350 1.1675 
*I *30:s B *C 1.3450 1.1675 
*I *32:s B *C 1.3450 1.1675 
*N *23:3 *C 5.0000 1.7100 

*CAP
0 *14:s 3.55149e-16
1 *48:s 1.99939e-16
2 *23:3 2.04009e-16
3 *23 2.10138e-16

*RES
0 *23:3 *48:s 7.5  // $metal1_conn
1 *23:3 *14:s 7.5  // $metal1_conn
2 *23:3 *23 7.5  // $metal1_conn
3 *48:s *14:s 0.205113  // $metal1_conn
4 *14:s *23 0.205113  // $metal1_conn

*END

*D_NET *39 0

*CONN
*P *39 I *C 0.1000 0.0000 
*I *4:s B *C 0.1250 0.5125 
*I *5:s B *C 0.5250 0.5125 
*I *6:s B *C 0.5250 0.5125 
*I *7:s B *C 0.9350 0.5125 
*I *8:s B *C 0.9350 0.5125 
*I *9:s B *C 1.3450 0.5125 
*I *10:s B *C 1.3450 0.5125 
*N *39:1 *C 5.0000 0.0000 
*N *39:2 *C 3.0000 0.0000 


*RES
0 *39:1 *39:2 7.202464  // $metal1_conn
1 *39:1 *39:2 6.2  // $metal1_conn
2 *39:1 *39 6.2  // $metal1_conn
3 *39:2 *39 0.829343  // $metal1_conn

*END

*D_NET *51 4.11066e-16

*CONN
*P *51 I *C 0.9000 0.8550 
*I *4:g B *C 0.2175 0.5125 
*I *5:g B *C 0.4225 0.5125 
*I *6:g B *C 0.6275 0.5125 
*I *7:g B *C 0.8325 0.5125 
*I *8:g B *C 1.0375 0.5125 
*I *9:g B *C 1.2425 0.5125 
*I *10:g B *C 1.4475 0.5125 
*I *24:g B *C 0.2175 1.1675 
*I *25:g B *C 0.4225 1.1675 
*I *26:g B *C 0.6275 1.1675 
*I *27:g B *C 0.8325 1.1675 
*I *28:g B *C 1.0375 1.1675 
*I *30:g B *C 1.2425 1.1675 
*I *32:g B *C 1.4475 1.1675 

*CAP
0 *51 4.11066e-16


*END

*D_NET *53 4.46352e-16

*CONN
*P *53 I *C 2.1000 0.8550 
*I *63:g B *C 1.6525 0.5125 
*I *64:g B *C 1.8575 0.5125 
*I *65:g B *C 2.0625 0.5125 
*I *66:g B *C 2.2675 0.5125 
*I *1:g B *C 2.4725 0.5125 
*I *2:g B *C 2.6775 0.5125 
*I *3:g B *C 2.8825 0.5125 
*I *16:g B *C 1.6525 1.1675 
*I *17:g B *C 1.8575 1.1675 
*I *18:g B *C 2.0625 1.1675 
*I *19:g B *C 2.2675 1.1675 
*I *20:g B *C 2.4725 1.1675 
*I *21:g B *C 2.6775 1.1675 
*I *22:g B *C 2.8825 1.1675 

*CAP
0 *53 4.46352e-16


*END

*D_NET *54 4.43443e-16

*CONN
*P *54 I *C 3.9000 0.8550 
*I *47:g B *C 3.0875 0.5125 
*I *49:g B *C 3.2925 0.5125 
*I *58:g B *C 3.4975 0.5125 
*I *59:g B *C 3.7025 0.5125 
*I *60:g B *C 3.9075 0.5125 
*I *61:g B *C 4.1125 0.5125 
*I *62:g B *C 4.3175 0.5125 
*I *50:g B *C 3.0875 1.1675 
*I *52:g B *C 3.2925 1.1675 
*I *11:g B *C 3.4975 1.1675 
*I *12:g B *C 3.7025 1.1675 
*I *13:g B *C 3.9075 1.1675 
*I *14:g B *C 4.1125 1.1675 
*I *15:g B *C 4.3175 1.1675 

*CAP
0 *15:g 4.23285e-16
1 *54 2.01574e-17

*RES
0 *15:g *54 0.041972  // $metal1_conn

*END

*D_NET *55 4.33707e-16

*CONN
*P *55 I *C 4.9000 0.8550 
*I *33:g B *C 4.5225 0.5125 
*I *34:g B *C 4.7275 0.5125 
*I *36:g B *C 4.9325 0.5125 
*I *38:g B *C 5.1375 0.5125 
*I *41:g B *C 5.3425 0.5125 
*I *43:g B *C 5.5475 0.5125 
*I *45:g B *C 5.7525 0.5125 
*I *35:g B *C 4.5225 1.1675 
*I *37:g B *C 4.7275 1.1675 
*I *40:g B *C 4.9325 1.1675 
*I *42:g B *C 5.1375 1.1675 
*I *44:g B *C 5.3425 1.1675 
*I *46:g B *C 5.5475 1.1675 
*I *48:g B *C 5.7525 1.1675 

*CAP
0 *55 4.33707e-16


*END

*D_NET *56 1.40187e-15

*CONN
*P *56 O *C 5.5000 0.6650 
*I *33:d B *C 4.6250 0.5125 
*I *34:d B *C 4.6250 0.5125 
*I *36:d B *C 5.0350 0.5125 
*I *38:d B *C 5.0350 0.5125 
*I *41:d B *C 5.4450 0.5125 
*I *43:d B *C 5.4450 0.5125 
*I *45:d B *C 5.8450 0.5125 
*I *35:d B *C 4.4200 1.1675 
*I *37:d B *C 4.8300 1.1675 
*I *40:d B *C 4.8300 1.1675 
*I *42:d B *C 5.2400 1.1675 
*I *44:d B *C 5.2400 1.1675 
*I *46:d B *C 5.6500 1.1675 
*I *48:d B *C 5.6500 1.1675 
*I *50:d B *C 3.1900 1.1675 
*I *52:d B *C 3.1900 1.1675 
*I *11:d B *C 3.6000 1.1675 
*I *12:d B *C 3.6000 1.1675 
*I *13:d B *C 4.0100 1.1675 
*I *14:d B *C 4.0100 1.1675 
*I *15:d B *C 4.4200 1.1675 
*I *16:d B *C 1.5500 1.1675 
*I *17:d B *C 1.9600 1.1675 
*I *18:d B *C 1.9600 1.1675 
*I *19:d B *C 2.3700 1.1675 
*I *20:d B *C 2.3700 1.1675 
*I *21:d B *C 2.7800 1.1675 
*I *22:d B *C 2.7800 1.1675 
*I *24:d B *C 0.3200 1.1675 
*I *25:d B *C 0.3200 1.1675 
*I *26:d B *C 0.7300 1.1675 
*I *27:d B *C 0.7300 1.1675 
*I *28:d B *C 1.1400 1.1675 
*I *30:d B *C 1.1400 1.1675 
*I *32:d B *C 1.5500 1.1675 

*CAP
0 *21:d 5.82737e-16
1 *46:d 5.84217e-16
2 *33:d 2.18592e-16
3 *56 1.63255e-17

*RES
0 *33:d *56 0.035224  // $metal1_conn
1 *56 *46:d 0.246025  // $metal1_conn
2 *46:d *21:d 0.346612  // $metal1_conn

*END

*D_NET *57 4.34688e-16

*CONN
*I *33:s B *C 4.4200 0.5125 
*I *34:s B *C 4.8300 0.5125 
*I *36:s B *C 4.8300 0.5125 
*I *38:s B *C 5.2400 0.5125 
*I *41:s B *C 5.2400 0.5125 
*I *43:s B *C 5.6500 0.5125 
*I *45:s B *C 5.6500 0.5125 
*I *47:d B *C 3.1900 0.5125 
*I *49:d B *C 3.1900 0.5125 
*I *58:d B *C 3.6000 0.5125 
*I *59:d B *C 3.6000 0.5125 
*I *60:d B *C 4.0100 0.5125 
*I *61:d B *C 4.0100 0.5125 
*I *62:d B *C 4.4200 0.5125 

*CAP
0 *43:s 4.34688e-16


*END

*D_NET *31 4.93822e-16

*CONN
*I *47:s B *C 2.9850 0.5125 
*I *49:s B *C 3.3950 0.5125 
*I *58:s B *C 3.3950 0.5125 
*I *59:s B *C 3.8050 0.5125 
*I *60:s B *C 3.8050 0.5125 
*I *61:s B *C 4.2150 0.5125 
*I *62:s B *C 4.2150 0.5125 
*I *63:d B *C 1.7550 0.5125 
*I *64:d B *C 1.7550 0.5125 
*I *65:d B *C 2.1650 0.5125 
*I *66:d B *C 2.1650 0.5125 
*I *1:d B *C 2.5750 0.5125 
*I *2:d B *C 2.5750 0.5125 
*I *3:d B *C 2.9850 0.5125 

*CAP
0 *61:s 4.93822e-16


*END

*D_NET *29 4.31912e-16

*CONN
*I *63:s B *C 1.5500 0.5125 
*I *64:s B *C 1.9600 0.5125 
*I *65:s B *C 1.9600 0.5125 
*I *66:s B *C 2.3700 0.5125 
*I *1:s B *C 2.3700 0.5125 
*I *2:s B *C 2.7800 0.5125 
*I *3:s B *C 2.7800 0.5125 
*I *4:d B *C 0.3200 0.5125 
*I *5:d B *C 0.3200 0.5125 
*I *6:d B *C 0.7300 0.5125 
*I *7:d B *C 0.7300 0.5125 
*I *8:d B *C 1.1400 0.5125 
*I *9:d B *C 1.1400 0.5125 
*I *10:d B *C 1.5500 0.5125 

*CAP
0 *2:s 4.31912e-16


*END

