*SPEF "IEEE 1481-1999"
*DESIGN  "NAND4BX4"
*DATE "Mon Sep 27 10:16:11 2010"
*VENDOR "Cadence Design Systems"
*PROGRAM "Assura RCX"
*VERSION "3.2 Red Hat Linux release 7.2 (Enigma) - (09/09/2009-10:39)"
*DESIGN_FLOW "Physical Verification"
*DIVIDER /
*DELIMITER :
*BUS_DELIMITER []
*T_UNIT 1 PS
*C_UNIT 1e15 FF
*R_UNIT 1 OHM
*L_UNIT 1 MH
// DeviceFingerDelim "@"
// MATCHED
// caps2d version: 10

*NAME_MAP
*1 Y
*2 mp0
*3 mp1
*4 mp1\@1
*5 mp1\@2
*6 mp1\@3
*7 mp2\@1
*8 mp2\@2
*9 mp2\@3
*10 VDD
*11 AN
*12 mn3
*13 mn3\@1
*14 mn3\@2
*15 mn3\@3
*16 mn4
*17 VSS
*18 mn4\@1
*19 mp2
*20 mn4\@2
*21 mp3
*22 mn4\@3
*23 mp3\@1
*24 mn0
*25 mp3\@2
*26 mp3\@3
*27 mp4
*28 net126
*29 mp4\@1
*30 net130
*31 mp4\@2
*32 mp4\@3
*33 B
*34 C
*35 D
*36 mn1
*37 mn1\@1
*38 mn1\@2
*39 mn1\@3
*40 mn2
*41 mn2\@1
*42 mn2\@2
*43 mn2\@3
*44 net118
*45 net122

*GROUND_NETS VSS

*PORTS
*10 I
*17 I
*11 I
*33 I
*34 I
*35 I
*1 O

*D_NET *10 6.53443e-16

*CONN
*P *10 I *C 0.1000 1.7100 
*I *19:s B *C 2.1650 1.1600 
*I *21:s B *C 2.1650 1.1600 
*I *23:s B *C 2.5750 1.1600 
*I *25:s B *C 2.5750 1.1600 
*I *26:s B *C 3.0575 1.1600 
*I *27:s B *C 3.0575 1.1600 
*I *29:s B *C 3.5400 1.1600 
*I *31:s B *C 3.5400 1.1600 
*I *32:s B *C 3.9400 1.1600 
*I *2:s B *C 0.1150 1.0950 
*I *3:s B *C 0.5200 1.1600 
*I *4:s B *C 0.9200 1.1600 
*I *5:s B *C 0.9200 1.1600 
*I *6:s B *C 1.3375 1.1600 
*I *7:s B *C 1.3375 1.1600 
*I *8:s B *C 1.7550 1.1600 
*I *9:s B *C 1.7550 1.1600 
*N *10:3 *C 3.3000 1.7100 

*CAP
0 *2:s 3.3348e-17
1 *32:s 4.71482e-16
2 *10:3 1.42611e-16
3 *10 6.00233e-18

*RES
0 *10 *2:s 62.319118  // $metal1_conn
1 *32:s *10 0.205617  // $metal1_conn
2 *10:3 *32:s 6.818182  // $metal1_conn
3 *10:3 *32:s 6.818182  // $metal1_conn

*END

*D_NET *17 0

*CONN
*P *17 I *C 0.1000 0.0000 
*I *24:s B *C 0.1150 0.5100 
*I *36:s B *C 0.7150 0.4350 
*I *37:s B *C 0.7150 0.4350 
*I *38:s B *C 1.1250 0.4350 
*I *39:s B *C 1.1250 0.4350 
*N *17:1 *C 3.3000 0.0000 


*RES
0 *17 *24:s 75.284119  // $metal1_conn
1 *38:s *17 0.308473  // $metal1_conn
2 *17:1 *38:s 5.636364  // $metal1_conn
3 *17:1 *38:s 6.740742  // $metal1_conn

*END

*D_NET *11 1.69292e-16

*CONN
*P *11 I *C 0.1000 0.6650 
*I *24:g B *C 0.2075 0.5100 
*I *2:g B *C 0.2075 1.0950 
*N *11:2 *C 0.2075 0.7400 
*N *11:3 *C 0.1500 0.7400 

*CAP
0 *2:g 2.71003e-17
1 *24:g 2.40827e-17
2 *11:2 1.00833e-17
3 *11:3 8.08209e-17
4 *11 2.72049e-17

*RES
0 *2:g *11:2 38.270954  // $poly_conn
1 *11:2 *11:3 45.794373  // $poly_conn
2 *11:2 *24:g 22.886339  // $poly_conn
3 *11:3 *11 0.011835  // $metal1_conn

*END

*D_NET *33 3.81863e-16

*CONN
*P *33 I *C 1.9000 0.8550 
*I *40:g B *C 1.4325 0.4350 
*I *41:g B *C 1.6375 0.4350 
*I *42:g B *C 1.8425 0.4350 
*I *43:g B *C 2.0475 0.4350 
*I *19:g B *C 2.0625 1.1600 
*I *7:g B *C 1.4475 1.1600 
*I *8:g B *C 1.6525 1.1600 
*I *9:g B *C 1.8575 1.1600 

*CAP
0 *19:g 2.86215e-16
1 *33 9.5648e-17

*RES
0 *33 *19:g 0.019014  // $metal1_conn

*END

*D_NET *34 5.09886e-16

*CONN
*P *34 I *C 3.1000 0.8550 
*I *12:g B *C 2.4725 0.4150 
*I *13:g B *C 2.6775 0.4150 
*I *14:g B *C 3.0525 0.4150 
*I *15:g B *C 3.2575 0.4150 
*I *21:g B *C 2.2675 1.1600 
*I *23:g B *C 2.4725 1.1600 
*I *25:g B *C 2.6775 1.1600 
*I *26:g B *C 2.8825 1.1600 

*CAP
0 *34 5.09886e-16


*END

*D_NET *35 3.4358e-16

*CONN
*P *35 I *C 3.7000 0.8550 
*I *16:g B *C 3.4625 0.4150 
*I *18:g B *C 3.6675 0.4150 
*I *20:g B *C 3.8975 0.4150 
*I *22:g B *C 4.1025 0.4150 
*I *27:g B *C 3.2325 1.1600 
*I *29:g B *C 3.4375 1.1600 
*I *31:g B *C 3.6425 1.1600 
*I *32:g B *C 3.8475 1.1600 

*CAP
0 *32:g 2.86416e-16
1 *35 5.71648e-17

*RES
0 *32:g *35 0.006328  // $metal1_conn

*END

*D_NET *1 1.26041e-15

*CONN
*P *1 O *C 1.5000 1.0450 
*I *16:d B *C 3.5650 0.4150 
*I *18:d B *C 3.5650 0.4150 
*I *20:d B *C 4.0000 0.4150 
*I *22:d B *C 4.0000 0.4150 
*I *19:d B *C 1.9600 1.1600 
*I *21:d B *C 2.3700 1.1600 
*I *23:d B *C 2.3700 1.1600 
*I *25:d B *C 2.7800 1.1600 
*I *26:d B *C 2.7800 1.1600 
*I *27:d B *C 3.3350 1.1600 
*I *29:d B *C 3.3350 1.1600 
*I *31:d B *C 3.7450 1.1600 
*I *32:d B *C 3.7450 1.1600 
*I *3:d B *C 0.7150 1.1600 
*I *4:d B *C 0.7150 1.1600 
*I *5:d B *C 1.1250 1.1600 
*I *6:d B *C 1.1250 1.1600 
*I *7:d B *C 1.5500 1.1600 
*I *8:d B *C 1.5500 1.1600 
*I *9:d B *C 1.9600 1.1600 
*N *1:4 *C 1.5000 0.9800 

*CAP
0 *5:d 1.46967e-16
1 *31:d 1.90593e-16
2 *25:d 1.7891e-16
3 *16:d 3.53862e-16
4 *1 3.9008e-16

*RES
0 *16:d *1:4 1.902437  // $metal1_conn
1 *1:4 *5:d 0.28558  // $metal1_conn
2 *1:4 *1 0.021124  // $metal1_conn
3 *1 *25:d 0.342587  // $metal1_conn
4 *25:d *31:d 0.465771  // $metal1_conn

*END

*D_NET *30 4.09104e-16

*CONN
*I *12:d B *C 2.3800 0.4150 
*I *13:d B *C 2.8650 0.4150 
*I *14:d B *C 2.8650 0.4150 
*I *15:d B *C 3.3600 0.4150 
*I *16:s B *C 3.3600 0.4150 
*I *18:s B *C 3.7825 0.4150 
*I *20:s B *C 3.7825 0.4150 
*I *22:s B *C 4.1950 0.4150 

*CAP
0 *22:s 4.09104e-16


*END

*D_NET *28 4.23826e-16

*CONN
*I *12:s B *C 2.5750 0.4150 
*I *13:s B *C 2.5750 0.4150 
*I *14:s B *C 3.1550 0.4150 
*I *15:s B *C 3.1550 0.4150 
*I *40:d B *C 1.5350 0.4350 
*I *41:d B *C 1.5350 0.4350 
*I *42:d B *C 1.9450 0.4350 
*I *43:d B *C 1.9450 0.4350 

*CAP
0 *42:d 1.96299e-16
1 *14:s 2.27527e-16

*RES
0 *14:s *42:d 0.490755  // $metal1_conn

*END

*D_NET *45 3.6909e-16

*CONN
*I *36:d B *C 0.5200 0.4350 
*I *37:d B *C 0.9200 0.4350 
*I *38:d B *C 0.9200 0.4350 
*I *39:d B *C 1.3300 0.4350 
*I *40:s B *C 1.3300 0.4350 
*I *41:s B *C 1.7400 0.4350 
*I *42:s B *C 1.7400 0.4350 
*I *43:s B *C 2.1400 0.4350 

*CAP
0 *43:s 3.6909e-16


*END

*D_NET *44 4.59935e-16

*CONN
*I *24:d B *C 0.3000 0.5100 
*I *36:g B *C 0.6125 0.4350 
*I *37:g B *C 0.8175 0.4350 
*I *38:g B *C 1.0225 0.4350 
*I *39:g B *C 1.2275 0.4350 
*I *2:d B *C 0.3000 1.0950 
*I *3:g B *C 0.6125 1.1600 
*I *4:g B *C 0.8175 1.1600 
*I *5:g B *C 1.0225 1.1600 
*I *6:g B *C 1.2275 1.1600 
*N *44:16 *C 0.3100 0.7150 

*CAP
0 *6:g 3.10765e-16
1 *2:d 6.90581e-17
2 *24:d 2.08444e-17
3 *44:16 5.92673e-17

*RES
0 *6:g *44:16 0.332033  // $metal1_conn
1 *44:16 *2:d 20.964506  // $metal1_conn
2 *44:16 *24:d 75.093674  // $metal1_conn

*END

