*SPEF "IEEE 1481-1999"
*DESIGN  "NAND4X4"
*DATE "Mon Sep 27 10:17:44 2010"
*VENDOR "Cadence Design Systems"
*PROGRAM "Assura RCX"
*VERSION "3.2 Red Hat Linux release 7.2 (Enigma) - (09/09/2009-10:39)"
*DESIGN_FLOW "Physical Verification"
*DIVIDER /
*DELIMITER :
*BUS_DELIMITER []
*T_UNIT 1 PS
*C_UNIT 1e15 FF
*R_UNIT 1 OHM
*L_UNIT 1 MH
// DeviceFingerDelim "@"
// MATCHED
// caps2d version: 10

*NAME_MAP
*1 VDD
*2 Y
*3 mp2
*4 mp2\@1
*5 n2
*6 mp2\@2
*7 n1
*8 mp2\@3
*9 mp3
*10 mp3\@1
*11 mp3\@2
*12 mp3\@3
*13 mp0\@1
*14 mp0
*15 mp0\@2
*16 mp0\@3
*17 mp1
*18 mp1\@1
*19 mp1\@2
*20 mp1\@3
*21 mn0\@1
*22 mn0\@2
*23 mn0\@3
*24 mn1
*25 mn1\@1
*26 mn1\@2
*27 mn1\@3
*28 VSS
*29 n0
*30 mn2
*31 mn2\@1
*32 mn2\@2
*33 A
*34 mn2\@3
*35 B
*36 mn3
*37 C
*38 mn3\@1
*39 D
*40 mn3\@2
*41 mn3\@3
*42 mn0

*GROUND_NETS VSS

*PORTS
*1 I
*28 I
*33 I
*35 I
*37 I
*39 I
*2 O

*D_NET *1 5.78254e-16

*CONN
*P *1 I *C 0.1000 1.7100 
*I *3:s B *C 1.7925 1.1700 
*I *4:s B *C 2.2200 1.1700 
*I *6:s B *C 2.2200 1.1700 
*I *8:s B *C 2.7125 1.1700 
*I *9:s B *C 2.7125 1.1700 
*I *10:s B *C 3.2050 1.1700 
*I *11:s B *C 3.2050 1.1700 
*I *12:s B *C 3.6350 1.1700 
*I *14:s B *C 0.1100 1.1700 
*I *13:s B *C 0.5150 1.1700 
*I *15:s B *C 0.5150 1.1700 
*I *16:s B *C 0.9425 1.1700 
*I *17:s B *C 0.9425 1.1700 
*I *18:s B *C 1.3650 1.1700 
*I *19:s B *C 1.3650 1.1700 
*I *20:s B *C 1.7925 1.1700 
*N *1:3 *C 3.0000 1.7100 

*CAP
0 *1:3 1.36975e-16
1 *1 4.41278e-16

*RES
0 *1:3 *1 7.5  // $metal1_conn
1 *1:3 *1 7.5  // $metal1_conn

*END

*D_NET *28 0

*CONN
*P *28 I *C 0.1000 0.0000 
*I *42:s B *C 0.3350 0.3750 
*I *21:s B *C 0.3350 0.3750 
*I *22:s B *C 0.7450 0.3750 
*I *23:s B *C 0.7450 0.3750 
*N *28:1 *C 3.0000 0.0000 
*N *28:2 *C 1.0000 0.0000 


*RES
0 *22:s *28 0.117461  // $metal1_conn
1 *28:1 *28:2 7.203469  // $metal1_conn
2 *28:1 *28:2 6.2  // $metal1_conn
3 *28:2 *22:s 0.127746  // $metal1_conn

*END

*D_NET *33 3.22035e-16

*CONN
*P *33 I *C 0.5000 0.6650 
*I *42:g B *C 0.2325 0.3750 
*I *21:g B *C 0.4375 0.3750 
*I *22:g B *C 0.6425 0.3750 
*I *23:g B *C 0.8475 0.3750 
*I *14:g B *C 0.2025 1.1700 
*I *13:g B *C 0.4075 1.1700 
*I *15:g B *C 0.6225 1.1700 
*I *16:g B *C 0.8275 1.1700 

*CAP
0 *33 3.22035e-16


*END

*D_NET *35 3.87079e-16

*CONN
*P *35 I *C 1.5000 0.8550 
*I *24:g B *C 1.0525 0.3750 
*I *25:g B *C 1.2575 0.3750 
*I *26:g B *C 1.4625 0.3750 
*I *27:g B *C 1.6675 0.3750 
*I *17:g B *C 1.0575 1.1700 
*I *18:g B *C 1.2625 1.1700 
*I *19:g B *C 1.4675 1.1700 
*I *20:g B *C 1.6725 1.1700 

*CAP
0 *20:g 2.96211e-16
1 *35 9.0868e-17

*RES
0 *35 *20:g 0.006546  // $metal1_conn

*END

*D_NET *37 4.84004e-16

*CONN
*P *37 I *C 2.9000 0.8550 
*I *30:g B *C 2.1175 0.4350 
*I *31:g B *C 2.3225 0.4350 
*I *32:g B *C 2.7225 0.4350 
*I *34:g B *C 2.9275 0.4350 
*I *3:g B *C 1.9125 1.1700 
*I *4:g B *C 2.1175 1.1700 
*I *6:g B *C 2.3225 1.1700 
*I *8:g B *C 2.5275 1.1700 

*CAP
0 *37 4.84004e-16


*END

*D_NET *39 3.25809e-16

*CONN
*P *39 I *C 3.3000 0.8550 
*I *36:g B *C 3.1325 0.4350 
*I *38:g B *C 3.3375 0.4350 
*I *40:g B *C 3.5625 0.4350 
*I *41:g B *C 3.7675 0.4350 
*I *9:g B *C 2.8975 1.1700 
*I *10:g B *C 3.1025 1.1700 
*I *11:g B *C 3.3075 1.1700 
*I *12:g B *C 3.5125 1.1700 

*CAP
0 *39 3.25809e-16


*END

*D_NET *2 1.24013e-15

*CONN
*P *2 O *C 1.1000 1.0450 
*I *36:d B *C 3.2350 0.4350 
*I *38:d B *C 3.2350 0.4350 
*I *40:d B *C 3.6650 0.4350 
*I *41:d B *C 3.6650 0.4350 
*I *3:d B *C 2.0150 1.1700 
*I *4:d B *C 2.0150 1.1700 
*I *6:d B *C 2.4250 1.1700 
*I *8:d B *C 2.4250 1.1700 
*I *9:d B *C 3.0000 1.1700 
*I *10:d B *C 3.0000 1.1700 
*I *11:d B *C 3.4100 1.1700 
*I *12:d B *C 3.4100 1.1700 
*I *14:d B *C 0.3050 1.1700 
*I *13:d B *C 0.3050 1.1700 
*I *15:d B *C 0.7250 1.1700 
*I *16:d B *C 0.7250 1.1700 
*I *17:d B *C 1.1600 1.1700 
*I *18:d B *C 1.1600 1.1700 
*I *19:d B *C 1.5700 1.1700 
*I *20:d B *C 1.5700 1.1700 

*CAP
0 *15:d 1.4753e-16
1 *11:d 1.76082e-16
2 *6:d 1.81728e-16
3 *36:d 3.43884e-16
4 *2 3.90905e-16

*RES
0 *36:d *2 1.959624  // $metal1_conn
1 *2 *15:d 0.313079  // $metal1_conn
2 *2 *6:d 0.345252  // $metal1_conn
3 *6:d *11:d 0.459925  // $metal1_conn

*END

*D_NET *29 4.08878e-16

*CONN
*I *30:d B *C 2.0250 0.4350 
*I *31:d B *C 2.5225 0.4350 
*I *32:d B *C 2.5225 0.4350 
*I *34:d B *C 3.0300 0.4350 
*I *36:s B *C 3.0300 0.4350 
*I *38:s B *C 3.4500 0.4350 
*I *40:s B *C 3.4500 0.4350 
*I *41:s B *C 3.8600 0.4350 

*CAP
0 *41:s 4.08878e-16


*END

*D_NET *7 4.28706e-16

*CONN
*I *30:s B *C 2.2200 0.4350 
*I *31:s B *C 2.2200 0.4350 
*I *32:s B *C 2.8250 0.4350 
*I *34:s B *C 2.8250 0.4350 
*I *24:d B *C 1.1550 0.3750 
*I *25:d B *C 1.1550 0.3750 
*I *26:d B *C 1.5650 0.3750 
*I *27:d B *C 1.5650 0.3750 

*CAP
0 *26:d 1.89551e-16
1 *32:s 2.39154e-16

*RES
0 *32:s *26:d 0.515541  // $metal1_conn

*END

*D_NET *5 3.39901e-16

*CONN
*I *42:d B *C 0.1400 0.3750 
*I *21:d B *C 0.5400 0.3750 
*I *22:d B *C 0.5400 0.3750 
*I *23:d B *C 0.9500 0.3750 
*I *24:s B *C 0.9500 0.3750 
*I *25:s B *C 1.3600 0.3750 
*I *26:s B *C 1.3600 0.3750 
*I *27:s B *C 1.7600 0.3750 

*CAP
0 *27:s 3.39901e-16


*END

