*SPEF "IEEE 1481-1999"
*DESIGN  "NAND4XL"
*DATE "Mon Sep 27 10:18:52 2010"
*VENDOR "Cadence Design Systems"
*PROGRAM "Assura RCX"
*VERSION "3.2 Red Hat Linux release 7.2 (Enigma) - (09/09/2009-10:39)"
*DESIGN_FLOW "Physical Verification"
*DIVIDER /
*DELIMITER :
*BUS_DELIMITER []
*T_UNIT 1 PS
*C_UNIT 1e15 FF
*R_UNIT 1 OHM
*L_UNIT 1 MH
// DeviceFingerDelim "@"
// MATCHED
// caps2d version: 10

*NAME_MAP
*1 mp0
*2 mp1
*3 mp2
*4 mp3
*5 VSS
*6 n0
*7 n1
*8 n2
*9 mn0
*10 mn1
*11 A
*12 VDD
*13 mn2
*14 Y
*15 B
*16 mn3
*17 C
*18 D

*GROUND_NETS VSS

*PORTS
*12 I
*5 I
*11 I
*15 I
*17 I
*18 I
*14 O

*D_NET *12 1.0009e-16

*CONN
*P *12 I *C 0.1000 1.7100 
*I *1:s B *C 0.1250 1.3450 
*I *2:s B *C 0.5150 1.0075 
*I *3:s B *C 0.5150 1.0075 
*I *4:s B *C 0.8650 1.1525 
*N *12:2 *C 0.5000 1.7100 
*N *12:3 *C 0.5000 1.7100 
*N *12:4 *C 0.4300 1.7100 

*CAP
0 *4:s 1.10916e-17
1 *2:s 1.46311e-17
2 *1:s 4.59833e-18
3 *12:4 1.41698e-17
4 *12:2 5.26237e-17
5 *12 2.97516e-18

*RES
0 *4:s *12:3 62.398972  // $metal1_conn
1 *12:3 *12:4 0.034838  // $metal1_conn
2 *12:4 *12 0.164602  // $metal1_conn
3 *12 *1:s 62.231365  // $metal1_conn
4 *12:4 *2:s 62.221928  // $metal1_conn
5 *12:2 *12:3 15  // $metal1_conn

*END

*D_NET *5 0

*CONN
*P *5 I *C 0.1000 0.0000 
*I *9:s B *C 0.1300 0.5875 
*N *5:1 *C 0.5000 0.0000 


*RES
0 *5:1 *5 12.599896  // $metal1_conn
1 *5 *9:s 75.079155  // $metal1_conn

*END

*D_NET *11 1.62804e-16

*CONN
*P *11 I *C 0.1400 0.3950 
*I *9:g B *C 0.1775 0.5875 
*I *1:g B *C 0.1625 1.0075 
*N *11:2 *C 0.1500 0.7700 

*CAP
0 *1:g 2.89545e-17
1 *9:g 2.78381e-17
2 *11:2 6.60189e-17
3 *11 3.99929e-17

*RES
0 *9:g *11:2 17.398676  // $poly_conn
1 *11:2 *1:g 22.52688  // $poly_conn
2 *11 *11:2 45.223747  // $metal1_conn

*END

*D_NET *15 1.97892e-16

*CONN
*P *15 I *C 0.3400 0.5550 
*I *10:g B *C 0.3125 0.5875 
*I *2:g B *C 0.3675 1.0075 
*N *15:2 *C 0.3400 0.7700 

*CAP
0 *2:g 4.55527e-17
1 *10:g 3.48474e-17
2 *15:2 8.02126e-17
3 *15 3.72797e-17

*RES
0 *2:g *15:2 24.729614  // $poly_conn
1 *15:2 *10:g 19.601408  // $poly_conn
2 *15 *15:2 45.128281  // $metal1_conn

*END

*D_NET *17 1.87509e-16

*CONN
*P *17 I *C 0.5400 0.7150 
*I *13:g B *C 0.5625 0.5875 
*I *3:g B *C 0.5625 1.0075 
*N *17:2 *C 0.5325 0.7700 
*N *17:5 *C 0.5325 0.7700 

*CAP
0 *3:g 4.17082e-17
1 *13:g 3.48499e-17
2 *17:5 4.73942e-17
3 *17:2 3.49775e-17
4 *17 2.85793e-17

*RES
0 *3:g *17:2 22.49876  // $poly_conn
1 *17:2 *13:g 17.370556  // $poly_conn
2 *17 *17:5 0.033983  // $metal1_conn
3 *17:2 *17:5 45  // $metal1_conn

*END

*D_NET *18 1.78751e-16

*CONN
*P *18 I *C 0.7400 0.8750 
*I *16:g B *C 0.6925 0.5875 
*I *4:g B *C 0.7675 1.0075 
*N *18:2 *C 0.7300 0.7950 
*N *18:4 *C 0.7300 0.7950 
*N *18:5 *C 0.7350 0.7950 
*N *18:6 *C 0.7350 0.8750 

*CAP
0 *4:g 2.58165e-17
1 *16:g 3.5952e-17
2 *18:5 5.62355e-17
3 *18:2 2.49965e-17
4 *18 3.57503e-17

*RES
0 *4:g *18:2 19.707582  // $poly_conn
1 *18:2 *16:g 27.399891  // $poly_conn
2 *18:4 *18:5 0.001151  // $metal1_conn
3 *18:6 *18 0.001266  // $metal1_conn
4 *18:5 *18:6 0.04943  // $metal1_conn
5 *18:2 *18:4 45  // $metal1_conn

*END

*D_NET *14 1.88683e-16

*CONN
*P *14 O *C 0.9000 1.0300 
*I *16:d B *C 0.8250 0.5875 
*I *1:d B *C 0.2650 1.0075 
*I *2:d B *C 0.2650 1.0075 
*I *3:d B *C 0.6650 1.0075 
*I *4:d B *C 0.6650 1.0075 
*N *14:3 *C 0.6650 1.0200 

*CAP
0 *3:d 5.01845e-17
1 *1:d 3.19068e-17
2 *16:d 6.08655e-17
3 *14 4.57265e-17

*RES
0 *16:d *14 75.272919  // $metal1_conn
1 *14 *14:3 0.166006  // $metal1_conn
2 *14:3 *1:d 62.277283  // $metal1_conn
3 *3:d *14:3 62  // $metal1_conn

*END

*D_NET *8 0

*CONN
*I *9:d B *C 0.2450 0.5875 
*I *10:s B *C 0.2450 0.5875 


*RES
0 *10:s *9:d 0.001  // $mwires

*END

*D_NET *7 2.84176e-18

*CONN
*I *10:d B *C 0.4375 0.5875 
*I *13:s B *C 0.4375 0.5875 

*CAP
0 *10:d 2.84176e-18

*RES
0 *13:s *10:d 0.001  // $mwires

*END

*D_NET *6 0

*CONN
*I *13:d B *C 0.6275 0.5875 
*I *16:s B *C 0.6275 0.5875 


*RES
0 *16:s *13:d 0.001  // $mwires

*END

