*SPEF "IEEE 1481-1999"
*DESIGN  "NOR2BX2"
*DATE "Mon Sep 27 10:19:36 2010"
*VENDOR "Cadence Design Systems"
*PROGRAM "Assura RCX"
*VERSION "3.2 Red Hat Linux release 7.2 (Enigma) - (09/09/2009-10:39)"
*DESIGN_FLOW "Physical Verification"
*DIVIDER /
*DELIMITER :
*BUS_DELIMITER []
*T_UNIT 1 PS
*C_UNIT 1e15 FF
*R_UNIT 1 OHM
*L_UNIT 1 MH
// DeviceFingerDelim "@"
// MATCHED
// caps2d version: 10

*NAME_MAP
*1 mp1\@1
*2 mp0
*3 mn1
*4 Y
*5 mn2
*6 mn2\@1
*7 mn1\@1
*8 mn0
*9 net76
*10 net59
*11 VDD
*12 net59\@1
*13 B
*14 VSS
*15 AN
*16 mp1
*17 mp2
*18 mp2\@1

*GROUND_NETS VSS

*PORTS
*11 I
*14 I
*15 I
*13 I
*4 O

*D_NET *11 1.85002e-16

*CONN
*P *11 I *C 0.1000 1.7100 
*I *16:s B *C 0.4300 1.1650 
*I *1:s B *C 1.2375 1.0775 
*I *2:s B *C 1.2375 1.0775 
*N *11:2 *C 0.8000 1.7100 
*N *11:3 *C 0.8000 1.7100 
*N *11:4 *C 0.4200 1.7100 
*N *11:6 *C 0.4200 1.3000 

*CAP
0 *1:s 4.02368e-17
1 *16:s 3.86198e-17
2 *11:4 5.80795e-18
3 *11:2 9.53072e-17
4 *11 5.0304e-18

*RES
0 *1:s *11:3 62.453392  // $metal1_conn
1 *11:3 *11:4 0.189829  // $metal1_conn
2 *11:4 *11 0.159575  // $metal1_conn
3 *11:4 *11:6 0.252285  // $metal1_conn
4 *11:6 *16:s 62.145359  // $metal1_conn
5 *11:2 *11:3 9.375  // $metal1_conn
6 *16:s *11:6 62  // $metal1_conn

*END

*D_NET *14 0

*CONN
*P *14 I *C 0.1000 0.0000 
*I *3:s B *C 0.3475 0.4200 
*I *5:s B *C 0.7700 0.4200 
*I *6:s B *C 0.7700 0.4200 
*I *7:s B *C 1.2450 0.4775 
*I *8:s B *C 1.2450 0.4775 
*N *14:2 *C 0.8000 0.0000 


*RES
0 *7:s *14 0.099567  // $metal1_conn
1 *14:2 *7:s 7.75  // $metal1_conn
2 *7:s *5:s 75.209  // $metal1_conn

*END

*D_NET *15 2.15243e-16

*CONN
*P *15 I *C 1.1000 1.0450 
*I *8:g B *C 1.2975 0.4775 
*I *2:g B *C 1.2975 1.0775 
*N *15:2 *C 1.2600 0.8600 

*CAP
0 *2:g 2.89338e-17
1 *8:g 4.09982e-17
2 *15:2 7.63646e-17
3 *15 6.89459e-17

*RES
0 *2:g *15:2 18.719322  // $poly_conn
1 *15:2 *8:g 70.001373  // $poly_conn
2 *15:2 *15 45.173435  // $metal1_conn

*END

*D_NET *13 3.31742e-16

*CONN
*P *13 I *C 0.9000 1.2350 
*I *5:g B *C 0.6675 0.4200 
*I *6:g B *C 0.8725 0.4200 
*I *17:g B *C 0.6275 1.1650 
*I *18:g B *C 0.8625 1.1650 
*N *13:3 *C 0.8900 0.8600 

*CAP
0 *18:g 3.1417e-17
1 *17:g 7.64922e-17
2 *6:g 8.37147e-17
3 *13:3 8.80297e-17
4 *13 5.20886e-17

*RES
0 *13:3 *18:g 17.152769  // $poly_conn
1 *13:3 *17:g 76.907867  // $poly_conn
2 *6:g *13:3 34.171284  // $poly_conn
3 *13 *13:3 45.224033  // $metal1_conn

*END

*D_NET *4 3.53688e-16

*CONN
*P *4 O *C 0.1000 0.8550 
*I *3:d B *C 0.5575 0.4200 
*I *5:d B *C 0.5575 0.4200 
*I *6:d B *C 0.9825 0.4200 
*I *7:d B *C 0.9825 0.4200 
*I *17:d B *C 0.7450 1.1650 
*I *18:d B *C 0.7450 1.1650 

*CAP
0 *17:d 1.15445e-16
1 *6:d 1.64532e-16
2 *4 7.37114e-17

*RES
0 *17:d *4 21.319717  // $metal1_conn
1 *4 *6:d 0.563505  // $metal1_conn

*END

*D_NET *12 3.15034e-18

*CONN
*I *18:s B *C 0.9500 1.1650 
*I *1:d B *C 0.9500 1.1650 

*CAP
0 *18:s 3.15034e-18

*RES
0 *1:d *18:s 0.001  // $mwires

*END

*D_NET *10 0

*CONN
*I *16:d B *C 0.5750 1.1650 
*I *17:s B *C 0.5750 1.1650 


*RES
0 *17:s *16:d 0.001  // $mwires

*END

*D_NET *9 5.39371e-16

*CONN
*I *3:g B *C 0.4475 0.4200 
*I *7:g B *C 1.0925 0.4200 
*I *8:d B *C 1.4050 0.4775 
*I *16:g B *C 0.5225 1.1650 
*I *1:g B *C 1.0375 1.1650 
*I *2:d B *C 1.4050 1.0775 
*N *9:8 *C 1.4300 0.6700 

*CAP
0 *2:d 4.25901e-17
1 *1:g 6.83601e-17
2 *16:g 8.11018e-17
3 *8:d 1.76968e-17
4 *7:g 2.93645e-16
5 *9:8 3.5977e-17

*RES
0 *7:g *1:g 68.409897  // $poly_conn
1 *16:g *7:g 69.707581  // $poly_conn
2 *2:d *9:8 62.265434  // $metal1_conn
3 *9:8 *8:d 75.123894  // $metal1_conn
4 *9:8 *7:g 0.23772  // $metal1_conn

*END

