*SPEF "IEEE 1481-1999"
*DESIGN  "NOR2XL"
*DATE "Mon Sep 27 10:22:37 2010"
*VENDOR "Cadence Design Systems"
*PROGRAM "Assura RCX"
*VERSION "3.2 Red Hat Linux release 7.2 (Enigma) - (09/09/2009-10:39)"
*DESIGN_FLOW "Physical Verification"
*DIVIDER /
*DELIMITER :
*BUS_DELIMITER []
*T_UNIT 1 PS
*C_UNIT 1e15 FF
*R_UNIT 1 OHM
*L_UNIT 1 MH
// DeviceFingerDelim "@"
// MATCHED
// caps2d version: 10

*NAME_MAP
*1 A
*2 VDD
*3 B
*4 mn0
*5 net41
*6 mp0
*7 mn1
*8 mp1
*9 VSS
*10 Y

*GROUND_NETS VSS

*PORTS
*2 I
*9 I
*1 I
*3 I
*10 O

*D_NET *2 7.59382e-17

*CONN
*P *2 I *C 0.1000 1.7100 
*I *6:s B *C 0.1650 1.1325 
*N *2:1 *C 0.3000 1.7100 
*N *2:2 *C 0.1550 1.7100 

*CAP
0 *6:s 2.12457e-17
1 *2:2 6.11788e-20
2 *2:1 5.32496e-17
3 *2 1.38172e-18

*RES
0 *2:1 *2:2 25.072193  // $metal1_conn
1 *2:2 *2 0.027006  // $metal1_conn
2 *2:2 *6:s 62.330643  // $metal1_conn

*END

*D_NET *9 0

*CONN
*P *9 I *C 0.1000 0.0000 
*I *4:s B *C 0.1500 0.5775 
*I *7:s B *C 0.5000 0.3650 
*N *9:2 *C 0.3000 0.0000 
*N *9:3 *C 0.3000 0.0000 
*N *9:4 *C 0.1350 0.0000 


*RES
0 *7:s *9:3 75.250839  // $metal1_conn
1 *9:3 *9:4 0.082178  // $metal1_conn
2 *9:4 *9 0.017024  // $metal1_conn
3 *9:4 *4:s 75.162628  // $metal1_conn
4 *9:2 *9:3 20.666666  // $metal1_conn

*END

*D_NET *1 1.80853e-16

*CONN
*P *1 I *C 0.1100 0.7700 
*I *4:g B *C 0.1975 0.5775 
*I *6:g B *C 0.2575 1.1325 
*N *1:2 *C 0.1975 0.7500 
*N *1:3 *C 0.1400 0.7500 

*CAP
0 *6:g 6.96402e-17
1 *4:g 2.24589e-17
2 *1:2 2.72849e-17
3 *1:3 7.80009e-18
4 *1 5.36688e-17

*RES
0 *6:g *1:2 71.31472  // $poly_conn
1 *1:2 *1:3 45.794373  // $poly_conn
2 *1:2 *4:g 22.886339  // $poly_conn
3 *1:3 *1 0.007044  // $metal1_conn

*END

*D_NET *3 1.9241e-16

*CONN
*P *3 I *C 0.3100 0.9300 
*I *7:g B *C 0.4025 0.5775 
*I *8:g B *C 0.3625 1.1325 
*N *3:2 *C 0.3750 0.7950 

*CAP
0 *8:g 5.63199e-17
1 *7:g 2.41288e-17
2 *3:2 9.73837e-17
3 *3 1.45774e-17

*RES
0 *7:g *3:2 27.749462  // $poly_conn
1 *3:2 *8:g 48.537849  // $poly_conn
2 *3:2 *3 45.079582  // $metal1_conn

*END

*D_NET *10 1.27272e-16

*CONN
*P *10 O *C 0.4750 1.0900 
*I *4:d B *C 0.3000 0.5775 
*I *7:d B *C 0.3000 0.5775 
*I *8:d B *C 0.4550 1.1325 
*N *10:2 *C 0.4650 1.0850 

*CAP
0 *8:d 5.94798e-17
1 *4:d 6.77924e-17

*RES
0 *10 *10:2 0.003089  // $metal1_conn
1 *10:2 *4:d 75.493401  // $metal1_conn
2 *8:d *10:2 62  // $metal1_conn

*END

*D_NET *5 0

*CONN
*I *6:d B *C 0.3100 1.1325 
*I *8:s B *C 0.3100 1.1325 


*RES
0 *8:s *6:d 0.001  // $mwires

*END

