*SPEF "IEEE 1481-1999"
*DESIGN  "NOR2X8"
*DATE "Mon Sep 27 10:22:14 2010"
*VENDOR "Cadence Design Systems"
*PROGRAM "Assura RCX"
*VERSION "3.2 Red Hat Linux release 7.2 (Enigma) - (09/09/2009-10:39)"
*DESIGN_FLOW "Physical Verification"
*DIVIDER /
*DELIMITER :
*BUS_DELIMITER []
*T_UNIT 1 PS
*C_UNIT 1e15 FF
*R_UNIT 1 OHM
*L_UNIT 1 MH
// DeviceFingerDelim "@"
// MATCHED
// caps2d version: 10

*NAME_MAP
*1 mn1\@4
*2 mn0\@5
*3 mn0\@6
*4 mp1\@5
*5 mn1\@5
*6 VDD
*7 mp0\@5
*8 mn1\@6
*9 mp0\@6
*10 VSS
*11 mp1\@6
*12 mp1
*13 Y
*14 net41\@1
*15 net41\@2
*16 net41\@3
*17 mn0
*18 mn0\@1
*19 net41\@4
*20 mn1
*21 net41\@5
*22 mn1\@1
*23 net41\@6
*24 mn0\@2
*25 net41
*26 mn0\@3
*27 mn1\@2
*28 mn0\@4
*29 mn1\@3
*30 mp0
*31 mp0\@1
*32 mp1\@1
*33 mp1\@2
*34 mp0\@2
*35 mp0\@3
*36 mp1\@3
*37 mp0\@4
*38 mp1\@4
*39 A
*40 B

*GROUND_NETS VSS

*PORTS
*6 I
*10 I
*39 I
*40 I
*13 O

*D_NET *6 4.40433e-16

*CONN
*P *6 I *C 0.1000 1.7050 
*I *30:s B *C 1.5425 1.2025 
*I *31:s B *C 1.5425 1.2025 
*I *34:s B *C 2.1650 1.2025 
*I *35:s B *C 2.1650 1.2025 
*I *37:s B *C 0.3100 1.2025 
*I *7:s B *C 0.9200 1.2025 
*I *9:s B *C 0.9200 1.2025 
*N *6:1 *C 2.4000 1.7050 
*N *6:2 *C 2.1650 1.7050 
*N *6:3 *C 1.5450 1.7050 
*N *6:4 *C 0.9200 1.7050 
*N *6:5 *C 0.8000 1.7050 
*N *6:6 *C 0.3000 1.7050 

*CAP
0 *7:s 4.79569e-17
1 *37:s 4.58741e-17
2 *34:s 4.734e-17
3 *30:s 4.80491e-17
4 *6:6 8.72415e-18
5 *6:4 1.36268e-17
6 *6:3 2.51389e-17
7 *6:2 1.5708e-17
8 *6:1 1.83755e-16
9 *6 4.26042e-18

*RES
0 *6:1 *6:2 9.49279  // $metal1_conn
1 *6:2 *6:3 0.310891  // $metal1_conn
2 *6:3 *6:4 0.313401  // $metal1_conn
3 *6:4 *6:5 0.060052  // $metal1_conn
4 *6:5 *6:6 0.250839  // $metal1_conn
5 *6:6 *6 0.099967  // $metal1_conn
6 *6:2 *34:s 31.250618  // $metal1_conn
7 *6:3 *30:s 31.250618  // $metal1_conn
8 *6:4 *7:s 31.250618  // $metal1_conn
9 *6:6 *37:s 20.957726  // $metal1_conn
10 *6:1 *6:5 9.375  // $metal1_conn

*END

*D_NET *39 1.71863e-15

*CONN
*P *39 I *C 0.3400 0.7600 
*I *17:g B *C 1.6375 0.4425 
*I *18:g B *C 1.8475 0.4425 
*I *24:g B *C 2.4725 0.4425 
*I *26:g B *C 2.6775 0.4425 
*I *28:g B *C 0.2025 0.4425 
*I *2:g B *C 0.8175 0.4425 
*I *3:g B *C 1.0225 0.4425 
*I *30:g B *C 1.4375 1.2025 
*I *31:g B *C 1.6475 1.2025 
*I *34:g B *C 2.0625 1.2025 
*I *35:g B *C 2.2675 1.2025 
*I *37:g B *C 0.4025 1.2025 
*I *7:g B *C 0.8175 1.2025 
*I *9:g B *C 1.0225 1.2025 
*N *39:20 *C 2.2675 0.7900 

*CAP
0 *9:g 7.01703e-17
1 *7:g 7.09106e-17
2 *37:g 8.33179e-17
3 *35:g 7.15261e-17
4 *34:g 8.19857e-17
5 *31:g 7.38018e-17
6 *30:g 7.98035e-17
7 *39:20 5.31811e-17
8 *39 1.13394e-15

*RES
0 *39:20 *35:g 43.735153  // $poly_conn
1 *39:20 *34:g 88.541718  // $poly_conn
2 *39 *31:g 57.535549  // $poly_conn
3 *39 *30:g 67.89492  // $poly_conn
4 *9:g *39 54.381268  // $poly_conn
5 *39 *7:g 51.021915  // $poly_conn
6 *37:g *39 66.39238  // $poly_conn
7 *39 *39:20 27.468857  // $poly_conn

*END

*D_NET *40 1.53534e-15

*CONN
*P *40 I *C 1.0950 0.8800 
*I *20:g B *C 2.0525 0.4425 
*I *22:g B *C 2.2675 0.4425 
*I *27:g B *C 2.8825 0.4425 
*I *29:g B *C 0.4075 0.4425 
*I *1:g B *C 0.6125 0.4425 
*I *5:g B *C 1.2275 0.4425 
*I *8:g B *C 1.4325 0.4425 
*I *32:g B *C 1.7525 1.2025 
*I *33:g B *C 1.9575 1.2025 
*I *36:g B *C 2.3725 1.2025 
*I *38:g B *C 0.5075 1.2025 
*I *4:g B *C 0.7125 1.2025 
*I *11:g B *C 1.1275 1.2025 
*I *12:g B *C 1.3325 1.2025 

*CAP
0 *12:g 8.78604e-17
1 *11:g 6.25172e-17
2 *4:g 6.32223e-17
3 *38:g 8.47181e-17
4 *36:g 9.52357e-17
5 *33:g 6.25563e-17
6 *32:g 6.36102e-17
7 *40 1.01562e-15

*RES
0 *40 *36:g 73.816124  // $poly_conn
1 *40 *33:g 24.980211  // $poly_conn
2 *40 *32:g 26.92383  // $poly_conn
3 *40 *12:g 30.179148  // $poly_conn
4 *40 *11:g 25.859999  // $poly_conn
5 *4:g *40 25.284527  // $poly_conn
6 *40 *38:g 30.179148  // $poly_conn

*END

*D_NET *13 1.53847e-15

*CONN
*P *13 O *C 2.9800 1.0800 
*I *17:d B *C 1.5350 0.4425 
*I *18:d B *C 1.9500 0.4425 
*I *20:d B *C 1.9500 0.4425 
*I *22:d B *C 2.3700 0.4425 
*I *24:d B *C 2.3700 0.4425 
*I *26:d B *C 2.7800 0.4425 
*I *27:d B *C 2.7800 0.4425 
*I *28:d B *C 0.3050 0.4425 
*I *29:d B *C 0.3050 0.4425 
*I *1:d B *C 0.7150 0.4425 
*I *2:d B *C 0.7150 0.4425 
*I *3:d B *C 1.1250 0.4425 
*I *5:d B *C 1.1250 0.4425 
*I *8:d B *C 1.5350 0.4425 
*I *32:d B *C 1.8550 1.2025 
*I *33:d B *C 1.8550 1.2025 
*I *36:d B *C 2.4650 1.2025 
*I *38:d B *C 0.6100 1.2025 
*I *4:d B *C 0.6100 1.2025 
*I *11:d B *C 1.2300 1.2025 
*I *12:d B *C 1.2300 1.2025 
*N *13:15 *C 0.6100 1.0875 
*N *13:17 *C 1.2300 1.0875 
*N *13:19 *C 1.8550 1.0875 
*N *13:21 *C 2.4750 1.0875 
*N *13:23 *C 2.8900 0.6325 

*CAP
0 *11:d 3.77072e-17
1 *38:d 3.73381e-17
2 *36:d 2.39495e-17
3 *32:d 3.67455e-17
4 *26:d 9.80073e-16
5 *13:21 7.19855e-17
6 *13:19 8.45203e-17
7 *13:17 8.44957e-17
8 *13:15 1.41808e-16
9 *13 3.98484e-17

*RES
0 *13 *13:23 0.366096  // $metal1_conn
1 *13:21 *13 0.355196  // $metal1_conn
2 *13:21 *36:d 20.74881  // $metal1_conn
3 *13:19 *32:d 20.74881  // $metal1_conn
4 *13:17 *11:d 20.752024  // $metal1_conn
5 *13:15 *38:d 20.752024  // $metal1_conn
6 *13:23 *26:d 0.070594  // $metal1_conn
7 *26:d *13:15 0.849929  // $metal1_conn
8 *13:15 *13:17 0.462455  // $metal1_conn
9 *13:17 *13:19 0.466013  // $metal1_conn
10 *13:19 *13:21 0.462455  // $metal1_conn

*END

*D_NET *16 2.01655e-18

*CONN
*I *35:d B *C 2.3200 1.2025 
*I *36:s B *C 2.3200 1.2025 

*CAP
0 *35:d 2.01655e-18

*RES
0 *36:s *35:d 0.001  // $mwires

*END

*D_NET *15 2.04638e-18

*CONN
*I *33:s B *C 2.0100 1.2025 
*I *34:d B *C 2.0100 1.2025 

*CAP
0 *33:s 2.04638e-18

*RES
0 *34:d *33:s 0.001  // $mwires

*END

*D_NET *14 2.01655e-18

*CONN
*I *31:d B *C 1.7000 1.2025 
*I *32:s B *C 1.7000 1.2025 

*CAP
0 *31:d 2.01655e-18

*RES
0 *32:s *31:d 0.001  // $mwires

*END

*D_NET *25 2.01655e-18

*CONN
*I *30:d B *C 1.3850 1.2025 
*I *12:s B *C 1.3850 1.2025 

*CAP
0 *30:d 2.01655e-18

*RES
0 *12:s *30:d 0.001  // $mwires

*END

*D_NET *23 1.8715e-18

*CONN
*I *9:d B *C 1.0750 1.2025 
*I *11:s B *C 1.0750 1.2025 

*CAP
0 *9:d 1.8715e-18

*RES
0 *11:s *9:d 0.001  // $mwires

*END

*D_NET *21 2.01655e-18

*CONN
*I *4:s B *C 0.7650 1.2025 
*I *7:d B *C 0.7650 1.2025 

*CAP
0 *4:s 2.01655e-18

*RES
0 *7:d *4:s 0.001  // $mwires

*END

*D_NET *19 1.79928e-18

*CONN
*I *37:d B *C 0.4550 1.2025 
*I *38:s B *C 0.4550 1.2025 

*CAP
0 *37:d 1.79928e-18

*RES
0 *38:s *37:d 0.001  // $mwires

*END

