*SPEF "IEEE 1481-1999"
*DESIGN  "NOR2BX1"
*DATE "Mon Sep 27 10:19:14 2010"
*VENDOR "Cadence Design Systems"
*PROGRAM "Assura RCX"
*VERSION "3.2 Red Hat Linux release 7.2 (Enigma) - (09/09/2009-10:39)"
*DESIGN_FLOW "Physical Verification"
*DIVIDER /
*DELIMITER :
*BUS_DELIMITER []
*T_UNIT 1 PS
*C_UNIT 1e15 FF
*R_UNIT 1 OHM
*L_UNIT 1 MH
// DeviceFingerDelim "@"
// MATCHED
// caps2d version: 10

*NAME_MAP
*1 mp1
*2 mn0
*3 VDD
*4 mp0
*5 net76
*6 net59
*7 Y
*8 AN
*9 mn2
*10 B
*11 VSS
*12 mp2
*13 mn1

*GROUND_NETS VSS

*PORTS
*3 I
*11 I
*8 I
*10 I
*7 O

*D_NET *3 1.4029e-16

*CONN
*P *3 I *C 0.1000 1.7100 
*I *1:s B *C 0.5500 1.1725 
*I *4:s B *C 0.5500 1.1725 
*N *3:2 *C 0.4000 1.7100 
*N *3:3 *C 0.4000 1.7100 

*CAP
0 *1:s 4.66456e-17
1 *3:2 8.04324e-17
2 *3 1.32122e-17

*RES
0 *1:s *3:3 20.990198  // $metal1_conn
1 *3:3 *3 0.150194  // $metal1_conn
2 *3:2 *3:3 18.75  // $metal1_conn

*END

*D_NET *11 0

*CONN
*P *11 I *C 0.1000 0.0000 
*I *9:s B *C 0.1400 0.4850 
*I *13:s B *C 0.5450 0.5425 
*I *2:s B *C 0.5450 0.5425 
*N *11:2 *C 0.4000 0.0000 
*N *11:3 *C 0.4000 0.0000 


*RES
0 *13:s *11:3 75.437965  // $metal1_conn
1 *11:3 *11 0.150752  // $metal1_conn
2 *11 *9:s 75.07795  // $metal1_conn
3 *11:2 *11:3 15.5  // $metal1_conn

*END

*D_NET *8 1.82119e-16

*CONN
*P *8 I *C 0.5650 0.9000 
*I *2:g B *C 0.5975 0.5425 
*I *4:g B *C 0.5975 1.1725 
*N *8:2 *C 0.5550 0.9350 
*N *8:4 *C 0.5550 0.9350 

*CAP
0 *4:g 3.04492e-17
1 *2:g 4.14663e-17
2 *8:2 7.56569e-17
3 *8 3.45471e-17

*RES
0 *4:g *8:2 22.52688  // $poly_conn
1 *8:2 *2:g 71.244827  // $poly_conn
2 *8 *8:4 0.012407  // $metal1_conn
3 *8:2 *8:4 45  // $metal1_conn

*END

*D_NET *10 2.538e-16

*CONN
*P *10 I *C 0.2400 0.7350 
*I *9:g B *C 0.1875 0.4850 
*I *12:g B *C 0.2575 1.2600 
*N *10:2 *C 0.2200 0.7950 
*N *10:4 *C 0.2300 0.7350 
*N *10:5 *C 0.2200 0.7950 
*N *10:6 *C 0.2300 0.7950 

*CAP
0 *12:g 7.54631e-17
1 *9:g 2.89299e-17
2 *10:2 1.49407e-16

*RES
0 *12:g *10:2 58.424316  // $poly_conn
1 *10:2 *9:g 35.347393  // $poly_conn
2 *10:4 *10 0.002722  // $metal1_conn
3 *10:5 *10:6 0.002593  // $metal1_conn
4 *10:4 *10:6 0.032238  // $metal1_conn
5 *10:2 *10:5 45  // $metal1_conn

*END

*D_NET *7 1.94339e-16

*CONN
*P *7 O *C 0.0850 1.0750 
*I *9:d B *C 0.2900 0.4850 
*I *13:d B *C 0.2900 0.4850 
*I *12:d B *C 0.1650 1.2600 

*CAP
0 *12:d 4.71064e-17
1 *9:d 9.02665e-17
2 *7 5.69665e-17

*RES
0 *9:d *7 38.094326  // $metal1_conn
1 *7 *12:d 20.819113  // $metal1_conn

*END

*D_NET *6 0

*CONN
*I *12:s B *C 0.3100 1.2600 
*I *1:d B *C 0.3100 1.2600 


*RES
0 *1:d *12:s 0.001  // $mwires

*END

*D_NET *5 3.40713e-16

*CONN
*I *13:g B *C 0.3925 0.4850 
*I *2:d B *C 0.6900 0.5425 
*I *1:g B *C 0.3625 1.2600 
*I *4:d B *C 0.6900 1.1725 
*N *5:2 *C 0.4050 0.7450 
*N *5:5 *C 0.7000 0.7450 

*CAP
0 *4:d 3.57618e-17
1 *1:g 9.91772e-17
2 *2:d 1.97052e-17
3 *13:g 4.1792e-17
4 *5:5 4.06231e-17
5 *5:2 1.03654e-16

*RES
0 *13:g *5:2 23.847527  // $poly_conn
1 *5:2 *1:g 80.399292  // $poly_conn
2 *4:d *5:5 62.28503  // $metal1_conn
3 *5:5 *5:2 45.201069  // $metal1_conn
4 *5:5 *2:d 75.140175  // $metal1_conn

*END

