*SPEF "IEEE 1481-1999"
*DESIGN  "NOR2X1"
*DATE "Mon Sep 27 10:20:44 2010"
*VENDOR "Cadence Design Systems"
*PROGRAM "Assura RCX"
*VERSION "3.2 Red Hat Linux release 7.2 (Enigma) - (09/09/2009-10:39)"
*DESIGN_FLOW "Physical Verification"
*DIVIDER /
*DELIMITER :
*BUS_DELIMITER []
*T_UNIT 1 PS
*C_UNIT 1e15 FF
*R_UNIT 1 OHM
*L_UNIT 1 MH
// DeviceFingerDelim "@"
// MATCHED
// caps2d version: 10

*NAME_MAP
*1 mn1
*2 B
*3 Y
*4 VSS
*5 net41
*6 VDD
*7 mp0
*8 mp1
*9 mn0
*10 A

*GROUND_NETS VSS

*PORTS
*6 I
*4 I
*10 I
*2 I
*3 O

*D_NET *6 8.92445e-17

*CONN
*P *6 I *C 0.1000 1.7100 
*I *7:s B *C 0.1100 1.0950 
*N *6:1 *C 0.3000 1.7100 

*CAP
0 *7:s 5.08996e-17
1 *6:1 3.75478e-17
2 *6 7.97077e-19

*RES
0 *6:1 *6 25.100382  // $metal1_conn
1 *6 *7:s 21.063946  // $metal1_conn

*END

*D_NET *4 0

*CONN
*P *4 I *C 0.1000 0.0000 
*I *9:s B *C 0.1100 0.4800 
*I *1:s B *C 0.5100 0.3450 
*N *4:2 *C 0.3000 0.0000 
*N *4:3 *C 0.3000 0.0000 


*RES
0 *1:s *4:3 75.137222  // $metal1_conn
1 *4:3 *4 0.100381  // $metal1_conn
2 *4 *9:s 37.814186  // $metal1_conn
3 *4:2 *4:3 20.666666  // $metal1_conn

*END

*D_NET *10 2.03594e-16

*CONN
*P *10 I *C 0.1150 0.8100 
*I *9:g B *C 0.2025 0.4800 
*I *7:g B *C 0.2025 1.0950 
*N *10:2 *C 0.2025 0.7900 
*N *10:3 *C 0.1250 0.7900 

*CAP
0 *7:g 6.68163e-17
1 *9:g 3.15809e-17
2 *10:2 3.19699e-17
3 *10:3 1.2312e-17
4 *10 6.09144e-17

*RES
0 *7:g *10:2 24.894089  // $poly_conn
1 *10:2 *10:3 47.445099  // $poly_conn
2 *10:2 *9:g 42.842808  // $poly_conn
3 *10:3 *10 0.010049  // $metal1_conn

*END

*D_NET *2 2.46101e-16

*CONN
*P *2 I *C 0.3150 1.0450 
*I *1:g B *C 0.4075 0.4800 
*I *8:g B *C 0.3075 1.0950 
*N *2:2 *C 0.3450 0.7900 

*CAP
0 *8:g 6.89387e-17
1 *1:g 3.18652e-17
2 *2:2 8.91712e-17
3 *2 5.61258e-17

*RES
0 *1:g *2:2 48.528416  // $poly_conn
1 *2:2 *8:g 18.719322  // $poly_conn
2 *2:2 *2 45.166  // $metal1_conn

*END

*D_NET *3 1.58216e-16

*CONN
*P *3 O *C 0.4750 0.6650 
*I *9:d B *C 0.3050 0.4800 
*I *1:d B *C 0.3050 0.4800 
*I *8:d B *C 0.4275 1.0950 

*CAP
0 *8:d 6.09198e-17
1 *9:d 4.78684e-17
2 *3 4.94275e-17

*RES
0 *8:d *3 20.958759  // $metal1_conn
1 *3 *9:d 37.729328  // $metal1_conn

*END

*D_NET *5 1.01113e-18

*CONN
*I *7:d B *C 0.2550 1.0950 
*I *8:s B *C 0.2550 1.0950 

*CAP
0 *7:d 1.01113e-18

*RES
0 *8:s *7:d 0.001  // $mwires

*END

