*SPEF "IEEE 1481-1999"
*DESIGN  "NOR2BX4"
*DATE "Mon Sep 27 10:19:58 2010"
*VENDOR "Cadence Design Systems"
*PROGRAM "Assura RCX"
*VERSION "3.2 Red Hat Linux release 7.2 (Enigma) - (09/09/2009-10:39)"
*DESIGN_FLOW "Physical Verification"
*DIVIDER /
*DELIMITER :
*BUS_DELIMITER []
*T_UNIT 1 PS
*C_UNIT 1e15 FF
*R_UNIT 1 OHM
*L_UNIT 1 MH
// DeviceFingerDelim "@"
// MATCHED
// caps2d version: 10

*NAME_MAP
*1 mp2\@1
*2 mp1\@1
*3 mp1\@2
*4 mp2\@2
*5 Y
*6 mp2\@3
*7 mp1\@3
*8 mp0
*9 mn1
*10 mn2
*11 mn2\@1
*12 mn1\@1
*13 mn1\@2
*14 mn2\@2
*15 mn2\@3
*16 mn1\@3
*17 mn0
*18 VDD
*19 AN
*20 B
*21 net76
*22 net59
*23 net59\@1
*24 net59\@2
*25 VSS
*26 net59\@3
*27 mp1
*28 mp2

*GROUND_NETS VSS

*PORTS
*18 I
*25 I
*19 I
*20 I
*5 O

*D_NET *18 2.37234e-16

*CONN
*P *18 I *C 0.1000 1.7100 
*I *27:s B *C 0.2100 1.1650 
*I *2:s B *C 0.8750 1.1650 
*I *3:s B *C 0.8750 1.1650 
*I *7:s B *C 1.7300 1.0775 
*I *8:s B *C 1.7300 1.0775 
*N *18:2 *C 1.1000 1.7100 
*N *18:3 *C 1.1000 1.7100 
*N *18:4 *C 0.8750 1.7100 
*N *18:5 *C 0.2000 1.7100 

*CAP
0 *7:s 3.59444e-17
1 *2:s 3.83853e-17
2 *27:s 2.55832e-17
3 *18:5 9.75754e-18
4 *18:4 1.24188e-17
5 *18:2 1.10954e-16
6 *18 4.1915e-18

*RES
0 *7:s *18:3 62.569229  // $metal1_conn
1 *18:3 *18:4 0.112562  // $metal1_conn
2 *18:4 *18:5 0.337883  // $metal1_conn
3 *18:5 *18 0.049668  // $metal1_conn
4 *18:4 *2:s 62.253357  // $metal1_conn
5 *18:5 *27:s 62.253357  // $metal1_conn
6 *18:2 *18:3 6.818182  // $metal1_conn

*END

*D_NET *25 0

*CONN
*P *25 I *C 0.1000 0.0000 
*I *9:s B *C 0.1100 0.4300 
*I *10:s B *C 0.5100 0.4300 
*I *11:s B *C 0.5100 0.4300 
*I *12:s B *C 0.9200 0.4300 
*I *13:s B *C 0.9200 0.4300 
*I *14:s B *C 1.3300 0.4300 
*I *15:s B *C 1.3300 0.4300 
*I *16:s B *C 1.7900 0.4875 
*I *17:s B *C 1.7900 0.4875 
*N *25:3 *C 1.1000 0.0000 


*RES
0 *25:3 *25 5.636364  // $metal1_conn

*END

*D_NET *19 2.07961e-16

*CONN
*P *19 I *C 1.5000 1.0450 
*I *17:g B *C 1.8425 0.4875 
*I *8:g B *C 1.7775 1.0775 
*N *19:2 *C 1.7400 0.8700 

*CAP
0 *8:g 3.05902e-17
1 *17:g 4.9683e-17
2 *19:2 9.01236e-17
3 *19 3.7564e-17

*RES
0 *17:g *19:2 74.840012  // $poly_conn
1 *19:2 *8:g 16.15522  // $poly_conn
2 *19:2 *19 45.207256  // $metal1_conn

*END

*D_NET *20 6.13097e-16

*CONN
*P *20 I *C 0.7000 0.8550 
*I *10:g B *C 0.4075 0.4300 
*I *11:g B *C 0.6125 0.4300 
*I *14:g B *C 1.2275 0.4300 
*I *15:g B *C 1.4325 0.4300 
*I *28:g B *C 0.4625 1.1650 
*I *1:g B *C 0.6675 1.1650 
*I *4:g B *C 1.0825 1.1650 
*I *6:g B *C 1.2875 1.1650 

*CAP
0 *6:g 2.58281e-17
1 *4:g 6.10198e-17
2 *1:g 5.84311e-17
3 *28:g 4.72739e-17
4 *20 4.20544e-16

*RES
0 *20 *6:g 33.036076  // $poly_conn
1 *20 *4:g 34.974998  // $poly_conn
2 *1:g *20 20.376194  // $poly_conn
3 *20 *28:g 55.112999  // $poly_conn

*END

*D_NET *5 5.99649e-16

*CONN
*P *5 O *C 0.1000 0.8550 
*I *9:d B *C 0.3050 0.4300 
*I *10:d B *C 0.3050 0.4300 
*I *11:d B *C 0.7150 0.4300 
*I *12:d B *C 0.7150 0.4300 
*I *13:d B *C 1.1250 0.4300 
*I *14:d B *C 1.1250 0.4300 
*I *15:d B *C 1.5350 0.4300 
*I *16:d B *C 1.5350 0.4300 
*I *28:d B *C 0.5650 1.1650 
*I *1:d B *C 0.5650 1.1650 
*I *4:d B *C 1.1850 1.1650 
*I *6:d B *C 1.1850 1.1650 
*N *5:8 *C 0.0650 0.8550 
*N *5:9 *C 0.5650 1.0250 

*CAP
0 *4:d 8.18066e-17
1 *28:d 2.8461e-17
2 *15:d 3.21865e-16
3 *5:9 9.50521e-17
4 *5:8 6.59281e-17
5 *5 6.53634e-18

*RES
0 *5:8 *5 0.003417  // $metal1_conn
1 *5:9 *4:d 21.229528  // $metal1_conn
2 *5:9 *28:d 20.748165  // $metal1_conn
3 *15:d *5:8 0.403439  // $metal1_conn
4 *5:8 *5:9 0.472458  // $metal1_conn

*END

*D_NET *26 3.77711e-18

*CONN
*I *6:s B *C 1.4150 1.1650 
*I *7:d B *C 1.4150 1.1650 

*CAP
0 *6:s 3.77711e-18

*RES
0 *7:d *6:s 0.001  // $mwires

*END

*D_NET *24 1.94645e-18

*CONN
*I *3:d B *C 1.0300 1.1650 
*I *4:s B *C 1.0300 1.1650 

*CAP
0 *3:d 1.94645e-18

*RES
0 *4:s *3:d 0.001  // $mwires

*END

*D_NET *23 1.94645e-18

*CONN
*I *1:s B *C 0.7200 1.1650 
*I *2:d B *C 0.7200 1.1650 

*CAP
0 *1:s 1.94645e-18

*RES
0 *2:d *1:s 0.001  // $mwires

*END

*D_NET *22 4.48317e-18

*CONN
*I *27:d B *C 0.3825 1.1650 
*I *28:s B *C 0.3825 1.1650 

*CAP
0 *27:d 4.48317e-18

*RES
0 *28:s *27:d 0.001  // $mwires

*END

*D_NET *21 9.1597e-16

*CONN
*I *9:g B *C 0.2025 0.4300 
*I *12:g B *C 0.8175 0.4300 
*I *13:g B *C 1.0225 0.4300 
*I *16:g B *C 1.6375 0.4300 
*I *17:d B *C 1.9350 0.4875 
*I *27:g B *C 0.3025 1.1650 
*I *2:g B *C 0.7725 1.1650 
*I *3:g B *C 0.9775 1.1650 
*I *7:g B *C 1.5425 1.1650 
*I *8:d B *C 1.8800 1.0775 
*N *21:6 *C 0.8450 0.7625 
*N *21:14 *C 1.9000 0.6800 
*N *21:16 *C 1.9455 0.5000 

*CAP
0 *8:d 3.55411e-17
1 *7:g 6.31929e-17
2 *3:g 7.52263e-17
3 *2:g 6.7292e-17
4 *27:g 5.28214e-17
5 *17:d 2.27186e-17
6 *16:g 5.25137e-16
7 *21:14 3.66272e-17
8 *21:6 3.74136e-17

*RES
0 *16:g *7:g 62.683887  // $poly_conn
1 *21:6 *3:g 76.187927  // $poly_conn
2 *21:6 *2:g 60.803318  // $poly_conn
3 *27:g *16:g 64.873169  // $poly_conn
4 *16:g *21:6 2.826288  // $poly_conn
5 *8:d *21:14 62.259186  // $metal1_conn
6 *17:d *21:16 75  // $metal1_conn
7 *21:14 *21:16 0.122416  // $metal1_conn
8 *21:14 *16:g 0.216519  // $metal1_conn

*END

