*SPEF "IEEE 1481-1999"
*DESIGN  "NOR3XL"
*DATE "Mon Sep 27 10:26:23 2010"
*VENDOR "Cadence Design Systems"
*PROGRAM "Assura RCX"
*VERSION "3.2 Red Hat Linux release 7.2 (Enigma) - (09/09/2009-10:39)"
*DESIGN_FLOW "Physical Verification"
*DIVIDER /
*DELIMITER :
*BUS_DELIMITER []
*T_UNIT 1 PS
*C_UNIT 1e15 FF
*R_UNIT 1 OHM
*L_UNIT 1 MH
// DeviceFingerDelim "@"
// MATCHED
// caps2d version: 10

*NAME_MAP
*1 mp1
*2 mn2
*3 VDD
*4 mp2
*5 n1
*6 Y
*7 n0
*8 A
*9 mn0
*10 B
*11 VSS
*12 mp0
*13 mn1
*14 C

*GROUND_NETS VSS

*PORTS
*3 I
*11 I
*8 I
*10 I
*14 I
*6 O

*D_NET *3 1.53799e-16

*CONN
*P *3 I *C 0.1000 1.7100 
*I *12:s B *C 0.2750 1.2225 
*N *3:1 *C 0.5000 1.7100 
*N *3:2 *C 0.2650 1.7100 

*CAP
0 *12:s 3.65329e-17
1 *3:2 2.11934e-18
2 *3:1 1.09452e-16
3 *3 5.69478e-18

*RES
0 *3:1 *3:2 15.117319  // $metal1_conn
1 *3:2 *3 0.082065  // $metal1_conn
2 *3:2 *12:s 62.282848  // $metal1_conn

*END

*D_NET *11 0

*CONN
*P *11 I *C 0.1000 0.0000 
*I *9:s B *C 0.2850 0.5525 
*I *13:s B *C 0.6400 0.5525 
*I *2:s B *C 0.6400 0.5525 
*N *11:2 *C 0.5000 0.0000 
*N *11:3 *C 0.5000 0.0000 
*N *11:4 *C 0.2700 0.0000 


*RES
0 *13:s *11:3 75.430206  // $metal1_conn
1 *11:3 *11:4 0.114819  // $metal1_conn
2 *11:4 *11 0.084565  // $metal1_conn
3 *11:4 *9:s 75.073891  // $metal1_conn
4 *11:2 *11:3 12.4  // $metal1_conn

*END

*D_NET *8 1.87443e-16

*CONN
*P *8 I *C 0.1000 1.0450 
*I *9:g B *C 0.3325 0.5525 
*I *12:g B *C 0.3675 1.2225 
*N *8:2 *C 0.3300 1.0150 

*CAP
0 *12:g 2.70716e-17
1 *9:g 4.12578e-17
2 *8:2 8.46852e-17
3 *8 3.4428e-17

*RES
0 *12:g *8:2 16.15522  // $poly_conn
1 *8:2 *9:g 90.514198  // $poly_conn
2 *8:2 *8 45.086067  // $metal1_conn

*END

*D_NET *10 2.5388e-16

*CONN
*P *10 I *C 0.5000 1.0450 
*I *13:g B *C 0.5375 0.5525 
*I *1:g B *C 0.5375 1.2225 
*N *10:2 *C 0.5100 1.0050 
*N *10:4 *C 0.5050 1.0050 

*CAP
0 *1:g 4.3131e-17
1 *13:g 4.7327e-17
2 *10:4 2.61176e-17
3 *10:2 5.49436e-17
4 *10 8.23613e-17

*RES
0 *1:g *10:2 19.691952  // $poly_conn
1 *10:2 *13:g 88.922722  // $poly_conn
2 *10:4 *10 0.024772  // $metal1_conn
3 *10:2 *10:4 45  // $metal1_conn

*END

*D_NET *14 2.28983e-16

*CONN
*P *14 I *C 0.7000 1.2350 
*I *2:g B *C 0.7425 0.5525 
*I *4:g B *C 0.6875 1.2225 
*N *14:2 *C 0.7150 0.9200 
*N *14:4 *C 0.7150 0.9200 

*CAP
0 *4:g 3.66285e-17
1 *2:g 3.42721e-17
2 *14:2 9.36366e-17
3 *14 6.44457e-17

*RES
0 *2:g *14:2 67.127846  // $poly_conn
1 *14:2 *4:g 41.486824  // $poly_conn
2 *14 *14:4 0.185748  // $metal1_conn
3 *14:2 *14:4 45  // $metal1_conn

*END

*D_NET *6 1.79523e-16

*CONN
*P *6 O *C 0.9000 0.6650 
*I *9:d B *C 0.4350 0.5525 
*I *13:d B *C 0.4350 0.5525 
*I *2:d B *C 0.8575 0.5525 
*I *4:d B *C 0.8200 1.2225 
*N *6:2 *C 0.9000 0.7150 

*CAP
0 *4:d 6.50699e-17
1 *2:d 1.23963e-17
2 *9:d 4.33101e-17
3 *6:2 5.55009e-17
4 *6 3.24563e-18

*RES
0 *9:d *6:2 75.42894  // $metal1_conn
1 *6:2 *4:d 62.362942  // $metal1_conn
2 *6:2 *6 0.042334  // $metal1_conn
3 *6 *2:d 75.059746  // $metal1_conn

*END

*D_NET *7 5.299e-18

*CONN
*I *12:d B *C 0.4525 1.2225 
*I *1:s B *C 0.4525 1.2225 

*CAP
0 *12:d 5.299e-18

*RES
0 *1:s *12:d 0.001  // $mwires

*END

*D_NET *5 1.68211e-19

*CONN
*I *1:d B *C 0.6125 1.2225 
*I *4:s B *C 0.6125 1.2225 

*CAP
0 *1:d 1.68211e-19

*RES
0 *4:s *1:d 0.001  // $mwires

*END

