*SPEF "IEEE 1481-1999"
*DESIGN  "NOR3BX1"
*DATE "Mon Sep 27 10:22:59 2010"
*VENDOR "Cadence Design Systems"
*PROGRAM "Assura RCX"
*VERSION "3.2 Red Hat Linux release 7.2 (Enigma) - (09/09/2009-10:39)"
*DESIGN_FLOW "Physical Verification"
*DIVIDER /
*DELIMITER :
*BUS_DELIMITER []
*T_UNIT 1 PS
*C_UNIT 1e15 FF
*R_UNIT 1 OHM
*L_UNIT 1 MH
// DeviceFingerDelim "@"
// MATCHED
// caps2d version: 10

*NAME_MAP
*1 mp3
*2 mp2
*3 mp1
*4 AN
*5 mp0
*6 VSS
*7 net91
*8 net86
*9 net90
*10 mn3
*11 mn2
*12 VDD
*13 mn1
*14 Y
*15 B
*16 mn0
*17 C

*GROUND_NETS VSS

*PORTS
*12 I
*6 I
*4 I
*15 I
*17 I
*14 O

*D_NET *12 1.29732e-16

*CONN
*P *12 I *C 0.1000 1.7100 
*I *3:s B *C 0.8300 1.0475 
*I *5:s B *C 0.8300 1.0475 
*N *12:2 *C 0.6000 1.7100 
*N *12:3 *C 0.6000 1.7100 

*CAP
0 *3:s 4.49286e-17
1 *12:2 7.44722e-17
2 *12 1.03316e-17

*RES
0 *3:s *12:3 21.117718  // $metal1_conn
1 *12:3 *12 0.250324  // $metal1_conn
2 *12:2 *12:3 12.5  // $metal1_conn

*END

*D_NET *6 0

*CONN
*P *6 I *C 0.1000 0.0000 
*I *10:s B *C 0.4550 0.3600 
*I *11:s B *C 0.4550 0.3600 
*I *13:s B *C 0.9150 0.3025 
*I *16:s B *C 0.9150 0.3025 
*N *6:2 *C 0.6000 0.0000 
*N *6:3 *C 0.6000 0.0000 
*N *6:4 *C 0.4550 0.0000 


*RES
0 *13:s *6:3 75.336632  // $metal1_conn
1 *6:3 *6:4 0.072471  // $metal1_conn
2 *6:4 *6 0.177461  // $metal1_conn
3 *6:4 *10:s 75.182022  // $metal1_conn
4 *6:2 *6:3 10.333333  // $metal1_conn

*END

*D_NET *4 1.76409e-16

*CONN
*P *4 I *C 0.8300 0.8550 
*I *16:g B *C 0.9675 0.3025 
*I *5:g B *C 0.8775 1.0475 
*N *4:2 *C 0.9150 0.8050 

*CAP
0 *5:g 3.10216e-17
1 *16:g 4.32609e-17
2 *4:2 3.77526e-17
3 *4 6.43739e-17

*RES
0 *16:g *4:2 104.27198  // $poly_conn
1 *4:2 *5:g 25.129578  // $poly_conn
2 *4:2 *4 45.030735  // $metal1_conn

*END

*D_NET *15 3.00816e-16

*CONN
*P *15 I *C 0.5000 1.0450 
*I *11:g B *C 0.5575 0.3600 
*I *2:g B *C 0.4825 1.1350 
*N *15:2 *C 0.5100 0.6100 

*CAP
0 *2:g 1.01039e-16
1 *11:g 3.9435e-17
2 *15:2 1.11842e-16
3 *15 4.84999e-17

*RES
0 *11:g *15:2 21.287422  // $poly_conn
1 *15:2 *2:g 76.82048  // $poly_conn
2 *15 *15:2 45.260376  // $metal1_conn

*END

*D_NET *17 2.65214e-16

*CONN
*P *17 I *C 0.3100 0.6600 
*I *10:g B *C 0.3525 0.3600 
*I *1:g B *C 0.3775 1.1350 
*N *17:2 *C 0.3425 0.7100 
*N *17:3 *C 0.3000 0.7100 
*N *17:5 *C 0.3050 0.6600 
*N *17:6 *C 0.3050 0.7100 

*CAP
0 *1:g 7.4577e-17
1 *10:g 4.18687e-17
2 *17:6 6.45889e-17
3 *17:3 4.45548e-17
4 *17 3.96251e-17

*RES
0 *1:g *17:2 61.26487  // $poly_conn
1 *17:2 *17:3 46.504688  // $poly_conn
2 *17:2 *10:g 50.337627  // $poly_conn
3 *17:5 *17 0.001113  // $metal1_conn
4 *17:3 *17:6 0.001011  // $metal1_conn
5 *17:5 *17:6 0.032623  // $metal1_conn

*END

*D_NET *14 2.62129e-16

*CONN
*P *14 O *C 0.1600 0.6650 
*I *10:d B *C 0.2600 0.3600 
*I *11:d B *C 0.6600 0.3600 
*I *13:d B *C 0.6600 0.3600 
*I *1:d B *C 0.2850 1.1350 
*N *14:3 *C 0.2500 0.3675 

*CAP
0 *1:d 5.20909e-17
1 *11:d 6.40964e-17
2 *10:d 7.21204e-17
3 *14 7.38214e-17

*RES
0 *11:d *14:3 37.857048  // $metal1_conn
1 *14:3 *14 0.179378  // $metal1_conn
2 *14 *1:d 21.07412  // $metal1_conn
3 *10:d *14:3 37.5  // $metal1_conn

*END

*D_NET *9 0

*CONN
*I *1:s B *C 0.4300 1.1350 
*I *2:d B *C 0.4300 1.1350 


*RES
0 *2:d *1:s 0.001  // $mwires

*END

*D_NET *8 1.7867e-18

*CONN
*I *2:s B *C 0.5625 1.1350 
*I *3:d B *C 0.5625 1.1350 

*CAP
0 *2:s 1.7867e-18

*RES
0 *3:d *2:s 0.001  // $mwires

*END

*D_NET *7 3.15725e-16

*CONN
*I *13:g B *C 0.7625 0.3600 
*I *16:d B *C 1.0600 0.3025 
*I *3:g B *C 0.6425 1.1350 
*I *5:d B *C 1.0150 1.0475 
*N *7:2 *C 0.7300 0.6400 
*N *7:5 *C 1.0700 0.6400 

*CAP
0 *5:d 2.96355e-17
1 *3:g 6.46627e-17
2 *16:d 2.73165e-17
3 *13:g 4.56076e-17
4 *7:5 4.6833e-17
5 *7:2 1.0167e-16

*RES
0 *13:g *7:2 30.2444  // $poly_conn
1 *7:2 *3:g 70.179192  // $poly_conn
2 *5:d *7:5 62.261768  // $metal1_conn
3 *7:5 *7:2 45.234215  // $metal1_conn
4 *7:5 *16:d 75.228958  // $metal1_conn

*END

