*SPEF "IEEE 1481-1999"
*DESIGN  "NOR3BX4"
*DATE "Mon Sep 27 10:23:44 2010"
*VENDOR "Cadence Design Systems"
*PROGRAM "Assura RCX"
*VERSION "3.2 Red Hat Linux release 7.2 (Enigma) - (09/09/2009-10:39)"
*DESIGN_FLOW "Physical Verification"
*DIVIDER /
*DELIMITER :
*BUS_DELIMITER []
*T_UNIT 1 PS
*C_UNIT 1e15 FF
*R_UNIT 1 OHM
*L_UNIT 1 MH
// DeviceFingerDelim "@"
// MATCHED
// caps2d version: 10

*NAME_MAP
*1 C
*2 mn3\@2
*3 mn3\@3
*4 mn2\@3
*5 mp3\@3
*6 mn1\@3
*7 VDD
*8 mp2\@3
*9 mp1\@3
*10 VSS
*11 mp1
*12 Y
*13 net86\@6
*14 net86\@7
*15 net86\@1
*16 net86
*17 net86\@2
*18 net86\@3
*19 mn1
*20 mn2
*21 mn3
*22 net91
*23 AN
*24 mn3\@1
*25 net86\@4
*26 mn2\@1
*27 net86\@5
*28 mn1\@1
*29 mn0
*30 mn1\@2
*31 mn2\@2
*32 mp2
*33 mp3
*34 mp3\@1
*35 mp2\@1
*36 mp1\@1
*37 mp0
*38 mp1\@2
*39 mp2\@2
*40 mp3\@2
*41 B

*GROUND_NETS VSS

*PORTS
*7 I
*10 I
*23 I
*41 I
*1 I
*12 O

*D_NET *7 3.94635e-16

*CONN
*P *7 I *C 0.1000 1.7100 
*I *36:s B *C 2.9400 1.1800 
*I *37:s B *C 2.9400 1.1800 
*I *38:s B *C 0.3900 1.1800 
*I *9:s B *C 1.5850 1.1800 
*I *11:s B *C 1.5850 1.1800 
*N *7:2 *C 2.6000 1.7100 
*N *7:3 *C 2.6000 1.7100 
*N *7:4 *C 1.5550 1.7100 
*N *7:5 *C 0.9000 1.7100 
*N *7:6 *C 0.3500 1.7100 

*CAP
0 *9:s 4.87225e-17
1 *38:s 3.97586e-17
2 *36:s 6.19652e-17
3 *7:6 1.04927e-17
4 *7:4 2.33793e-17
5 *7:2 2.10317e-16

*RES
0 *36:s *7:3 31.526844  // $metal1_conn
1 *7:3 *7:4 0.523679  // $metal1_conn
2 *7:4 *7:5 0.328166  // $metal1_conn
3 *7:5 *7:6 0.275528  // $metal1_conn
4 *7:6 *7 0.124882  // $metal1_conn
5 *7:4 *9:s 62.240425  // $metal1_conn
6 *7:6 *38:s 62.240425  // $metal1_conn
7 *7:2 *7:3 9.375  // $metal1_conn
8 *7:2 *7:5 8.333333  // $metal1_conn

*END

*D_NET *10 0

*CONN
*P *10 I *C 0.1000 0.0000 
*I *19:s B *C 1.7450 0.4450 
*I *20:s B *C 2.2150 0.4450 
*I *21:s B *C 2.2150 0.4450 
*I *24:s B *C 2.6850 0.4450 
*I *26:s B *C 2.6850 0.4450 
*I *28:s B *C 3.0400 0.4450 
*I *29:s B *C 3.0400 0.4450 
*I *30:s B *C 0.3350 0.4450 
*I *31:s B *C 0.8050 0.4450 
*I *2:s B *C 0.8050 0.4450 
*I *3:s B *C 1.2750 0.4450 
*I *4:s B *C 1.2750 0.4450 
*I *6:s B *C 1.7450 0.4450 
*N *10:2 *C 2.6000 0.0000 


*RES
0 *28:s *10 0.059711  // $metal1_conn
1 *10:2 *28:s 7.75  // $metal1_conn
2 *10:2 *28:s 6.888889  // $metal1_conn

*END

*D_NET *23 2.30227e-16

*CONN
*P *23 I *C 2.9000 0.6650 
*I *29:g B *C 3.1425 0.4450 
*I *37:g B *C 3.0425 1.1800 
*N *23:2 *C 3.0800 0.7400 

*CAP
0 *37:g 4.70502e-17
1 *29:g 2.95053e-17
2 *23:2 1.09198e-16
3 *23 4.4473e-17

*RES
0 *29:g *23:2 37.323257  // $poly_conn
1 *23:2 *37:g 53.334705  // $poly_conn
2 *23 *23:2 45.096279  // $metal1_conn

*END

*D_NET *41 1.11812e-15

*CONN
*P *41 I *C 0.7000 0.6650 
*I *20:g B *C 1.9975 0.4450 
*I *26:g B *C 2.7325 0.4450 
*I *31:g B *C 0.5875 0.4450 
*I *4:g B *C 1.3225 0.4450 
*I *32:g B *C 1.9975 1.1800 
*I *35:g B *C 2.7325 1.1800 
*I *39:g B *C 0.5875 1.1800 
*I *8:g B *C 1.3225 1.1800 

*CAP
0 *8:g 5.27507e-17
1 *39:g 8.89984e-17
2 *35:g 8.16037e-17
3 *32:g 7.92075e-17
4 *26:g 7.31162e-16
5 *41 8.43952e-17

*RES
0 *35:g *26:g 65.919731  // $poly_conn
1 *32:g *26:g 50.461182  // $poly_conn
2 *8:g *26:g 29.948362  // $poly_conn
3 *26:g *39:g 70.252686  // $poly_conn
4 *41 *26:g 0.012437  // $metal1_conn

*END

*D_NET *1 6.88488e-16

*CONN
*P *1 I *C 1.1000 0.6650 
*I *21:g B *C 2.2625 0.4450 
*I *24:g B *C 2.4675 0.4450 
*I *2:g B *C 0.8525 0.4450 
*I *3:g B *C 1.0575 0.4450 
*I *33:g B *C 2.1025 1.1800 
*I *34:g B *C 2.3075 1.1800 
*I *40:g B *C 0.8525 1.1800 
*I *5:g B *C 1.0575 1.1800 
*N *1:2 *C 1.0575 0.8875 
*N *1:9 *C 2.2625 0.8875 

*CAP
0 *5:g 2.6562e-17
1 *40:g 3.78766e-17
2 *34:g 2.17707e-17
3 *33:g 7.64882e-17
4 *1:9 1.91318e-17
5 *1:2 1.64902e-17
6 *1 4.90169e-16

*RES
0 *1:9 *34:g 29.089668  // $poly_conn
1 *1:9 *33:g 58.576847  // $poly_conn
2 *5:g *1:2 23.847994  // $poly_conn
3 *1:2 *40:g 66.950577  // $poly_conn
4 *1 *1:9 40.493244  // $poly_conn
5 *1:2 *1 43.849369  // $poly_conn

*END

*D_NET *12 9.24807e-16

*CONN
*P *12 O *C 0.1000 0.4750 
*I *19:d B *C 1.8950 0.4450 
*I *20:d B *C 1.8950 0.4450 
*I *21:d B *C 2.3650 0.4450 
*I *24:d B *C 2.3650 0.4450 
*I *26:d B *C 2.8350 0.4450 
*I *28:d B *C 2.8350 0.4450 
*I *30:d B *C 0.4850 0.4450 
*I *31:d B *C 0.4850 0.4450 
*I *2:d B *C 0.9550 0.4450 
*I *3:d B *C 0.9550 0.4450 
*I *4:d B *C 1.4250 0.4450 
*I *6:d B *C 1.4250 0.4450 
*I *33:d B *C 2.2050 1.1800 
*I *34:d B *C 2.2050 1.1800 
*I *40:d B *C 0.9550 1.1800 
*I *5:d B *C 0.9550 1.1800 
*N *12:12 *C 0.2850 0.4400 
*N *12:13 *C 0.9550 1.1550 

*CAP
0 *40:d 2.12162e-17
1 *33:d 1.41586e-16
2 *26:d 4.01676e-16
3 *12:13 2.35841e-16
4 *12:12 9.74884e-17
5 *12 2.69988e-17

*RES
0 *12:12 *12 0.124073  // $metal1_conn
1 *12:13 *33:d 32.002071  // $metal1_conn
2 *12:13 *40:d 31.049301  // $metal1_conn
3 *26:d *12:12 0.192478  // $metal1_conn
4 *12:12 *12:13 1.002203  // $metal1_conn

*END

*D_NET *18 1.69929e-18

*CONN
*I *35:s B *C 2.7850 1.1800 
*I *36:d B *C 2.7850 1.1800 

*CAP
0 *35:s 1.69929e-18

*RES
0 *36:d *35:s 0.001  // $mwires

*END

*D_NET *17 1.01798e-17

*CONN
*I *34:s B *C 2.5200 1.1800 
*I *35:d B *C 2.5200 1.1800 

*CAP
0 *34:s 1.01798e-17

*RES
0 *35:d *34:s 0.001  // $mwires

*END

*D_NET *16 2.44288e-18

*CONN
*I *32:s B *C 2.0500 1.1800 
*I *33:s B *C 2.0500 1.1800 

*CAP
0 *32:s 2.44288e-18

*RES
0 *33:s *32:s 0.001  // $mwires

*END

*D_NET *15 1.10728e-17

*CONN
*I *32:d B *C 1.8425 1.1800 
*I *11:d B *C 1.8425 1.1800 

*CAP
0 *32:d 1.10728e-17

*RES
0 *11:d *32:d 0.001  // $mwires

*END

*D_NET *14 4.62315e-18

*CONN
*I *8:s B *C 1.4025 1.1800 
*I *9:d B *C 1.4025 1.1800 

*CAP
0 *8:s 4.62315e-18

*RES
0 *9:d *8:s 0.001  // $mwires

*END

*D_NET *13 9.63182e-18

*CONN
*I *5:s B *C 1.1900 1.1800 
*I *8:d B *C 1.1900 1.1800 

*CAP
0 *5:s 9.63182e-18

*RES
0 *8:d *5:s 0.001  // $mwires

*END

*D_NET *27 8.80902e-18

*CONN
*I *39:s B *C 0.7200 1.1800 
*I *40:s B *C 0.7200 1.1800 

*CAP
0 *39:s 8.80902e-18

*RES
0 *40:s *39:s 0.001  // $mwires

*END

*D_NET *25 2.46256e-18

*CONN
*I *38:d B *C 0.5350 1.1800 
*I *39:d B *C 0.5350 1.1800 

*CAP
0 *38:d 2.46256e-18

*RES
0 *39:d *38:d 0.001  // $mwires

*END

*D_NET *22 1.20988e-15

*CONN
*I *19:g B *C 1.7925 0.4450 
*I *28:g B *C 2.9375 0.4450 
*I *29:d B *C 3.2625 0.4450 
*I *30:g B *C 0.3825 0.4450 
*I *6:g B *C 1.5275 0.4450 
*I *36:g B *C 2.8375 1.1800 
*I *37:d B *C 3.1350 1.1800 
*I *38:g B *C 0.4825 1.1800 
*I *9:g B *C 1.4825 1.1800 
*I *11:g B *C 1.6875 1.1800 
*N *22:14 *C 3.1450 0.9200 

*CAP
0 *11:g 2.268e-17
1 *9:g 5.40106e-17
2 *38:g 6.1914e-17
3 *37:d 3.66956e-17
4 *36:g 7.13004e-17
5 *29:d 3.77135e-17
6 *28:g 8.79063e-16
7 *22:14 4.64996e-17

*RES
0 *28:g *36:g 16.530039  // $poly_conn
1 *28:g *11:g 16.15522  // $poly_conn
2 *28:g *9:g 70.215569  // $poly_conn
3 *38:g *28:g 16.15522  // $poly_conn
4 *37:d *22:14 20.832087  // $metal1_conn
5 *22:14 *29:d 75.366669  // $metal1_conn
6 *22:14 *28:g 0.212635  // $metal1_conn

*END

