*SPEF "IEEE 1481-1999"
*DESIGN  "NOR3X2"
*DATE "Mon Sep 27 10:24:51 2010"
*VENDOR "Cadence Design Systems"
*PROGRAM "Assura RCX"
*VERSION "3.2 Red Hat Linux release 7.2 (Enigma) - (09/09/2009-10:39)"
*DESIGN_FLOW "Physical Verification"
*DIVIDER /
*DELIMITER :
*BUS_DELIMITER []
*T_UNIT 1 PS
*C_UNIT 1e15 FF
*R_UNIT 1 OHM
*L_UNIT 1 MH
// DeviceFingerDelim "@"
// MATCHED
// caps2d version: 10

*NAME_MAP
*1 mp2\@1
*2 mp1\@1
*3 mp0\@1
*4 mn0
*5 Y
*6 mn1
*7 mn2
*8 mn2\@1
*9 mn1\@1
*10 mn0\@1
*11 n0
*12 n0\@3
*13 A
*14 VDD
*15 n0\@1
*16 B
*17 n0\@2
*18 C
*19 VSS
*20 mp0
*21 mp1
*22 mp2

*GROUND_NETS VSS

*PORTS
*14 I
*19 I
*13 I
*16 I
*18 I
*5 O

*D_NET *14 1.52951e-16

*CONN
*P *14 I *C 0.1000 1.7100 
*I *20:s B *C 0.3150 1.1250 
*I *3:s B *C 1.3400 1.1250 
*N *14:2 *C 0.3050 1.7100 
*N *14:3 *C 0.8000 1.7100 
*N *14:4 *C 0.8000 1.7100 

*CAP
0 *3:s 3.49632e-17
1 *20:s 2.91472e-17
2 *14:2 6.65175e-18
3 *14:3 7.87328e-17
4 *14 3.45566e-18

*RES
0 *20:s *14:2 21.035835  // $metal1_conn
1 *14:2 *14 0.101827  // $metal1_conn
2 *14:2 *14:4 0.247337  // $metal1_conn
3 *14:4 *3:s 62.56181  // $metal1_conn
4 *14:3 *14:4 9.375  // $metal1_conn

*END

*D_NET *19 0

*CONN
*P *19 I *C 0.1000 0.0000 
*I *4:s B *C 0.1100 0.3900 
*I *6:s B *C 0.6250 0.3900 
*I *7:s B *C 0.6250 0.3900 
*I *8:s B *C 1.0950 0.3900 
*I *9:s B *C 1.0950 0.3900 
*I *10:s B *C 1.4800 0.3000 
*N *19:4 *C 0.8000 0.0000 


*RES
0 *19:4 *19 7.75  // $metal1_conn

*END

*D_NET *13 6.09237e-16

*CONN
*P *13 I *C 0.1000 0.6650 
*I *4:g B *C 0.2025 0.3900 
*I *10:g B *C 1.3475 0.3900 
*I *20:g B *C 0.4075 1.1250 
*I *3:g B *C 1.2475 1.1250 

*CAP
0 *3:g 7.47819e-17
1 *20:g 9.72604e-17
2 *10:g 4.2507e-16
3 *13 1.21239e-17

*RES
0 *10:g *3:g 63.591114  // $poly_conn
1 *20:g *10:g 117.468567  // $poly_conn
2 *10:g *13 0.026918  // $metal1_conn

*END

*D_NET *16 5.76486e-16

*CONN
*P *16 I *C 1.1000 0.8550 
*I *6:g B *C 0.4075 0.3900 
*I *9:g B *C 1.1425 0.3900 
*I *21:g B *C 0.5125 1.1250 
*I *2:g B *C 1.1425 1.1250 

*CAP
0 *2:g 9.40054e-17
1 *21:g 8.38653e-17
2 *9:g 3.71599e-16
3 *16 2.70156e-17

*RES
0 *2:g *9:g 50.461182  // $poly_conn
1 *21:g *9:g 54.991577  // $poly_conn
2 *16 *9:g 0.094198  // $metal1_conn

*END

*D_NET *18 2.91529e-16

*CONN
*P *18 I *C 0.5000 0.8550 
*I *7:g B *C 0.6725 0.3900 
*I *8:g B *C 0.8775 0.3900 
*I *22:g B *C 0.7775 1.1250 
*I *1:g B *C 0.9825 1.1250 
*N *18:2 *C 0.8150 0.8300 

*CAP
0 *1:g 5.11367e-17
1 *22:g 2.47441e-17
2 *8:g 9.68036e-17
3 *18:2 7.02069e-17
4 *18 4.86379e-17

*RES
0 *1:g *18:2 35.373425  // $poly_conn
1 *18:2 *22:g 16.15522  // $poly_conn
2 *18:2 *8:g 40.493244  // $poly_conn
3 *18:2 *18 45.185661  // $metal1_conn

*END

*D_NET *5 4.30582e-16

*CONN
*P *5 O *C 1.5000 0.4750 
*I *4:d B *C 0.3050 0.3900 
*I *6:d B *C 0.3050 0.3900 
*I *7:d B *C 0.7750 0.3900 
*I *8:d B *C 0.7750 0.3900 
*I *9:d B *C 1.2450 0.3900 
*I *10:d B *C 1.2450 0.3900 
*I *22:d B *C 0.8800 1.1250 
*I *1:d B *C 0.8800 1.1250 

*CAP
0 *22:d 8.77009e-17
1 *9:d 1.45599e-16
2 *7:d 9.75276e-17
3 *5 9.97547e-17

*RES
0 *5 *22:d 62.810688  // $metal1_conn
1 *9:d *5 0.251515  // $metal1_conn
2 *7:d *9:d 75  // $metal1_conn

*END

*D_NET *12 2.41617e-18

*CONN
*I *2:s B *C 1.1950 1.1250 
*I *3:d B *C 1.1950 1.1250 

*CAP
0 *2:s 2.41617e-18

*RES
0 *3:d *2:s 0.001  // $mwires

*END

*D_NET *17 3.66078e-18

*CONN
*I *1:s B *C 1.0625 1.1250 
*I *2:d B *C 1.0625 1.1250 

*CAP
0 *1:s 3.66078e-18

*RES
0 *2:d *1:s 0.001  // $mwires

*END

*D_NET *15 0

*CONN
*I *21:s B *C 0.6450 1.1250 
*I *22:s B *C 0.6450 1.1250 


*RES
0 *22:s *21:s 0.001  // $mwires

*END

*D_NET *11 0

*CONN
*I *20:d B *C 0.4600 1.1250 
*I *21:d B *C 0.4600 1.1250 


*RES
0 *21:d *20:d 0.001  // $mwires

*END

