*SPEF "IEEE 1481-1999"
*DESIGN  "NOR3X8"
*DATE "Mon Sep 27 10:26:01 2010"
*VENDOR "Cadence Design Systems"
*PROGRAM "Assura RCX"
*VERSION "3.2 Red Hat Linux release 7.2 (Enigma) - (09/09/2009-10:39)"
*DESIGN_FLOW "Physical Verification"
*DIVIDER /
*DELIMITER :
*BUS_DELIMITER []
*T_UNIT 1 PS
*C_UNIT 1e15 FF
*R_UNIT 1 OHM
*L_UNIT 1 MH
// DeviceFingerDelim "@"
// MATCHED
// caps2d version: 10

*NAME_MAP
*1 mp1\@3
*2 mn2\@6
*3 mp2\@3
*4 mp0\@4
*5 mp1\@4
*6 mp2\@4
*7 mp2\@5
*8 mp1\@5
*9 mp0\@5
*10 mp0\@6
*11 mp1\@6
*12 mp2\@6
*13 mp2
*14 VDD
*15 mn0
*16 mn0\@1
*17 mn1
*18 mn2
*19 mn2\@1
*20 mn1\@1
*21 mn0\@2
*22 mp1
*23 mn0\@3
*24 mp0
*25 mn1\@2
*26 mp0\@1
*27 mp1\@1
*28 mp2\@1
*29 mp2\@2
*30 mp1\@2
*31 mp0\@2
*32 mp0\@3
*33 n0\@11
*34 n0\@12
*35 n0\@13
*36 n0\@1
*37 A
*38 n0
*39 B
*40 n0\@2
*41 C
*42 n0\@3
*43 n0\@4
*44 n0\@5
*45 n0\@6
*46 n0\@7
*47 mn2\@2
*48 mn1\@3
*49 mn0\@4
*50 mn1\@4
*51 mn2\@3
*52 mn2\@4
*53 VSS
*54 mn1\@5
*55 Y
*56 mn0\@5
*57 n0\@8
*58 mn0\@6
*59 n0\@9
*60 mn1\@6
*61 n0\@10
*62 mn2\@5

*GROUND_NETS VSS

*PORTS
*14 I
*53 I
*37 I
*39 I
*41 I
*55 O

*D_NET *14 4.5841e-16

*CONN
*P *14 I *C 0.1000 1.7100 
*I *24:s B *C 2.9550 1.1225 
*I *26:s B *C 2.9550 1.1225 
*I *31:s B *C 4.3900 1.1225 
*I *32:s B *C 4.3900 1.1225 
*I *4:s B *C 0.3050 1.1225 
*I *9:s B *C 1.5450 1.1225 
*I *10:s B *C 1.5450 1.1225 
*N *14:2 *C 0.2950 1.2850 
*N *14:3 *C 0.2950 1.7100 
*N *14:4 *C 0.9000 1.7100 
*N *14:5 *C 0.9000 1.7100 
*N *14:6 *C 1.5150 1.7100 
*N *14:8 *C 2.6000 1.7100 
*N *14:9 *C 2.9250 1.7100 
*N *14:11 *C 4.3000 1.7100 

*CAP
0 *9:s 4.9238e-17
1 *4:s 3.83653e-17
2 *31:s 4.47661e-17
3 *24:s 4.53911e-17
4 *14:9 2.00745e-17
5 *14:6 2.06854e-17
6 *14:3 7.15907e-18
7 *14:4 2.32731e-16

*RES
0 *14:2 *14:3 0.265781  // $metal1_conn
1 *14:3 *14 0.096963  // $metal1_conn
2 *14:2 *4:s 62.153919  // $metal1_conn
3 *14:3 *14:5 0.302891  // $metal1_conn
4 *14:5 *14:6 0.308319  // $metal1_conn
5 *14:6 *9:s 62.261875  // $metal1_conn
6 *14:6 *14:8 0.544095  // $metal1_conn
7 *14:8 *14:9 0.16284  // $metal1_conn
8 *14:9 *24:s 62.261875  // $metal1_conn
9 *14:9 *14:11 0.689573  // $metal1_conn
10 *14:11 *31:s 62.333534  // $metal1_conn
11 *4:s *14:2 62  // $metal1_conn
12 *14:4 *14:5 8.333333  // $metal1_conn
13 *14:4 *14:8 9.375  // $metal1_conn
14 *14:4 *14:11 8.333333  // $metal1_conn

*END

*D_NET *53 0

*CONN
*P *53 I *C 0.1000 0.0000 
*I *15:s B *C 3.0700 0.3925 
*I *16:s B *C 3.0700 0.3925 
*I *17:s B *C 3.5400 0.3925 
*I *18:s B *C 3.5400 0.3925 
*I *19:s B *C 4.0100 0.3925 
*I *20:s B *C 4.0100 0.3925 
*I *21:s B *C 4.4800 0.3925 
*I *23:s B *C 4.4800 0.3925 
*I *25:s B *C 4.9500 0.3925 
*I *47:s B *C 4.9500 0.3925 
*I *48:s B *C 2.6000 0.3925 
*I *49:s B *C 0.2050 0.3925 
*I *50:s B *C 0.7200 0.3925 
*I *51:s B *C 0.7200 0.3925 
*I *52:s B *C 1.1900 0.3925 
*I *54:s B *C 1.1900 0.3925 
*I *56:s B *C 1.6600 0.3925 
*I *58:s B *C 1.6600 0.3925 
*I *60:s B *C 2.1300 0.3925 
*I *62:s B *C 2.1300 0.3925 
*I *2:s B *C 2.6000 0.3925 
*N *53:3 *C 4.3000 0.0000 


*RES
0 *25:s *53 0.04721  // $metal1_conn
1 *53:3 *25:s 6.888889  // $metal1_conn
2 *53:3 *25:s 7.75  // $metal1_conn
3 *53:3 *25:s 6.888889  // $metal1_conn

*END

*D_NET *37 1.55815e-15

*CONN
*P *37 I *C 0.3000 0.8550 
*I *15:g B *C 2.8525 0.3925 
*I *16:g B *C 3.1175 0.3925 
*I *21:g B *C 4.2625 0.3925 
*I *23:g B *C 4.5275 0.3925 
*I *49:g B *C 0.2975 0.3925 
*I *56:g B *C 1.4425 0.3925 
*I *58:g B *C 1.7075 0.3925 
*I *24:g B *C 2.8525 1.1225 
*I *26:g B *C 3.0575 1.1225 
*I *31:g B *C 4.2875 1.1225 
*I *32:g B *C 4.4925 1.1225 
*I *4:g B *C 0.3975 1.1225 
*I *9:g B *C 1.4425 1.1225 
*I *10:g B *C 1.6475 1.1225 

*CAP
0 *10:g 2.41563e-17
1 *9:g 3.58473e-17
2 *4:g 6.35258e-17
3 *32:g 3.65867e-17
4 *31:g 2.65007e-17
5 *26:g 3.51236e-17
6 *24:g 2.80282e-17
7 *23:g 1.28791e-15
8 *37 2.04708e-17

*RES
0 *23:g *32:g 63.783203  // $poly_conn
1 *23:g *31:g 16.15522  // $poly_conn
2 *23:g *26:g 62.608177  // $poly_conn
3 *23:g *24:g 16.565342  // $poly_conn
4 *23:g *10:g 16.15522  // $poly_conn
5 *23:g *9:g 65.772911  // $poly_conn
6 *4:g *23:g 20.67898  // $poly_conn
7 *23:g *37 0.016725  // $metal1_conn

*END

*D_NET *39 1.92596e-15

*CONN
*P *39 I *C 4.7000 0.6650 
*I *17:g B *C 3.3225 0.3925 
*I *20:g B *C 4.0575 0.3925 
*I *25:g B *C 4.7325 0.3925 
*I *48:g B *C 2.6475 0.3925 
*I *50:g B *C 0.5025 0.3925 
*I *54:g B *C 1.2375 0.3925 
*I *60:g B *C 1.9125 0.3925 
*I *22:g B *C 2.6475 1.1225 
*I *27:g B *C 3.2675 1.1225 
*I *30:g B *C 4.0575 1.1225 
*I *1:g B *C 4.7325 1.1225 
*I *5:g B *C 0.5025 1.1225 
*I *8:g B *C 1.2375 1.1225 
*I *11:g B *C 1.9125 1.1225 

*CAP
0 *11:g 4.78459e-17
1 *8:g 9.43622e-17
2 *5:g 7.88452e-17
3 *1:g 9.0046e-17
4 *30:g 6.70177e-17
5 *27:g 4.80452e-17
6 *22:g 5.40719e-17
7 *39 1.44573e-15

*RES
0 *1:g *39 54.307335  // $poly_conn
1 *30:g *39 55.589386  // $poly_conn
2 *39 *27:g 55.58939  // $poly_conn
3 *22:g *39 55.589386  // $poly_conn
4 *11:g *39 50.461182  // $poly_conn
5 *8:g *39 55.589386  // $poly_conn
6 *5:g *39 41.486824  // $poly_conn

*END

*D_NET *41 1.69022e-15

*CONN
*P *41 I *C 0.9000 0.4750 
*I *18:g B *C 3.5875 0.3925 
*I *19:g B *C 3.7925 0.3925 
*I *47:g B *C 4.9975 0.3925 
*I *51:g B *C 0.7675 0.3925 
*I *52:g B *C 0.9725 0.3925 
*I *62:g B *C 2.1775 0.3925 
*I *2:g B *C 2.3825 0.3925 
*I *28:g B *C 3.6925 1.1225 
*I *29:g B *C 3.8975 1.1225 
*I *3:g B *C 4.8375 1.1225 
*I *6:g B *C 0.9275 1.1225 
*I *7:g B *C 1.1325 1.1225 
*I *12:g B *C 2.1775 1.1225 
*I *13:g B *C 2.3825 1.1225 

*CAP
0 *13:g 3.29348e-17
1 *12:g 3.27475e-17
2 *7:g 7.72157e-17
3 *6:g 2.78429e-17
4 *3:g 8.02626e-17
5 *29:g 5.04045e-17
6 *28:g 2.64712e-17
7 *41 1.36234e-15

*RES
0 *41 *3:g 55.347454  // $poly_conn
1 *29:g *41 79.189926  // $poly_conn
2 *41 *28:g 57.16423  // $poly_conn
3 *13:g *41 57.180859  // $poly_conn
4 *41 *12:g 58.080605  // $poly_conn
5 *7:g *41 73.436539  // $poly_conn
6 *41 *6:g 56.133209  // $poly_conn

*END

*D_NET *55 1.74035e-15

*CONN
*P *55 O *C 5.1000 1.0450 
*I *15:d B *C 2.7500 0.3925 
*I *16:d B *C 3.2200 0.3925 
*I *17:d B *C 3.2200 0.3925 
*I *18:d B *C 3.6900 0.3925 
*I *19:d B *C 3.6900 0.3925 
*I *20:d B *C 4.1600 0.3925 
*I *21:d B *C 4.1600 0.3925 
*I *23:d B *C 4.6300 0.3925 
*I *25:d B *C 4.6300 0.3925 
*I *47:d B *C 5.0900 0.3925 
*I *48:d B *C 2.7500 0.3925 
*I *49:d B *C 0.4000 0.3925 
*I *50:d B *C 0.4000 0.3925 
*I *51:d B *C 0.8700 0.3925 
*I *52:d B *C 0.8700 0.3925 
*I *54:d B *C 1.3400 0.3925 
*I *56:d B *C 1.3400 0.3925 
*I *58:d B *C 1.8100 0.3925 
*I *60:d B *C 1.8100 0.3925 
*I *62:d B *C 2.2800 0.3925 
*I *2:d B *C 2.2800 0.3925 
*I *28:d B *C 3.7950 1.1225 
*I *29:d B *C 3.7950 1.1225 
*I *3:d B *C 4.9300 1.1225 
*I *6:d B *C 1.0300 1.1225 
*I *7:d B *C 1.0300 1.1225 
*I *12:d B *C 2.2800 1.1225 
*I *13:d B *C 2.2800 1.1225 
*N *55:1 *C 4.9975 1.0450 
*N *55:24 *C 4.9400 1.1225 
*N *55:26 *C 3.7950 1.1500 
*N *55:28 *C 2.2800 1.1500 

*CAP
0 *12:d 2.49409e-16
1 *6:d 1.40468e-16
2 *3:d 7.76265e-17
3 *28:d 2.26696e-16
4 *47:d 9.86022e-16
5 *55:1 6.01277e-17

*RES
0 *55 *55:1 0.026619  // $metal1_conn
1 *3:d *55:24 20.666666  // $metal1_conn
2 *28:d *55:26 62  // $metal1_conn
3 *12:d *55:28 62  // $metal1_conn
4 *55:28 *6:d 62.928776  // $metal1_conn
5 *55:1 *47:d 0.488666  // $metal1_conn
6 *55:1 *55:24 0.073739  // $metal1_conn
7 *55:24 *55:26 0.790879  // $metal1_conn
8 *55:26 *55:28 1.125821  // $metal1_conn

*END

*D_NET *46 2.80033e-18

*CONN
*I *1:s B *C 4.7850 1.1225 
*I *3:s B *C 4.7850 1.1225 

*CAP
0 *1:s 2.80033e-18

*RES
0 *3:s *1:s 0.001  // $mwires

*END

*D_NET *45 6.53782e-18

*CONN
*I *32:d B *C 4.6125 1.1225 
*I *1:d B *C 4.6125 1.1225 

*CAP
0 *32:d 6.53782e-18

*RES
0 *1:d *32:d 0.001  // $mwires

*END

*D_NET *44 7.92101e-18

*CONN
*I *30:s B *C 4.1725 1.1225 
*I *31:d B *C 4.1725 1.1225 

*CAP
0 *30:s 7.92101e-18

*RES
0 *31:d *30:s 0.001  // $mwires

*END

*D_NET *43 5.72085e-18

*CONN
*I *29:s B *C 3.9775 1.1225 
*I *30:d B *C 3.9775 1.1225 

*CAP
0 *29:s 5.72085e-18

*RES
0 *30:d *29:s 0.001  // $mwires

*END

*D_NET *42 1.98789e-17

*CONN
*I *27:s B *C 3.4800 1.1225 
*I *28:s B *C 3.4800 1.1225 

*CAP
0 *27:s 1.98789e-17

*RES
0 *28:s *27:s 0.001  // $mwires

*END

*D_NET *40 8.62281e-18

*CONN
*I *26:d B *C 3.1625 1.1225 
*I *27:d B *C 3.1625 1.1225 

*CAP
0 *26:d 8.62281e-18

*RES
0 *27:d *26:d 0.001  // $mwires

*END

*D_NET *38 8.0942e-18

*CONN
*I *22:s B *C 2.7500 1.1225 
*I *24:d B *C 2.7500 1.1225 

*CAP
0 *22:s 8.0942e-18

*RES
0 *24:d *22:s 0.001  // $mwires

*END

*D_NET *36 1.11799e-17

*CONN
*I *22:d B *C 2.5150 1.1225 
*I *13:s B *C 2.5150 1.1225 

*CAP
0 *22:d 1.11799e-17

*RES
0 *13:s *22:d 0.001  // $mwires

*END

*D_NET *35 1.17142e-17

*CONN
*I *11:s B *C 2.0450 1.1225 
*I *12:s B *C 2.0450 1.1225 

*CAP
0 *11:s 1.17142e-17

*RES
0 *12:s *11:s 0.001  // $mwires

*END

*D_NET *34 1.07076e-17

*CONN
*I *10:d B *C 1.7800 1.1225 
*I *11:d B *C 1.7800 1.1225 

*CAP
0 *10:d 1.07076e-17

*RES
0 *11:d *10:d 0.001  // $mwires

*END

*D_NET *33 8.16969e-18

*CONN
*I *8:s B *C 1.3400 1.1225 
*I *9:d B *C 1.3400 1.1225 

*CAP
0 *8:s 8.16969e-18

*RES
0 *9:d *8:s 0.001  // $mwires

*END

*D_NET *61 2.8629e-18

*CONN
*I *7:s B *C 1.1850 1.1225 
*I *8:d B *C 1.1850 1.1225 

*CAP
0 *7:s 2.8629e-18

*RES
0 *8:d *7:s 0.001  // $mwires

*END

*D_NET *59 1.45915e-17

*CONN
*I *5:s B *C 0.7150 1.1225 
*I *6:s B *C 0.7150 1.1225 

*CAP
0 *5:s 1.45915e-17

*RES
0 *6:s *5:s 0.001  // $mwires

*END

*D_NET *57 0

*CONN
*I *4:d B *C 0.4500 1.1225 
*I *5:d B *C 0.4500 1.1225 


*RES
0 *5:d *4:d 0.001  // $mwires

*END

