*SPEF "IEEE 1481-1999"
*DESIGN  "NOR4BBX4"
*DATE "Mon Sep 27 10:27:31 2010"
*VENDOR "Cadence Design Systems"
*PROGRAM "Assura RCX"
*VERSION "3.2 Red Hat Linux release 7.2 (Enigma) - (09/09/2009-10:39)"
*DESIGN_FLOW "Physical Verification"
*DIVIDER /
*DELIMITER :
*BUS_DELIMITER []
*T_UNIT 1 PS
*C_UNIT 1e15 FF
*R_UNIT 1 OHM
*L_UNIT 1 MH
// DeviceFingerDelim "@"
// MATCHED
// caps2d version: 10

*NAME_MAP
*1 Y
*2 VDD
*3 VSS
*4 n0
*5 n3
*6 AN
*7 mn3
*8 mn3\@1
*9 mn4
*10 mp3\@1
*11 mn4\@1
*12 mp1
*13 mn4\@2
*14 mp0
*15 mp3
*16 mn4\@3
*17 BN
*18 mp2
*19 mp4
*20 mn5
*21 mp2\@1
*22 mp4\@1
*23 mn5\@3
*24 mn5\@1
*25 mp2\@2
*26 mp4\@2
*27 mn1
*28 mn5\@2
*29 mp2\@3
*30 mp4\@3
*31 mn0
*32 mp3\@2
*33 mp5
*34 mn2
*35 mp3\@3
*36 mp5\@1
*37 mn2\@1
*38 mp5\@2
*39 mn2\@2
*40 mp5\@3
*41 mn2\@3
*42 mn3\@2
*43 mn3\@3
*44 C
*45 D
*46 n2
*47 n4
*48 n1

*GROUND_NETS VSS

*PORTS
*2 I
*3 I
*6 I
*17 I
*44 I
*45 I
*1 O

*D_NET *2 6.17991e-16

*CONN
*P *2 I *C 0.1000 1.7100 
*I *12:s B *C 0.4350 1.2850 
*I *14:s B *C 0.4350 1.2850 
*I *18:s B *C 1.2100 1.2650 
*I *21:s B *C 1.2100 1.2650 
*I *25:s B *C 1.6200 1.2650 
*I *29:s B *C 1.6200 1.2650 
*N *2:1 *C 3.5000 1.7100 
*N *2:4 *C 0.4350 1.7100 

*CAP
0 *25:s 1.15189e-16
1 *12:s 3.05769e-17
2 *2:4 1.79069e-17
3 *2:1 4.3931e-16
4 *2 1.50087e-17

*RES
0 *2:4 *2 0.167494  // $metal1_conn
1 *2:1 *25:s 7.760459  // $metal1_conn
2 *2:1 *25:s 6.25  // $metal1_conn
3 *2:4 *12:s 62.181549  // $metal1_conn
4 *25:s *2:4 0.383515  // $metal1_conn

*END

*D_NET *3 0

*CONN
*P *3 I *C 0.1000 0.0000 
*I *7:s B *C 2.3100 0.3600 
*I *8:s B *C 2.7350 0.3600 
*I *9:s B *C 2.7350 0.3600 
*I *11:s B *C 3.1600 0.3600 
*I *13:s B *C 3.1600 0.3600 
*I *16:s B *C 3.5700 0.3600 
*I *20:s B *C 3.5700 0.3600 
*I *24:s B *C 4.0100 0.3600 
*I *28:s B *C 4.0100 0.3600 
*I *23:s B *C 4.4100 0.3600 
*I *27:s B *C 0.3975 0.5100 
*I *31:s B *C 0.3975 0.5100 
*I *34:s B *C 1.0900 0.3600 
*I *37:s B *C 1.4900 0.3600 
*I *39:s B *C 1.4900 0.3600 
*I *41:s B *C 1.9000 0.3600 
*I *42:s B *C 1.9000 0.3600 
*I *43:s B *C 2.3100 0.3600 
*N *3:3 *C 3.5000 0.0000 
*N *3:12 *C 0.3600 0.0000 


*RES
0 *3:12 *3 0.129895  // $metal1_conn
1 *3:3 *23:s 5.636364  // $metal1_conn
2 *3:3 *23:s 5.166667  // $metal1_conn
3 *3:12 *27:s 75.279953  // $metal1_conn
4 *23:s *3:12 0.360555  // $metal1_conn

*END

*D_NET *6 2.24834e-16

*CONN
*P *6 I *C 0.5000 1.0450 
*I *31:g B *C 0.5375 0.5100 
*I *14:g B *C 0.5375 1.2850 
*N *6:2 *C 0.5100 0.8200 

*CAP
0 *14:g 4.30068e-17
1 *31:g 3.09324e-17
2 *6:2 7.76601e-17
3 *6 7.32345e-17

*RES
0 *14:g *6:2 60.71759  // $poly_conn
1 *6:2 *31:g 37.640671  // $poly_conn
2 *6 *6:2 45.13485  // $metal1_conn

*END

*D_NET *17 2.41887e-16

*CONN
*P *17 I *C 0.3000 0.8550 
*I *27:g B *C 0.2575 0.5100 
*I *12:g B *C 0.3325 1.2850 
*N *17:2 *C 0.2950 0.8200 
*N *17:4 *C 0.2950 0.8200 

*CAP
0 *12:g 4.46461e-17
1 *27:g 2.77358e-17
2 *17:2 6.59209e-17
3 *17 1.03584e-16

*RES
0 *12:g *17:2 62.01527  // $poly_conn
1 *17:2 *27:g 38.938351  // $poly_conn
2 *17:4 *17 0.021765  // $metal1_conn
3 *17:2 *17:4 45  // $metal1_conn

*END

*D_NET *44 3.39321e-16

*CONN
*P *44 I *C 2.9000 0.8550 
*I *9:g B *C 2.8525 0.3600 
*I *11:g B *C 3.0575 0.3600 
*I *13:g B *C 3.2625 0.3600 
*I *16:g B *C 3.4675 0.3600 
*I *19:g B *C 2.9475 1.2650 
*I *22:g B *C 3.1525 1.2650 
*I *26:g B *C 3.3575 1.2650 
*I *30:g B *C 3.5625 1.2650 
*N *44:15 *C 2.9100 0.8500 

*CAP
0 *30:g 2.88623e-16
1 *44 5.06982e-17

*RES
0 *44:15 *44 0.003109  // $metal1_conn
1 *30:g *44:15 45  // $metal1_conn

*END

*D_NET *45 3.91942e-16

*CONN
*P *45 I *C 3.7000 1.0450 
*I *20:g B *C 3.6725 0.3600 
*I *24:g B *C 3.9075 0.3600 
*I *28:g B *C 4.1125 0.3600 
*I *23:g B *C 4.3175 0.3600 
*I *33:g B *C 3.7675 1.2650 
*I *36:g B *C 3.9725 1.2650 
*I *38:g B *C 4.1775 1.2650 
*I *40:g B *C 4.3825 1.2650 
*N *45:16 *C 3.7050 0.9700 

*CAP
0 *40:g 2.97688e-16
1 *45:16 6.57817e-17
2 *45 2.8473e-17

*RES
0 *40:g *45:16 45  // $metal1_conn
1 *45:16 *45 0.04664  // $metal1_conn

*END

*D_NET *1 6.43333e-16

*CONN
*P *1 O *C 3.9000 1.0450 
*I *7:d B *C 2.5150 0.3600 
*I *8:d B *C 2.5150 0.3600 
*I *9:d B *C 2.9550 0.3600 
*I *11:d B *C 2.9550 0.3600 
*I *13:d B *C 3.3650 0.3600 
*I *16:d B *C 3.3650 0.3600 
*I *20:d B *C 3.7900 0.3600 
*I *24:d B *C 3.7900 0.3600 
*I *28:d B *C 4.2150 0.3600 
*I *23:d B *C 4.2150 0.3600 
*I *34:d B *C 1.2850 0.3600 
*I *37:d B *C 1.2850 0.3600 
*I *39:d B *C 1.6950 0.3600 
*I *41:d B *C 1.6950 0.3600 
*I *42:d B *C 2.1050 0.3600 
*I *43:d B *C 2.1050 0.3600 
*I *33:d B *C 3.8700 1.2650 
*I *36:d B *C 3.8700 1.2650 
*I *38:d B *C 4.2800 1.2650 
*I *40:d B *C 4.2800 1.2650 

*CAP
0 *34:d 1.41831e-16
1 *20:d 1.05153e-16
2 *9:d 1.11075e-16
3 *7:d 1.12082e-16
4 *1 1.73193e-16

*RES
0 *9:d *7:d 0.299127  // $metal1_conn
1 *20:d *9:d 0.300236  // $metal1_conn
2 *7:d *34:d 0.298757  // $metal1_conn
3 *1 *20:d 0.343703  // $metal1_conn

*END

*D_NET *48 7.8614e-16

*CONN
*I *7:g B *C 2.4125 0.3600 
*I *8:g B *C 2.6175 0.3600 
*I *27:d B *C 0.1650 0.5100 
*I *42:g B *C 2.0025 0.3600 
*I *43:g B *C 2.2075 0.3600 
*I *15:g B *C 2.5425 1.2650 
*I *10:g B *C 2.3375 1.2650 
*I *12:d B *C 0.2400 1.2850 
*I *32:g B *C 1.9275 1.2650 
*I *35:g B *C 2.1325 1.2650 
*N *48:16 *C 0.1550 0.5800 

*CAP
0 *12:d 8.84321e-17
1 *15:g 4.51438e-16
2 *27:d 2.46269e-16

*RES
0 *15:g *48:16 46.587887  // $metal1_conn
1 *48:16 *12:d 62.653202  // $metal1_conn
2 *27:d *48:16 75  // $metal1_conn

*END

*D_NET *47 3.56604e-16

*CONN
*I *19:d B *C 2.8550 1.2650 
*I *22:d B *C 3.2550 1.2650 
*I *26:d B *C 3.2550 1.2650 
*I *30:d B *C 3.6650 1.2650 
*I *33:s B *C 3.6650 1.2650 
*I *36:s B *C 4.0750 1.2650 
*I *38:s B *C 4.0750 1.2650 
*I *40:s B *C 4.4750 1.2650 

*CAP
0 *40:s 3.56604e-16


*END

*D_NET *46 3.80337e-16

*CONN
*I *15:s B *C 2.6350 1.2650 
*I *10:s B *C 2.2350 1.2650 
*I *18:d B *C 1.0150 1.2650 
*I *21:d B *C 1.4150 1.2650 
*I *25:d B *C 1.4150 1.2650 
*I *29:d B *C 1.8250 1.2650 
*I *32:s B *C 1.8250 1.2650 
*I *35:s B *C 2.2350 1.2650 

*CAP
0 *15:s 3.80337e-16


*END

*D_NET *5 2.84706e-16

*CONN
*I *15:d B *C 2.4400 1.2650 
*I *19:s B *C 3.0500 1.2650 
*I *22:s B *C 3.0500 1.2650 
*I *26:s B *C 3.4600 1.2650 
*I *30:s B *C 3.4600 1.2650 
*I *10:d B *C 2.4400 1.2650 
*I *32:d B *C 2.0300 1.2650 
*I *35:d B *C 2.0300 1.2650 

*CAP
0 *26:s 1.53551e-16
1 *15:d 1.31154e-16

*RES
0 *26:s *15:d 0.436276  // $metal1_conn

*END

*D_NET *4 5.06411e-16

*CONN
*I *31:d B *C 0.6500 0.5100 
*I *34:g B *C 1.1825 0.3600 
*I *37:g B *C 1.3875 0.3600 
*I *39:g B *C 1.5925 0.3600 
*I *41:g B *C 1.7975 0.3600 
*I *14:d B *C 0.6450 1.2850 
*I *18:g B *C 1.1075 1.2650 
*I *21:g B *C 1.3125 1.2650 
*I *25:g B *C 1.5175 1.2650 
*I *29:g B *C 1.7225 1.2650 
*N *4:15 *C 0.6800 0.9350 

*CAP
0 *29:g 3.31991e-16
1 *14:d 5.79212e-17
2 *31:d 5.4479e-17
3 *4:15 6.20194e-17

*RES
0 *29:g *4:15 45.316742  // $metal1_conn
1 *4:15 *14:d 20.929943  // $metal1_conn
2 *4:15 *31:d 75.268463  // $metal1_conn

*END

