*SPEF "IEEE 1481-1999"
*DESIGN  "NOR4BBX1"
*DATE "Mon Sep 27 10:26:45 2010"
*VENDOR "Cadence Design Systems"
*PROGRAM "Assura RCX"
*VERSION "3.2 Red Hat Linux release 7.2 (Enigma) - (09/09/2009-10:39)"
*DESIGN_FLOW "Physical Verification"
*DIVIDER /
*DELIMITER :
*BUS_DELIMITER []
*T_UNIT 1 PS
*C_UNIT 1e15 FF
*R_UNIT 1 OHM
*L_UNIT 1 MH
// DeviceFingerDelim "@"
// MATCHED
// caps2d version: 10

*NAME_MAP
*1 n4
*2 mp1
*3 n3
*4 mp5
*5 n2
*6 mp4
*7 mp3
*8 C
*9 AN
*10 mp2
*11 D
*12 mp0
*13 VDD
*14 n1
*15 mn1
*16 n0
*17 mn5
*18 mn4
*19 mn3
*20 mn2
*21 BN
*22 mn0
*23 Y
*24 VSS

*GROUND_NETS VSS

*PORTS
*13 I
*24 I
*9 I
*21 I
*8 I
*11 I
*23 O

*D_NET *13 2.3217e-16

*CONN
*P *13 I *C 0.1000 1.7100 
*I *2:s B *C 0.1250 1.3450 
*I *10:s B *C 1.3250 1.1825 
*I *12:s B *C 1.3250 1.1825 
*N *13:2 *C 0.8000 1.7100 
*N *13:3 *C 0.8000 1.7100 

*CAP
0 *10:s 6.08609e-17
1 *2:s 3.72104e-17
2 *13:2 1.25136e-16
3 *13 8.96266e-18

*RES
0 *10:s *13:3 31.482605  // $metal1_conn
1 *13:3 *13 0.351148  // $metal1_conn
2 *13 *2:s 62.234661  // $metal1_conn
3 *13:2 *13:3 9.375  // $metal1_conn

*END

*D_NET *24 0

*CONN
*P *24 I *C 0.1000 0.0000 
*I *15:s B *C 0.1150 0.5875 
*I *17:s B *C 0.4800 0.4250 
*I *18:s B *C 0.8425 0.4250 
*I *19:s B *C 0.8425 0.4250 
*I *20:s B *C 1.3350 0.4825 
*I *22:s B *C 1.3350 0.4825 
*N *24:2 *C 0.8000 0.0000 
*N *24:3 *C 0.8000 0.0000 
*N *24:4 *C 0.3950 0.0000 


*RES
0 *20:s *24:3 75.59549  // $metal1_conn
1 *24:3 *24:4 0.202938  // $metal1_conn
2 *24:4 *24 0.147817  // $metal1_conn
3 *24 *15:s 75.171173  // $metal1_conn
4 *24:3 *18:s 75.233528  // $metal1_conn
5 *24:4 *17:s 75.138214  // $metal1_conn
6 *24:2 *24:3 7.75  // $metal1_conn

*END

*D_NET *9 1.80016e-16

*CONN
*P *9 I *C 1.4750 0.8550 
*I *22:g B *C 1.3875 0.4825 
*I *12:g B *C 1.3875 1.1825 
*N *9:2 *C 1.4250 0.8450 

*CAP
0 *12:g 3.55193e-17
1 *22:g 4.22657e-17
2 *9:2 1.02232e-16

*RES
0 *12:g *9:2 49.488552  // $poly_conn
1 *9:2 *22:g 64.873169  // $poly_conn
2 *9 *9:2 45.025894  // $metal1_conn

*END

*D_NET *21 1.45355e-16

*CONN
*P *21 I *C 0.0950 1.0500 
*I *15:g B *C 0.1625 0.5875 
*I *2:g B *C 0.1625 1.0075 
*N *21:2 *C 0.1625 0.7600 
*N *21:3 *C 0.1050 0.7600 

*CAP
0 *2:g 2.27721e-17
1 *15:g 2.35806e-17
2 *21:2 1.09505e-17
3 *21:3 4.84679e-17
4 *21 3.95844e-17

*RES
0 *2:g *21:2 33.14275  // $poly_conn
1 *21:2 *21:3 45.794373  // $poly_conn
2 *21:2 *15:g 22.886339  // $poly_conn
3 *21 *21:3 0.174139  // $metal1_conn

*END

*D_NET *8 2.85408e-16

*CONN
*P *8 I *C 0.7150 1.0450 
*I *18:g B *C 0.7325 0.4250 
*I *6:g B *C 0.6775 1.2700 
*N *8:2 *C 0.7050 0.8650 

*CAP
0 *6:g 9.11221e-17
1 *18:g 5.2993e-17
2 *8:2 1.09783e-16
3 *8 3.151e-17

*RES
0 *18:g *8:2 70.973999  // $poly_conn
1 *8:2 *6:g 45.332973  // $poly_conn
2 *8 *8:2 45.108086  // $metal1_conn

*END

*D_NET *11 2.80707e-16

*CONN
*P *11 I *C 0.4750 1.0450 
*I *17:g B *C 0.5275 0.4250 
*I *4:g B *C 0.5725 1.2700 
*N *11:2 *C 0.5000 0.8650 

*CAP
0 *4:g 7.68601e-17
1 *17:g 4.13762e-17
2 *11:2 1.15031e-16
3 *11 4.744e-17

*RES
0 *4:g *11:2 47.420689  // $poly_conn
1 *11:2 *17:g 67.812088  // $poly_conn
2 *11 *11:2 45.104137  // $metal1_conn

*END

*D_NET *23 3.70695e-16

*CONN
*P *23 O *C 1.0750 1.0450 
*I *17:d B *C 0.6300 0.4250 
*I *18:d B *C 0.6300 0.4250 
*I *19:d B *C 1.0675 0.4250 
*I *20:d B *C 1.0675 0.4250 
*I *4:d B *C 0.4800 1.2700 
*N *23:2 *C 1.0650 0.5350 

*CAP
0 *4:d 9.09572e-17
1 *19:d 3.44745e-17
2 *17:d 6.71012e-17
3 *23:2 6.78056e-17
4 *23 1.10357e-16

*RES
0 *19:d *23:2 37.590256  // $metal1_conn
1 *23:2 *23 0.381285  // $metal1_conn
2 *23 *4:d 31.61376  // $metal1_conn
3 *23:2 *17:d 37.790371  // $metal1_conn

*END

*D_NET *5 8.32217e-18

*CONN
*I *7:s B *C 0.9800 1.2700 
*I *10:d B *C 0.9800 1.2700 

*CAP
0 *7:s 8.32217e-18

*RES
0 *10:d *7:s 0.001  // $mwires

*END

*D_NET *3 4.88219e-18

*CONN
*I *6:s B *C 0.7575 1.2700 
*I *7:d B *C 0.7575 1.2700 

*CAP
0 *6:s 4.88219e-18

*RES
0 *7:d *6:s 0.001  // $mwires

*END

*D_NET *1 2.13646e-18

*CONN
*I *4:s B *C 0.6250 1.2700 
*I *6:d B *C 0.6250 1.2700 

*CAP
0 *4:s 2.13646e-18

*RES
0 *6:d *4:s 0.001  // $mwires

*END

*D_NET *16 3.46884e-16

*CONN
*I *20:g B *C 1.1825 0.4250 
*I *22:d B *C 1.4800 0.4825 
*I *10:g B *C 1.1225 1.2700 
*I *12:d B *C 1.4800 1.1825 
*N *16:2 *C 1.2200 0.6650 
*N *16:5 *C 1.2200 0.6650 

*CAP
0 *12:d 6.7704e-17
1 *10:g 5.31927e-17
2 *22:d 4.5093e-17
3 *20:g 3.88562e-17
4 *16:2 1.42039e-16

*RES
0 *20:g *16:2 17.398676  // $poly_conn
1 *16:2 *10:g 103.792351  // $poly_conn
2 *12:d *16:5 62.574593  // $metal1_conn
3 *16:5 *22:d 75.313354  // $metal1_conn
4 *16:2 *16:5 45  // $metal1_conn

*END

*D_NET *14 3.54839e-16

*CONN
*I *15:d B *C 0.2550 0.5875 
*I *19:g B *C 0.9525 0.4250 
*I *2:d B *C 0.2550 1.0075 
*I *7:g B *C 0.8375 1.2700 
*N *14:2 *C 0.8750 0.7150 
*N *14:4 *C 0.2650 0.7150 

*CAP
0 *7:g 6.22273e-17
1 *2:d 4.39573e-17
2 *19:g 3.93901e-17
3 *15:d 8.51299e-18
4 *14:4 6.61971e-17
5 *14:2 1.34554e-16

*RES
0 *19:g *14:2 37.57312  // $poly_conn
1 *14:2 *7:g 82.821884  // $poly_conn
2 *14:2 *14:4 45.454052  // $metal1_conn
3 *14:4 *15:d 75.085098  // $metal1_conn
4 *14:4 *2:d 62.202324  // $metal1_conn

*END

