*SPEF "IEEE 1481-1999"
*DESIGN  "NOR4BBXL"
*DATE "Mon Sep 27 10:27:53 2010"
*VENDOR "Cadence Design Systems"
*PROGRAM "Assura RCX"
*VERSION "3.2 Red Hat Linux release 7.2 (Enigma) - (09/09/2009-10:39)"
*DESIGN_FLOW "Physical Verification"
*DIVIDER /
*DELIMITER :
*BUS_DELIMITER []
*T_UNIT 1 PS
*C_UNIT 1e15 FF
*R_UNIT 1 OHM
*L_UNIT 1 MH
// DeviceFingerDelim "@"
// MATCHED
// caps2d version: 10

*NAME_MAP
*1 n1
*2 mp1
*3 n0
*4 mp5
*5 mp4
*6 mn1
*7 n4
*8 mp3
*9 mn5
*10 n3
*11 VSS
*12 mp2
*13 mn4
*14 n2
*15 mp0
*16 mn3
*17 mn2
*18 mn0
*19 Y
*20 BN
*21 C
*22 VDD
*23 D
*24 AN

*GROUND_NETS VSS

*PORTS
*22 I
*11 I
*24 I
*20 I
*21 I
*23 I
*19 O

*D_NET *22 2.86794e-16

*CONN
*P *22 I *C 0.1000 1.7100 
*I *2:s B *C 0.3150 1.0075 
*I *12:s B *C 1.5200 1.3325 
*I *15:s B *C 1.5200 1.3325 
*N *22:2 *C 1.0000 1.7100 
*N *22:3 *C 1.0000 1.7100 
*N *22:4 *C 0.3050 1.7100 

*CAP
0 *12:s 5.51231e-17
1 *2:s 4.31878e-17
2 *22:4 1.42019e-17
3 *22:2 1.69785e-16
4 *22 4.49698e-18

*RES
0 *12:s *22:3 62.501816  // $metal1_conn
1 *22:3 *22:4 0.348218  // $metal1_conn
2 *22:4 *22 0.102323  // $metal1_conn
3 *22:4 *2:s 62.421535  // $metal1_conn
4 *22:2 *22:3 7.5  // $metal1_conn

*END

*D_NET *11 0

*CONN
*P *11 I *C 0.1000 0.0000 
*I *6:s B *C 0.2850 0.5375 
*I *9:s B *C 0.7100 0.3025 
*I *13:s B *C 1.0650 0.3025 
*I *16:s B *C 1.0650 0.3025 
*I *17:s B *C 1.5200 0.3025 
*I *18:s B *C 1.5200 0.3025 
*N *11:2 *C 1.0650 0.0000 
*N *11:3 *C 1.0000 0.0000 
*N *11:4 *C 1.0000 0.0000 
*N *11:5 *C 0.6250 0.0000 
*N *11:6 *C 0.2700 0.0000 


*RES
0 *17:s *11:2 75.443657  // $metal1_conn
1 *11:2 *11:4 0.032383  // $metal1_conn
2 *11:4 *11:5 0.187797  // $metal1_conn
3 *11:5 *11:6 0.177575  // $metal1_conn
4 *11:6 *11 0.084777  // $metal1_conn
5 *11:2 *13:s 75.179512  // $metal1_conn
6 *11:5 *9:s 75.074409  // $metal1_conn
7 *11:6 *6:s 75.074409  // $metal1_conn
8 *11:3 *11:4 6.2  // $metal1_conn

*END

*D_NET *24 2.40909e-16

*CONN
*P *24 I *C 1.7000 0.8550 
*I *18:g B *C 1.6225 0.3025 
*I *15:g B *C 1.6225 1.3325 
*N *24:2 *C 1.5950 1.1050 

*CAP
0 *15:g 2.91979e-17
1 *18:g 6.51037e-17
2 *24:2 1.0099e-16
3 *24 4.56179e-17

*RES
0 *15:g *24:2 22.256054  // $poly_conn
1 *24:2 *18:g 178.666306  // $poly_conn
2 *24:2 *24 45.183781  // $metal1_conn

*END

*D_NET *20 1.54406e-16

*CONN
*P *20 I *C 0.1000 0.8550 
*I *6:g B *C 0.3325 0.5375 
*I *2:g B *C 0.4075 1.0075 
*N *20:2 *C 0.3700 0.7450 
*N *20:4 *C 0.1005 0.8000 
*N *20:5 *C 0.3700 0.7450 
*N *20:6 *C 0.3700 0.8000 

*CAP
0 *2:g 2.52214e-17
1 *6:g 2.34046e-17
2 *20:6 5.64702e-17
3 *20:4 3.16483e-17
4 *20:2 1.76616e-17

*RES
0 *2:g *20:2 32.528095  // $poly_conn
1 *20:2 *6:g 27.399891  // $poly_conn
2 *20:4 *20 0.009523  // $metal1_conn
3 *20:5 *20:6 0.009523  // $metal1_conn
4 *20:4 *20:6 0.081058  // $metal1_conn
5 *20:2 *20:5 45  // $metal1_conn

*END

*D_NET *21 3.27662e-16

*CONN
*P *21 I *C 0.9000 1.0450 
*I *13:g B *C 0.9625 0.3025 
*I *5:g B *C 1.0075 1.3325 
*N *21:2 *C 1.0350 1.0600 

*CAP
0 *5:g 6.61377e-17
1 *13:g 7.82073e-17
2 *21:2 1.43839e-16
3 *21 3.94777e-17

*RES
0 *5:g *21:2 30.632605  // $poly_conn
1 *21:2 *13:g 169.215561  // $poly_conn
2 *21:2 *21 45.054974  // $metal1_conn

*END

*D_NET *23 2.7429e-16

*CONN
*P *23 I *C 0.7000 1.0450 
*I *9:g B *C 0.7575 0.3025 
*I *4:g B *C 0.9025 1.3325 
*N *23:2 *C 0.7300 1.0900 

*CAP
0 *4:g 6.37106e-17
1 *9:g 5.58996e-17
2 *23:2 9.10188e-17
3 *23 6.36609e-17

*RES
0 *4:g *23:2 53.830944  // $poly_conn
1 *23:2 *9:g 171.658249  // $poly_conn
2 *23:2 *23 45.024548  // $metal1_conn

*END

*D_NET *19 3.27217e-16

*CONN
*P *19 O *C 1.3000 0.8550 
*I *9:d B *C 0.8600 0.3025 
*I *13:d B *C 0.8600 0.3025 
*I *16:d B *C 1.2925 0.3025 
*I *17:d B *C 1.2925 0.3025 
*I *4:d B *C 0.8100 1.3325 
*N *19:2 *C 1.2900 0.4800 

*CAP
0 *4:d 7.99497e-17
1 *16:d 3.00972e-17
2 *9:d 6.232e-17
3 *19:2 6.11189e-17
4 *19 9.37316e-17

*RES
0 *16:d *19:2 75.116882  // $metal1_conn
1 *19:2 *19 0.272015  // $metal1_conn
2 *19 *4:d 62.681896  // $metal1_conn
3 *19:2 *9:d 75.407356  // $metal1_conn

*END

*D_NET *14 5.72547e-18

*CONN
*I *8:s B *C 1.2925 1.3325 
*I *12:d B *C 1.2925 1.3325 

*CAP
0 *8:s 5.72547e-18

*RES
0 *12:d *8:s 0.001  // $mwires

*END

*D_NET *10 2.74137e-18

*CONN
*I *5:s B *C 1.0875 1.3325 
*I *8:d B *C 1.0875 1.3325 

*CAP
0 *5:s 2.74137e-18

*RES
0 *8:d *5:s 0.001  // $mwires

*END

*D_NET *7 1.5042e-18

*CONN
*I *4:s B *C 0.9550 1.3325 
*I *5:d B *C 0.9550 1.3325 

*CAP
0 *4:s 1.5042e-18

*RES
0 *5:d *4:s 0.001  // $mwires

*END

*D_NET *3 3.7567e-16

*CONN
*I *17:g B *C 1.4175 0.3025 
*I *18:d B *C 1.7150 0.3025 
*I *12:g B *C 1.4175 1.3325 
*I *15:d B *C 1.7150 1.3325 
*N *3:1 *C 1.4800 0.5050 
*N *3:2 *C 1.4175 0.5050 
*N *3:6 *C 1.8950 0.5050 

*CAP
0 *15:d 7.36738e-17
1 *12:g 7.43604e-17
2 *18:d 2.29525e-17
3 *17:g 2.8308e-17
4 *3:6 7.24187e-17
5 *3:2 6.74828e-17
6 *3:1 3.64742e-17

*RES
0 *3:1 *3:2 46.294373  // $poly_conn
1 *3:2 *17:g 28.255793  // $poly_conn
2 *3:2 *12:g 179.537842  // $poly_conn
3 *15:d *3:6 62.665295  // $metal1_conn
4 *3:6 *3:1 0.279238  // $metal1_conn
5 *3:6 *18:d 75.232071  // $metal1_conn

*END

*D_NET *1 4.14411e-16

*CONN
*I *6:d B *C 0.4250 0.5375 
*I *16:g B *C 1.1675 0.3025 
*I *2:d B *C 0.5000 1.0075 
*I *8:g B *C 1.1675 1.3325 
*N *1:2 *C 1.1675 0.6400 
*N *1:3 *C 1.1000 0.6400 
*N *1:5 *C 0.5300 0.6400 

*CAP
0 *8:g 7.95581e-17
1 *2:d 6.15064e-17
2 *16:g 3.82766e-17
3 *6:d 1.09631e-17
4 *1:5 6.71052e-17
5 *1:2 5.2058e-17
6 *1:3 1.04943e-16

*RES
0 *8:g *1:2 146.688965  // $poly_conn
1 *1:2 *1:3 46.611767  // $poly_conn
2 *1:2 *16:g 64.63768  // $poly_conn
3 *1:3 *1:5 0.399917  // $metal1_conn
4 *1:5 *6:d 75.121574  // $metal1_conn
5 *1:5 *2:d 62.31839  // $metal1_conn

*END

