*SPEF "IEEE 1481-1999"
*DESIGN  "NOR4BXL"
*DATE "Mon Sep 27 10:29:23 2010"
*VENDOR "Cadence Design Systems"
*PROGRAM "Assura RCX"
*VERSION "3.2 Red Hat Linux release 7.2 (Enigma) - (09/09/2009-10:39)"
*DESIGN_FLOW "Physical Verification"
*DIVIDER /
*DELIMITER :
*BUS_DELIMITER []
*T_UNIT 1 PS
*C_UNIT 1e15 FF
*R_UNIT 1 OHM
*L_UNIT 1 MH
// DeviceFingerDelim "@"
// MATCHED
// caps2d version: 10

*NAME_MAP
*1 mp1
*2 mp0
*3 mn4
*4 Y
*5 mn3
*6 mn2
*7 mn1
*8 mn0
*9 n2
*10 VDD
*11 n0
*12 n1
*13 B
*14 n3
*15 C
*16 D
*17 VSS
*18 AN
*19 mp4
*20 mp3
*21 mp2

*GROUND_NETS VSS

*PORTS
*10 I
*17 I
*18 I
*13 I
*15 I
*16 I
*4 O

*D_NET *10 1.54757e-16

*CONN
*P *10 I *C 0.1000 1.7100 
*I *1:s B *C 1.2700 1.0325 
*I *2:s B *C 1.2700 1.0325 
*N *10:2 *C 0.9000 1.7100 
*N *10:3 *C 0.9000 1.7100 

*CAP
0 *1:s 3.23703e-17
1 *10:2 1.10556e-16
2 *10 1.18311e-17

*RES
0 *1:s *10:3 62.620094  // $metal1_conn
1 *10:3 *10 0.399468  // $metal1_conn
2 *10:2 *10:3 8.333333  // $metal1_conn

*END

*D_NET *17 0

*CONN
*P *17 I *C 0.1000 0.0000 
*I *3:s B *C 0.4400 0.3075 
*I *5:s B *C 0.8400 0.3075 
*I *6:s B *C 0.8400 0.3075 
*I *7:s B *C 1.2700 0.3075 
*I *8:s B *C 1.2700 0.3075 
*N *17:2 *C 0.9000 0.0000 
*N *17:3 *C 0.9000 0.0000 
*N *17:4 *C 0.8400 0.0000 
*N *17:5 *C 0.4300 0.0000 


*RES
0 *7:s *17:3 75.399521  // $metal1_conn
1 *17:3 *17:4 0.029855  // $metal1_conn
2 *17:4 *17:5 0.204465  // $metal1_conn
3 *17:5 *17 0.164438  // $metal1_conn
4 *17:4 *5:s 75.179077  // $metal1_conn
5 *17:5 *3:s 75.178619  // $metal1_conn
6 *17:2 *17:3 6.888889  // $metal1_conn

*END

*D_NET *18 1.96451e-16

*CONN
*P *18 I *C 1.5000 0.8550 
*I *8:g B *C 1.3725 0.3075 
*I *2:g B *C 1.3725 1.0325 
*N *18:2 *C 1.4100 0.6750 

*CAP
0 *2:g 3.39896e-17
1 *8:g 3.64423e-17
2 *18:2 5.89677e-17
3 *18 6.7051e-17

*RES
0 *2:g *18:2 54.61676  // $poly_conn
1 *18:2 *8:g 66.15522  // $poly_conn
2 *18 *18:2 45.149345  // $metal1_conn

*END

*D_NET *13 2.04628e-16

*CONN
*P *13 I *C 1.1000 0.8550 
*I *6:g B *C 0.9425 0.3075 
*I *21:g B *C 0.9425 1.0325 
*N *13:2 *C 0.9700 0.6750 

*CAP
0 *21:g 3.66521e-17
1 *6:g 4.05349e-17
2 *13:2 8.26769e-17
3 *13 4.47646e-17

*RES
0 *21:g *13:2 55.589386  // $poly_conn
1 *13:2 *6:g 67.127846  // $poly_conn
2 *13:2 *13 45.156208  // $metal1_conn

*END

*D_NET *15 2.27496e-16

*CONN
*P *15 I *C 0.7000 1.0450 
*I *5:g B *C 0.7375 0.3075 
*I *20:g B *C 0.7375 1.0325 
*N *15:2 *C 0.7650 0.7250 

*CAP
0 *20:g 4.79276e-17
1 *5:g 4.61251e-17
2 *15:2 9.89483e-17
3 *15 3.44947e-17

*RES
0 *20:g *15:2 42.768875  // $poly_conn
1 *15:2 *5:g 79.948364  // $poly_conn
2 *15:2 *15 45.182781  // $metal1_conn

*END

*D_NET *16 2.31897e-16

*CONN
*P *16 I *C 0.3000 0.8550 
*I *3:g B *C 0.5325 0.3075 
*I *19:g B *C 0.6075 1.0325 
*N *16:2 *C 0.5050 0.7900 

*CAP
0 *19:g 4.15458e-17
1 *3:g 3.91008e-17
2 *16:2 1.07608e-16
3 *16 4.36423e-17

*RES
0 *19:g *16:2 35.882229  // $poly_conn
1 *16:2 *3:g 93.453117  // $poly_conn
2 *16 *16:2 45.063648  // $metal1_conn

*END

*D_NET *4 3.17046e-16

*CONN
*P *4 O *C 0.1000 0.6650 
*I *3:d B *C 0.6350 0.3075 
*I *5:d B *C 0.6350 0.3075 
*I *6:d B *C 1.0550 0.3075 
*I *7:d B *C 1.0550 0.3075 
*I *19:d B *C 0.5150 1.0325 
*N *4:2 *C 0.6350 0.4850 

*CAP
0 *19:d 6.06278e-17
1 *6:d 6.87078e-17
2 *3:d 2.32515e-17
3 *4:2 7.61138e-17
4 *4 8.83452e-17

*RES
0 *3:d *4:2 75.102104  // $metal1_conn
1 *4:2 *4 0.480936  // $metal1_conn
2 *4:2 *6:d 75.373978  // $metal1_conn
3 *4 *19:d 62.537975  // $metal1_conn

*END

*D_NET *12 4.81392e-18

*CONN
*I *21:s B *C 1.0550 1.0325 
*I *1:d B *C 1.0550 1.0325 

*CAP
0 *21:s 4.81392e-18

*RES
0 *1:d *21:s 0.001  // $mwires

*END

*D_NET *9 1.31157e-18

*CONN
*I *20:s B *C 0.8400 1.0325 
*I *21:d B *C 0.8400 1.0325 

*CAP
0 *20:s 1.31157e-18

*RES
0 *21:d *20:s 0.001  // $mwires

*END

*D_NET *14 3.58718e-18

*CONN
*I *19:s B *C 0.6725 1.0325 
*I *20:d B *C 0.6725 1.0325 

*CAP
0 *19:s 3.58718e-18

*RES
0 *20:d *19:s 0.001  // $mwires

*END

*D_NET *11 3.27421e-16

*CONN
*I *7:g B *C 1.1675 0.3075 
*I *8:d B *C 1.4650 0.3075 
*I *1:g B *C 1.1675 1.0325 
*I *2:d B *C 1.4650 1.0325 
*N *11:2 *C 1.1950 0.5150 
*N *11:5 *C 1.4750 0.4850 

*CAP
0 *2:d 7.91186e-17
1 *1:g 4.96857e-17
2 *8:d 1.77385e-17
3 *7:g 2.99869e-17
4 *11:5 6.42886e-17
5 *11:2 8.66027e-17

*RES
0 *1:g *11:2 96.615021  // $poly_conn
1 *11:2 *7:g 26.102209  // $poly_conn
2 *8:d *11:5 75.092941  // $metal1_conn
3 *11:5 *11:2 45.198418  // $metal1_conn
4 *11:5 *2:d 62.65593  // $metal1_conn

*END

