*SPEF "IEEE 1481-1999"
*DESIGN  "NOR4BX1"
*DATE "Mon Sep 27 10:28:16 2010"
*VENDOR "Cadence Design Systems"
*PROGRAM "Assura RCX"
*VERSION "3.2 Red Hat Linux release 7.2 (Enigma) - (09/09/2009-10:39)"
*DESIGN_FLOW "Physical Verification"
*DIVIDER /
*DELIMITER :
*BUS_DELIMITER []
*T_UNIT 1 PS
*C_UNIT 1e15 FF
*R_UNIT 1 OHM
*L_UNIT 1 MH
// DeviceFingerDelim "@"
// MATCHED
// caps2d version: 10

*NAME_MAP
*1 mp1
*2 mp0
*3 mn4
*4 Y
*5 mn3
*6 mn2
*7 mn1
*8 mn0
*9 n2
*10 VDD
*11 n0
*12 n3
*13 B
*14 n1
*15 C
*16 D
*17 VSS
*18 AN
*19 mp4
*20 mp3
*21 mp2

*GROUND_NETS VSS

*PORTS
*10 I
*17 I
*18 I
*13 I
*15 I
*16 I
*4 O

*D_NET *10 1.74952e-16

*CONN
*P *10 I *C 0.1000 1.7100 
*I *1:s B *C 1.0400 1.1425 
*I *2:s B *C 1.0400 1.1425 
*N *10:2 *C 0.7000 1.7100 
*N *10:3 *C 0.7000 1.7100 

*CAP
0 *1:s 4.39554e-17
1 *10:2 1.14259e-16
2 *10 1.67378e-17

*RES
0 *1:s *10:3 21.12117  // $metal1_conn
1 *10:3 *10 0.300038  // $metal1_conn
2 *10:2 *10:3 10.714286  // $metal1_conn

*END

*D_NET *17 0

*CONN
*P *17 I *C 0.1000 0.0000 
*I *3:s B *C 0.1750 0.4000 
*I *5:s B *C 0.5825 0.4000 
*I *6:s B *C 0.5825 0.4000 
*I *7:s B *C 1.0850 0.4575 
*I *8:s B *C 1.0850 0.4575 
*N *17:2 *C 0.7000 0.0000 
*N *17:3 *C 0.7000 0.0000 
*N *17:4 *C 0.5750 0.0000 
*N *17:5 *C 0.1650 0.0000 


*RES
0 *7:s *17:3 75.376434  // $metal1_conn
1 *17:3 *17:4 0.062364  // $metal1_conn
2 *17:4 *17:5 0.204805  // $metal1_conn
3 *17:5 *17 0.032078  // $metal1_conn
4 *17:4 *5:s 75.199707  // $metal1_conn
5 *17:5 *3:s 75.199707  // $metal1_conn
6 *17:2 *17:3 8.857142  // $metal1_conn

*END

*D_NET *18 2.07051e-16

*CONN
*P *18 I *C 1.0850 0.8550 
*I *8:g B *C 1.1325 0.4575 
*I *2:g B *C 1.0875 1.1425 
*N *18:2 *C 1.0950 0.6950 

*CAP
0 *2:g 4.1332e-17
1 *8:g 3.12809e-17
2 *18:2 8.39753e-17
3 *18 5.04629e-17

*RES
0 *8:g *18:2 32.821884  // $poly_conn
1 *18:2 *2:g 77.69368  // $poly_conn
2 *18 *18:2 45.100681  // $metal1_conn

*END

*D_NET *13 2.37282e-16

*CONN
*P *13 I *C 0.7150 0.8550 
*I *6:g B *C 0.6925 0.4000 
*I *21:g B *C 0.6925 1.2300 
*N *13:2 *C 0.7200 0.8400 
*N *13:4 *C 0.7200 0.8400 

*CAP
0 *21:g 5.55907e-17
1 *6:g 5.33574e-17
2 *13:2 5.24453e-17
3 *13 7.58883e-17

*RES
0 *21:g *13:2 41.486824  // $poly_conn
1 *13:2 *6:g 70.973999  // $poly_conn
2 *13:4 *13 0.0093  // $metal1_conn
3 *13:2 *13:4 45  // $metal1_conn

*END

*D_NET *15 2.81647e-16

*CONN
*P *15 I *C 0.5100 0.9750 
*I *5:g B *C 0.4725 0.4000 
*I *20:g B *C 0.4725 1.2300 
*N *15:2 *C 0.5000 0.6700 

*CAP
0 *20:g 9.30991e-17
1 *5:g 4.01191e-17
2 *15:2 1.15227e-16
3 *15 3.32021e-17

*RES
0 *20:g *15:2 85.076569  // $poly_conn
1 *15:2 *5:g 27.38426  // $poly_conn
2 *15 *15:2 45.182331  // $metal1_conn

*END

*D_NET *16 2.85898e-16

*CONN
*P *16 I *C 0.2900 0.8550 
*I *3:g B *C 0.2675 0.4000 
*I *19:g B *C 0.3675 1.2300 
*N *16:2 *C 0.2950 0.6700 

*CAP
0 *19:g 8.25333e-17
1 *3:g 2.88334e-17
2 *16:2 1.08202e-16
3 *16 6.63292e-17

*RES
0 *19:g *16:2 87.322365  // $poly_conn
1 *16:2 *3:g 25.090984  // $poly_conn
2 *16 *16:2 45.110592  // $metal1_conn

*END

*D_NET *4 2.86532e-16

*CONN
*P *4 O *C 0.1300 0.6900 
*I *3:d B *C 0.3700 0.4000 
*I *5:d B *C 0.3700 0.4000 
*I *6:d B *C 0.7950 0.4000 
*I *7:d B *C 0.7950 0.4000 
*I *19:d B *C 0.2750 1.2300 
*N *4:3 *C 0.3700 0.4700 

*CAP
0 *19:d 5.20663e-17
1 *6:d 6.4306e-17
2 *3:d 6.85193e-17
3 *4 1.01641e-16

*RES
0 *6:d *4:3 75.34919  // $metal1_conn
1 *4:3 *4 0.27532  // $metal1_conn
2 *4 *19:d 31.506096  // $metal1_conn
3 *3:d *4:3 75  // $metal1_conn

*END

*D_NET *12 0

*CONN
*I *19:s B *C 0.4200 1.2300 
*I *20:d B *C 0.4200 1.2300 


*RES
0 *20:d *19:s 0.001  // $mwires

*END

*D_NET *9 0

*CONN
*I *20:s B *C 0.5825 1.2300 
*I *21:d B *C 0.5825 1.2300 


*RES
0 *21:d *20:s 0.001  // $mwires

*END

*D_NET *14 0

*CONN
*I *21:s B *C 0.7725 1.2300 
*I *1:d B *C 0.7725 1.2300 


*RES
0 *1:d *21:s 0.001  // $mwires

*END

*D_NET *11 3.81839e-16

*CONN
*I *7:g B *C 0.8975 0.4000 
*I *8:d B *C 1.2250 0.4575 
*I *1:g B *C 0.8525 1.2300 
*I *2:d B *C 1.1975 1.1425 
*N *11:2 *C 0.8900 0.6650 
*N *11:6 *C 1.2350 0.4700 

*CAP
0 *2:d 6.08977e-17
1 *1:g 7.442e-17
2 *8:d 8.16205e-17
3 *7:g 4.09673e-17
4 *11:2 1.23934e-16

*RES
0 *7:g *11:2 25.129578  // $poly_conn
1 *11:2 *1:g 85.385994  // $poly_conn
2 *2:d *11:6 62.527294  // $metal1_conn
3 *11:6 *11:2 45.304264  // $metal1_conn
4 *8:d *11:6 75  // $metal1_conn

*END

