*SPEF "IEEE 1481-1999"
*DESIGN  "NOR4BX2"
*DATE "Mon Sep 27 10:28:38 2010"
*VENDOR "Cadence Design Systems"
*PROGRAM "Assura RCX"
*VERSION "3.2 Red Hat Linux release 7.2 (Enigma) - (09/09/2009-10:39)"
*DESIGN_FLOW "Physical Verification"
*DIVIDER /
*DELIMITER :
*BUS_DELIMITER []
*T_UNIT 1 PS
*C_UNIT 1e15 FF
*R_UNIT 1 OHM
*L_UNIT 1 MH
// DeviceFingerDelim "@"
// MATCHED
// caps2d version: 10

*NAME_MAP
*1 mp1
*2 mp1\@1
*3 mp2
*4 mp2\@1
*5 mp3
*6 mp3\@1
*7 mp4
*8 mp4\@1
*9 mn0
*10 mn1
*11 AN
*12 mn1\@1
*13 mn2
*14 mn2\@1
*15 mn3
*16 mn3\@1
*17 mn4
*18 mn4\@1
*19 B
*20 C
*21 D
*22 n0
*23 VSS
*24 n2
*25 n1
*26 n3
*27 VDD
*28 Y
*29 mp0

*GROUND_NETS VSS

*PORTS
*27 I
*23 I
*11 I
*19 I
*20 I
*21 I
*28 O

*D_NET *27 3.29556e-16

*CONN
*P *27 I *C 0.1000 1.7100 
*I *29:s B *C 0.2625 1.0325 
*I *1:s B *C 0.9600 1.2100 
*I *2:s B *C 0.9600 1.2100 
*N *27:1 *C 2.1000 1.7100 
*N *27:2 *C 0.9300 1.7100 
*N *27:3 *C 0.7000 1.7100 
*N *27:4 *C 0.1800 1.7100 

*CAP
0 *1:s 4.25015e-17
1 *29:s 2.23496e-17
2 *27:4 5.8732e-18
3 *27:2 1.45918e-17
4 *27:1 2.41114e-16
5 *27 3.12588e-18

*RES
0 *27:4 *27 0.039637  // $metal1_conn
1 *27:1 *27:2 11.300433  // $metal1_conn
2 *27:1 *27:3 10.714286  // $metal1_conn
3 *27:2 *1:s 62.220997  // $metal1_conn
4 *27:4 *29:s 62.399334  // $metal1_conn
5 *27:2 *27:3 0.115068  // $metal1_conn
6 *27:3 *27:4 0.260401  // $metal1_conn

*END

*D_NET *23 0

*CONN
*P *23 I *C 0.1000 0.0000 
*I *9:s B *C 0.3350 0.5875 
*I *10:s B *C 0.8650 0.3950 
*I *12:s B *C 1.2200 0.3950 
*I *13:s B *C 1.2200 0.3950 
*I *14:s B *C 1.6500 0.3950 
*I *15:s B *C 1.6500 0.3950 
*I *16:s B *C 2.0800 0.3950 
*I *17:s B *C 2.0800 0.3950 
*I *18:s B *C 2.4800 0.3950 
*N *23:2 *C 2.1000 0.0000 
*N *23:7 *C 0.7000 0.0000 
*N *23:8 *C 0.3250 0.0000 


*RES
0 *23:8 *23 0.112312  // $metal1_conn
1 *23:2 *18:s 8.857142  // $metal1_conn
2 *23:2 *23:7 8.857142  // $metal1_conn
3 *23:8 *9:s 75.362839  // $metal1_conn
4 *18:s *23:7 0.039888  // $metal1_conn
5 *23:7 *23:8 0.187735  // $metal1_conn

*END

*D_NET *11 1.48696e-16

*CONN
*P *11 I *C 0.1000 0.8550 
*I *9:g B *C 0.4275 0.5875 
*I *29:g B *C 0.4275 1.0325 
*N *11:2 *C 0.3900 0.7950 

*CAP
0 *29:g 2.07801e-17
1 *9:g 2.22561e-17
2 *11:2 6.86997e-17
3 *11 3.69602e-17

*RES
0 *29:g *11:2 23.847527  // $poly_conn
1 *11:2 *9:g 25.129578  // $poly_conn
2 *11:2 *11 45.16996  // $metal1_conn

*END

*D_NET *19 2.81031e-16

*CONN
*P *19 I *C 1.7000 0.8550 
*I *13:g B *C 1.3225 0.3950 
*I *14:g B *C 1.5275 0.3950 
*I *3:g B *C 1.2675 1.2100 
*I *4:g B *C 1.4725 1.2100 

*CAP
0 *4:g 1.57075e-16
1 *13:g 7.26993e-17
2 *19 5.12567e-17

*RES
0 *13:g *4:g 19.79435  // $poly_conn
1 *4:g *19 45.118855  // $metal1_conn

*END

*D_NET *20 3.00665e-16

*CONN
*P *20 I *C 2.1000 0.8550 
*I *15:g B *C 1.7725 0.3950 
*I *16:g B *C 1.9775 0.3950 
*I *5:g B *C 1.9775 1.2100 
*I *6:g B *C 2.1825 1.2100 

*CAP
0 *6:g 1.82969e-16
1 *15:g 7.89457e-17
2 *20 3.87501e-17

*RES
0 *6:g *15:g 41.660088  // $poly_conn
1 *20 *6:g 45.066196  // $metal1_conn

*END

*D_NET *21 2.4279e-16

*CONN
*P *21 I *C 2.5000 0.8550 
*I *17:g B *C 2.1825 0.3950 
*I *18:g B *C 2.3875 0.3950 
*I *7:g B *C 2.3875 1.2100 
*I *8:g B *C 2.5925 1.2100 
*N *21:3 *C 2.3600 0.6750 
*N *21:8 *C 2.3600 0.6750 
*N *21:9 *C 2.4300 0.6750 
*N *21:10 *C 2.4300 0.8550 

*CAP
0 *8:g 8.09493e-17
1 *17:g 7.88348e-17
2 *21:3 3.20589e-17
3 *21 5.0947e-17

*RES
0 *8:g *21:3 51.780209  // $poly_conn
1 *21:3 *17:g 2.900734  // $poly_conn
2 *21:10 *21 0.017876  // $metal1_conn
3 *21:3 *21:8 45  // $metal1_conn
4 *21:8 *21:9 0.01775  // $metal1_conn
5 *21:9 *21:10 0.043125  // $metal1_conn

*END

*D_NET *28 5.36573e-16

*CONN
*P *28 O *C 1.3000 0.8550 
*I *10:d B *C 1.0150 0.3950 
*I *12:d B *C 1.0150 0.3950 
*I *13:d B *C 1.4250 0.3950 
*I *14:d B *C 1.4250 0.3950 
*I *15:d B *C 1.8750 0.3950 
*I *16:d B *C 1.8750 0.3950 
*I *17:d B *C 2.2850 0.3950 
*I *18:d B *C 2.2850 0.3950 
*I *7:d B *C 2.4900 1.2100 
*I *8:d B *C 2.4900 1.2100 
*N *28:3 *C 1.8750 0.4650 
*N *28:5 *C 1.4250 0.4650 
*N *28:6 *C 1.3250 0.5150 

*CAP
0 *7:d 1.74694e-16
1 *17:d 4.01176e-17
2 *15:d 6.70006e-17
3 *13:d 3.74822e-17
4 *10:d 2.57337e-17
5 *28:6 3.49366e-17
6 *28 1.56608e-16

*RES
0 *28 *7:d 62.998352  // $metal1_conn
1 *28:6 *28 0.217796  // $metal1_conn
2 *17:d *28:3 75.274086  // $metal1_conn
3 *15:d *28:3 75  // $metal1_conn
4 *13:d *28:5 75  // $metal1_conn
5 *28:6 *10:d 75.214867  // $metal1_conn
6 *28:3 *28:5 0.29694  // $metal1_conn
7 *28:5 *28:6 0.071098  // $metal1_conn

*END

*D_NET *26 1.90595e-16

*CONN
*I *5:d B *C 1.8850 1.2100 
*I *6:d B *C 2.2850 1.2100 
*I *7:s B *C 2.2850 1.2100 
*I *8:s B *C 2.6850 1.2100 

*CAP
0 *8:s 1.90595e-16


*END

*D_NET *25 2.07258e-16

*CONN
*I *1:d B *C 0.7850 1.2100 
*I *2:d B *C 1.1650 1.2100 
*I *3:s B *C 1.1650 1.2100 
*I *4:s B *C 1.5650 1.2100 

*CAP
0 *4:s 2.07258e-16


*END

*D_NET *24 1.88664e-16

*CONN
*I *3:d B *C 1.3700 1.2100 
*I *4:d B *C 1.3700 1.2100 
*I *5:s B *C 2.0800 1.2100 
*I *6:s B *C 2.0800 1.2100 

*CAP
0 *5:s 9.19024e-17
1 *3:d 9.67613e-17

*RES
0 *3:d *5:s 124.523933  // $metal1_conn

*END

*D_NET *22 2.30043e-16

*CONN
*I *9:d B *C 0.5525 0.5875 
*I *10:g B *C 0.9125 0.3950 
*I *12:g B *C 1.1175 0.3950 
*I *29:d B *C 0.6025 0.9850 
*I *1:g B *C 0.8575 1.2100 
*I *2:g B *C 1.0625 1.2100 
*N *22:3 *C 0.8850 0.8150 
*N *22:8 *C 0.6050 0.8250 

*CAP
0 *2:g 7.28298e-17
1 *29:d 1.06764e-17
2 *10:g 6.1219e-17
3 *9:d 1.50328e-17
4 *22:8 3.57019e-17
5 *22:3 3.45827e-17

*RES
0 *10:g *22:3 39.31102  // $poly_conn
1 *22:3 *2:g 8.092223  // $poly_conn
2 *22:3 *22:8 45.150242  // $metal1_conn
3 *22:8 *9:d 75.136078  // $metal1_conn
4 *22:8 *29:d 62.100441  // $metal1_conn

*END

