*SPEF "IEEE 1481-1999"
*DESIGN  "NOR4XL"
*DATE "Mon Sep 27 10:31:38 2010"
*VENDOR "Cadence Design Systems"
*PROGRAM "Assura RCX"
*VERSION "3.2 Red Hat Linux release 7.2 (Enigma) - (09/09/2009-10:39)"
*DESIGN_FLOW "Physical Verification"
*DIVIDER /
*DELIMITER :
*BUS_DELIMITER []
*T_UNIT 1 PS
*C_UNIT 1e15 FF
*R_UNIT 1 OHM
*L_UNIT 1 MH
// DeviceFingerDelim "@"
// MATCHED
// caps2d version: 10

*NAME_MAP
*1 mp0
*2 mp1
*3 mp2
*4 mp3
*5 VSS
*6 n0
*7 n1
*8 n2
*9 mn0
*10 mn1
*11 A
*12 VDD
*13 mn2
*14 Y
*15 B
*16 mn3
*17 C
*18 D

*GROUND_NETS VSS

*PORTS
*12 I
*5 I
*11 I
*15 I
*17 I
*18 I
*14 O

*D_NET *12 1.10824e-16

*CONN
*P *12 I *C 0.1000 1.7100 
*I *1:s B *C 0.1850 1.0075 
*N *12:1 *C 0.6000 1.7100 
*N *12:2 *C 0.1750 1.7100 

*CAP
0 *1:s 2.93925e-17
1 *12:2 3.99344e-18
2 *12:1 7.48551e-17
3 *12 2.58347e-18

*RES
0 *12:1 *12:2 12.712863  // $metal1_conn
1 *12:2 *12 0.037145  // $metal1_conn
2 *12:2 *1:s 62.417099  // $metal1_conn

*END

*D_NET *5 0

*CONN
*P *5 I *C 0.1000 0.0000 
*I *9:s B *C 0.1850 0.3375 
*I *10:s B *C 0.6000 0.3375 
*I *13:s B *C 0.6000 0.3375 
*I *16:s B *C 1.0500 0.3375 
*N *5:2 *C 0.6000 0.0000 
*N *5:3 *C 0.6000 0.0000 
*N *5:4 *C 0.1750 0.0000 


*RES
0 *16:s *5:3 75.444717  // $metal1_conn
1 *5:3 *5:4 0.212863  // $metal1_conn
2 *5:4 *5 0.037145  // $metal1_conn
3 *5:3 *10:s 75.216576  // $metal1_conn
4 *5:4 *9:s 75.200104  // $metal1_conn
5 *5:2 *5:3 10.333333  // $metal1_conn

*END

*D_NET *11 1.77125e-16

*CONN
*P *11 I *C 0.1000 0.8550 
*I *9:g B *C 0.2775 0.3375 
*I *1:g B *C 0.2775 1.0075 
*N *11:2 *C 0.2400 0.6750 

*CAP
0 *1:g 2.56065e-17
1 *9:g 3.26765e-17
2 *11:2 6.61283e-17
3 *11 5.27133e-17

*RES
0 *1:g *11:2 48.206497  // $poly_conn
1 *11:2 *9:g 58.462914  // $poly_conn
2 *11:2 *11 45.101181  // $metal1_conn

*END

*D_NET *15 2.20903e-16

*CONN
*P *15 I *C 0.5000 0.8550 
*I *10:g B *C 0.4825 0.3375 
*I *2:g B *C 0.4825 1.0075 
*N *15:2 *C 0.5100 0.7900 
*N *15:4 *C 0.5050 0.7900 

*CAP
0 *2:g 2.72244e-17
1 *10:g 4.63378e-17
2 *15:4 2.43027e-17
3 *15:2 4.77827e-17
4 *15 7.52552e-17

*RES
0 *2:g *15:2 19.691952  // $poly_conn
1 *15:2 *10:g 88.922722  // $poly_conn
2 *15:4 *15 0.040421  // $metal1_conn
3 *15:2 *15:4 45  // $metal1_conn

*END

*D_NET *17 2.44729e-16

*CONN
*P *17 I *C 0.7000 1.0450 
*I *13:g B *C 0.7175 0.3375 
*I *3:g B *C 0.7175 1.0075 
*N *17:2 *C 0.6900 0.7050 

*CAP
0 *3:g 3.88056e-17
1 *13:g 3.80732e-17
2 *17:2 1.04008e-16
3 *17 6.38419e-17

*RES
0 *3:g *17:2 41.486824  // $poly_conn
1 *17:2 *13:g 67.127846  // $poly_conn
2 *17 *17:2 45.203773  // $metal1_conn

*END

*D_NET *18 2.15506e-16

*CONN
*P *18 I *C 0.9000 1.0450 
*I *16:g B *C 0.9575 0.3375 
*I *4:g B *C 0.8825 1.0075 
*N *18:2 *C 0.9200 0.6800 

*CAP
0 *4:g 3.5907e-17
1 *16:g 2.94415e-17
2 *18:2 9.59441e-17
3 *18 5.42137e-17

*RES
0 *16:g *18:2 62.01527  // $poly_conn
1 *18:2 *4:g 49.194759  // $poly_conn
2 *18 *18:2 45.213253  // $metal1_conn

*END

*D_NET *14 2.62702e-16

*CONN
*P *14 O *C 1.1000 1.0450 
*I *9:d B *C 0.3800 0.3375 
*I *10:d B *C 0.3800 0.3375 
*I *13:d B *C 0.8375 0.3375 
*I *16:d B *C 0.8375 0.3375 
*I *4:d B *C 1.0175 1.0075 
*N *14:2 *C 1.0700 1.0400 
*N *14:3 *C 0.8200 0.5150 

*CAP
0 *4:d 7.78323e-17
1 *13:d 2.69807e-17
2 *9:d 6.31013e-17
3 *14:3 9.4788e-17

*RES
0 *14 *14:2 0.002914  // $metal1_conn
1 *14:2 *14:3 0.595247  // $metal1_conn
2 *14:3 *9:d 75.424614  // $metal1_conn
3 *14:3 *13:d 75.091934  // $metal1_conn
4 *4:d *14:2 62  // $metal1_conn

*END

*D_NET *8 1.84302e-19

*CONN
*I *3:d B *C 0.8000 1.0075 
*I *4:s B *C 0.8000 1.0075 

*CAP
0 *3:d 1.84302e-19

*RES
0 *4:s *3:d 0.001  // $mwires

*END

*D_NET *7 4.03204e-18

*CONN
*I *2:d B *C 0.6000 1.0075 
*I *3:s B *C 0.6000 1.0075 

*CAP
0 *2:d 4.03204e-18

*RES
0 *3:s *2:d 0.001  // $mwires

*END

*D_NET *6 0

*CONN
*I *1:d B *C 0.3800 1.0075 
*I *2:s B *C 0.3800 1.0075 


*RES
0 *2:s *1:d 0.001  // $mwires

*END

