*SPEF "IEEE 1481-1999"
*DESIGN  "NOR4X4"
*DATE "Mon Sep 27 10:30:30 2010"
*VENDOR "Cadence Design Systems"
*PROGRAM "Assura RCX"
*VERSION "3.2 Red Hat Linux release 7.2 (Enigma) - (09/09/2009-10:39)"
*DESIGN_FLOW "Physical Verification"
*DIVIDER /
*DELIMITER :
*BUS_DELIMITER []
*T_UNIT 1 PS
*C_UNIT 1e15 FF
*R_UNIT 1 OHM
*L_UNIT 1 MH
// DeviceFingerDelim "@"
// MATCHED
// caps2d version: 10

*NAME_MAP
*1 VDD
*2 Y
*3 mp2
*4 mp2\@1
*5 n1
*6 mp2\@2
*7 n2
*8 mp2\@3
*9 mp3
*10 mp3\@1
*11 mp3\@2
*12 mp3\@3
*13 mp0\@1
*14 mp0
*15 mp0\@2
*16 mp0\@3
*17 mp1
*18 mp1\@1
*19 mp1\@2
*20 mp1\@3
*21 mn0\@1
*22 mn0\@2
*23 mn0\@3
*24 mn1
*25 mn1\@1
*26 mn1\@2
*27 mn1\@3
*28 VSS
*29 n0
*30 mn2
*31 mn2\@1
*32 mn2\@2
*33 A
*34 mn2\@3
*35 B
*36 mn3
*37 C
*38 mn3\@1
*39 D
*40 mn3\@2
*41 mn3\@3
*42 mn0

*GROUND_NETS VSS

*PORTS
*1 I
*28 I
*33 I
*35 I
*37 I
*39 I
*2 O

*D_NET *1 4.78023e-16

*CONN
*P *1 I *C 0.1000 1.7100 
*I *14:s B *C 0.3350 1.2500 
*I *13:s B *C 0.3350 1.2500 
*I *15:s B *C 0.7450 1.2500 
*I *16:s B *C 0.7450 1.2500 
*N *1:1 *C 2.9000 1.7100 
*N *1:2 *C 1.0000 1.7100 

*CAP
0 *15:s 9.86255e-17
1 *1:1 3.7181e-16
2 *1 7.58777e-18

*RES
0 *15:s *1 0.10234  // $metal1_conn
1 *1:1 *1:2 9.285992  // $metal1_conn
2 *1:1 *1:2 7.5  // $metal1_conn
3 *1:2 *15:s 0.142703  // $metal1_conn

*END

*D_NET *28 0

*CONN
*P *28 I *C 0.1000 0.0000 
*I *30:s B *C 2.0550 0.5050 
*I *31:s B *C 2.4650 0.5050 
*I *32:s B *C 2.4650 0.5050 
*I *34:s B *C 2.8750 0.5050 
*I *36:s B *C 2.8750 0.5050 
*I *38:s B *C 3.2850 0.5050 
*I *40:s B *C 3.2850 0.5050 
*I *41:s B *C 3.6850 0.5050 
*I *42:s B *C 0.4250 0.5050 
*I *21:s B *C 0.8250 0.5050 
*I *22:s B *C 0.8250 0.5050 
*I *23:s B *C 1.2350 0.5050 
*I *24:s B *C 1.2350 0.5050 
*I *25:s B *C 1.6450 0.5050 
*I *26:s B *C 1.6450 0.5050 
*I *27:s B *C 2.0550 0.5050 
*N *28:3 *C 2.9000 0.0000 


*RES
0 *41:s *28 0.157494  // $metal1_conn
1 *28:3 *41:s 6.888889  // $metal1_conn
2 *28:3 *41:s 6.2  // $metal1_conn

*END

*D_NET *33 3.40685e-16

*CONN
*P *33 I *C 0.9000 0.8550 
*I *42:g B *C 0.5175 0.5050 
*I *21:g B *C 0.7225 0.5050 
*I *22:g B *C 0.9275 0.5050 
*I *23:g B *C 1.1325 0.5050 
*I *14:g B *C 0.2325 1.2500 
*I *13:g B *C 0.4375 1.2500 
*I *15:g B *C 0.6425 1.2500 
*I *16:g B *C 0.8475 1.2500 

*CAP
0 *33 3.40685e-16


*END

*D_NET *35 4.10695e-16

*CONN
*P *35 I *C 1.5000 0.8550 
*I *24:g B *C 1.3375 0.5050 
*I *25:g B *C 1.5425 0.5050 
*I *26:g B *C 1.7475 0.5050 
*I *27:g B *C 1.9525 0.5050 
*I *17:g B *C 1.0575 1.2500 
*I *18:g B *C 1.2625 1.2500 
*I *19:g B *C 1.4675 1.2500 
*I *20:g B *C 1.6725 1.2500 

*CAP
0 *35 4.10695e-16


*END

*D_NET *37 3.56198e-16

*CONN
*P *37 I *C 2.5000 0.8550 
*I *30:g B *C 2.1575 0.5050 
*I *31:g B *C 2.3625 0.5050 
*I *32:g B *C 2.5675 0.5050 
*I *34:g B *C 2.7725 0.5050 
*I *3:g B *C 2.1025 1.2100 
*I *4:g B *C 2.3075 1.2100 
*I *6:g B *C 2.5125 1.2100 
*I *8:g B *C 2.7175 1.2100 

*CAP
0 *37 3.56198e-16


*END

*D_NET *39 3.49785e-16

*CONN
*P *39 I *C 2.9000 0.8550 
*I *36:g B *C 2.9775 0.5050 
*I *38:g B *C 3.1825 0.5050 
*I *40:g B *C 3.3875 0.5050 
*I *41:g B *C 3.5925 0.5050 
*I *9:g B *C 2.9225 1.2100 
*I *10:g B *C 3.1275 1.2100 
*I *11:g B *C 3.3325 1.2100 
*I *12:g B *C 3.5375 1.2100 

*CAP
0 *12:g 3.0081e-16
1 *39 4.89755e-17

*RES
0 *12:g *39 0.147119  // $metal1_conn

*END

*D_NET *2 1.0025e-15

*CONN
*P *2 O *C 1.1000 0.8550 
*I *30:d B *C 2.2600 0.5050 
*I *31:d B *C 2.2600 0.5050 
*I *32:d B *C 2.6700 0.5050 
*I *34:d B *C 2.6700 0.5050 
*I *36:d B *C 3.0800 0.5050 
*I *38:d B *C 3.0800 0.5050 
*I *40:d B *C 3.4900 0.5050 
*I *41:d B *C 3.4900 0.5050 
*I *42:d B *C 0.6200 0.5050 
*I *21:d B *C 0.6200 0.5050 
*I *22:d B *C 1.0300 0.5050 
*I *23:d B *C 1.0300 0.5050 
*I *24:d B *C 1.4400 0.5050 
*I *25:d B *C 1.4400 0.5050 
*I *26:d B *C 1.8500 0.5050 
*I *27:d B *C 1.8500 0.5050 
*I *9:d B *C 3.0250 1.2100 
*I *10:d B *C 3.0250 1.2100 
*I *11:d B *C 3.4350 1.2100 
*I *12:d B *C 3.4350 1.2100 
*N *2:12 *C 1.1100 0.6250 

*CAP
0 *11:d 3.35294e-16
1 *24:d 1.07094e-16
2 *42:d 7.68693e-17
3 *36:d 1.06112e-16
4 *30:d 1.21876e-16
5 *2:12 2.83498e-17
6 *2 2.26906e-16

*RES
0 *2:12 *2 0.141921  // $metal1_conn
1 *2 *11:d 1.60632  // $metal1_conn
2 *36:d *30:d 0.282656  // $metal1_conn
3 *30:d *24:d 0.274512  // $metal1_conn
4 *24:d *2:12 0.242156  // $metal1_conn
5 *2:12 *42:d 0.059555  // $metal1_conn

*END

*D_NET *29 3.79676e-16

*CONN
*I *14:d B *C 0.1400 1.2500 
*I *13:d B *C 0.5400 1.2500 
*I *15:d B *C 0.5400 1.2500 
*I *16:d B *C 0.9525 1.2500 
*I *17:s B *C 0.9525 1.2500 
*I *18:s B *C 1.3650 1.2500 
*I *19:s B *C 1.3650 1.2500 
*I *20:s B *C 1.7650 1.2500 

*CAP
0 *20:s 3.79676e-16


*END

*D_NET *7 3.60394e-16

*CONN
*I *3:d B *C 2.0100 1.2100 
*I *4:d B *C 2.4100 1.2100 
*I *6:d B *C 2.4100 1.2100 
*I *8:d B *C 2.8200 1.2100 
*I *9:s B *C 2.8200 1.2100 
*I *10:s B *C 3.2300 1.2100 
*I *11:s B *C 3.2300 1.2100 
*I *12:s B *C 3.6300 1.2100 

*CAP
0 *12:s 3.60394e-16


*END

*D_NET *5 3.1732e-16

*CONN
*I *3:s B *C 2.2050 1.2100 
*I *4:s B *C 2.2050 1.2100 
*I *6:s B *C 2.6150 1.2100 
*I *8:s B *C 2.6150 1.2100 
*I *17:d B *C 1.1600 1.2500 
*I *18:d B *C 1.1600 1.2500 
*I *19:d B *C 1.5700 1.2500 
*I *20:d B *C 1.5700 1.2500 

*CAP
0 *19:d 1.47648e-16
1 *6:s 1.69672e-16

*RES
0 *6:s *19:d 0.461533  // $metal1_conn

*END

