*SPEF "IEEE 1481-1999"
*DESIGN  "OA21X2"
*DATE "Mon Sep 27 10:32:23 2010"
*VENDOR "Cadence Design Systems"
*PROGRAM "Assura RCX"
*VERSION "3.2 Red Hat Linux release 7.2 (Enigma) - (09/09/2009-10:39)"
*DESIGN_FLOW "Physical Verification"
*DIVIDER /
*DELIMITER :
*BUS_DELIMITER []
*T_UNIT 1 PS
*C_UNIT 1e15 FF
*R_UNIT 1 OHM
*L_UNIT 1 MH
// DeviceFingerDelim "@"
// MATCHED
// caps2d version: 10

*NAME_MAP
*1 mp3
*2 mp3\@1
*3 mn0
*4 Y
*5 mn1
*6 mn2
*7 mn3
*8 mn3\@1
*9 net107
*10 VDD
*11 net95
*12 net98
*13 B0
*14 VSS
*15 A0
*16 A1
*17 mp0
*18 mp1
*19 mp2

*GROUND_NETS VSS

*PORTS
*10 I
*14 I
*15 I
*16 I
*13 I
*4 O

*D_NET *10 2.28234e-16

*CONN
*P *10 I *C 0.1000 1.7100 
*I *17:s B *C 0.3400 1.1725 
*I *19:s B *C 1.0350 1.2600 
*I *1:s B *C 1.0350 1.2600 
*I *2:s B *C 1.4250 1.2600 
*N *10:3 *C 0.9000 1.7100 
*N *10:4 *C 0.9000 1.7100 
*N *10:5 *C 0.3300 1.7100 

*CAP
0 *2:s 1.00748e-16
1 *17:s 2.40644e-17
2 *10:5 8.42005e-18
3 *10:3 9.50012e-17

*RES
0 *10:5 *10 0.113905  // $metal1_conn
1 *10:3 *10:4 8.333333  // $metal1_conn
2 *10:5 *17:s 62.302166  // $metal1_conn
3 *2:s *10:4 0.061951  // $metal1_conn
4 *10:4 *10:5 0.28319  // $metal1_conn

*END

*D_NET *14 0

*CONN
*P *14 I *C 0.1000 0.0000 
*I *3:s B *C 0.5800 0.4425 
*I *5:s B *C 0.5800 0.4425 
*I *7:s B *C 1.2850 0.5300 
*I *8:s B *C 1.6300 0.5300 
*N *14:3 *C 0.9000 0.0000 
*N *14:4 *C 0.9000 0.0000 
*N *14:5 *C 0.5650 0.0000 


*RES
0 *14:5 *14 0.230739  // $metal1_conn
1 *14:3 *14:4 6.888889  // $metal1_conn
2 *14:5 *3:s 75.073166  // $metal1_conn
3 *8:s *14:4 0.148955  // $metal1_conn
4 *14:4 *14:5 0.166356  // $metal1_conn

*END

*D_NET *15 1.95499e-16

*CONN
*P *15 I *C 0.3000 0.8550 
*I *3:g B *C 0.4325 0.4425 
*I *17:g B *C 0.4325 1.1725 
*N *15:2 *C 0.4325 0.6200 
*N *15:3 *C 0.3100 0.6200 

*CAP
0 *17:g 3.86064e-17
1 *3:g 3.25228e-17
2 *15:2 2.65851e-17
3 *15:3 4.7742e-17
4 *15 5.00426e-17

*RES
0 *17:g *15:2 111.347878  // $poly_conn
1 *15:2 *15:3 52.613522  // $poly_conn
2 *15:2 *3:g 24.16839  // $poly_conn
3 *15 *15:3 0.139771  // $metal1_conn

*END

*D_NET *16 2.10385e-16

*CONN
*P *16 I *C 0.5000 0.8550 
*I *5:g B *C 0.6275 0.4425 
*I *18:g B *C 0.6275 1.1725 
*N *16:2 *C 0.6550 0.6500 

*CAP
0 *18:g 5.1756e-17
1 *5:g 3.57917e-17
2 *16:2 7.76036e-17
3 *16 4.52337e-17

*RES
0 *18:g *16:2 97.897079  // $poly_conn
1 *16:2 *5:g 26.102209  // $poly_conn
2 *16:2 *16 45.180172  // $metal1_conn

*END

*D_NET *13 2.27508e-16

*CONN
*P *13 I *C 0.9000 0.2850 
*I *6:g B *C 0.8725 0.4425 
*I *19:g B *C 0.8725 1.1725 
*N *13:2 *C 0.9000 0.6250 

*CAP
0 *19:g 6.01686e-17
1 *6:g 2.60761e-17
2 *13:2 9.6326e-17
3 *13 4.4937e-17

*RES
0 *19:g *13:2 104.307335  // $poly_conn
1 *13:2 *6:g 19.691952  // $poly_conn
2 *13 *13:2 45.202221  // $metal1_conn

*END

*D_NET *4 1.61977e-16

*CONN
*P *4 O *C 1.3000 0.6650 
*I *7:d B *C 1.4350 0.5300 
*I *8:d B *C 1.4350 0.5300 
*I *1:d B *C 1.2300 1.2600 
*I *2:d B *C 1.2300 1.2600 

*CAP
0 *1:d 7.6022e-17
1 *7:d 9.13602e-18
2 *4 7.68193e-17

*RES
0 *1:d *4 21.129328  // $metal1_conn
1 *4 *7:d 75.122589  // $metal1_conn

*END

*D_NET *12 0

*CONN
*I *17:d B *C 0.5300 1.1725 
*I *18:s B *C 0.5300 1.1725 


*RES
0 *18:s *17:d 0.001  // $mwires

*END

*D_NET *11 3.16004e-16

*CONN
*I *6:d B *C 1.0125 0.4425 
*I *7:g B *C 1.3325 0.5300 
*I *8:g B *C 1.5375 0.5300 
*I *18:d B *C 0.7500 1.1725 
*I *19:d B *C 0.7500 1.1725 
*I *1:g B *C 1.1275 1.2600 
*I *2:g B *C 1.3325 1.2600 
*N *11:5 *C 1.0700 0.9650 

*CAP
0 *2:g 7.12063e-17
1 *18:d 3.44529e-17
2 *7:g 5.28573e-17
3 *6:d 7.30167e-17
4 *11:5 8.44706e-17

*RES
0 *7:g *2:g 46.430515  // $poly_conn
1 *2:g *11:5 48.125637  // $poly_conn
2 *11:5 *6:d 75.333679  // $metal1_conn
3 *11:5 *18:d 62.280128  // $metal1_conn

*END

*D_NET *9 9.81316e-17

*CONN
*I *3:d B *C 0.3400 0.4425 
*I *5:d B *C 0.7500 0.4425 
*I *6:s B *C 0.7500 0.4425 

*CAP
0 *5:d 5.83377e-17
1 *3:d 3.97939e-17

*RES
0 *3:d *5:d 150.231964  // $metal1_conn

*END

