*SPEF "IEEE 1481-1999"
*DESIGN  "OA21X4"
*DATE "Mon Sep 27 10:32:45 2010"
*VENDOR "Cadence Design Systems"
*PROGRAM "Assura RCX"
*VERSION "3.2 Red Hat Linux release 7.2 (Enigma) - (09/09/2009-10:39)"
*DESIGN_FLOW "Physical Verification"
*DIVIDER /
*DELIMITER :
*BUS_DELIMITER []
*T_UNIT 1 PS
*C_UNIT 1e15 FF
*R_UNIT 1 OHM
*L_UNIT 1 MH
// DeviceFingerDelim "@"
// MATCHED
// caps2d version: 10

*NAME_MAP
*1 net95
*2 mp0
*3 net98
*4 mp1
*5 mp2
*6 mn0
*7 mp3
*8 mn1
*9 VSS
*10 mp3\@1
*11 mn2
*12 mp3\@2
*13 mn3
*14 A0
*15 mp3\@3
*16 mn3\@1
*17 A1
*18 mn3\@2
*19 mn3\@3
*20 Y
*21 B0
*22 VDD
*23 net107

*GROUND_NETS VSS

*PORTS
*22 I
*9 I
*14 I
*17 I
*21 I
*20 O

*D_NET *22 3.02986e-16

*CONN
*P *22 I *C 0.1000 1.7100 
*I *2:s B *C 0.3200 1.1550 
*I *5:s B *C 0.9250 1.1550 
*I *7:s B *C 0.9250 1.1550 
*I *10:s B *C 1.4350 1.1550 
*I *12:s B *C 1.4350 1.1550 
*I *15:s B *C 1.8350 1.1550 
*N *22:3 *C 1.1000 1.7100 
*N *22:6 *C 0.3100 1.7100 

*CAP
0 *15:s 1.78391e-16
1 *2:s 1.87872e-17
2 *22:6 6.07833e-18
3 *22:3 9.42228e-17
4 *22 5.50673e-18

*RES
0 *22:6 *22 0.104742  // $metal1_conn
1 *22:3 *15:s 6.818182  // $metal1_conn
2 *22:6 *2:s 62.259624  // $metal1_conn
3 *15:s *22:6 0.25757  // $metal1_conn

*END

*D_NET *9 0

*CONN
*P *9 I *C 0.1000 0.0000 
*I *6:s B *C 0.4150 0.3600 
*I *8:s B *C 0.4150 0.3600 
*I *13:s B *C 1.1800 0.5300 
*I *16:s B *C 1.5350 0.5300 
*I *18:s B *C 1.5350 0.5300 
*I *19:s B *C 1.9350 0.5300 
*N *9:3 *C 1.1000 0.0000 
*N *9:5 *C 0.4150 0.0000 


*RES
0 *9:5 *9 0.157336  // $metal1_conn
1 *9:3 *19:s 5.636364  // $metal1_conn
2 *9:5 *6:s 75.173485  // $metal1_conn
3 *19:s *9:5 0.342919  // $metal1_conn

*END

*D_NET *14 2.21959e-16

*CONN
*P *14 I *C 0.1000 0.8550 
*I *6:g B *C 0.3125 0.3600 
*I *2:g B *C 0.4125 1.1550 
*N *14:2 *C 0.3125 0.6900 
*N *14:3 *C 0.1100 0.6900 

*CAP
0 *2:g 7.26171e-17
1 *6:g 3.5292e-17
2 *14:2 4.98025e-17
3 *14:3 3.23081e-17
4 *14 3.19389e-17

*RES
0 *2:g *14:2 67.544838  // $poly_conn
1 *14:2 *14:3 60.182167  // $poly_conn
2 *14:2 *6:g 40.113647  // $poly_conn
3 *14 *14:3 0.0987  // $metal1_conn

*END

*D_NET *17 2.82396e-16

*CONN
*P *17 I *C 0.5000 0.8550 
*I *8:g B *C 0.5175 0.3600 
*I *4:g B *C 0.5175 1.1550 
*N *17:2 *C 0.5450 0.6600 

*CAP
0 *4:g 8.96446e-17
1 *8:g 4.23304e-17
2 *17:2 1.22581e-16
3 *17 2.78401e-17

*RES
0 *4:g *17:2 68.409897  // $poly_conn
1 *17:2 *8:g 35.076569  // $poly_conn
2 *17 *17:2 45.063171  // $metal1_conn

*END

*D_NET *21 2.11077e-16

*CONN
*P *21 I *C 0.9000 0.8550 
*I *11:g B *C 0.7225 0.3600 
*I *5:g B *C 0.7225 1.1550 
*N *21:2 *C 0.7500 0.6700 

*CAP
0 *5:g 4.2535e-17
1 *11:g 3.44287e-17
2 *21:2 6.3107e-17
3 *21 7.10064e-17

*RES
0 *5:g *21:2 65.845795  // $poly_conn
1 *21:2 *11:g 37.640671  // $poly_conn
2 *21:2 *21 45.162445  // $metal1_conn

*END

*D_NET *20 3.41068e-16

*CONN
*P *20 O *C 1.9000 0.8550 
*I *13:d B *C 1.3300 0.5300 
*I *16:d B *C 1.3300 0.5300 
*I *18:d B *C 1.7400 0.5300 
*I *19:d B *C 1.7400 0.5300 
*I *7:d B *C 1.2300 1.1550 
*I *10:d B *C 1.2300 1.1550 
*I *12:d B *C 1.6400 1.1550 
*I *15:d B *C 1.6400 1.1550 

*CAP
0 *12:d 1.90003e-16
1 *13:d 9.89096e-17
2 *20 5.21547e-17

*RES
0 *20 *13:d 0.171477  // $metal1_conn
1 *12:d *20 0.165564  // $metal1_conn

*END

*D_NET *3 0

*CONN
*I *2:d B *C 0.4650 1.1550 
*I *4:s B *C 0.4650 1.1550 


*RES
0 *4:s *2:d 0.001  // $mwires

*END

*D_NET *1 5.04747e-16

*CONN
*I *11:d B *C 0.8650 0.4300 
*I *13:g B *C 1.2275 0.5300 
*I *16:g B *C 1.4325 0.5300 
*I *18:g B *C 1.6375 0.5300 
*I *19:g B *C 1.8425 0.5300 
*I *4:d B *C 0.6200 1.1550 
*I *5:d B *C 0.6200 1.1550 
*I *7:g B *C 1.1275 1.1550 
*I *10:g B *C 1.3325 1.1550 
*I *12:g B *C 1.5375 1.1550 
*I *15:g B *C 1.7425 1.1550 
*N *1:16 *C 1.0700 0.8100 

*CAP
0 *15:g 2.772e-16
1 *4:d 8.59675e-17
2 *11:d 5.37486e-17
3 *1:16 8.78311e-17

*RES
0 *15:g *1:16 0.196867  // $metal1_conn
1 *1:16 *11:d 75.380463  // $metal1_conn
2 *1:16 *4:d 31.595917  // $metal1_conn

*END

*D_NET *23 1.04183e-16

*CONN
*I *6:d B *C 0.2200 0.3600 
*I *8:d B *C 0.6200 0.3600 
*I *11:s B *C 0.6200 0.3600 

*CAP
0 *8:d 5.9868e-17
1 *6:d 4.43154e-17

*RES
0 *8:d *6:d 150.235565  // $metal1_conn

*END

