*SPEF "IEEE 1481-1999"
*DESIGN  "OA22X1"
*DATE "Mon Sep 27 10:33:29 2010"
*VENDOR "Cadence Design Systems"
*PROGRAM "Assura RCX"
*VERSION "3.2 Red Hat Linux release 7.2 (Enigma) - (09/09/2009-10:39)"
*DESIGN_FLOW "Physical Verification"
*DIVIDER /
*DELIMITER :
*BUS_DELIMITER []
*T_UNIT 1 PS
*C_UNIT 1e15 FF
*R_UNIT 1 OHM
*L_UNIT 1 MH
// DeviceFingerDelim "@"
// MATCHED
// caps2d version: 10

*NAME_MAP
*1 mp2
*2 mp4
*3 mn0
*4 Y
*5 mn1
*6 mn3
*7 mn2
*8 mn4
*9 net119
*10 VDD
*11 net128
*12 net115
*13 net124
*14 B0
*15 B1
*16 VSS
*17 A0
*18 A1
*19 mp0
*20 mp1
*21 mp3

*GROUND_NETS VSS

*PORTS
*10 I
*16 I
*17 I
*18 I
*14 I
*15 I
*4 O

*D_NET *10 1.74937e-16

*CONN
*P *10 I *C 0.1000 1.7100 
*I *19:s B *C 0.1100 1.2225 
*I *1:s B *C 1.1000 1.1350 
*I *2:s B *C 1.1000 1.1350 
*N *10:2 *C 0.7000 1.7100 
*N *10:3 *C 0.7000 1.7100 

*CAP
0 *1:s 3.26471e-17
1 *19:s 2.44135e-17
2 *10:2 1.1111e-16
3 *10 6.76641e-18

*RES
0 *1:s *10:3 62.48909  // $metal1_conn
1 *10:3 *10 0.30084  // $metal1_conn
2 *10 *19:s 62.283569  // $metal1_conn
3 *10:2 *10:3 10.714286  // $metal1_conn

*END

*D_NET *16 0

*CONN
*P *16 I *C 0.1000 0.0000 
*I *3:s B *C 0.3500 0.4925 
*I *5:s B *C 0.3500 0.4925 
*I *8:s B *C 1.1250 0.5000 
*N *16:2 *C 0.7000 0.0000 
*N *16:3 *C 0.7000 0.0000 
*N *16:4 *C 0.3350 0.0000 


*RES
0 *8:s *16:3 75.303696  // $metal1_conn
1 *16:3 *16:4 0.182784  // $metal1_conn
2 *16:4 *16 0.117362  // $metal1_conn
3 *16:4 *3:s 75.074409  // $metal1_conn
4 *16:2 *16:3 8.857142  // $metal1_conn

*END

*D_NET *17 2.02768e-16

*CONN
*P *17 I *C 0.1600 0.6400 
*I *3:g B *C 0.2025 0.4925 
*I *19:g B *C 0.2025 1.2225 
*N *17:2 *C 0.1700 0.6750 
*N *17:5 *C 0.1650 0.6750 

*CAP
0 *19:g 4.51068e-17
1 *3:g 3.13832e-17
2 *17:5 6.75468e-17
3 *17:2 3.37091e-17
4 *17 2.50225e-17

*RES
0 *19:g *17:2 102.014053  // $poly_conn
1 *17:2 *3:g 17.398676  // $poly_conn
2 *17 *17:5 0.021765  // $metal1_conn
3 *17:2 *17:5 45  // $metal1_conn

*END

*D_NET *18 2.74255e-16

*CONN
*P *18 I *C 0.3600 0.7800 
*I *5:g B *C 0.3975 0.4925 
*I *20:g B *C 0.3975 1.2225 
*N *18:2 *C 0.3700 1.0050 

*CAP
0 *20:g 3.66241e-17
1 *5:g 6.87502e-17
2 *18:2 1.02684e-16
3 *18 6.61973e-17

*RES
0 *20:g *18:2 19.691952  // $poly_conn
1 *18:2 *5:g 104.307335  // $poly_conn
2 *18 *18:2 45.13485  // $metal1_conn

*END

*D_NET *14 2.20379e-16

*CONN
*P *14 I *C 1.1050 1.0650 
*I *7:g B *C 0.8075 0.4925 
*I *1:g B *C 0.8075 1.2225 
*N *14:2 *C 0.8350 1.0000 

*CAP
0 *1:g 3.08001e-17
1 *7:g 5.15409e-17
2 *14:2 9.59825e-17
3 *14 4.20551e-17

*RES
0 *1:g *14:2 20.974003  // $poly_conn
1 *14:2 *7:g 103.025291  // $poly_conn
2 *14 *14:2 45.165813  // $metal1_conn

*END

*D_NET *15 2.87824e-16

*CONN
*P *15 I *C 0.5300 0.9250 
*I *6:g B *C 0.6025 0.4925 
*I *21:g B *C 0.6025 1.2225 
*N *15:2 *C 0.6025 0.7000 
*N *15:3 *C 0.5400 0.7000 

*CAP
0 *21:g 5.24942e-17
1 *6:g 3.44464e-17
2 *15:2 3.43494e-17
3 *15:3 9.00778e-17
4 *15 7.64565e-17

*RES
0 *21:g *15:2 103.099213  // $poly_conn
1 *15:2 *15:3 46.195099  // $poly_conn
2 *15:2 *6:g 31.304344  // $poly_conn
3 *15 *15:3 0.134849  // $metal1_conn

*END

*D_NET *4 9.54076e-17

*CONN
*P *4 O *C 1.2850 0.4900 
*I *8:d B *C 1.2650 0.5000 
*I *2:d B *C 1.2650 1.1350 
*N *4:3 *C 1.2750 0.5050 

*CAP
0 *2:d 4.77147e-17
1 *4 4.76929e-17

*RES
0 *2:d *4:3 21.085876  // $metal1_conn
1 *4:3 *4 0.009981  // $metal1_conn
2 *8:d *4:3 37.5  // $metal1_conn

*END

*D_NET *12 6.39059e-18

*CONN
*I *21:s B *C 0.7050 1.2225 
*I *1:d B *C 0.7050 1.2225 

*CAP
0 *21:s 6.39059e-18

*RES
0 *1:d *21:s 0.001  // $mwires

*END

*D_NET *9 0

*CONN
*I *19:d B *C 0.3000 1.2225 
*I *20:s B *C 0.3000 1.2225 


*RES
0 *20:s *19:d 0.001  // $mwires

*END

*D_NET *13 1.77653e-16

*CONN
*I *3:d B *C 0.1100 0.4925 
*I *5:d B *C 0.5000 0.4925 
*I *6:s B *C 0.5000 0.4925 
*I *7:s B *C 0.9000 0.4925 
*N *13:3 *C 0.5000 0.4800 

*CAP
0 *7:s 5.73117e-17
1 *5:d 8.71797e-17
2 *3:d 3.31613e-17

*RES
0 *7:s *13:3 75.502861  // $metal1_conn
1 *13:3 *3:d 75.278343  // $metal1_conn
2 *5:d *13:3 75  // $metal1_conn

*END

*D_NET *11 3.38991e-16

*CONN
*I *6:d B *C 0.7050 0.4925 
*I *7:d B *C 0.7050 0.4925 
*I *8:g B *C 1.1725 0.5000 
*I *20:d B *C 0.5000 1.2225 
*I *21:d B *C 0.5000 1.2225 
*I *2:g B *C 1.1725 1.1350 
*N *11:2 *C 1.1725 0.7400 
*N *11:3 *C 1.1200 0.7400 
*N *11:5 *C 0.7050 0.7400 

*CAP
0 *2:g 3.9491e-17
1 *20:d 5.89783e-17
2 *8:g 2.94494e-17
3 *6:d 3.70274e-17
4 *11:5 1.08381e-16
5 *11:3 6.56636e-17

*RES
0 *2:g *11:2 48.527363  // $poly_conn
1 *11:2 *11:3 45.294373  // $poly_conn
2 *11:2 *8:g 25.450441  // $poly_conn
3 *11:3 *11:5 0.270948  // $metal1_conn
4 *11:5 *20:d 62.552956  // $metal1_conn
5 *11:5 *6:d 75.179741  // $metal1_conn

*END

