*SPEF "IEEE 1481-1999"
*DESIGN  "OA22XL"
*DATE "Mon Sep 27 10:34:37 2010"
*VENDOR "Cadence Design Systems"
*PROGRAM "Assura RCX"
*VERSION "3.2 Red Hat Linux release 7.2 (Enigma) - (09/09/2009-10:39)"
*DESIGN_FLOW "Physical Verification"
*DIVIDER /
*DELIMITER :
*BUS_DELIMITER []
*T_UNIT 1 PS
*C_UNIT 1e15 FF
*R_UNIT 1 OHM
*L_UNIT 1 MH
// DeviceFingerDelim "@"
// MATCHED
// caps2d version: 10

*NAME_MAP
*1 mp2
*2 mp4
*3 mn0
*4 Y
*5 mn1
*6 mn3
*7 mn2
*8 mn4
*9 net119
*10 VDD
*11 net128
*12 net115
*13 net124
*14 B0
*15 B1
*16 VSS
*17 A0
*18 A1
*19 mp0
*20 mp1
*21 mp3

*GROUND_NETS VSS

*PORTS
*10 I
*16 I
*17 I
*18 I
*14 I
*15 I
*4 O

*D_NET *10 2.47154e-16

*CONN
*P *10 I *C 0.1000 1.7100 
*I *19:s B *C 0.2700 1.3725 
*I *1:s B *C 1.1550 1.3725 
*I *2:s B *C 1.1550 1.3725 
*N *10:2 *C 0.9000 1.7100 
*N *10:3 *C 0.9000 1.7100 
*N *10:4 *C 0.2600 1.7100 

*CAP
0 *1:s 3.48071e-17
1 *19:s 1.26106e-17
2 *10:4 1.16991e-17
3 *10:2 1.88038e-16

*RES
0 *1:s *10:3 62.3423  // $metal1_conn
1 *10:3 *10:4 0.319048  // $metal1_conn
2 *10:4 *10 0.079366  // $metal1_conn
3 *10:4 *19:s 62.172268  // $metal1_conn
4 *10:2 *10:3 8.333333  // $metal1_conn

*END

*D_NET *16 0

*CONN
*P *16 I *C 0.1000 0.0000 
*I *3:s B *C 0.5100 0.4525 
*I *5:s B *C 0.5100 0.4525 
*I *8:s B *C 1.4750 0.4725 
*N *16:2 *C 0.9000 0.0000 
*N *16:3 *C 0.9000 0.0000 
*N *16:4 *C 0.4950 0.0000 


*RES
0 *8:s *16:3 75.349915  // $metal1_conn
1 *16:3 *16:4 0.201826  // $metal1_conn
2 *16:4 *16 0.196588  // $metal1_conn
3 *16:4 *3:s 75.073578  // $metal1_conn
4 *16:2 *16:3 6.888889  // $metal1_conn

*END

*D_NET *17 2.24394e-16

*CONN
*P *17 I *C 0.3000 0.6650 
*I *3:g B *C 0.3625 0.4525 
*I *19:g B *C 0.3625 1.3725 
*N *17:2 *C 0.3625 0.7750 
*N *17:3 *C 0.3100 0.7750 

*CAP
0 *19:g 4.83504e-17
1 *3:g 4.18999e-17
2 *17:3 1.02414e-16
3 *17 3.17293e-17

*RES
0 *19:g *17:2 122.886337  // $poly_conn
1 *17:2 *17:3 45.294373  // $poly_conn
2 *17:2 *3:g 61.347878  // $poly_conn
3 *17 *17:3 0.065591  // $metal1_conn

*END

*D_NET *18 2.60474e-16

*CONN
*P *18 I *C 0.5000 0.6650 
*I *5:g B *C 0.5575 0.4525 
*I *20:g B *C 0.5575 1.3725 
*N *18:2 *C 0.5300 0.6600 
*N *18:4 *C 0.5300 0.6600 

*CAP
0 *20:g 6.45518e-17
1 *5:g 3.60324e-17
2 *18:2 6.07954e-17
3 *18 9.90944e-17

*RES
0 *20:g *18:2 146.615021  // $poly_conn
1 *18:2 *5:g 26.102209  // $poly_conn
2 *18 *18:4 0.003947  // $metal1_conn
3 *18:2 *18:4 45  // $metal1_conn

*END

*D_NET *14 2.45668e-16

*CONN
*P *14 I *C 1.1000 0.8550 
*I *7:g B *C 1.1275 0.4525 
*I *1:g B *C 1.0525 1.3725 
*N *14:2 *C 1.0900 0.8500 
*N *14:4 *C 1.0900 0.8500 

*CAP
0 *1:g 4.82121e-17
1 *7:g 4.39171e-17
2 *14:2 1.53539e-16

*RES
0 *7:g *14:2 76.117836  // $poly_conn
1 *14:2 *1:g 99.194763  // $poly_conn
2 *14:4 *14 0.003086  // $metal1_conn
3 *14:2 *14:4 45  // $metal1_conn

*END

*D_NET *15 2.49353e-16

*CONN
*P *15 I *C 0.7000 1.0450 
*I *6:g B *C 0.7975 0.4525 
*I *21:g B *C 0.7975 1.3725 
*N *15:2 *C 0.7700 0.7300 

*CAP
0 *21:g 5.2909e-17
1 *6:g 3.30244e-17
2 *15:2 9.17139e-17
3 *15 7.17057e-17

*RES
0 *21:g *15:2 128.666306  // $poly_conn
1 *15:2 *6:g 44.050926  // $poly_conn
2 *15:2 *15 45.193848  // $metal1_conn

*END

*D_NET *4 1.40036e-16

*CONN
*P *4 O *C 1.5000 1.4250 
*I *8:d B *C 1.6150 0.4725 
*I *2:d B *C 1.3500 1.3725 

*CAP
0 *2:d 2.91488e-17
1 *8:d 4.52807e-17
2 *4 6.56062e-17

*RES
0 *8:d *4 75.668648  // $metal1_conn
1 *4 *2:d 62.081486  // $metal1_conn

*END

*D_NET *12 3.22087e-18

*CONN
*I *21:s B *C 0.9250 1.3725 
*I *1:d B *C 0.9250 1.3725 

*CAP
0 *21:s 3.22087e-18

*RES
0 *1:d *21:s 0.001  // $mwires

*END

*D_NET *9 0

*CONN
*I *19:d B *C 0.4600 1.3725 
*I *20:s B *C 0.4600 1.3725 


*RES
0 *20:s *19:d 0.001  // $mwires

*END

*D_NET *13 1.99833e-16

*CONN
*I *3:d B *C 0.2700 0.4525 
*I *5:d B *C 0.6775 0.4525 
*I *6:s B *C 0.6775 0.4525 
*I *7:s B *C 1.2200 0.4525 
*N *13:3 *C 0.6600 0.4400 

*CAP
0 *7:s 7.50237e-17
1 *5:d 9.11764e-17
2 *3:d 3.36328e-17

*RES
0 *7:s *13:3 75.66732  // $metal1_conn
1 *13:3 *3:d 75.276337  // $metal1_conn
2 *5:d *13:3 75  // $metal1_conn

*END

*D_NET *11 3.87125e-16

*CONN
*I *6:d B *C 0.9625 0.4525 
*I *7:d B *C 0.9625 0.4525 
*I *8:g B *C 1.5225 0.4725 
*I *20:d B *C 0.6775 1.3725 
*I *21:d B *C 0.6775 1.3725 
*I *2:g B *C 1.2575 1.3725 
*N *11:2 *C 1.2950 0.6300 
*N *11:4 *C 0.9300 0.6300 

*CAP
0 *2:g 5.54992e-17
1 *20:d 8.9913e-17
2 *8:g 2.72099e-17
3 *6:d 2.60959e-17
4 *11:4 1.00617e-16
5 *11:2 8.77894e-17

*RES
0 *8:g *11:2 69.590385  // $poly_conn
1 *11:2 *2:g 153.334702  // $poly_conn
2 *11:2 *11:4 45.237888  // $metal1_conn
3 *11:4 *20:d 62.627407  // $metal1_conn
4 *11:4 *6:d 75.126816  // $metal1_conn

*END

