*SPEF "IEEE 1481-1999"
*DESIGN  "OA22X4"
*DATE "Mon Sep 27 10:34:14 2010"
*VENDOR "Cadence Design Systems"
*PROGRAM "Assura RCX"
*VERSION "3.2 Red Hat Linux release 7.2 (Enigma) - (09/09/2009-10:39)"
*DESIGN_FLOW "Physical Verification"
*DIVIDER /
*DELIMITER :
*BUS_DELIMITER []
*T_UNIT 1 PS
*C_UNIT 1e15 FF
*R_UNIT 1 OHM
*L_UNIT 1 MH
// DeviceFingerDelim "@"
// MATCHED
// caps2d version: 10

*NAME_MAP
*1 mp1
*2 mn4\@3
*3 mp3
*4 mp2
*5 VDD
*6 mp4
*7 net119
*8 mp4\@1
*9 net115
*10 mp4\@2
*11 A0
*12 mp4\@3
*13 A1
*14 Y
*15 net124
*16 net128
*17 B0
*18 B1
*19 VSS
*20 mn0
*21 mn1
*22 mn3
*23 mn2
*24 mn4
*25 mn4\@1
*26 mp0
*27 mn4\@2

*GROUND_NETS VSS

*PORTS
*5 I
*19 I
*11 I
*13 I
*17 I
*18 I
*14 O

*D_NET *5 3.28746e-16

*CONN
*P *5 I *C 0.1000 1.7100 
*I *26:s B *C 0.3050 1.2450 
*I *4:s B *C 1.0650 1.2450 
*I *6:s B *C 1.0650 1.2450 
*I *8:s B *C 1.4750 1.2450 
*I *10:s B *C 1.4750 1.2450 
*I *12:s B *C 1.8750 1.2450 
*N *5:3 *C 1.2000 1.7100 
*N *5:6 *C 0.2950 1.7100 

*CAP
0 *12:s 1.70032e-16
1 *26:s 3.68001e-17
2 *5:6 1.55504e-17
3 *5:3 1.06363e-16

*RES
0 *5:6 *5 0.097229  // $metal1_conn
1 *5:3 *12:s 6.25  // $metal1_conn
2 *5:6 *26:s 62.199989  // $metal1_conn
3 *12:s *5:6 0.385299  // $metal1_conn

*END

*D_NET *19 0

*CONN
*P *19 I *C 0.1000 0.0000 
*I *20:s B *C 0.4550 0.4700 
*I *21:s B *C 0.4550 0.4700 
*I *24:s B *C 1.3550 0.4000 
*I *25:s B *C 1.7625 0.4000 
*I *27:s B *C 1.7625 0.4000 
*I *2:s B *C 2.1700 0.4000 
*N *19:4 *C 1.2000 0.0000 
*N *19:5 *C 1.2000 0.0000 
*N *19:6 *C 0.4550 0.0000 


*RES
0 *19:6 *19 0.177372  // $metal1_conn
1 *19:4 *19:5 5.166667  // $metal1_conn
2 *19:6 *20:s 75.258148  // $metal1_conn
3 *2:s *19:5 0.072434  // $metal1_conn
4 *19:5 *19:6 0.372973  // $metal1_conn

*END

*D_NET *11 2.21873e-16

*CONN
*P *11 I *C 0.3000 0.8550 
*I *20:g B *C 0.3525 0.4700 
*I *26:g B *C 0.3975 1.2450 
*N *11:2 *C 0.3100 0.7800 
*N *11:4 *C 0.3050 0.7800 

*CAP
0 *26:g 4.94583e-17
1 *20:g 3.35697e-17
2 *11:4 2.36373e-17
3 *11:2 4.32096e-17
4 *11 7.19982e-17

*RES
0 *26:g *11:2 64.20462  // $poly_conn
1 *11:2 *20:g 35.347393  // $poly_conn
2 *11:4 *11 0.046555  // $metal1_conn
3 *11:2 *11:4 45  // $metal1_conn

*END

*D_NET *13 2.84431e-16

*CONN
*P *13 I *C 0.5000 1.0450 
*I *21:g B *C 0.5575 0.4700 
*I *1:g B *C 0.5575 1.2450 
*N *13:2 *C 0.5300 0.9400 

*CAP
0 *1:g 5.11518e-17
1 *21:g 5.74949e-17
2 *13:2 1.75784e-16

*RES
0 *1:g *13:2 19.691952  // $poly_conn
1 *13:2 *21:g 78.666313  // $poly_conn
2 *13:2 *13 45.00396  // $metal1_conn

*END

*D_NET *17 2.33033e-16

*CONN
*P *17 I *C 1.1000 1.0450 
*I *23:g B *C 0.9725 0.4700 
*I *4:g B *C 0.9625 1.2450 
*N *17:2 *C 0.9675 0.8400 
*N *17:4 *C 1.0300 0.8400 

*CAP
0 *4:g 4.95526e-17
1 *23:g 4.49824e-17
2 *17:2 4.07805e-17
3 *17:4 3.23189e-17
4 *17 6.53988e-17

*RES
0 *23:g *17:2 59.27739  // $poly_conn
1 *17:2 *4:g 51.585083  // $poly_conn
2 *17:2 *17:4 48.343254  // $poly_conn
3 *17 *17:4 0.134526  // $metal1_conn

*END

*D_NET *18 2.84939e-16

*CONN
*P *18 I *C 0.7000 1.0450 
*I *22:g B *C 0.7625 0.4700 
*I *3:g B *C 0.7625 1.2450 
*N *18:2 *C 0.7625 0.7800 
*N *18:3 *C 0.7100 0.7800 

*CAP
0 *3:g 5.4319e-17
1 *22:g 4.4161e-17
2 *18:3 1.0394e-16
3 *18 8.25189e-17

*RES
0 *3:g *18:2 66.476082  // $poly_conn
1 *18:2 *18:3 45.294373  // $poly_conn
2 *18:2 *22:g 43.399158  // $poly_conn
3 *18 *18:3 0.158519  // $metal1_conn

*END

*D_NET *14 3.32028e-16

*CONN
*P *14 O *C 2.1000 1.0450 
*I *24:d B *C 1.5500 0.4000 
*I *25:d B *C 1.5500 0.4000 
*I *27:d B *C 1.9750 0.4000 
*I *2:d B *C 1.9750 0.4000 
*I *6:d B *C 1.2700 1.2450 
*I *8:d B *C 1.2700 1.2450 
*I *10:d B *C 1.6800 1.2450 
*I *12:d B *C 1.6800 1.2450 
*N *14:3 *C 1.9750 1.0450 

*CAP
0 *10:d 1.53162e-16
1 *24:d 1.19666e-16
2 *14:3 3.78889e-17
3 *14 2.13116e-17

*RES
0 *14:3 *14 0.062342  // $metal1_conn
1 *24:d *14:3 0.365052  // $metal1_conn
2 *14:3 *10:d 0.227116  // $metal1_conn

*END

*D_NET *9 7.9097e-18

*CONN
*I *3:s B *C 0.8625 1.2450 
*I *4:d B *C 0.8625 1.2450 

*CAP
0 *3:s 7.9097e-18

*RES
0 *4:d *3:s 0.001  // $mwires

*END

*D_NET *7 2.70639e-18

*CONN
*I *26:d B *C 0.4775 1.2450 
*I *1:s B *C 0.4775 1.2450 

*CAP
0 *26:d 2.70639e-18

*RES
0 *1:s *26:d 0.001  // $mwires

*END

*D_NET *16 5.75645e-16

*CONN
*I *22:d B *C 0.8675 0.4700 
*I *23:d B *C 0.8675 0.4700 
*I *24:g B *C 1.4475 0.4000 
*I *25:g B *C 1.6525 0.4000 
*I *27:g B *C 1.8725 0.4000 
*I *2:g B *C 2.0775 0.4000 
*I *1:d B *C 0.6600 1.2450 
*I *3:d B *C 0.6600 1.2450 
*I *6:g B *C 1.1675 1.2450 
*I *8:g B *C 1.3725 1.2450 
*I *10:g B *C 1.5775 1.2450 
*I *12:g B *C 1.7825 1.2450 
*N *16:15 *C 0.8700 0.6575 

*CAP
0 *12:g 3.21417e-16
1 *1:d 1.00359e-16
2 *22:d 3.0778e-17
3 *16:15 1.23091e-16

*RES
0 *16:15 *12:g 0.36289  // $metal1_conn
1 *16:15 *1:d 62.635963  // $metal1_conn
2 *22:d *16:15 75.141632  // $metal1_conn

*END

*D_NET *15 2.12543e-16

*CONN
*I *20:d B *C 0.2600 0.4700 
*I *21:d B *C 0.6600 0.4700 
*I *22:s B *C 0.6600 0.4700 
*I *23:s B *C 1.0650 0.4700 
*N *15:3 *C 0.6600 0.4000 

*CAP
0 *23:s 6.36168e-17
1 *21:d 9.3161e-17
2 *20:d 5.57651e-17

*RES
0 *23:s *15:3 75.46244  // $metal1_conn
1 *15:3 *20:d 75.420959  // $metal1_conn
2 *21:d *15:3 75  // $metal1_conn

*END

