*SPEF "IEEE 1481-1999"
*DESIGN  "OA22X2"
*DATE "Mon Sep 27 10:33:51 2010"
*VENDOR "Cadence Design Systems"
*PROGRAM "Assura RCX"
*VERSION "3.2 Red Hat Linux release 7.2 (Enigma) - (09/09/2009-10:39)"
*DESIGN_FLOW "Physical Verification"
*DIVIDER /
*DELIMITER :
*BUS_DELIMITER []
*T_UNIT 1 PS
*C_UNIT 1e15 FF
*R_UNIT 1 OHM
*L_UNIT 1 MH
// DeviceFingerDelim "@"
// MATCHED
// caps2d version: 10

*NAME_MAP
*1 net119
*2 mp0
*3 net115
*4 mp1
*5 mp3
*6 mp2
*7 mp4
*8 A0
*9 mp4\@1
*10 A1
*11 VDD
*12 net128
*13 mn0
*14 net124
*15 mn1
*16 mn3
*17 mn2
*18 mn4
*19 mn4\@1
*20 B0
*21 B1
*22 Y
*23 VSS

*GROUND_NETS VSS

*PORTS
*11 I
*23 I
*8 I
*10 I
*20 I
*21 I
*22 O

*D_NET *11 2.46403e-16

*CONN
*P *11 I *C 0.1000 1.7100 
*I *2:s B *C 0.2450 1.2875 
*I *6:s B *C 1.2950 1.2000 
*I *7:s B *C 1.2950 1.2000 
*I *9:s B *C 1.6650 1.2000 
*N *11:3 *C 1.0000 1.7100 
*N *11:4 *C 1.0000 1.7100 
*N *11:5 *C 0.2350 1.7100 

*CAP
0 *9:s 9.09651e-17
1 *2:s 2.08609e-17
2 *11:5 1.30449e-17
3 *11:3 1.21532e-16

*RES
0 *11:5 *11 0.067007  // $metal1_conn
1 *11:3 *11:4 7.5  // $metal1_conn
2 *11:5 *2:s 62.228836  // $metal1_conn
3 *9:s *11:4 0.07725  // $metal1_conn
4 *11:4 *11:5 0.382035  // $metal1_conn

*END

*D_NET *23 0

*CONN
*P *23 I *C 0.1000 0.0000 
*I *13:s B *C 0.4300 0.3675 
*I *15:s B *C 0.4300 0.3675 
*I *18:s B *C 1.4050 0.5300 
*I *19:s B *C 1.7500 0.5300 
*N *23:3 *C 1.0000 0.0000 
*N *23:4 *C 1.0000 0.0000 
*N *23:5 *C 0.4300 0.0000 


*RES
0 *23:5 *23 0.164438  // $metal1_conn
1 *23:3 *23:4 6.2  // $metal1_conn
2 *23:5 *13:s 75.230392  // $metal1_conn
3 *19:s *23:4 0.159692  // $metal1_conn
4 *23:4 *23:5 0.284604  // $metal1_conn

*END

*D_NET *8 2.13397e-16

*CONN
*P *8 I *C 0.3000 0.8550 
*I *13:g B *C 0.3275 0.3675 
*I *2:g B *C 0.3375 1.2875 
*N *8:2 *C 0.3100 0.7350 

*CAP
0 *2:g 4.65443e-17
1 *13:g 3.32891e-17
2 *8:2 7.72257e-17
3 *8 5.63381e-17

*RES
0 *2:g *8:2 103.296112  // $poly_conn
1 *8:2 *13:g 64.834572  // $poly_conn
2 *8 *8:2 45.073647  // $metal1_conn

*END

*D_NET *10 2.76662e-16

*CONN
*P *10 I *C 0.5000 1.0450 
*I *15:g B *C 0.5325 0.3675 
*I *4:g B *C 0.5325 1.2875 
*N *10:2 *C 0.5050 1.0400 
*N *10:4 *C 0.5050 1.0400 

*CAP
0 *4:g 3.8211e-17
1 *15:g 6.48295e-17
2 *10:2 6.58083e-17
3 *10 1.07813e-16

*RES
0 *4:g *10:2 27.384262  // $poly_conn
1 *10:2 *15:g 145.332977  // $poly_conn
2 *10:4 *10 0.003093  // $metal1_conn
3 *10:2 *10:4 45  // $metal1_conn

*END

*D_NET *20 2.27201e-16

*CONN
*P *20 I *C 1.3000 1.0450 
*I *17:g B *C 1.0575 0.3675 
*I *6:g B *C 1.0025 1.2875 
*N *20:2 *C 1.0300 1.0400 

*CAP
0 *6:g 2.96131e-17
1 *17:g 4.70707e-17
2 *20:2 1.02192e-16
3 *20 4.83257e-17

*RES
0 *17:g *20:2 145.332977  // $poly_conn
1 *20:2 *6:g 27.38426  // $poly_conn
2 *20 *20:2 45.150402  // $metal1_conn

*END

*D_NET *21 2.61093e-16

*CONN
*P *21 I *C 0.7000 1.0450 
*I *16:g B *C 0.7375 0.3675 
*I *5:g B *C 0.7375 1.2875 
*N *21:2 *C 0.7100 0.7350 

*CAP
0 *5:g 4.96885e-17
1 *16:g 3.98833e-17
2 *21:2 1.05886e-16
3 *21 6.56355e-17

*RES
0 *5:g *21:2 105.589386  // $poly_conn
1 *21:2 *16:g 67.127846  // $poly_conn
2 *21 *21:2 45.185081  // $metal1_conn

*END

*D_NET *22 1.18903e-16

*CONN
*P *22 O *C 1.5000 0.6650 
*I *18:d B *C 1.5550 0.5300 
*I *19:d B *C 1.5550 0.5300 
*I *7:d B *C 1.4700 1.2000 
*I *9:d B *C 1.4700 1.2000 

*CAP
0 *7:d 7.66354e-17
1 *18:d 1.41732e-17
2 *22 2.80947e-17

*RES
0 *7:d *22 21.050638  // $metal1_conn
1 *22 *18:d 75.031883  // $metal1_conn

*END

*D_NET *3 7.70671e-18

*CONN
*I *5:s B *C 0.8700 1.2875 
*I *6:d B *C 0.8700 1.2875 

*CAP
0 *5:s 7.70671e-18

*RES
0 *6:d *5:s 0.001  // $mwires

*END

*D_NET *1 0

*CONN
*I *2:d B *C 0.4350 1.2875 
*I *4:s B *C 0.4350 1.2875 


*RES
0 *4:s *2:d 0.001  // $mwires

*END

*D_NET *14 2.58463e-16

*CONN
*I *13:d B *C 0.2350 0.3675 
*I *15:d B *C 0.6350 0.3675 
*I *16:s B *C 0.6350 0.3675 
*I *17:s B *C 1.1500 0.3675 
*N *14:3 *C 0.6350 0.3550 

*CAP
0 *17:s 7.45032e-17
1 *15:d 1.24914e-16
2 *13:d 5.9046e-17

*RES
0 *17:s *14:3 75.60984  // $metal1_conn
1 *14:3 *13:d 75.501633  // $metal1_conn
2 *15:d *14:3 75  // $metal1_conn

*END

*D_NET *12 4.06206e-16

*CONN
*I *16:d B *C 0.8975 0.3675 
*I *17:d B *C 0.8975 0.3675 
*I *18:g B *C 1.4525 0.5300 
*I *19:g B *C 1.6575 0.5300 
*I *4:d B *C 0.6350 1.2875 
*I *5:d B *C 0.6350 1.2875 
*I *7:g B *C 1.3675 1.2000 
*I *9:g B *C 1.5725 1.2000 
*N *12:4 *C 1.2800 0.8500 
*N *12:8 *C 0.8700 0.8500 

*CAP
0 *9:g 7.31414e-17
1 *4:d 6.49024e-17
2 *18:g 5.60588e-17
3 *16:d 4.2171e-17
4 *12:8 1.06971e-16
5 *12:4 6.29616e-17

*RES
0 *18:g *9:g 38.059086  // $poly_conn
1 *9:g *12:4 51.70977  // $poly_conn
2 *12:4 *12:8 0.278512  // $metal1_conn
3 *12:8 *16:d 75.347939  // $metal1_conn
4 *12:8 *4:d 62.505585  // $metal1_conn

*END

