*SPEF "IEEE 1481-1999"
*DESIGN  "OAI221XL"
*DATE "Mon Sep 27 10:39:04 2010"
*VENDOR "Cadence Design Systems"
*PROGRAM "Assura RCX"
*VERSION "3.2 Red Hat Linux release 7.2 (Enigma) - (09/09/2009-10:39)"
*DESIGN_FLOW "Physical Verification"
*DIVIDER /
*DELIMITER :
*BUS_DELIMITER []
*T_UNIT 1 PS
*C_UNIT 1e15 FF
*R_UNIT 1 OHM
*L_UNIT 1 MH
// DeviceFingerDelim "@"
// MATCHED
// caps2d version: 10

*NAME_MAP
*1 mp2
*2 mp4
*3 mn0
*4 Y
*5 mn1
*6 mn3
*7 mn2
*8 mn4
*9 net128
*10 VDD
*11 net115
*12 net132
*13 net123
*14 B0
*15 B1
*16 VSS
*17 A0
*18 A1
*19 mp0
*20 mp1
*21 C0
*22 mp3

*GROUND_NETS VSS

*PORTS
*10 I
*16 I
*17 I
*18 I
*14 I
*15 I
*21 I
*4 O

*D_NET *10 2.34762e-16

*CONN
*P *10 I *C 0.1000 1.7100 
*I *19:s B *C 0.2450 1.2875 
*I *1:s B *C 1.3750 1.2875 
*I *2:s B *C 1.3750 1.2875 
*N *10:2 *C 0.9000 1.7100 
*N *10:3 *C 0.9000 1.7100 
*N *10:4 *C 0.2350 1.7100 

*CAP
0 *1:s 4.62114e-17
1 *19:s 1.62746e-17
2 *10:4 1.19226e-17
3 *10:2 1.60354e-16

*RES
0 *1:s *10:3 62.494915  // $metal1_conn
1 *10:3 *10:4 0.332347  // $metal1_conn
2 *10:4 *10 0.067063  // $metal1_conn
3 *10:4 *19:s 62.22916  // $metal1_conn
4 *10:2 *10:3 8.333333  // $metal1_conn

*END

*D_NET *16 0

*CONN
*P *16 I *C 0.1000 0.0000 
*I *3:s B *C 0.2350 0.5575 
*I *5:s B *C 0.6450 0.1400 
*N *16:1 *C 0.9000 0.0000 
*N *16:2 *C 0.6200 0.0000 
*N *16:3 *C 0.2200 0.0000 


*RES
0 *16:1 *16:2 7.028711  // $metal1_conn
1 *16:2 *16:3 0.199634  // $metal1_conn
2 *16:3 *16 0.059562  // $metal1_conn
3 *16:2 *5:s 75.073891  // $metal1_conn
4 *16:3 *3:s 75.073891  // $metal1_conn

*END

*D_NET *17 1.93697e-16

*CONN
*P *17 I *C 0.3000 1.0450 
*I *3:g B *C 0.2825 0.5575 
*I *19:g B *C 0.3375 1.2875 
*N *17:2 *C 0.3100 0.7400 

*CAP
0 *19:g 4.97424e-17
1 *3:g 2.55112e-17
2 *17:2 7.38144e-17
3 *17 4.46292e-17

*RES
0 *19:g *17:2 104.307335  // $poly_conn
1 *17:2 *3:g 19.691952  // $poly_conn
2 *17 *17:2 45.182213  // $metal1_conn

*END

*D_NET *18 2.13018e-16

*CONN
*P *18 I *C 0.5000 1.2350 
*I *5:g B *C 0.4875 0.5575 
*I *20:g B *C 0.4875 1.2875 
*N *18:2 *C 0.5150 0.8650 

*CAP
0 *20:g 4.43109e-17
1 *5:g 3.81647e-17
2 *18:2 8.84529e-17
3 *18 4.20894e-17

*RES
0 *20:g *18:2 72.256058  // $poly_conn
1 *18:2 *5:g 51.743237  // $poly_conn
2 *18 *18:2 45.219475  // $metal1_conn

*END

*D_NET *14 2.54133e-16

*CONN
*P *14 I *C 1.3000 0.6650 
*I *7:g B *C 1.3175 0.3725 
*I *1:g B *C 1.2625 1.2875 
*N *14:2 *C 1.2900 0.9550 

*CAP
0 *1:g 4.20757e-17
1 *7:g 5.08344e-17
2 *14:2 1.04629e-16
3 *14 5.6594e-17

*RES
0 *7:g *14:2 122.256058  // $poly_conn
1 *14:2 *1:g 49.179131  // $poly_conn
2 *14 *14:2 45.173252  // $metal1_conn

*END

*D_NET *15 2.13201e-16

*CONN
*P *15 I *C 0.9000 0.8550 
*I *6:g B *C 1.0575 0.3725 
*I *22:g B *C 1.0575 1.2875 
*N *15:2 *C 1.0300 0.8450 

*CAP
0 *22:g 3.9525e-17
1 *6:g 4.20166e-17
2 *15:2 7.88655e-17
3 *15 5.27944e-17

*RES
0 *22:g *15:2 77.384254  // $poly_conn
1 *15:2 *6:g 94.050926  // $poly_conn
2 *15:2 *15 45.077366  // $metal1_conn

*END

*D_NET *21 2.56666e-16

*CONN
*P *21 I *C 1.5000 0.6650 
*I *8:g B *C 1.5725 0.3725 
*I *2:g B *C 1.4875 1.2875 
*N *21:2 *C 1.5150 0.5800 
*N *21:4 *C 1.5075 0.5800 

*CAP
0 *2:g 5.35826e-17
1 *8:g 2.53577e-17
2 *21:2 8.2456e-17
3 *21 9.52693e-17

*RES
0 *8:g *21:2 29.659531  // $poly_conn
1 *21:2 *2:g 142.171066  // $poly_conn
2 *21:4 *21 0.050239  // $metal1_conn
3 *21:2 *21:4 45  // $metal1_conn

*END

*D_NET *4 2.6999e-16

*CONN
*P *4 O *C 1.7000 1.2350 
*I *8:d B *C 1.6650 0.3725 
*I *20:d B *C 0.7725 1.2875 
*I *22:d B *C 0.7725 1.2875 
*I *2:d B *C 1.5800 1.2875 
*N *4:2 *C 1.6500 1.1450 

*CAP
0 *2:d 2.52204e-17
1 *20:d 5.96929e-17
2 *8:d 6.84761e-17
3 *4:2 1.16601e-16

*RES
0 *8:d *4:2 75.541405  // $metal1_conn
1 *4:2 *20:d 62.502056  // $metal1_conn
2 *4:2 *4 0.03942  // $metal1_conn
3 *4 *2:d 62.00169  // $metal1_conn

*END

*D_NET *13 3.94002e-19

*CONN
*I *22:s B *C 1.1600 1.2875 
*I *1:d B *C 1.1600 1.2875 

*CAP
0 *22:s 3.94002e-19

*RES
0 *1:d *22:s 0.001  // $mwires

*END

*D_NET *11 5.72343e-18

*CONN
*I *19:d B *C 0.4125 1.2875 
*I *20:s B *C 0.4125 1.2875 

*CAP
0 *19:d 5.72343e-18

*RES
0 *20:s *19:d 0.001  // $mwires

*END

*D_NET *9 1.61447e-16

*CONN
*I *3:d B *C 0.3850 0.5575 
*I *5:d B *C 0.3850 0.5575 
*I *6:s B *C 1.1875 0.3725 
*I *7:s B *C 1.1875 0.3725 

*CAP
0 *6:s 1.01553e-16
1 *3:d 5.98935e-17

*RES
0 *3:d *6:s 150.600403  // $metal1_conn

*END

*D_NET *12 1.7588e-16

*CONN
*I *6:d B *C 0.9575 0.3725 
*I *7:d B *C 1.4450 0.3725 
*I *8:s B *C 1.4450 0.3725 

*CAP
0 *7:d 8.23486e-17
1 *6:d 9.3531e-17

*RES
0 *7:d *6:d 150.4496  // $metal1_conn

*END

