*SPEF "IEEE 1481-1999"
*DESIGN  "OAI22X2"
*DATE "Mon Sep 27 10:41:19 2010"
*VENDOR "Cadence Design Systems"
*PROGRAM "Assura RCX"
*VERSION "3.2 Red Hat Linux release 7.2 (Enigma) - (09/09/2009-10:39)"
*DESIGN_FLOW "Physical Verification"
*DIVIDER /
*DELIMITER :
*BUS_DELIMITER []
*T_UNIT 1 PS
*C_UNIT 1e15 FF
*R_UNIT 1 OHM
*L_UNIT 1 MH
// DeviceFingerDelim "@"
// MATCHED
// caps2d version: 10

*NAME_MAP
*1 mp1
*2 mn2\@1
*3 mp1\@1
*4 mp0\@1
*5 VDD
*6 mp2
*7 net93\@1
*8 mp3
*9 net85
*10 mp3\@1
*11 net85\@1
*12 A0
*13 mp2\@1
*14 A1
*15 Y
*16 net102
*17 net93
*18 B0
*19 B1
*20 VSS
*21 mn0
*22 mn1
*23 mn1\@1
*24 mn0\@1
*25 mn2
*26 mn3
*27 mp0
*28 mn3\@1

*GROUND_NETS VSS

*PORTS
*5 I
*20 I
*12 I
*14 I
*18 I
*19 I
*15 O

*D_NET *5 2.32763e-16

*CONN
*P *5 I *C 0.1000 1.7100 
*I *27:s B *C 0.3700 1.1600 
*I *4:s B *C 0.9800 1.1600 
*I *6:s B *C 0.9800 1.1600 
*I *13:s B *C 1.7975 1.1600 
*N *5:2 *C 1.0000 1.7100 
*N *5:3 *C 1.0000 1.7100 
*N *5:4 *C 0.3600 1.7100 

*CAP
0 *13:s 5.2663e-17
1 *4:s 3.73233e-17
2 *27:s 2.74797e-17
3 *5:4 1.19633e-17
4 *5:2 1.02911e-16
5 *5 4.21923e-19

*RES
0 *13:s *5:3 21.476902  // $metal1_conn
1 *5:3 *5:4 0.320592  // $metal1_conn
2 *5:4 *5 0.129874  // $metal1_conn
3 *5:3 *4:s 62.270554  // $metal1_conn
4 *5:4 *27:s 62.257038  // $metal1_conn
5 *5:2 *5:3 7.5  // $metal1_conn

*END

*D_NET *20 0

*CONN
*P *20 I *C 0.1000 0.0000 
*I *21:s B *C 0.3325 0.4050 
*I *22:s B *C 0.3325 0.4050 
*I *23:s B *C 0.7575 0.4050 
*I *24:s B *C 0.7575 0.4050 
*N *20:1 *C 1.0000 0.0000 


*RES
0 *23:s *20 0.097294  // $metal1_conn
1 *20:1 *23:s 6.332631  // $metal1_conn

*END

*D_NET *12 5.03682e-16

*CONN
*P *12 I *C 0.7000 0.6650 
*I *21:g B *C 0.2225 0.4050 
*I *24:g B *C 0.8675 0.4050 
*I *27:g B *C 0.4625 1.1600 
*I *4:g B *C 0.8775 1.1600 

*CAP
0 *4:g 9.05136e-17
1 *27:g 8.75964e-17
2 *12 3.25572e-16

*RES
0 *4:g *12 69.884544  // $poly_conn
1 *27:g *12 101.469299  // $poly_conn

*END

*D_NET *14 3.7141e-16

*CONN
*P *14 I *C 0.3000 1.0450 
*I *22:g B *C 0.4425 0.4050 
*I *23:g B *C 0.6475 0.4050 
*I *1:g B *C 0.5675 1.1600 
*I *3:g B *C 0.7725 1.1600 
*N *14:2 *C 0.5950 0.8350 

*CAP
0 *3:g 7.63134e-17
1 *1:g 5.73511e-17
2 *23:g 1.27231e-16
3 *14:2 5.27603e-17
4 *14 5.77542e-17

*RES
0 *3:g *14:2 55.112999  // $poly_conn
1 *14:2 *1:g 22.283424  // $poly_conn
2 *14:2 *23:g 2.294373  // $poly_conn
3 *14:2 *14 45.282028  // $metal1_conn

*END

*D_NET *18 4.61935e-16

*CONN
*P *18 I *C 1.3000 0.8550 
*I *25:g B *C 1.0825 0.4050 
*I *2:g B *C 1.6975 0.4050 
*I *6:g B *C 1.0825 1.1600 
*I *13:g B *C 1.6425 1.1600 

*CAP
0 *13:g 7.81113e-17
1 *6:g 4.4007e-17
2 *18 3.39817e-16

*RES
0 *18 *13:g 63.281693  // $poly_conn
1 *18 *6:g 31.791147  // $poly_conn

*END

*D_NET *19 3.30723e-16

*CONN
*P *19 I *C 1.7000 1.0450 
*I *26:g B *C 1.2875 0.4050 
*I *28:g B *C 1.4925 0.4050 
*I *8:g B *C 1.3325 1.1600 
*I *10:g B *C 1.5375 1.1600 
*N *19:2 *C 1.5000 0.8650 

*CAP
0 *10:g 5.5909e-17
1 *8:g 3.6926e-17
2 *28:g 8.79381e-17
3 *19:2 7.89624e-17
4 *19 7.09871e-17

*RES
0 *10:g *19:2 14.651913  // $poly_conn
1 *19:2 *8:g 51.41053  // $poly_conn
2 *19:2 *28:g 44.077656  // $poly_conn
3 *19 *19:2 45.207161  // $metal1_conn

*END

*D_NET *15 3.94806e-16

*CONN
*P *15 O *C 0.9000 1.0450 
*I *25:d B *C 1.1850 0.4050 
*I *26:d B *C 1.1850 0.4050 
*I *28:d B *C 1.5950 0.4050 
*I *2:d B *C 1.5950 0.4050 
*I *1:d B *C 0.6700 1.1600 
*I *3:d B *C 0.6700 1.1600 
*I *8:d B *C 1.4350 1.1600 
*I *10:d B *C 1.4350 1.1600 
*N *15:2 *C 0.9650 1.0450 

*CAP
0 *8:d 6.24615e-17
1 *1:d 4.78707e-17
2 *28:d 2.01702e-16
3 *15:2 6.35267e-17
4 *15 1.92449e-17

*RES
0 *15 *1:d 31.244425  // $metal1_conn
1 *15:2 *15 0.043665  // $metal1_conn
2 *8:d *15:2 31.428225  // $metal1_conn
3 *15:2 *28:d 0.483365  // $metal1_conn

*END

*D_NET *11 0

*CONN
*I *10:s B *C 1.5900 1.1600 
*I *13:d B *C 1.5900 1.1600 


*RES
0 *13:d *10:s 0.001  // $mwires

*END

*D_NET *9 6.23431e-18

*CONN
*I *6:d B *C 1.2075 1.1600 
*I *8:s B *C 1.2075 1.1600 

*CAP
0 *6:d 6.23431e-18

*RES
0 *8:s *6:d 0.001  // $mwires

*END

*D_NET *7 2.05387e-18

*CONN
*I *3:s B *C 0.8250 1.1600 
*I *4:d B *C 0.8250 1.1600 

*CAP
0 *3:s 2.05387e-18

*RES
0 *4:d *3:s 0.001  // $mwires

*END

*D_NET *17 0

*CONN
*I *27:d B *C 0.5150 1.1600 
*I *1:s B *C 0.5150 1.1600 


*RES
0 *1:s *27:d 0.001  // $mwires

*END

*D_NET *16 3.34651e-16

*CONN
*I *21:d B *C 0.1225 0.4050 
*I *22:d B *C 0.5450 0.4050 
*I *23:d B *C 0.5450 0.4050 
*I *24:d B *C 0.9750 0.4050 
*I *25:s B *C 0.9750 0.4050 
*I *26:s B *C 1.3900 0.4050 
*I *28:s B *C 1.3900 0.4050 
*I *2:s B *C 1.7900 0.4050 

*CAP
0 *2:s 1.52962e-16
1 *26:s 7.71623e-17
2 *22:d 1.04527e-16

*RES
0 *26:s *2:s 75  // $metal1_conn
1 *22:d *2:s 75  // $metal1_conn

*END

