*SPEF "IEEE 1481-1999"
*DESIGN  "OAI222X1"
*DATE "Mon Sep 27 10:39:27 2010"
*VENDOR "Cadence Design Systems"
*PROGRAM "Assura RCX"
*VERSION "3.2 Red Hat Linux release 7.2 (Enigma) - (09/09/2009-10:39)"
*DESIGN_FLOW "Physical Verification"
*DIVIDER /
*DELIMITER :
*BUS_DELIMITER []
*T_UNIT 1 PS
*C_UNIT 1e15 FF
*R_UNIT 1 OHM
*L_UNIT 1 MH
// DeviceFingerDelim "@"
// MATCHED
// caps2d version: 10

*NAME_MAP
*1 mp0
*2 mp1
*3 mp3
*4 mn0
*5 n1
*6 C0
*7 mp2
*8 mn1
*9 n0
*10 C1
*11 VSS
*12 mp4
*13 mn3
*14 n2
*15 mp5
*16 mn2
*17 n3
*18 A0
*19 mn4
*20 n4
*21 A1
*22 mn5
*23 Y
*24 B0
*25 B1
*26 VDD

*GROUND_NETS VSS

*PORTS
*26 I
*11 I
*18 I
*21 I
*24 I
*25 I
*6 I
*10 I
*23 O

*D_NET *26 2.36641e-16

*CONN
*P *26 I *C 0.1000 1.7100 
*I *1:s B *C 0.1850 1.2750 
*I *7:s B *C 1.0600 1.2750 
*I *12:s B *C 1.0600 1.2750 
*N *26:2 *C 0.8000 1.7100 
*N *26:3 *C 0.8000 1.7100 
*N *26:4 *C 0.1750 1.7100 

*CAP
0 *7:s 5.35139e-17
1 *1:s 3.02741e-17
2 *26:4 1.14454e-17
3 *26:2 1.41407e-16

*RES
0 *7:s *26:3 31.386183  // $metal1_conn
1 *26:3 *26:4 0.313231  // $metal1_conn
2 *26:4 *26 0.037158  // $metal1_conn
3 *26:4 *1:s 31.241451  // $metal1_conn
4 *26:2 *26:3 9.375  // $metal1_conn

*END

*D_NET *11 0

*CONN
*P *11 I *C 0.1000 0.0000 
*I *4:s B *C 0.1300 0.5300 
*I *8:s B *C 0.4825 0.3700 
*N *11:1 *C 0.8000 0.0000 
*N *11:2 *C 0.4500 0.0000 


*RES
0 *11:1 *11:2 7.924373  // $metal1_conn
1 *11:2 *11 0.174885  // $metal1_conn
2 *11 *4:s 75.076057  // $metal1_conn
3 *11:2 *8:s 75.06086  // $metal1_conn

*END

*D_NET *18 2.08745e-16

*CONN
*P *18 I *C 0.2600 1.0450 
*I *4:g B *C 0.1775 0.5300 
*I *1:g B *C 0.2775 1.2750 
*N *18:2 *C 0.2500 0.9700 
*N *18:4 *C 0.2500 0.9700 
*N *18:5 *C 0.2550 0.9700 
*N *18:6 *C 0.2550 1.0450 

*CAP
0 *1:g 6.10719e-17
1 *4:g 4.09257e-17
2 *18:5 4.68814e-17
3 *18:2 4.27035e-17
4 *18 1.71631e-17

*RES
0 *1:g *18:2 17.398676  // $poly_conn
1 *18:2 *4:g 73.863853  // $poly_conn
2 *18:4 *18:5 0.001014  // $metal1_conn
3 *18:6 *18 0.001116  // $metal1_conn
4 *18:5 *18:6 0.046687  // $metal1_conn
5 *18:2 *18:4 45  // $metal1_conn

*END

*D_NET *21 2.67821e-16

*CONN
*P *21 I *C 0.4600 1.2050 
*I *8:g B *C 0.3825 0.5300 
*I *2:g B *C 0.3825 1.2750 
*N *21:2 *C 0.4300 0.8300 

*CAP
0 *2:g 7.26636e-17
1 *8:g 4.45823e-17
2 *21:2 9.8387e-17
3 *21 5.21885e-17

*RES
0 *2:g *21:2 53.296108  // $poly_conn
1 *21:2 *8:g 32.783291  // $poly_conn
2 *21 *21:2 45.223259  // $metal1_conn

*END

*D_NET *24 2.51615e-16

*CONN
*P *24 I *C 0.9750 0.7700 
*I *16:g B *C 0.9575 0.3600 
*I *7:g B *C 0.9575 1.2750 
*N *24:2 *C 0.9850 0.8500 
*N *24:5 *C 0.9800 0.8500 

*CAP
0 *7:g 5.34282e-17
1 *16:g 5.76095e-17
2 *24:5 5.43457e-17
3 *24:2 4.90441e-17
4 *24 3.7188e-17

*RES
0 *7:g *24:2 50.461182  // $poly_conn
1 *24:2 *16:g 83.79451  // $poly_conn
2 *24 *24:5 0.049799  // $metal1_conn
3 *24:2 *24:5 45  // $metal1_conn

*END

*D_NET *25 2.05262e-16

*CONN
*P *25 I *C 0.7150 0.9050 
*I *13:g B *C 0.7525 0.3600 
*I *3:g B *C 0.7525 1.2750 
*N *25:2 *C 0.7250 0.8500 
*N *25:4 *C 0.7200 0.8500 

*CAP
0 *3:g 4.4081e-17
1 *13:g 4.97236e-17
2 *25:4 3.84275e-17
3 *25:2 4.15197e-17
4 *25 3.15103e-17

*RES
0 *3:g *25:2 50.461182  // $poly_conn
1 *25:2 *13:g 83.79451  // $poly_conn
2 *25:4 *25 0.034237  // $metal1_conn
3 *25:2 *25:4 45  // $metal1_conn

*END

*D_NET *6 3.16604e-16

*CONN
*P *6 I *C 1.1450 0.6300 
*I *19:g B *C 1.1625 0.3600 
*I *12:g B *C 1.1625 1.2750 
*N *6:2 *C 1.1350 0.6500 
*N *6:5 *C 1.1350 0.6500 

*CAP
0 *12:g 1.04209e-16
1 *19:g 4.18958e-17
2 *6:5 1.00442e-16
3 *6:2 5.80868e-17
4 *6 1.19699e-17

*RES
0 *12:g *6:2 101.743233  // $poly_conn
1 *6:2 *19:g 32.512463  // $poly_conn
2 *6 *6:5 0.01245  // $metal1_conn
3 *6:2 *6:5 45  // $metal1_conn

*END

*D_NET *10 2.88344e-16

*CONN
*P *10 I *C 1.3450 0.8550 
*I *22:g B *C 1.3675 0.3600 
*I *15:g B *C 1.2675 1.2750 
*N *10:2 *C 1.3350 0.8500 
*N *10:4 *C 1.3350 0.8500 

*CAP
0 *15:g 7.52679e-17
1 *22:g 4.12733e-17
2 *10:2 1.71802e-16

*RES
0 *22:g *10:2 81.501236  // $poly_conn
1 *10:2 *15:g 52.925598  // $poly_conn
2 *10:4 *10 0.003446  // $metal1_conn
3 *10:2 *10:4 45  // $metal1_conn

*END

*D_NET *23 3.72604e-16

*CONN
*P *23 O *C 1.4650 0.4900 
*I *19:d B *C 1.2650 0.3600 
*I *22:d B *C 1.2650 0.3600 
*I *2:d B *C 0.5675 1.2750 
*I *3:d B *C 0.5675 1.2750 
*I *15:d B *C 1.3600 1.2750 
*N *23:2 *C 1.3700 1.1400 

*CAP
0 *15:d 2.56076e-17
1 *2:d 9.31807e-17
2 *19:d 3.83785e-17
3 *23:2 1.35107e-16
4 *23 8.03299e-17

*RES
0 *15:d *23:2 31.114113  // $metal1_conn
1 *23:2 *2:d 31.648323  // $metal1_conn
2 *23:2 *23 0.580262  // $metal1_conn
3 *23 *19:d 75.147682  // $metal1_conn

*END

*D_NET *20 2.99166e-18

*CONN
*I *12:d B *C 1.2150 1.2750 
*I *15:s B *C 1.2150 1.2750 

*CAP
0 *12:d 2.99166e-18

*RES
0 *15:s *12:d 0.001  // $mwires

*END

*D_NET *17 6.74276e-18

*CONN
*I *3:s B *C 0.8550 1.2750 
*I *7:d B *C 0.8550 1.2750 

*CAP
0 *3:s 6.74276e-18

*RES
0 *7:d *3:s 0.001  // $mwires

*END

*D_NET *14 0

*CONN
*I *1:d B *C 0.3300 1.2750 
*I *2:s B *C 0.3300 1.2750 


*RES
0 *2:s *1:d 0.001  // $mwires

*END

*D_NET *9 1.86711e-16

*CONN
*I *13:d B *C 0.6600 0.3600 
*I *16:d B *C 1.0600 0.3600 
*I *19:s B *C 1.0600 0.3600 
*I *22:s B *C 1.4600 0.3600 
*N *9:3 *C 1.0600 0.2900 

*CAP
0 *22:s 6.38467e-17
1 *16:d 6.93776e-17
2 *13:d 5.34873e-17

*RES
0 *22:s *9:3 75.297417  // $metal1_conn
1 *9:3 *13:d 75.293068  // $metal1_conn
2 *16:d *9:3 75  // $metal1_conn

*END

*D_NET *5 1.2355e-16

*CONN
*I *4:d B *C 0.2800 0.5300 
*I *8:d B *C 0.2800 0.5300 
*I *13:s B *C 0.8550 0.3600 
*I *16:s B *C 0.8550 0.3600 

*CAP
0 *13:s 7.5023e-17
1 *4:d 4.85266e-17

*RES
0 *13:s *4:d 150.472427  // $metal1_conn

*END

