*SPEF "IEEE 1481-1999"
*DESIGN  "OAI2BB2X2"
*DATE "Mon Sep 27 10:44:19 2010"
*VENDOR "Cadence Design Systems"
*PROGRAM "Assura RCX"
*VERSION "3.2 Red Hat Linux release 7.2 (Enigma) - (09/09/2009-10:39)"
*DESIGN_FLOW "Physical Verification"
*DIVIDER /
*DELIMITER :
*BUS_DELIMITER []
*T_UNIT 1 PS
*C_UNIT 1e15 FF
*R_UNIT 1 OHM
*L_UNIT 1 MH
// DeviceFingerDelim "@"
// MATCHED
// caps2d version: 10

*NAME_MAP
*1 VDD
*2 mn1
*3 mn0
*4 B0
*5 mn2
*6 B1
*7 mn3
*8 mn3\@1
*9 VSS
*10 mp4\@1
*11 mn2\@1
*12 mn4
*13 mn5
*14 mn5\@1
*15 A0N
*16 n4
*17 n2
*18 n2\@1
*19 n3
*20 n3\@1
*21 A1N
*22 Y
*23 n0
*24 mp1
*25 n1
*26 mp0
*27 mp2
*28 mp3
*29 mp3\@1
*30 mp2\@1
*31 mp4
*32 mp5
*33 mp5\@1
*34 mn4\@1

*GROUND_NETS VSS

*PORTS
*1 I
*9 I
*15 I
*21 I
*4 I
*6 I
*22 O

*D_NET *1 3.47572e-16

*CONN
*P *1 I *C 0.1000 1.7100 
*I *24:s B *C 0.5225 1.0075 
*I *26:s B *C 0.5225 1.0075 
*I *27:s B *C 1.3150 1.2600 
*I *30:s B *C 2.1150 1.2600 
*I *31:s B *C 2.1150 1.2600 
*I *10:s B *C 2.8000 1.2600 
*N *1:2 *C 2.4000 1.7100 
*N *1:3 *C 2.4000 1.7100 
*N *1:4 *C 2.0650 1.7100 
*N *1:5 *C 1.3050 1.7100 
*N *1:6 *C 0.8000 1.7100 
*N *1:7 *C 0.4150 1.7100 

*CAP
0 *10:s 2.43298e-17
1 *30:s 3.72859e-17
2 *27:s 3.14626e-17
3 *24:s 3.52587e-17
4 *1:7 4.89064e-18
5 *1:5 1.93201e-17
6 *1:4 1.76804e-17
7 *1:2 1.70558e-16
8 *1 6.78497e-18

*RES
0 *10:s *1:3 62.425335  // $metal1_conn
1 *1:3 *1:4 0.167689  // $metal1_conn
2 *1:4 *1:5 0.380481  // $metal1_conn
3 *1:5 *1:6 0.252884  // $metal1_conn
4 *1:6 *1:7 0.192746  // $metal1_conn
5 *1:7 *1 0.157415  // $metal1_conn
6 *1:4 *30:s 62.186665  // $metal1_conn
7 *1:5 *27:s 20.946564  // $metal1_conn
8 *1:7 *24:s 62.420345  // $metal1_conn
9 *1:2 *1:3 9.375  // $metal1_conn
10 *1:2 *1:6 9.375  // $metal1_conn

*END

*D_NET *9 0

*CONN
*P *9 I *C 0.1000 0.0000 
*I *2:s B *C 0.7050 0.4425 
*I *3:s B *C 0.7050 0.4425 
*I *5:s B *C 1.4575 0.3600 
*I *7:s B *C 1.4575 0.3600 
*I *8:s B *C 1.8825 0.3600 
*I *11:s B *C 1.8825 0.3600 
*N *9:1 *C 2.4000 0.0000 
*N *9:4 *C 0.8000 0.0000 
*N *9:5 *C 0.5050 0.0000 


*RES
0 *9:5 *9 0.202518  // $metal1_conn
1 *9:1 *8:s 8.020424  // $metal1_conn
2 *9:1 *9:4 7.75  // $metal1_conn
3 *9:5 *2:s 75.188843  // $metal1_conn
4 *8:s *9:4 0.310516  // $metal1_conn
5 *9:4 *9:5 0.147643  // $metal1_conn

*END

*D_NET *15 1.7835e-16

*CONN
*P *15 I *C 0.5000 0.8550 
*I *3:g B *C 0.7525 0.4425 
*I *26:g B *C 0.7325 1.0075 
*N *15:2 *C 0.7425 0.6850 
*N *15:3 *C 0.6950 0.6850 

*CAP
0 *26:g 1.8757e-17
1 *3:g 2.14231e-17
2 *15:3 8.56002e-17
3 *15 5.25697e-17

*RES
0 *3:g *15:2 44.684143  // $poly_conn
1 *15:2 *15:3 47.215244  // $poly_conn
2 *15:2 *26:g 56.222603  // $poly_conn
3 *15:3 *15 0.19775  // $metal1_conn

*END

*D_NET *21 2.01615e-16

*CONN
*P *21 I *C 0.3000 0.6650 
*I *2:g B *C 0.2575 0.4425 
*I *24:g B *C 0.3125 1.0075 
*N *21:2 *C 0.2850 0.6850 

*CAP
0 *24:g 2.53936e-17
1 *2:g 1.7592e-17
2 *21:2 2.86173e-17
3 *21 1.30012e-16

*RES
0 *24:g *21:2 46.615028  // $poly_conn
1 *21:2 *2:g 35.076569  // $poly_conn
2 *21 *21:2 45.003647  // $metal1_conn

*END

*D_NET *4 5.15688e-16

*CONN
*P *4 I *C 2.3000 0.8550 
*I *12:g B *C 2.2375 0.3600 
*I *34:g B *C 2.9975 0.3600 
*I *31:g B *C 2.2375 1.2600 
*I *10:g B *C 2.7075 1.2600 

*CAP
0 *10:g 7.99529e-17
1 *31:g 5.49508e-17
2 *34:g 3.63452e-16
3 *4 1.73331e-17

*RES
0 *34:g *10:g 76.907867  // $poly_conn
1 *31:g *34:g 50.461182  // $poly_conn
2 *34:g *4 0.018948  // $metal1_conn

*END

*D_NET *6 3.5362e-16

*CONN
*P *6 I *C 2.7000 0.8550 
*I *13:g B *C 2.4425 0.3600 
*I *14:g B *C 2.6475 0.3600 
*I *32:g B *C 2.3975 1.2600 
*I *33:g B *C 2.6025 1.2600 
*N *6:3 *C 2.5750 0.9125 

*CAP
0 *33:g 6.32771e-17
1 *32:g 4.50935e-17
2 *14:g 9.66605e-17
3 *6:3 6.66665e-17
4 *6 8.19229e-17

*RES
0 *6:3 *33:g 39.45293  // $poly_conn
1 *6:3 *32:g 68.887115  // $poly_conn
2 *14:g *6:3 4.400733  // $poly_conn
3 *14:g *6 45.066589  // $metal1_conn

*END

*D_NET *22 4.37825e-16

*CONN
*P *22 O *C 1.5000 1.0450 
*I *12:d B *C 2.3400 0.3600 
*I *13:d B *C 2.3400 0.3600 
*I *14:d B *C 2.8225 0.3600 
*I *34:d B *C 2.8225 0.3600 
*I *28:d B *C 1.6700 1.2600 
*I *29:d B *C 1.6700 1.2600 
*I *32:d B *C 2.5000 1.2600 
*I *33:d B *C 2.5000 1.2600 
*N *22:2 *C 1.6700 1.0550 
*N *22:3 *C 2.1050 1.0550 

*CAP
0 *32:d 6.0475e-17
1 *28:d 3.62681e-17
2 *14:d 1.83903e-16
3 *22:3 1.0039e-16
4 *22:2 2.83484e-17
5 *22 2.84413e-17

*RES
0 *22:2 *22 0.115549  // $metal1_conn
1 *22:3 *32:d 62.403603  // $metal1_conn
2 *28:d *22:2 20.790087  // $metal1_conn
3 *22:2 *22:3 0.284223  // $metal1_conn
4 *22:3 *14:d 0.469228  // $metal1_conn

*END

*D_NET *20 1.50913e-18

*CONN
*I *33:s B *C 2.6550 1.2600 
*I *10:d B *C 2.6550 1.2600 

*CAP
0 *33:s 1.50913e-18

*RES
0 *10:d *33:s 0.001  // $mwires

*END

*D_NET *19 4.40663e-18

*CONN
*I *31:d B *C 2.3175 1.2600 
*I *32:s B *C 2.3175 1.2600 

*CAP
0 *31:d 4.40663e-18

*RES
0 *32:s *31:d 0.001  // $mwires

*END

*D_NET *18 4.48957e-18

*CONN
*I *29:s B *C 1.8825 1.2600 
*I *30:d B *C 1.8825 1.2600 

*CAP
0 *29:s 4.48957e-18

*RES
0 *30:d *29:s 0.001  // $mwires

*END

*D_NET *17 3.14137e-18

*CONN
*I *27:d B *C 1.4875 1.2600 
*I *28:s B *C 1.4875 1.2600 

*CAP
0 *27:d 3.14137e-18

*RES
0 *28:s *27:d 0.001  // $mwires

*END

*D_NET *16 3.39127e-16

*CONN
*I *5:d B *C 1.2475 0.3600 
*I *7:d B *C 1.6700 0.3600 
*I *8:d B *C 1.6700 0.3600 
*I *11:d B *C 2.1150 0.3600 
*I *12:s B *C 2.1150 0.3600 
*I *13:s B *C 2.5450 0.3600 
*I *14:s B *C 2.5450 0.3600 
*I *34:s B *C 3.0900 0.3600 

*CAP
0 *34:s 1.65359e-16
1 *13:s 9.39561e-17
2 *7:d 7.98124e-17

*RES
0 *13:s *34:s 75  // $metal1_conn
1 *7:d *34:s 75  // $metal1_conn

*END

*D_NET *25 6.83541e-16

*CONN
*I *2:d B *C 0.1650 0.4425 
*I *7:g B *C 1.5675 0.3600 
*I *8:g B *C 1.7725 0.3600 
*I *24:d B *C 0.2200 1.0075 
*I *28:g B *C 1.5675 1.2600 
*I *29:g B *C 1.7725 1.2600 
*N *25:8 *C 0.1550 0.4550 

*CAP
0 *29:g 4.47493e-17
1 *28:g 5.49238e-17
2 *24:d 6.1052e-17
3 *8:g 3.13334e-16
4 *2:d 2.09482e-16

*RES
0 *29:g *8:g 121.283897  // $poly_conn
1 *8:g *28:g 107.180855  // $poly_conn
2 *8:g *25:8 46.426861  // $metal1_conn
3 *25:8 *24:d 62.480106  // $metal1_conn
4 *2:d *25:8 75  // $metal1_conn

*END

*D_NET *23 5.41693e-16

*CONN
*I *3:d B *C 0.8450 0.4425 
*I *5:g B *C 1.3475 0.3600 
*I *11:g B *C 1.9925 0.3600 
*I *26:d B *C 0.8350 1.0075 
*I *27:g B *C 1.4075 1.2600 
*I *30:g B *C 1.9925 1.2600 
*N *23:9 *C 0.8550 0.7800 

*CAP
0 *30:g 5.10705e-17
1 *27:g 5.43867e-17
2 *26:d 1.46434e-17
3 *11:g 3.12237e-16
4 *3:d 4.93543e-17
5 *23:9 6.00004e-17

*RES
0 *30:g *11:g 70.322235  // $poly_conn
1 *27:g *11:g 61.401833  // $poly_conn
2 *23:9 *26:d 62.133892  // $metal1_conn
3 *23:9 *3:d 75.246971  // $metal1_conn
4 *11:g *23:9 0.364872  // $metal1_conn

*END

