*SPEF "IEEE 1481-1999"
*DESIGN  "OAI22X4"
*DATE "Mon Sep 27 10:41:42 2010"
*VENDOR "Cadence Design Systems"
*PROGRAM "Assura RCX"
*VERSION "3.2 Red Hat Linux release 7.2 (Enigma) - (09/09/2009-10:39)"
*DESIGN_FLOW "Physical Verification"
*DIVIDER /
*DELIMITER :
*BUS_DELIMITER []
*T_UNIT 1 PS
*C_UNIT 1e15 FF
*R_UNIT 1 OHM
*L_UNIT 1 MH
// DeviceFingerDelim "@"
// MATCHED
// caps2d version: 10

*NAME_MAP
*1 VDD
*2 Y
*3 mp2
*4 mp3
*5 net102
*6 mp3\@1
*7 net93
*8 mp2\@1
*9 mp2\@2
*10 mp3\@2
*11 mp3\@3
*12 mp2\@3
*13 mp1
*14 mp0
*15 mp1\@1
*16 mp0\@1
*17 mp0\@2
*18 mp1\@2
*19 mp1\@3
*20 mp0\@3
*21 mn0\@1
*22 mn1
*23 mn1\@1
*24 mn0\@2
*25 mn0\@3
*26 mn1\@2
*27 mn1\@3
*28 VSS
*29 A0
*30 A1
*31 net93\@1
*32 net93\@2
*33 net93\@3
*34 mn2
*35 net85
*36 mn3
*37 net85\@1
*38 B0
*39 mn3\@1
*40 net85\@2
*41 B1
*42 mn2\@1
*43 net85\@3
*44 mn2\@2
*45 mn3\@2
*46 mn3\@3
*47 mn2\@3
*48 mn0

*GROUND_NETS VSS

*PORTS
*1 I
*28 I
*29 I
*30 I
*38 I
*41 I
*2 O

*D_NET *1 3.8183e-16

*CONN
*P *1 I *C 0.1000 1.7100 
*I *3:s B *C 2.0625 1.1500 
*I *8:s B *C 2.7450 1.1500 
*I *9:s B *C 2.7450 1.1500 
*I *12:s B *C 3.3550 1.1500 
*I *14:s B *C 0.5800 1.1500 
*I *16:s B *C 1.1900 1.1500 
*I *17:s B *C 1.1900 1.1500 
*I *20:s B *C 2.0625 1.1500 
*N *1:2 *C 2.9000 1.7100 
*N *1:3 *C 2.9000 1.7100 
*N *1:4 *C 2.7150 1.7100 
*N *1:5 *C 1.8950 1.7100 
*N *1:6 *C 1.1600 1.7100 
*N *1:7 *C 1.0000 1.7100 
*N *1:8 *C 0.5700 1.7100 

*CAP
0 *16:s 4.41598e-17
1 *14:s 3.40638e-17
2 *12:s 3.84192e-17
3 *8:s 4.07719e-17
4 *3:s 2.88351e-17
5 *1:8 5.86554e-18
6 *1:6 1.00067e-17
7 *1:5 2.30387e-17
8 *1:4 1.33866e-17
9 *1:2 1.42209e-16
10 *1 1.0737e-18

*RES
0 *12:s *1:3 21.284687  // $metal1_conn
1 *1:3 *1:4 0.092393  // $metal1_conn
2 *1:4 *1:5 0.410002  // $metal1_conn
3 *1:5 *1:6 0.367461  // $metal1_conn
4 *1:6 *1:7 0.079881  // $metal1_conn
5 *1:7 *1:8 0.215011  // $metal1_conn
6 *1:8 *1 0.23478  // $metal1_conn
7 *1:4 *8:s 62.258919  // $metal1_conn
8 *1:5 *3:s 62.17952  // $metal1_conn
9 *1:6 *16:s 62.258919  // $metal1_conn
10 *1:8 *14:s 21.018557  // $metal1_conn
11 *1:2 *1:3 8.333333  // $metal1_conn
12 *1:2 *1:7 7.5  // $metal1_conn

*END

*D_NET *28 0

*CONN
*P *28 I *C 0.1000 0.0000 
*I *48:s B *C 1.8300 0.4050 
*I *21:s B *C 0.4200 0.4050 
*I *22:s B *C 0.4200 0.4050 
*I *23:s B *C 0.8900 0.4050 
*I *24:s B *C 0.8900 0.4050 
*I *25:s B *C 1.3600 0.4050 
*I *26:s B *C 1.3600 0.4050 
*I *27:s B *C 1.8300 0.4050 
*N *28:1 *C 2.9000 0.0000 


*RES
0 *48:s *28 0.102152  // $metal1_conn
1 *28:1 *48:s 7.481762  // $metal1_conn
2 *28:1 *48:s 6.2  // $metal1_conn

*END

*D_NET *29 8.19092e-16

*CONN
*P *29 I *C 1.3000 0.6650 
*I *48:g B *C 1.8775 0.4050 
*I *21:g B *C 0.2025 0.4050 
*I *24:g B *C 0.9375 0.4050 
*I *25:g B *C 1.1425 0.4050 
*I *14:g B *C 0.6725 1.1500 
*I *16:g B *C 1.0875 1.1500 
*I *17:g B *C 1.2925 1.1500 
*I *20:g B *C 1.7925 1.1500 

*CAP
0 *20:g 7.32234e-17
1 *17:g 5.42063e-17
2 *16:g 6.95801e-17
3 *14:g 1.14542e-16
4 *29 5.0754e-16

*RES
0 *29 *20:g 62.309063  // $poly_conn
1 *17:g *29 95.511559  // $poly_conn
2 *29 *16:g 62.923492  // $poly_conn
3 *14:g *29 158.364227  // $poly_conn

*END

*D_NET *30 6.85164e-16

*CONN
*P *30 I *C 0.9000 0.8550 
*I *22:g B *C 0.4675 0.4050 
*I *23:g B *C 0.6725 0.4050 
*I *26:g B *C 1.4075 0.4050 
*I *27:g B *C 1.6125 0.4050 
*I *13:g B *C 0.7775 1.1500 
*I *15:g B *C 0.9825 1.1500 
*I *18:g B *C 1.4625 1.1500 
*I *19:g B *C 1.6675 1.1500 

*CAP
0 *19:g 6.28739e-17
1 *18:g 3.61572e-17
2 *15:g 7.70666e-17
3 *13:g 5.77393e-17
4 *30 4.51327e-16

*RES
0 *19:g *30 69.215561  // $poly_conn
1 *30 *18:g 17.152769  // $poly_conn
2 *15:g *30 55.112999  // $poly_conn
3 *30 *13:g 16.530039  // $poly_conn

*END

*D_NET *38 9.14221e-16

*CONN
*P *38 I *C 2.3000 0.8550 
*I *34:g B *C 2.1625 0.4050 
*I *42:g B *C 2.7775 0.4050 
*I *44:g B *C 2.9825 0.4050 
*I *47:g B *C 3.5975 0.4050 
*I *3:g B *C 2.1625 1.1500 
*I *8:g B *C 2.6425 1.1500 
*I *9:g B *C 2.8475 1.1500 
*I *12:g B *C 3.2625 1.1500 
*N *38:7 *C 2.8125 0.7375 

*CAP
0 *12:g 1.10766e-16
1 *9:g 6.80369e-17
2 *8:g 7.35715e-17
3 *3:g 6.05047e-17
4 *47:g 5.09851e-16
5 *38:7 6.42875e-17
6 *38 2.72033e-17

*RES
0 *47:g *12:g 108.933517  // $poly_conn
1 *38:7 *9:g 56.690407  // $poly_conn
2 *38:7 *8:g 82.071259  // $poly_conn
3 *3:g *47:g 60.71759  // $poly_conn
4 *47:g *38:7 2.54822  // $poly_conn
5 *47:g *38 0.083692  // $metal1_conn

*END

*D_NET *41 6.70846e-16

*CONN
*P *41 I *C 2.7000 0.8550 
*I *36:g B *C 2.3675 0.4050 
*I *39:g B *C 2.5725 0.4050 
*I *45:g B *C 3.1875 0.4050 
*I *46:g B *C 3.3925 0.4050 
*I *4:g B *C 2.3325 1.1500 
*I *6:g B *C 2.5375 1.1500 
*I *10:g B *C 2.9525 1.1500 
*I *11:g B *C 3.1575 1.1500 

*CAP
0 *11:g 5.92623e-17
1 *10:g 7.73454e-17
2 *6:g 5.84208e-17
3 *4:g 4.5149e-17
4 *41 4.30669e-16

*RES
0 *41 *11:g 18.056433  // $poly_conn
1 *41 *10:g 51.228252  // $poly_conn
2 *41 *6:g 18.056433  // $poly_conn
3 *41 *4:g 51.228252  // $poly_conn

*END

*D_NET *2 8.4768e-16

*CONN
*P *2 O *C 2.1000 1.2350 
*I *34:d B *C 2.2650 0.4050 
*I *36:d B *C 2.2650 0.4050 
*I *39:d B *C 2.6750 0.4050 
*I *42:d B *C 2.6750 0.4050 
*I *44:d B *C 3.0850 0.4050 
*I *45:d B *C 3.0850 0.4050 
*I *46:d B *C 3.4950 0.4050 
*I *47:d B *C 3.4950 0.4050 
*I *4:d B *C 2.4350 1.1500 
*I *6:d B *C 2.4350 1.1500 
*I *10:d B *C 3.0550 1.1500 
*I *11:d B *C 3.0550 1.1500 
*I *13:d B *C 0.8800 1.1500 
*I *15:d B *C 0.8800 1.1500 
*I *18:d B *C 1.5650 1.1500 
*I *19:d B *C 1.5650 1.1500 
*N *2:9 *C 1.9450 1.1250 
*N *2:10 *C 1.5650 1.1250 
*N *2:12 *C 2.1000 1.1250 
*N *2:13 *C 0.8800 1.1250 
*N *2:16 *C 2.4350 1.1550 

*CAP
0 *18:d 2.73441e-17
1 *13:d 4.35901e-17
2 *10:d 8.85985e-17
3 *4:d 5.97119e-17
4 *46:d 4.27768e-16
5 *2:13 4.86309e-17
6 *2:12 2.21254e-17
7 *2:10 5.75361e-17
8 *2:9 5.63591e-17
9 *2 1.6016e-17

*RES
0 *2:12 *2 0.038672  // $metal1_conn
1 *2:16 *10:d 21.067587  // $metal1_conn
2 *4:d *2:16 62  // $metal1_conn
3 *2:10 *18:d 62.102943  // $metal1_conn
4 *2:10 *18:d 62.050308  // $metal1_conn
5 *2:13 *13:d 62.106857  // $metal1_conn
6 *2:13 *13:d 62.054485  // $metal1_conn
7 *46:d *2:9 0.623723  // $metal1_conn
8 *2:9 *2:10 0.26359  // $metal1_conn
9 *2:9 *2:12 0.132667  // $metal1_conn
10 *2:10 *2:13 0.453482  // $metal1_conn
11 *2:12 *2:16 0.243033  // $metal1_conn

*END

*D_NET *43 0

*CONN
*I *11:s B *C 3.2100 1.1500 
*I *12:d B *C 3.2100 1.1500 


*RES
0 *12:d *11:s 0.001  // $mwires

*END

*D_NET *40 2.2568e-18

*CONN
*I *9:d B *C 2.9000 1.1500 
*I *10:s B *C 2.9000 1.1500 

*CAP
0 *9:d 2.2568e-18

*RES
0 *10:s *9:d 0.001  // $mwires

*END

*D_NET *37 2.02598e-18

*CONN
*I *6:s B *C 2.5900 1.1500 
*I *8:d B *C 2.5900 1.1500 

*CAP
0 *6:s 2.02598e-18

*RES
0 *8:d *6:s 0.001  // $mwires

*END

*D_NET *35 3.90746e-18

*CONN
*I *3:d B *C 2.2475 1.1500 
*I *4:s B *C 2.2475 1.1500 

*CAP
0 *3:d 3.90746e-18

*RES
0 *4:s *3:d 0.001  // $mwires

*END

*D_NET *33 2.3856e-18

*CONN
*I *19:s B *C 1.7300 1.1500 
*I *20:d B *C 1.7300 1.1500 

*CAP
0 *19:s 2.3856e-18

*RES
0 *20:d *19:s 0.001  // $mwires

*END

*D_NET *32 3.92251e-18

*CONN
*I *17:d B *C 1.3775 1.1500 
*I *18:s B *C 1.3775 1.1500 

*CAP
0 *17:d 3.92251e-18

*RES
0 *18:s *17:d 0.001  // $mwires

*END

*D_NET *31 2.0348e-18

*CONN
*I *15:s B *C 1.0350 1.1500 
*I *16:d B *C 1.0350 1.1500 

*CAP
0 *15:s 2.0348e-18

*RES
0 *16:d *15:s 0.001  // $mwires

*END

*D_NET *7 0

*CONN
*I *14:d B *C 0.7250 1.1500 
*I *13:s B *C 0.7250 1.1500 


*RES
0 *13:s *14:d 0.001  // $mwires

*END

*D_NET *5 5.84501e-16

*CONN
*I *34:s B *C 2.0200 0.4050 
*I *36:s B *C 2.4700 0.4050 
*I *39:s B *C 2.4700 0.4050 
*I *42:s B *C 2.8800 0.4050 
*I *44:s B *C 2.8800 0.4050 
*I *45:s B *C 3.2900 0.4050 
*I *46:s B *C 3.2900 0.4050 
*I *47:s B *C 3.6900 0.4050 
*I *48:d B *C 2.0200 0.4050 
*I *21:d B *C 0.1100 0.4050 
*I *22:d B *C 0.5700 0.4050 
*I *23:d B *C 0.5700 0.4050 
*I *24:d B *C 1.0400 0.4050 
*I *25:d B *C 1.0400 0.4050 
*I *26:d B *C 1.5100 0.4050 
*I *27:d B *C 1.5100 0.4050 

*CAP
0 *47:s 5.84501e-16


*END

