*SPEF "IEEE 1481-1999"
*DESIGN  "OAI2BB2X4"
*DATE "Mon Sep 27 10:44:42 2010"
*VENDOR "Cadence Design Systems"
*PROGRAM "Assura RCX"
*VERSION "3.2 Red Hat Linux release 7.2 (Enigma) - (09/09/2009-10:39)"
*DESIGN_FLOW "Physical Verification"
*DIVIDER /
*DELIMITER :
*BUS_DELIMITER []
*T_UNIT 1 PS
*C_UNIT 1e15 FF
*R_UNIT 1 OHM
*L_UNIT 1 MH
// DeviceFingerDelim "@"
// MATCHED
// caps2d version: 10

*NAME_MAP
*1 Y
*2 VDD
*3 VSS
*4 A0N
*5 B0
*6 B1
*7 n1
*8 n0
*9 A1N
*10 mn3
*11 mn2
*12 mn4
*13 mp4\@3
*14 mn5
*15 mp1
*16 mn5\@1
*17 mp0
*18 mp3
*19 mn4\@1
*20 mp2\@1
*21 mp2
*22 mn4\@2
*23 mp3\@1
*24 mp4
*25 mn4\@3
*26 mn5\@2
*27 mp3\@2
*28 mp5
*29 mn1
*30 mn5\@3
*31 mp2\@2
*32 mp5\@1
*33 mn0
*34 mp2\@3
*35 mp4\@1
*36 mn2\@1
*37 mp3\@3
*38 mp4\@2
*39 mn3\@1
*40 mp5\@2
*41 mn3\@2
*42 mp5\@3
*43 mn2\@2
*44 mn2\@3
*45 mn3\@3
*46 n4
*47 n2\@1
*48 n2\@2
*49 n2\@3
*50 n2
*51 n3
*52 n3\@1
*53 n3\@2
*54 n3\@3

*GROUND_NETS VSS

*PORTS
*2 I
*3 I
*4 I
*9 I
*5 I
*6 I
*1 O

*D_NET *2 7.24421e-16

*CONN
*P *2 I *C 0.1000 1.7100 
*I *21:s B *C 3.0400 1.1700 
*I *24:s B *C 3.0400 1.1700 
*I *35:s B *C 4.0650 1.1700 
*I *38:s B *C 4.0650 1.1700 
*I *13:s B *C 4.7300 1.3025 
*I *15:s B *C 0.4150 1.2100 
*I *17:s B *C 0.4150 1.2100 
*I *20:s B *C 1.4250 1.1700 
*I *31:s B *C 2.1700 1.1700 
*I *34:s B *C 2.1700 1.1700 
*N *2:2 *C 2.9550 1.7100 
*N *2:3 *C 2.6000 1.7100 
*N *2:4 *C 2.6000 1.7100 
*N *2:5 *C 2.0550 1.7100 
*N *2:6 *C 1.4150 1.7100 
*N *2:7 *C 0.9000 1.7100 
*N *2:8 *C 0.4150 1.7100 
*N *2:9 *C 3.9500 1.7100 
*N *2:14 *C 4.2000 1.7100 

*CAP
0 *31:s 2.49613e-17
1 *20:s 4.2546e-17
2 *15:s 3.58657e-17
3 *13:s 3.08642e-17
4 *35:s 2.40858e-17
5 *21:s 2.55992e-17
6 *2:9 2.54338e-17
7 *2:8 1.4695e-17
8 *2:6 2.04347e-17
9 *2:5 2.46516e-17
10 *2:2 3.3763e-17
11 *2:3 4.09461e-16
12 *2 1.206e-17

*RES
0 *21:s *2:2 62.047073  // $metal1_conn
1 *2:2 *2:4 0.174686  // $metal1_conn
2 *2:4 *2:5 0.273432  // $metal1_conn
3 *2:5 *2:6 0.320932  // $metal1_conn
4 *2:6 *2:7 0.25837  // $metal1_conn
5 *2:7 *2:8 0.243308  // $metal1_conn
6 *2:8 *2 0.157705  // $metal1_conn
7 *2:2 *2:9 0.495814  // $metal1_conn
8 *2:9 *35:s 62.097645  // $metal1_conn
9 *2:5 *31:s 62.097645  // $metal1_conn
10 *2:6 *20:s 62.260353  // $metal1_conn
11 *2:8 *15:s 62.237137  // $metal1_conn
12 *2:9 *2:14 0.125321  // $metal1_conn
13 *2:14 *13:s 62.35849  // $metal1_conn
14 *2:3 *2:4 9.375  // $metal1_conn
15 *2:3 *2:7 8.333333  // $metal1_conn
16 *2:3 *2:14 9.375  // $metal1_conn

*END

*D_NET *3 0

*CONN
*P *3 I *C 0.1000 0.0000 
*I *10:s B *C 2.7750 0.4050 
*I *11:s B *C 2.7750 0.4050 
*I *29:s B *C 0.3975 0.4350 
*I *33:s B *C 0.3975 0.4350 
*I *36:s B *C 1.3425 0.4050 
*I *39:s B *C 1.3425 0.4050 
*I *41:s B *C 1.8400 0.4050 
*I *43:s B *C 1.8400 0.4050 
*I *44:s B *C 2.2500 0.4050 
*I *45:s B *C 2.2500 0.4050 
*N *3:1 *C 4.2000 0.0000 
*N *3:7 *C 0.9000 0.0000 
*N *3:8 *C 0.3800 0.0000 


*RES
0 *3:8 *3 0.140132  // $metal1_conn
1 *3:1 *10:s 8.506978  // $metal1_conn
2 *3:1 *10:s 7.75  // $metal1_conn
3 *3:1 *3:7 6.888889  // $metal1_conn
4 *3:8 *29:s 75.233017  // $metal1_conn
5 *10:s *3:7 0.25837  // $metal1_conn
6 *3:7 *3:8 0.26088  // $metal1_conn

*END

*D_NET *4 2.3852e-16

*CONN
*P *4 I *C 0.5000 1.0450 
*I *33:g B *C 0.5175 0.4350 
*I *17:g B *C 0.5175 1.2100 
*N *4:2 *C 0.4900 0.7450 

*CAP
0 *17:g 4.69633e-17
1 *33:g 4.00379e-17
2 *4:2 9.04467e-17
3 *4 6.10717e-17

*RES
0 *17:g *4:2 60.71759  // $poly_conn
1 *4:2 *33:g 37.640671  // $poly_conn
2 *4 *4:2 45.18084  // $metal1_conn

*END

*D_NET *9 2.47489e-16

*CONN
*P *9 I *C 0.3000 0.8550 
*I *29:g B *C 0.2775 0.4350 
*I *15:g B *C 0.3125 1.2100 
*N *9:2 *C 0.2900 0.7450 

*CAP
0 *15:g 4.56467e-17
1 *29:g 2.92629e-17
2 *9:2 6.83332e-17
3 *9 1.04246e-16

*RES
0 *15:g *9:2 58.424316  // $poly_conn
1 *9:2 *29:g 35.347393  // $poly_conn
2 *9 *9:2 45.066307  // $metal1_conn

*END

*D_NET *5 7.91572e-16

*CONN
*P *5 I *C 3.3000 1.0450 
*I *12:g B *C 3.0725 0.4050 
*I *19:g B *C 3.8475 0.4050 
*I *22:g B *C 4.0675 0.4050 
*I *25:g B *C 4.7125 0.4050 
*I *24:g B *C 3.0875 1.1700 
*I *35:g B *C 3.8475 1.1700 
*I *38:g B *C 4.1125 1.1700 
*I *13:g B *C 4.5975 1.1700 

*CAP
0 *13:g 6.48673e-17
1 *38:g 4.05735e-17
2 *35:g 3.86206e-17
3 *24:g 5.25016e-17
4 *25:g 5.56859e-16
5 *5 3.81509e-17

*RES
0 *25:g *13:g 16.530039  // $poly_conn
1 *38:g *25:g 37.164749  // $poly_conn
2 *25:g *35:g 20.563484  // $poly_conn
3 *24:g *25:g 24.984648  // $poly_conn
4 *5 *25:g 0.043588  // $metal1_conn

*END

*D_NET *6 7.03295e-16

*CONN
*P *6 I *C 3.3000 0.6650 
*I *14:g B *C 3.2775 0.4050 
*I *16:g B *C 3.4975 0.4050 
*I *26:g B *C 4.2875 0.4050 
*I *30:g B *C 4.4925 0.4050 
*I *28:g B *C 3.2775 1.1700 
*I *32:g B *C 3.6675 1.1700 
*I *40:g B *C 4.2875 1.1700 
*I *42:g B *C 4.4925 1.1700 
*N *6:2 *C 3.6675 0.8675 
*N *6:8 *C 3.3150 0.6850 
*N *6:9 *C 3.3150 0.8675 
*N *6:11 *C 3.5150 0.8725 

*CAP
0 *42:g 7.49622e-17
1 *40:g 4.23448e-17
2 *32:g 3.65011e-17
3 *28:g 3.79474e-17
4 *30:g 3.59981e-16
5 *6:9 2.26373e-17
6 *6:11 2.66348e-17
7 *6:8 1.02287e-16

*RES
0 *42:g *30:g 80.258255  // $poly_conn
1 *30:g *40:g 60.119781  // $poly_conn
2 *32:g *6:2 26.412098  // $poly_conn
3 *6:9 *28:g 28.663998  // $poly_conn
4 *6:2 *30:g 28.464754  // $poly_conn
5 *30:g *6:8 2.553266  // $poly_conn
6 *6:8 *6:9 13.882063  // $poly_conn
7 *6:11 *6:2 31.069715  // $poly_conn
8 *6:9 *6:11 33.487423  // $poly_conn
9 *6:8 *6 45.009407  // $metal1_conn

*END

*D_NET *1 9.78904e-16

*CONN
*P *1 O *C 2.9000 1.2350 
*I *12:d B *C 3.1750 0.4050 
*I *14:d B *C 3.1750 0.4050 
*I *16:d B *C 3.6725 0.4050 
*I *19:d B *C 3.6725 0.4050 
*I *22:d B *C 4.1775 0.4050 
*I *26:d B *C 4.1775 0.4050 
*I *30:d B *C 4.6025 0.4050 
*I *25:d B *C 4.6025 0.4050 
*I *18:d B *C 2.4550 1.1700 
*I *28:d B *C 3.4725 1.1700 
*I *32:d B *C 3.4725 1.1700 
*I *40:d B *C 4.3900 1.1700 
*I *42:d B *C 4.3900 1.1700 
*I *23:d B *C 1.7300 1.1700 
*I *27:d B *C 1.7300 1.1700 
*I *37:d B *C 2.4550 1.1700 
*N *1:3 *C 3.4950 1.2150 
*N *1:4 *C 2.9350 1.2350 
*N *1:6 *C 2.4550 1.2750 

*CAP
0 *23:d 9.51942e-17
1 *40:d 1.06565e-16
2 *28:d 1.39304e-16
3 *18:d 9.61958e-17
4 *30:d 3.98017e-16
5 *1:4 1.03014e-16
6 *1 4.06149e-17

*RES
0 *1:4 *1 0.025821  // $metal1_conn
1 *1 *1:6 0.235113  // $metal1_conn
2 *40:d *1:3 62.671505  // $metal1_conn
3 *28:d *1:3 62  // $metal1_conn
4 *18:d *1:6 62  // $metal1_conn
5 *1:6 *23:d 62.538029  // $metal1_conn
6 *1:3 *1:4 0.451974  // $metal1_conn
7 *1:4 *30:d 0.683865  // $metal1_conn

*END

*D_NET *54 7.05326e-19

*CONN
*I *42:s B *C 4.5450 1.1700 
*I *13:d B *C 4.5450 1.1700 

*CAP
0 *42:s 7.05326e-19

*RES
0 *13:d *42:s 0.001  // $mwires

*END

*D_NET *53 4.25442e-18

*CONN
*I *38:d B *C 4.2000 1.1700 
*I *40:s B *C 4.2000 1.1700 

*CAP
0 *38:d 4.25442e-18

*RES
0 *40:s *38:d 0.001  // $mwires

*END

*D_NET *52 4.41805e-18

*CONN
*I *32:s B *C 3.7575 1.1700 
*I *35:d B *C 3.7575 1.1700 

*CAP
0 *32:s 4.41805e-18

*RES
0 *35:d *32:s 0.001  // $mwires

*END

*D_NET *51 3.41907e-18

*CONN
*I *24:d B *C 3.1825 1.1700 
*I *28:s B *C 3.1825 1.1700 

*CAP
0 *24:d 3.41907e-18

*RES
0 *28:s *24:d 0.001  // $mwires

*END

*D_NET *50 4.9818e-18

*CONN
*I *18:s B *C 2.6900 1.1700 
*I *21:d B *C 2.6900 1.1700 

*CAP
0 *18:s 4.9818e-18

*RES
0 *21:d *18:s 0.001  // $mwires

*END

*D_NET *49 2.74615e-18

*CONN
*I *34:d B *C 2.2850 1.1700 
*I *37:s B *C 2.2850 1.1700 

*CAP
0 *34:d 2.74615e-18

*RES
0 *37:s *34:d 0.001  // $mwires

*END

*D_NET *48 2.72975e-18

*CONN
*I *27:s B *C 1.8900 1.1700 
*I *31:d B *C 1.8900 1.1700 

*CAP
0 *27:s 2.72975e-18

*RES
0 *31:d *27:s 0.001  // $mwires

*END

*D_NET *47 1.79365e-18

*CONN
*I *20:d B *C 1.5700 1.1700 
*I *23:s B *C 1.5700 1.1700 

*CAP
0 *20:d 1.79365e-18

*RES
0 *23:s *20:d 0.001  // $mwires

*END

*D_NET *46 1.7049e-15

*CONN
*I *10:d B *C 2.4550 0.4050 
*I *11:d B *C 2.9475 0.4050 
*I *12:s B *C 2.9475 0.4050 
*I *14:s B *C 3.3875 0.4050 
*I *16:s B *C 3.3875 0.4050 
*I *19:s B *C 3.9575 0.4050 
*I *22:s B *C 3.9575 0.4050 
*I *26:s B *C 4.3900 0.4050 
*I *30:s B *C 4.3900 0.4050 
*I *25:s B *C 4.8050 0.4050 
*I *36:d B *C 1.0750 0.4050 
*I *39:d B *C 1.6275 0.4050 
*I *41:d B *C 1.6275 0.4050 
*I *43:d B *C 2.0450 0.4050 
*I *44:d B *C 2.0450 0.4050 
*I *45:d B *C 2.4550 0.4050 

*CAP
0 *25:s 1.7049e-15


*END

*D_NET *8 1.1475e-15

*CONN
*I *11:g B *C 2.8225 0.4050 
*I *33:d B *C 0.6500 0.4350 
*I *36:g B *C 1.1675 0.4050 
*I *43:g B *C 1.9425 0.4050 
*I *44:g B *C 2.1475 0.4050 
*I *21:g B *C 2.8225 1.1700 
*I *17:d B *C 0.6100 1.2100 
*I *20:g B *C 1.5175 1.1700 
*I *31:g B *C 1.9425 1.1700 
*I *34:g B *C 2.2175 1.1700 
*N *8:4 *C 0.7000 0.8100 

*CAP
0 *34:g 5.25399e-17
1 *31:g 6.3215e-17
2 *20:g 8.95958e-17
3 *17:d 6.33703e-17
4 *21:g 4.83183e-17
5 *33:d 4.95711e-17
6 *11:g 6.71481e-16
7 *8:4 1.09413e-16

*RES
0 *21:g *11:g 24.894089  // $poly_conn
1 *34:g *11:g 46.139111  // $poly_conn
2 *11:g *31:g 18.719322  // $poly_conn
3 *20:g *11:g 107.677567  // $poly_conn
4 *11:g *8:4 150.686478  // $poly_conn
5 *8:4 *17:d 62.44725  // $metal1_conn
6 *8:4 *33:d 75.22982  // $metal1_conn

*END

*D_NET *7 1.06947e-15

*CONN
*I *10:g B *C 2.5575 0.4050 
*I *29:d B *C 0.1850 0.4350 
*I *39:g B *C 1.5175 0.4050 
*I *41:g B *C 1.7375 0.4050 
*I *45:g B *C 2.3525 0.4050 
*I *18:g B *C 2.5575 1.1700 
*I *15:d B *C 0.2200 1.2100 
*I *23:g B *C 1.6225 1.1700 
*I *27:g B *C 1.8375 1.1700 
*I *37:g B *C 2.3525 1.1700 
*N *7:6 *C 1.4300 0.6350 
*N *7:17 *C 0.1750 0.5050 

*CAP
0 *37:g 5.75436e-17
1 *27:g 7.23375e-17
2 *23:g 7.51543e-17
3 *15:d 8.46887e-17
4 *18:g 4.53738e-17
5 *29:d 2.03039e-16
6 *10:g 3.53816e-16
7 *7:6 1.77521e-16

*RES
0 *18:g *10:g 91.796715  // $poly_conn
1 *10:g *37:g 75.518196  // $poly_conn
2 *27:g *10:g 66.530037  // $poly_conn
3 *10:g *23:g 76.646027  // $poly_conn
4 *10:g *7:6 51.221382  // $poly_conn
5 *7:6 *7:17 1.234087  // $metal1_conn
6 *7:17 *15:d 62.65123  // $metal1_conn
7 *29:d *7:17 75  // $metal1_conn

*END

