*SPEF "IEEE 1481-1999"
*DESIGN  "OAI21X1"
*DATE "Mon Sep 27 10:36:30 2010"
*VENDOR "Cadence Design Systems"
*PROGRAM "Assura RCX"
*VERSION "3.2 Red Hat Linux release 7.2 (Enigma) - (09/09/2009-10:39)"
*DESIGN_FLOW "Physical Verification"
*DIVIDER /
*DELIMITER :
*BUS_DELIMITER []
*T_UNIT 1 PS
*C_UNIT 1e15 FF
*R_UNIT 1 OHM
*L_UNIT 1 MH
// DeviceFingerDelim "@"
// MATCHED
// caps2d version: 10

*NAME_MAP
*1 mp1
*2 mn2
*3 VDD
*4 mp2
*5 n0
*6 Y
*7 n1
*8 B0
*9 A0
*10 mn0
*11 A1
*12 VSS
*13 mp0
*14 mn1

*GROUND_NETS VSS

*PORTS
*3 I
*12 I
*9 I
*11 I
*8 I
*6 O

*D_NET *3 1.67639e-16

*CONN
*P *3 I *C 0.1000 1.7100 
*I *13:s B *C 0.2100 1.2850 
*I *4:s B *C 0.7050 1.2850 
*N *3:2 *C 0.5000 1.7100 
*N *3:3 *C 0.5000 1.7100 
*N *3:4 *C 0.2000 1.7100 

*CAP
0 *4:s 4.72099e-17
1 *13:s 3.27959e-17
2 *3:4 5.08269e-18
3 *3:2 8.00856e-17
4 *3 2.46504e-18

*RES
0 *4:s *3:3 31.349882  // $metal1_conn
1 *3:3 *3:4 0.149948  // $metal1_conn
2 *3:4 *3 0.049602  // $metal1_conn
3 *3:4 *13:s 20.919308  // $metal1_conn
4 *3:2 *3:3 15  // $metal1_conn

*END

*D_NET *12 0

*CONN
*P *12 I *C 0.1000 0.0000 
*I *10:s B *C 0.3600 0.3600 
*I *14:s B *C 0.3600 0.3600 
*N *12:1 *C 0.5000 0.0000 
*N *12:2 *C 0.3050 0.0000 


*RES
0 *12:1 *12:2 12.49645  // $metal1_conn
1 *12:2 *12 0.101205  // $metal1_conn
2 *12:2 *10:s 75.120796  // $metal1_conn

*END

*D_NET *9 2.45863e-16

*CONN
*P *9 I *C 0.0800 0.6800 
*I *10:g B *C 0.2025 0.3600 
*I *13:g B *C 0.3025 1.2850 
*N *9:2 *C 0.1650 0.6600 

*CAP
0 *13:g 9.77546e-17
1 *10:g 4.22269e-17
2 *9:2 8.52041e-17
3 *9 2.06774e-17

*RES
0 *13:g *9:2 113.262947  // $poly_conn
1 *9:2 *10:g 32.783291  // $poly_conn
2 *9:2 *9 45.051529  // $metal1_conn

*END

*D_NET *11 2.71494e-16

*CONN
*P *11 I *C 0.2700 0.8400 
*I *14:g B *C 0.4075 0.3600 
*I *1:g B *C 0.4075 1.2850 
*N *11:2 *C 0.3800 0.8300 

*CAP
0 *1:g 9.05436e-17
1 *14:g 6.15886e-17
2 *11:2 1.02355e-16
3 *11 1.70066e-17

*RES
0 *1:g *11:2 58.153492  // $poly_conn
1 *11:2 *14:g 78.666313  // $poly_conn
2 *11:2 *11 45.057167  // $metal1_conn

*END

*D_NET *8 2.27687e-16

*CONN
*P *8 I *C 0.4950 0.9800 
*I *2:g B *C 0.6125 0.3600 
*I *4:g B *C 0.6125 1.2850 
*N *8:2 *C 0.5650 0.9700 

*CAP
0 *4:g 3.65064e-17
1 *2:g 5.12772e-17
2 *8:2 1.20086e-16
3 *8 1.98183e-17

*RES
0 *4:g *8:2 19.962778  // $poly_conn
1 *8:2 *2:g 112.27047  // $poly_conn
2 *8 *8:2 45.031273  // $metal1_conn

*END

*D_NET *6 2.13091e-16

*CONN
*P *6 O *C 0.7250 1.1100 
*I *2:d B *C 0.7050 0.3600 
*I *1:d B *C 0.5100 1.2850 
*I *4:d B *C 0.5100 1.2850 

*CAP
0 *1:d 7.01195e-17
1 *2:d 5.99443e-17
2 *6 8.3027e-17

*RES
0 *2:d *6 37.992168  // $metal1_conn
1 *6 *1:d 20.944  // $metal1_conn

*END

*D_NET *7 0

*CONN
*I *13:d B *C 0.3550 1.2850 
*I *1:s B *C 0.3550 1.2850 


*RES
0 *1:s *13:d 0.001  // $mwires

*END

*D_NET *5 1.3421e-16

*CONN
*I *10:d B *C 0.1100 0.3600 
*I *14:d B *C 0.5100 0.3600 
*I *2:s B *C 0.5100 0.3600 

*CAP
0 *14:d 6.58352e-17
1 *10:d 6.83749e-17

*RES
0 *14:d *10:d 75.353165  // $metal1_conn

*END

