*SPEF "IEEE 1481-1999"
*DESIGN  "OAI22X1"
*DATE "Mon Sep 27 10:40:57 2010"
*VENDOR "Cadence Design Systems"
*PROGRAM "Assura RCX"
*VERSION "3.2 Red Hat Linux release 7.2 (Enigma) - (09/09/2009-10:39)"
*DESIGN_FLOW "Physical Verification"
*DIVIDER /
*DELIMITER :
*BUS_DELIMITER []
*T_UNIT 1 PS
*C_UNIT 1e15 FF
*R_UNIT 1 OHM
*L_UNIT 1 MH
// DeviceFingerDelim "@"
// MATCHED
// caps2d version: 10

*NAME_MAP
*1 A0
*2 A1
*3 mp0
*4 mp1
*5 mp3
*6 mp2
*7 VSS
*8 net102
*9 net85
*10 net93
*11 mn0
*12 mn1
*13 VDD
*14 mn3
*15 Y
*16 B0
*17 mn2
*18 B1

*GROUND_NETS VSS

*PORTS
*13 I
*7 I
*1 I
*2 I
*16 I
*18 I
*15 O

*D_NET *13 1.64579e-16

*CONN
*P *13 I *C 0.1000 1.7100 
*I *3:s B *C 0.1100 1.2650 
*I *6:s B *C 0.9100 1.2650 
*N *13:2 *C 0.6000 1.7100 
*N *13:3 *C 0.6000 1.7100 

*CAP
0 *6:s 3.88823e-17
1 *3:s 3.32418e-17
2 *13:2 8.51586e-17
3 *13 7.29625e-18

*RES
0 *6:s *13:3 31.413158  // $metal1_conn
1 *13:3 *13 0.250709  // $metal1_conn
2 *13 *3:s 31.240316  // $metal1_conn
3 *13:2 *13:3 12.5  // $metal1_conn

*END

*D_NET *7 0

*CONN
*P *7 I *C 0.1000 0.0000 
*I *11:s B *C 0.3600 0.5300 
*I *12:s B *C 0.3600 0.5300 
*N *7:1 *C 0.6000 0.0000 
*N *7:2 *C 0.2750 0.0000 


*RES
0 *7:1 *7:2 10.496065  // $metal1_conn
1 *7:2 *7 0.087284  // $metal1_conn
2 *7:2 *11:s 75.301987  // $metal1_conn

*END

*D_NET *1 2.07773e-16

*CONN
*P *1 I *C 0.1050 0.9200 
*I *11:g B *C 0.2025 0.5300 
*I *3:g B *C 0.2025 1.2650 
*N *1:2 *C 0.2025 0.7800 
*N *1:3 *C 0.0850 0.7800 

*CAP
0 *3:g 5.11105e-17
1 *11:g 4.15349e-17
2 *1:2 2.50699e-17
3 *1:3 5.06274e-17
4 *1 3.94301e-17

*RES
0 *3:g *1:2 71.047935  // $poly_conn
1 *1:2 *1:3 50.931942  // $poly_conn
2 *1:2 *11:g 27.458193  // $poly_conn
3 *1 *1:3 0.083906  // $metal1_conn

*END

*D_NET *2 2.38156e-16

*CONN
*P *2 I *C 0.3250 0.7600 
*I *12:g B *C 0.4075 0.5300 
*I *4:g B *C 0.3625 1.2650 
*N *2:2 *C 0.3350 0.9600 

*CAP
0 *4:g 4.70963e-17
1 *12:g 5.43455e-17
2 *2:2 9.60774e-17
3 *2 4.06371e-17

*RES
0 *12:g *2:2 70.497612  // $poly_conn
1 *2:2 *4:g 16.530039  // $poly_conn
2 *2 *2:2 45.119865  // $metal1_conn

*END

*D_NET *16 1.85752e-16

*CONN
*P *16 I *C 0.9050 1.0500 
*I *17:g B *C 0.8425 0.5300 
*I *6:g B *C 0.8175 1.2650 
*N *16:1 *C 0.8950 0.8600 
*N *16:2 *C 0.8525 0.8600 

*CAP
0 *6:g 4.3904e-17
1 *17:g 3.6189e-17
2 *16:2 3.84355e-17
3 *16:1 3.65883e-17
4 *16 3.06348e-17

*RES
0 *16:1 *16:2 46.374901  // $poly_conn
1 *16:2 *6:g 54.668701  // $poly_conn
2 *16:2 *17:g 43.139488  // $poly_conn
3 *16 *16:1 0.113873  // $metal1_conn

*END

*D_NET *18 2.20155e-16

*CONN
*P *18 I *C 0.6850 1.2100 
*I *14:g B *C 0.6375 0.5300 
*I *5:g B *C 0.6375 1.2650 
*N *18:2 *C 0.6750 0.9700 

*CAP
0 *5:g 4.11098e-17
1 *14:g 5.19844e-17
2 *18:2 9.00157e-17
3 *18 3.70449e-17

*RES
0 *5:g *18:2 16.15522  // $poly_conn
1 *18:2 *14:g 70.001373  // $poly_conn
2 *18 *18:2 45.143841  // $metal1_conn

*END

*D_NET *15 2.12447e-16

*CONN
*P *15 O *C 0.5050 1.4200 
*I *14:d B *C 0.7400 0.5300 
*I *17:d B *C 0.7400 0.5300 
*I *4:d B *C 0.5000 1.2650 
*I *5:d B *C 0.5000 1.2650 
*N *15:3 *C 0.5150 1.2650 

*CAP
0 *4:d 7.95686e-17
1 *14:d 1.12043e-16
2 *15 2.08355e-17

*RES
0 *14:d *15:3 38.150558  // $metal1_conn
1 *15:3 *15 0.092896  // $metal1_conn
2 *4:d *15:3 20.666666  // $metal1_conn

*END

*D_NET *10 2.01834e-18

*CONN
*I *3:d B *C 0.2825 1.2650 
*I *4:s B *C 0.2825 1.2650 

*CAP
0 *3:d 2.01834e-18

*RES
0 *4:s *3:d 0.001  // $mwires

*END

*D_NET *9 8.15578e-18

*CONN
*I *5:s B *C 0.7275 1.2650 
*I *6:d B *C 0.7275 1.2650 

*CAP
0 *5:s 8.15578e-18

*RES
0 *6:d *5:s 0.001  // $mwires

*END

*D_NET *8 2.4778e-16

*CONN
*I *11:d B *C 0.1100 0.5300 
*I *12:d B *C 0.5225 0.5300 
*I *14:s B *C 0.5225 0.5300 
*I *17:s B *C 0.9350 0.5300 
*N *8:3 *C 0.5100 0.5200 

*CAP
0 *17:s 8.17092e-17
1 *12:d 9.66752e-17
2 *11:d 6.93956e-17

*RES
0 *17:s *8:3 38.091972  // $metal1_conn
1 *8:3 *11:d 37.851955  // $metal1_conn
2 *12:d *8:3 37.5  // $metal1_conn

*END

