*SPEF "IEEE 1481-1999"
*DESIGN  "OAI2BB2X1"
*DATE "Mon Sep 27 10:43:56 2010"
*VENDOR "Cadence Design Systems"
*PROGRAM "Assura RCX"
*VERSION "3.2 Red Hat Linux release 7.2 (Enigma) - (09/09/2009-10:39)"
*DESIGN_FLOW "Physical Verification"
*DIVIDER /
*DELIMITER :
*BUS_DELIMITER []
*T_UNIT 1 PS
*C_UNIT 1e15 FF
*R_UNIT 1 OHM
*L_UNIT 1 MH
// DeviceFingerDelim "@"
// MATCHED
// caps2d version: 10

*NAME_MAP
*1 n1
*2 mp1
*3 n2
*4 mp0
*5 n3
*6 mp2
*7 mp3
*8 mp5
*9 mp4
*10 VDD
*11 A1N
*12 n0
*13 mn1
*14 n4
*15 mn0
*16 mn2
*17 mn3
*18 mn5
*19 mn4
*20 B0
*21 B1
*22 A0N
*23 Y
*24 VSS

*GROUND_NETS VSS

*PORTS
*10 I
*24 I
*22 I
*11 I
*20 I
*21 I
*23 O

*D_NET *10 3.42748e-16

*CONN
*P *10 I *C 0.1000 1.7100 
*I *2:s B *C 0.5500 1.2175 
*I *4:s B *C 0.5500 1.2175 
*I *6:s B *C 1.3450 1.1200 
*I *9:s B *C 2.2050 1.1200 
*N *10:2 *C 1.3050 1.7100 
*N *10:3 *C 1.2000 1.7100 
*N *10:4 *C 1.2000 1.7100 
*N *10:5 *C 0.5500 1.7100 

*CAP
0 *9:s 6.51948e-17
1 *6:s 7.05622e-17
2 *2:s 3.18954e-17
3 *10:5 1.68552e-17
4 *10:2 2.31575e-17
5 *10:3 1.25508e-16
6 *10 9.57503e-18

*RES
0 *9:s *10:2 31.850796  // $metal1_conn
1 *10:2 *10:4 0.052451  // $metal1_conn
2 *10:4 *10:5 0.325713  // $metal1_conn
3 *10:5 *10 0.225183  // $metal1_conn
4 *10:2 *6:s 21.046968  // $metal1_conn
5 *10:5 *2:s 62.2822  // $metal1_conn
6 *10:3 *10:4 6.25  // $metal1_conn

*END

*D_NET *24 0

*CONN
*P *24 I *C 0.1000 0.0000 
*I *13:s B *C 0.6600 0.5125 
*I *15:s B *C 0.6600 0.5125 
*I *16:s B *C 1.5700 0.3750 
*I *17:s B *C 1.5700 0.3750 
*N *24:2 *C 0.5750 0.0000 
*N *24:3 *C 1.2000 0.0000 
*N *24:4 *C 1.2000 0.0000 


*RES
0 *13:s *24:2 75.327232  // $metal1_conn
1 *24:2 *24 0.237306  // $metal1_conn
2 *24:2 *24:4 0.312767  // $metal1_conn
3 *24:4 *16:s 75.402184  // $metal1_conn
4 *24:3 *24:4 5.166667  // $metal1_conn

*END

*D_NET *22 2.23448e-16

*CONN
*P *22 I *C 0.7000 1.0450 
*I *15:g B *C 0.7075 0.5125 
*I *4:g B *C 0.6525 1.2175 
*N *22:2 *C 0.6800 1.0000 

*CAP
0 *4:g 2.59682e-17
1 *15:g 4.68087e-17
2 *22:2 1.50671e-16

*RES
0 *15:g *22:2 97.897079  // $poly_conn
1 *22:2 *4:g 19.691952  // $poly_conn
2 *22 *22:2 45.004505  // $metal1_conn

*END

*D_NET *11 2.13804e-16

*CONN
*P *11 I *C 0.3000 0.8550 
*I *13:g B *C 0.4475 0.5125 
*I *2:g B *C 0.4475 1.2175 
*N *11:2 *C 0.4750 0.8750 

*CAP
0 *2:g 3.33984e-17
1 *13:g 3.37419e-17
2 *11:2 1.03662e-16
3 *11 4.30018e-17

*RES
0 *2:g *11:2 51.743229  // $poly_conn
1 *11:2 *13:g 65.845802  // $poly_conn
2 *11 *11:2 45.106647  // $metal1_conn

*END

*D_NET *20 1.93506e-16

*CONN
*P *20 I *C 2.3000 0.6650 
*I *19:g B *C 2.1275 0.3750 
*I *9:g B *C 2.0975 1.1200 
*N *20:2 *C 2.1350 0.7775 
*N *20:4 *C 2.2300 0.8150 

*CAP
0 *9:g 4.0098e-17
1 *19:g 3.43927e-17
2 *20:2 2.14362e-17
3 *20:4 6.01365e-17
4 *20 3.74425e-17

*RES
0 *19:g *20:2 66.833275  // $poly_conn
1 *20:2 *9:g 47.889763  // $poly_conn
2 *20:2 *20:4 60.261467  // $poly_conn
3 *20 *20:4 0.102723  // $metal1_conn

*END

*D_NET *21 2.45322e-16

*CONN
*P *21 I *C 1.9000 0.6650 
*I *18:g B *C 1.8925 0.3750 
*I *8:g B *C 1.8775 1.1200 
*N *21:2 *C 1.8900 0.6600 
*N *21:4 *C 1.8900 0.6600 

*CAP
0 *8:g 5.15554e-17
1 *18:g 3.83605e-17
2 *21:2 4.64763e-17
3 *21 1.0893e-16

*RES
0 *18:g *21:2 30.257782  // $poly_conn
1 *21:2 *8:g 58.462914  // $poly_conn
2 *21:4 *21 0.003111  // $metal1_conn
3 *21:2 *21:4 45  // $metal1_conn

*END

*D_NET *23 2.85076e-16

*CONN
*P *23 O *C 1.5000 1.2350 
*I *18:d B *C 2.0100 0.3750 
*I *19:d B *C 2.0100 0.3750 
*I *7:d B *C 1.7750 1.1200 
*I *8:d B *C 1.7750 1.1200 
*N *23:3 *C 1.7750 1.2550 

*CAP
0 *7:d 1.06888e-16
1 *18:d 1.34448e-16
2 *23 4.37399e-17

*RES
0 *18:d *23:3 75.843338  // $metal1_conn
1 *23:3 *23 0.161317  // $metal1_conn
2 *7:d *23:3 62  // $metal1_conn

*END

*D_NET *5 9.69729e-18

*CONN
*I *8:s B *C 1.9875 1.1200 
*I *9:d B *C 1.9875 1.1200 

*CAP
0 *8:s 9.69729e-18

*RES
0 *9:d *8:s 0.001  // $mwires

*END

*D_NET *3 6.28521e-18

*CONN
*I *6:d B *C 1.5700 1.1200 
*I *7:s B *C 1.5700 1.1200 

*CAP
0 *6:d 6.28521e-18

*RES
0 *7:s *6:d 0.001  // $mwires

*END

*D_NET *1 6.15299e-16

*CONN
*I *13:d B *C 0.3550 0.5125 
*I *17:g B *C 1.6725 0.3750 
*I *2:d B *C 0.3400 1.2175 
*I *7:g B *C 1.6725 1.1200 
*N *1:2 *C 1.7000 0.6250 
*N *1:4 *C 0.3450 0.6850 

*CAP
0 *7:g 5.68248e-17
1 *2:d 5.54148e-17
2 *17:g 3.77115e-17
3 *13:d 1.56938e-17
4 *1:4 2.15895e-16
5 *1:2 2.33759e-16

*RES
0 *7:g *1:2 68.409897  // $poly_conn
1 *1:2 *17:g 22.256054  // $poly_conn
2 *1:2 *1:4 46.466969  // $metal1_conn
3 *1:4 *2:d 62.616505  // $metal1_conn
4 *1:4 *13:d 75.087944  // $metal1_conn

*END

*D_NET *14 2.16971e-16

*CONN
*I *16:d B *C 1.3750 0.3750 
*I *17:d B *C 1.7825 0.3750 
*I *18:s B *C 1.7825 0.3750 
*I *19:s B *C 2.2200 0.3750 
*N *14:3 *C 1.7900 0.4450 

*CAP
0 *19:s 5.77558e-17
1 *17:d 9.41318e-17
2 *16:d 6.50838e-17

*RES
0 *16:d *14:3 75.319885  // $metal1_conn
1 *14:3 *19:s 75.432182  // $metal1_conn
2 *17:d *14:3 75  // $metal1_conn

*END

*D_NET *12 3.61697e-16

*CONN
*I *15:d B *C 0.8425 0.5125 
*I *16:g B *C 1.4675 0.3750 
*I *4:d B *C 0.7450 1.2175 
*I *6:g B *C 1.4675 1.1200 
*N *12:2 *C 1.4300 0.7850 
*N *12:4 *C 1.0450 0.7850 

*CAP
0 *6:g 3.79545e-17
1 *4:d 7.89576e-17
2 *16:g 3.33799e-17
3 *15:d 5.98136e-17
4 *12:4 7.35859e-17
5 *12:2 7.80052e-17

*RES
0 *6:g *12:2 26.411629  // $poly_conn
1 *12:2 *16:g 62.309063  // $poly_conn
2 *12:2 *12:4 45.268322  // $metal1_conn
3 *12:4 *4:d 62.504536  // $metal1_conn
4 *12:4 *15:d 75.266869  // $metal1_conn

*END

