*SPEF "IEEE 1481-1999"
*DESIGN  "OAI21X4"
*DATE "Mon Sep 27 10:37:14 2010"
*VENDOR "Cadence Design Systems"
*PROGRAM "Assura RCX"
*VERSION "3.2 Red Hat Linux release 7.2 (Enigma) - (09/09/2009-10:39)"
*DESIGN_FLOW "Physical Verification"
*DIVIDER /
*DELIMITER :
*BUS_DELIMITER []
*T_UNIT 1 PS
*C_UNIT 1e15 FF
*R_UNIT 1 OHM
*L_UNIT 1 MH
// DeviceFingerDelim "@"
// MATCHED
// caps2d version: 10

*NAME_MAP
*1 VDD
*2 mp0\@2
*3 mp0\@3
*4 mp1\@3
*5 n1\@3
*6 n1
*7 Y
*8 n0
*9 A0
*10 n1\@1
*11 A1
*12 n1\@2
*13 VSS
*14 mp1
*15 mp0
*16 mp2
*17 mp2\@1
*18 mp2\@2
*19 mp2\@3
*20 mp0\@1
*21 mn1
*22 B0
*23 mp1\@1
*24 mn0
*25 mp1\@2
*26 mn2
*27 mn2\@1
*28 mn2\@2
*29 mn2\@3
*30 mn0\@1
*31 mn0\@2
*32 mn1\@1
*33 mn0\@3
*34 mn1\@2
*35 mn1\@3

*GROUND_NETS VSS

*PORTS
*1 I
*13 I
*9 I
*11 I
*22 I
*7 O

*D_NET *1 3.59068e-16

*CONN
*P *1 I *C 0.1000 1.7100 
*I *15:s B *C 1.6775 1.1800 
*I *16:s B *C 1.6775 1.1800 
*I *17:s B *C 2.0950 1.1800 
*I *18:s B *C 2.0950 1.1800 
*I *19:s B *C 2.4950 1.1800 
*I *20:s B *C 0.2150 1.1800 
*I *2:s B *C 0.9700 1.1800 
*I *3:s B *C 0.9700 1.1800 
*N *1:2 *C 2.1000 1.7100 
*N *1:5 *C 0.9700 1.7100 
*N *1:6 *C 0.7000 1.7100 
*N *1:7 *C 0.2050 1.7100 

*CAP
0 *2:s 3.81336e-17
1 *20:s 3.2479e-17
2 *19:s 1.32582e-16
3 *1:7 5.38029e-18
4 *1:5 1.53245e-17
5 *1:2 1.35169e-16

*RES
0 *1:7 *1 0.052183  // $metal1_conn
1 *1:2 *19:s 10.714286  // $metal1_conn
2 *1:2 *1:6 10.714286  // $metal1_conn
3 *1:5 *2:s 62.243748  // $metal1_conn
4 *1:7 *20:s 21.000116  // $metal1_conn
5 *19:s *1:5 0.35047  // $metal1_conn
6 *1:5 *1:6 0.135137  // $metal1_conn
7 *1:6 *1:7 0.247914  // $metal1_conn

*END

*D_NET *13 0

*CONN
*P *13 I *C 0.1000 0.0000 
*I *21:s B *C 1.5400 0.4350 
*I *24:s B *C 1.5400 0.4350 
*I *30:s B *C 0.3100 0.4350 
*I *32:s B *C 0.3100 0.4350 
*I *34:s B *C 0.7200 0.4350 
*I *31:s B *C 0.7200 0.4350 
*I *33:s B *C 1.1300 0.4350 
*I *35:s B *C 1.1300 0.4350 
*N *13:1 *C 2.1000 0.0000 


*RES
0 *21:s *13 0.089775  // $metal1_conn
1 *13:1 *21:s 9.152674  // $metal1_conn
2 *13:1 *21:s 8.857142  // $metal1_conn

*END

*D_NET *9 8.39386e-16

*CONN
*P *9 I *C 1.7000 0.8550 
*I *24:g B *C 1.6425 0.4350 
*I *30:g B *C 0.2075 0.4350 
*I *31:g B *C 0.8225 0.4350 
*I *33:g B *C 1.0275 0.4350 
*I *15:g B *C 1.5675 1.1800 
*I *20:g B *C 0.3075 1.1800 
*I *2:g B *C 0.8675 1.1800 
*I *3:g B *C 1.0725 1.1800 
*N *9:5 *C 0.8950 0.7675 

*CAP
0 *3:g 7.44446e-17
1 *2:g 6.73197e-17
2 *20:g 4.33796e-17
3 *15:g 5.73012e-17
4 *24:g 5.18415e-16
5 *9:5 3.20363e-17
6 *9 4.64892e-17

*RES
0 *24:g *15:g 62.015274  // $poly_conn
1 *3:g *9:5 85.596397  // $poly_conn
2 *9:5 *2:g 56.034359  // $poly_conn
3 *20:g *24:g 66.15522  // $poly_conn
4 *9:5 *24:g 4.315495  // $poly_conn
5 *9 *24:g 0.146266  // $metal1_conn

*END

*D_NET *11 6.26702e-16

*CONN
*P *11 I *C 0.5000 0.8550 
*I *21:g B *C 1.4375 0.4350 
*I *32:g B *C 0.4125 0.4350 
*I *34:g B *C 0.6175 0.4350 
*I *35:g B *C 1.2325 0.4350 
*I *14:g B *C 1.3825 1.1800 
*I *23:g B *C 0.5575 1.1800 
*I *25:g B *C 0.7625 1.1800 
*I *4:g B *C 1.1775 1.1800 

*CAP
0 *4:g 5.8727e-17
1 *25:g 6.34188e-17
2 *23:g 2.61257e-17
3 *14:g 4.3322e-17
4 *21:g 4.07422e-16
5 *11 2.76867e-17

*RES
0 *21:g *14:g 55.112999  // $poly_conn
1 *21:g *4:g 20.376194  // $poly_conn
2 *25:g *21:g 43.949356  // $poly_conn
3 *21:g *23:g 33.081039  // $poly_conn
4 *21:g *11 0.063905  // $metal1_conn

*END

*D_NET *22 3.18173e-16

*CONN
*P *22 I *C 2.1000 0.8550 
*I *26:g B *C 1.8875 0.4350 
*I *27:g B *C 2.0925 0.4350 
*I *28:g B *C 2.2975 0.4350 
*I *29:g B *C 2.5025 0.4350 
*I *16:g B *C 1.7875 1.1800 
*I *17:g B *C 1.9925 1.1800 
*I *18:g B *C 2.1975 1.1800 
*I *19:g B *C 2.4025 1.1800 

*CAP
0 *22 3.18173e-16


*END

*D_NET *7 5.58145e-16

*CONN
*P *7 O *C 1.9000 1.2350 
*I *26:d B *C 1.9900 0.4350 
*I *27:d B *C 1.9900 0.4350 
*I *28:d B *C 2.4000 0.4350 
*I *29:d B *C 2.4000 0.4350 
*I *14:d B *C 1.2800 1.1800 
*I *16:d B *C 1.8900 1.1800 
*I *17:d B *C 1.8900 1.1800 
*I *18:d B *C 2.3000 1.1800 
*I *19:d B *C 2.3000 1.1800 
*I *23:d B *C 0.6600 1.1800 
*I *25:d B *C 0.6600 1.1800 
*I *4:d B *C 1.2800 1.1800 
*N *7:10 *C 1.2800 1.0800 
*N *7:11 *C 1.8900 1.3150 
*N *7:13 *C 0.6600 1.0800 

*CAP
0 *23:d 9.07254e-17
1 *18:d 2.02065e-16
2 *14:d 1.0804e-16
3 *26:d 1.52866e-16
4 *7 4.44892e-18

*RES
0 *18:d *7 0.087331  // $metal1_conn
1 *7 *7:11 0.047916  // $metal1_conn
2 *18:d *7:11 62  // $metal1_conn
3 *14:d *7:10 62  // $metal1_conn
4 *7:10 *14:d 62.156151  // $metal1_conn
5 *23:d *7:13 62  // $metal1_conn
6 *7:13 *23:d 62.156151  // $metal1_conn
7 *18:d *26:d 0.446781  // $metal1_conn
8 *18:d *7:10 0.430923  // $metal1_conn
9 *7:10 *7:13 0.452576  // $metal1_conn

*END

*D_NET *6 5.41429e-18

*CONN
*I *14:s B *C 1.4750 1.1800 
*I *15:d B *C 1.4750 1.1800 

*CAP
0 *14:s 5.41429e-18

*RES
0 *15:d *14:s 0.001  // $mwires

*END

*D_NET *5 1.92642e-18

*CONN
*I *3:d B *C 1.1250 1.1800 
*I *4:s B *C 1.1250 1.1800 

*CAP
0 *3:d 1.92642e-18

*RES
0 *4:s *3:d 0.001  // $mwires

*END

*D_NET *12 1.92642e-18

*CONN
*I *25:s B *C 0.8150 1.1800 
*I *2:d B *C 0.8150 1.1800 

*CAP
0 *25:s 1.92642e-18

*RES
0 *2:d *25:s 0.001  // $mwires

*END

*D_NET *10 0

*CONN
*I *20:d B *C 0.4325 1.1800 
*I *23:s B *C 0.4325 1.1800 


*RES
0 *23:s *20:d 0.001  // $mwires

*END

*D_NET *8 4.8106e-16

*CONN
*I *21:d B *C 1.3350 0.4350 
*I *24:d B *C 1.7650 0.4350 
*I *26:s B *C 1.7650 0.4350 
*I *27:s B *C 2.1950 0.4350 
*I *28:s B *C 2.1950 0.4350 
*I *29:s B *C 2.5950 0.4350 
*I *30:d B *C 0.1150 0.4350 
*I *32:d B *C 0.5150 0.4350 
*I *34:d B *C 0.5150 0.4350 
*I *31:d B *C 0.9250 0.4350 
*I *33:d B *C 0.9250 0.4350 
*I *35:d B *C 1.3350 0.4350 

*CAP
0 *29:s 4.8106e-16


*END

