*SPEF "IEEE 1481-1999"
*DESIGN  "OAI211X2"
*DATE "Mon Sep 27 10:35:22 2010"
*VENDOR "Cadence Design Systems"
*PROGRAM "Assura RCX"
*VERSION "3.2 Red Hat Linux release 7.2 (Enigma) - (09/09/2009-10:39)"
*DESIGN_FLOW "Physical Verification"
*DIVIDER /
*DELIMITER :
*BUS_DELIMITER []
*T_UNIT 1 PS
*C_UNIT 1e15 FF
*R_UNIT 1 OHM
*L_UNIT 1 MH
// DeviceFingerDelim "@"
// MATCHED
// caps2d version: 10

*NAME_MAP
*1 mp1
*2 mn3\@1
*3 mp1\@1
*4 mp0\@1
*5 VDD
*6 mp2
*7 n2
*8 mp2\@1
*9 n2\@1
*10 mp3
*11 A0
*12 mp3\@1
*13 A1
*14 Y
*15 n1
*16 n0
*17 B0
*18 VSS
*19 mn0
*20 mn1
*21 mn1\@1
*22 mn0\@1
*23 mn2
*24 mn2\@1
*25 C0
*26 mp0
*27 mn3

*GROUND_NETS VSS

*PORTS
*5 I
*18 I
*11 I
*13 I
*17 I
*25 I
*14 O

*D_NET *5 3.07141e-16

*CONN
*P *5 I *C 0.1000 1.7100 
*I *26:s B *C 0.3400 1.1500 
*I *4:s B *C 1.0725 1.1500 
*I *6:s B *C 1.0725 1.1500 
*I *8:s B *C 1.5750 1.1500 
*I *10:s B *C 1.5750 1.1500 
*I *12:s B *C 1.9750 1.1500 
*N *5:3 *C 1.2000 1.7100 
*N *5:6 *C 0.3300 1.7100 

*CAP
0 *12:s 1.63921e-16
1 *26:s 4.13317e-17
2 *5:6 1.01943e-17
3 *5:3 9.16946e-17

*RES
0 *5:6 *5 0.114837  // $metal1_conn
1 *5:3 *12:s 6.25  // $metal1_conn
2 *5:6 *26:s 31.331789  // $metal1_conn
3 *12:s *5:6 0.325409  // $metal1_conn

*END

*D_NET *18 0

*CONN
*P *18 I *C 0.1000 0.0000 
*I *19:s B *C 0.2100 0.4150 
*I *20:s B *C 0.6450 0.4150 
*I *21:s B *C 0.6450 0.4150 
*I *22:s B *C 1.0450 0.4150 
*N *18:1 *C 1.2000 0.0000 


*RES
0 *22:s *18 0.049677  // $metal1_conn
1 *18:1 *22:s 5.254186  // $metal1_conn
2 *22:s *20:s 75.206863  // $metal1_conn

*END

*D_NET *11 4.40045e-16

*CONN
*P *11 I *C 0.3000 0.8550 
*I *19:g B *C 0.3025 0.4150 
*I *22:g B *C 0.9525 0.4150 
*I *26:g B *C 0.4325 1.1500 
*I *4:g B *C 0.8775 1.1500 

*CAP
0 *4:g 8.01268e-17
1 *26:g 6.22958e-17
2 *22:g 2.7537e-16
3 *11 2.22527e-17

*RES
0 *22:g *4:g 65.861427  // $poly_conn
1 *26:g *22:g 35.882229  // $poly_conn
2 *22:g *11 0.019083  // $metal1_conn

*END

*D_NET *13 3.35437e-16

*CONN
*P *13 I *C 0.5000 1.0450 
*I *20:g B *C 0.5425 0.4150 
*I *21:g B *C 0.7475 0.4150 
*I *1:g B *C 0.5425 1.1500 
*I *3:g B *C 0.7725 1.1500 
*N *13:2 *C 0.5700 0.8450 

*CAP
0 *3:g 7.19401e-17
1 *1:g 5.31186e-17
2 *21:g 9.58443e-17
3 *13:2 8.39831e-17
4 *13 3.05509e-17

*RES
0 *3:g *13:2 61.523254  // $poly_conn
1 *13:2 *1:g 17.152769  // $poly_conn
2 *13:2 *21:g 7.028393  // $poly_conn
3 *13:2 *13 45.141273  // $metal1_conn

*END

*D_NET *17 2.9852e-16

*CONN
*P *17 I *C 1.7000 0.8550 
*I *23:g B *C 1.5175 0.4150 
*I *24:g B *C 1.7225 0.4150 
*I *6:g B *C 1.2675 1.1500 
*I *8:g B *C 1.4725 1.1500 
*N *17:7 *C 1.5000 0.8250 
*N *17:8 *C 1.5000 0.8400 
*N *17:9 *C 1.7005 0.8400 

*CAP
0 *8:g 8.56988e-17
1 *23:g 7.72469e-17
2 *17:9 7.63786e-17
3 *17:8 5.91953e-17

*RES
0 *23:g *8:g 27.773897  // $poly_conn
1 *17:9 *17 0.002321  // $metal1_conn
2 *8:g *17:7 45  // $metal1_conn
3 *17:7 *17:8 0.002321  // $metal1_conn
4 *17:8 *17:9 0.069753  // $metal1_conn

*END

*D_NET *25 2.35426e-16

*CONN
*P *25 I *C 2.3000 0.8550 
*I *27:g B *C 1.9675 0.4150 
*I *2:g B *C 2.1725 0.4150 
*I *10:g B *C 1.6775 1.1500 
*I *12:g B *C 1.8825 1.1500 

*CAP
0 *12:g 8.86357e-17
1 *27:g 1.02885e-16
2 *25 4.39047e-17

*RES
0 *27:g *12:g 87.028122  // $poly_conn
1 *27:g *25 45.151051  // $metal1_conn

*END

*D_NET *14 4.97244e-16

*CONN
*P *14 O *C 1.3000 1.0450 
*I *27:d B *C 2.0700 0.4150 
*I *2:d B *C 2.0700 0.4150 
*I *1:d B *C 0.6575 1.1500 
*I *3:d B *C 0.6575 1.1500 
*I *6:d B *C 1.3700 1.1500 
*I *8:d B *C 1.3700 1.1500 
*I *10:d B *C 1.7800 1.1500 
*I *12:d B *C 1.7800 1.1500 
*N *14:2 *C 1.3000 1.0900 
*N *14:4 *C 1.3700 1.0900 

*CAP
0 *10:d 8.02337e-17
1 *6:d 2.58076e-17
2 *1:d 7.35575e-17
3 *27:d 1.49453e-16
4 *14:2 7.0545e-17
5 *14 9.76467e-17

*RES
0 *27:d *14 75.951065  // $metal1_conn
1 *14 *14:2 0.010605  // $metal1_conn
2 *14:4 *10:d 31.392248  // $metal1_conn
3 *14:4 *6:d 31.059587  // $metal1_conn
4 *14:2 *1:d 31.50675  // $metal1_conn
5 *14:2 *14:4 0.068717  // $metal1_conn

*END

*D_NET *9 2.26173e-18

*CONN
*I *3:s B *C 0.8250 1.1500 
*I *4:d B *C 0.8250 1.1500 

*CAP
0 *3:s 2.26173e-18

*RES
0 *4:d *3:s 0.001  // $mwires

*END

*D_NET *7 5.86778e-18

*CONN
*I *26:d B *C 0.4875 1.1500 
*I *1:s B *C 0.4875 1.1500 

*CAP
0 *26:d 5.86778e-18

*RES
0 *1:s *26:d 0.001  // $mwires

*END

*D_NET *16 2.8135e-16

*CONN
*I *19:d B *C 0.4225 0.4150 
*I *20:d B *C 0.4225 0.4150 
*I *21:d B *C 0.8500 0.4150 
*I *22:d B *C 0.8500 0.4150 
*I *23:s B *C 1.6200 0.4150 
*I *24:s B *C 1.6200 0.4150 

*CAP
0 *23:s 1.22312e-16
1 *21:d 1.59038e-16

*RES
0 *21:d *23:s 75.581276  // $metal1_conn

*END

*D_NET *15 1.72557e-16

*CONN
*I *23:d B *C 1.4175 0.4150 
*I *24:d B *C 1.8450 0.4150 
*I *27:s B *C 1.8450 0.4150 
*I *2:s B *C 2.2650 0.4150 

*CAP
0 *2:s 1.72557e-16


*END

