*SPEF "IEEE 1481-1999"
*DESIGN  "OAI222X2"
*DATE "Mon Sep 27 10:39:49 2010"
*VENDOR "Cadence Design Systems"
*PROGRAM "Assura RCX"
*VERSION "3.2 Red Hat Linux release 7.2 (Enigma) - (09/09/2009-10:39)"
*DESIGN_FLOW "Physical Verification"
*DIVIDER /
*DELIMITER :
*BUS_DELIMITER []
*T_UNIT 1 PS
*C_UNIT 1e15 FF
*R_UNIT 1 OHM
*L_UNIT 1 MH
// DeviceFingerDelim "@"
// MATCHED
// caps2d version: 10

*NAME_MAP
*1 VDD
*2 C0
*3 C1
*4 mp1\@1
*5 mp0\@1
*6 mp2
*7 n1
*8 n0
*9 n2
*10 n2\@1
*11 n3
*12 n3\@1
*13 n4
*14 n4\@1
*15 Y
*16 A0
*17 A1
*18 VSS
*19 mp3
*20 mp3\@1
*21 mp2\@1
*22 mp4
*23 mp5
*24 mp5\@1
*25 mp4\@1
*26 mn3
*27 B0
*28 mp0
*29 mn3\@1
*30 B1
*31 mp1
*32 mn2
*33 mn4
*34 mn5
*35 mn5\@1
*36 mn4\@1
*37 mn1\@1
*38 mn0
*39 mn0\@1
*40 mn1
*41 mn2\@1

*GROUND_NETS VSS

*PORTS
*1 I
*18 I
*16 I
*17 I
*27 I
*30 I
*2 I
*3 I
*15 O

*D_NET *1 3.82309e-16

*CONN
*P *1 I *C 0.1000 1.7100 
*I *21:s B *C 2.2400 1.2100 
*I *22:s B *C 2.2400 1.2100 
*I *25:s B *C 2.8500 1.2100 
*I *28:s B *C 0.2400 1.2100 
*I *5:s B *C 1.1850 1.2100 
*I *6:s B *C 1.1850 1.2100 
*N *1:2 *C 0.2300 1.7100 
*N *1:3 *C 0.9000 1.7100 
*N *1:4 *C 0.9000 1.7100 
*N *1:5 *C 0.9900 1.7100 
*N *1:7 *C 2.2100 1.7100 
*N *1:9 *C 2.6000 1.7100 

*CAP
0 *5:s 5.01236e-17
1 *28:s 1.51005e-17
2 *25:s 3.37087e-17
3 *21:s 3.69521e-17
4 *1:7 2.63943e-17
5 *1:2 9.8675e-18
6 *1:3 2.10162e-16

*RES
0 *28:s *1:2 62.223083  // $metal1_conn
1 *1:2 *1 0.064206  // $metal1_conn
2 *1:2 *1:4 0.334715  // $metal1_conn
3 *1:4 *1:5 0.044949  // $metal1_conn
4 *1:5 *5:s 62.219219  // $metal1_conn
5 *1:5 *1:7 0.610194  // $metal1_conn
6 *1:7 *21:s 62.219219  // $metal1_conn
7 *1:7 *1:9 0.194992  // $metal1_conn
8 *1:9 *25:s 62.368221  // $metal1_conn
9 *1:3 *1:4 8.333333  // $metal1_conn
10 *1:3 *1:9 9.375  // $metal1_conn

*END

*D_NET *18 0

*CONN
*P *18 I *C 0.1000 0.0000 
*I *38:s B *C 0.1850 0.4050 
*I *40:s B *C 0.5850 0.4050 
*I *37:s B *C 0.5850 0.4050 
*I *39:s B *C 1.0100 0.4050 
*N *18:1 *C 2.6000 0.0000 


*RES
0 *39:s *18 0.037082  // $metal1_conn
1 *18:1 *39:s 8.540563  // $metal1_conn
2 *18:1 *39:s 6.888889  // $metal1_conn
3 *39:s *40:s 75.203018  // $metal1_conn

*END

*D_NET *16 3.78707e-16

*CONN
*P *16 I *C 0.9000 0.8550 
*I *38:g B *C 0.2775 0.4050 
*I *39:g B *C 0.9175 0.4050 
*I *28:g B *C 0.3325 1.2100 
*I *5:g B *C 0.9175 1.2100 

*CAP
0 *5:g 4.0392e-17
1 *28:g 2.73026e-17
2 *39:g 2.32954e-16
3 *16 7.80586e-17

*RES
0 *5:g *39:g 27.384262  // $poly_conn
1 *28:g *39:g 19.691952  // $poly_conn
2 *16 *39:g 0.0124  // $metal1_conn

*END

*D_NET *17 2.83739e-16

*CONN
*P *17 I *C 0.5000 0.8550 
*I *40:g B *C 0.4825 0.4050 
*I *37:g B *C 0.6875 0.4050 
*I *31:g B *C 0.5525 1.2100 
*I *4:g B *C 0.7575 1.2100 
*N *17:7 *C 0.5450 0.7050 
*N *17:8 *C 0.5900 0.7050 
*N *17:9 *C 0.5450 0.8550 

*CAP
0 *4:g 5.56885e-17
1 *31:g 3.67581e-17
2 *37:g 1.13551e-16
3 *17:9 4.58996e-17
4 *17:7 3.18425e-17

*RES
0 *4:g *37:g 97.421165  // $poly_conn
1 *37:g *31:g 70.001373  // $poly_conn
2 *17 *17:9 0.012757  // $metal1_conn
3 *37:g *17:8 45  // $metal1_conn
4 *17:7 *17:8 0.012901  // $metal1_conn
5 *17:7 *17:9 0.043978  // $metal1_conn

*END

*D_NET *27 4.38915e-16

*CONN
*P *27 I *C 1.5000 0.8550 
*I *32:g B *C 2.1375 0.4050 
*I *41:g B *C 1.4525 0.4050 
*I *21:g B *C 2.1375 1.2100 
*I *6:g B *C 1.4525 1.2100 

*CAP
0 *6:g 4.08497e-17
1 *21:g 3.76154e-17
2 *32:g 3.60449e-16

*RES
0 *21:g *32:g 19.691952  // $poly_conn
1 *6:g *32:g 29.948362  // $poly_conn
2 *32:g *27 0.006015  // $metal1_conn

*END

*D_NET *30 2.85616e-16

*CONN
*P *30 I *C 1.9000 0.8550 
*I *26:g B *C 1.6575 0.4050 
*I *29:g B *C 1.8625 0.4050 
*I *19:g B *C 1.6125 1.2100 
*I *20:g B *C 1.8175 1.2100 
*N *30:4 *C 1.7900 0.7375 

*CAP
0 *20:g 3.03396e-17
1 *19:g 5.61963e-17
2 *29:g 1.11383e-16
3 *30:4 5.18406e-17
4 *30 3.58572e-17

*RES
0 *30:4 *20:g 71.504211  // $poly_conn
1 *30:4 *19:g 100.9384  // $poly_conn
2 *29:g *30:4 2.606361  // $poly_conn
3 *30 *29:g 45.110645  // $metal1_conn

*END

*D_NET *2 5.4655e-16

*CONN
*P *2 I *C 2.9000 0.8550 
*I *33:g B *C 2.3425 0.4050 
*I *36:g B *C 2.9575 0.4050 
*I *22:g B *C 2.3425 1.2100 
*I *25:g B *C 2.7575 1.2100 

*CAP
0 *25:g 7.14576e-17
1 *22:g 7.20823e-17
2 *2 4.0301e-16

*RES
0 *2 *25:g 67.026283  // $poly_conn
1 *22:g *2 24.894089  // $poly_conn

*END

*D_NET *3 3.59586e-16

*CONN
*P *3 I *C 2.5000 0.8550 
*I *34:g B *C 2.5475 0.4050 
*I *35:g B *C 2.7525 0.4050 
*I *23:g B *C 2.4475 1.2100 
*I *24:g B *C 2.6525 1.2100 
*N *3:3 *C 2.5200 0.8350 
*N *3:7 *C 2.5200 0.8350 

*CAP
0 *24:g 6.59316e-17
1 *23:g 6.14609e-17
2 *35:g 8.26768e-17
3 *3:3 5.57816e-17
4 *3 9.37351e-17

*RES
0 *3:3 *24:g 55.112999  // $poly_conn
1 *3:3 *23:g 39.728386  // $poly_conn
2 *35:g *3:3 38.713211  // $poly_conn
3 *3:7 *3 0.00375  // $metal1_conn
4 *3:3 *3:7 45  // $metal1_conn

*END

*D_NET *15 6.57629e-16

*CONN
*P *15 O *C 3.3000 0.6650 
*I *33:d B *C 2.4450 0.4050 
*I *34:d B *C 2.4450 0.4050 
*I *35:d B *C 2.8550 0.4050 
*I *36:d B *C 2.8550 0.4050 
*I *19:d B *C 1.7150 1.2100 
*I *20:d B *C 1.7150 1.2100 
*I *23:d B *C 2.5500 1.2100 
*I *24:d B *C 2.5500 1.2100 
*I *31:d B *C 0.6550 1.2100 
*I *4:d B *C 0.6550 1.2100 
*N *15:4 *C 2.5500 1.2150 
*N *15:6 *C 1.7150 1.2150 

*CAP
0 *31:d 1.03472e-16
1 *23:d 1.80339e-16
2 *19:d 1.42964e-16
3 *35:d 1.39226e-16
4 *15 9.16266e-17

*RES
0 *35:d *15 0.379646  // $metal1_conn
1 *15 *15:4 0.863339  // $metal1_conn
2 *23:d *15:4 62  // $metal1_conn
3 *19:d *15:6 62  // $metal1_conn
4 *15:6 *31:d 62.738178  // $metal1_conn
5 *15:4 *15:6 0.602906  // $metal1_conn

*END

*D_NET *14 2.44041e-18

*CONN
*I *24:s B *C 2.7050 1.2100 
*I *25:d B *C 2.7050 1.2100 

*CAP
0 *24:s 2.44041e-18

*RES
0 *25:d *24:s 0.001  // $mwires

*END

*D_NET *13 2.4211e-18

*CONN
*I *22:d B *C 2.3950 1.2100 
*I *23:s B *C 2.3950 1.2100 

*CAP
0 *22:d 2.4211e-18

*RES
0 *23:s *22:d 0.001  // $mwires

*END

*D_NET *12 1.20002e-17

*CONN
*I *20:s B *C 1.9775 1.2100 
*I *21:d B *C 1.9775 1.2100 

*CAP
0 *20:s 1.20002e-17

*RES
0 *21:d *20:s 0.001  // $mwires

*END

*D_NET *11 4.43156e-18

*CONN
*I *19:s B *C 1.5325 1.2100 
*I *6:d B *C 1.5325 1.2100 

*CAP
0 *19:s 4.43156e-18

*RES
0 *6:d *19:s 0.001  // $mwires

*END

*D_NET *10 4.50005e-18

*CONN
*I *4:s B *C 0.8375 1.2100 
*I *5:d B *C 0.8375 1.2100 

*CAP
0 *4:s 4.50005e-18

*RES
0 *5:d *4:s 0.001  // $mwires

*END

*D_NET *9 4.56923e-18

*CONN
*I *28:d B *C 0.4425 1.2100 
*I *31:s B *C 0.4425 1.2100 

*CAP
0 *28:d 4.56923e-18

*RES
0 *31:s *28:d 0.001  // $mwires

*END

*D_NET *8 3.45298e-16

*CONN
*I *26:d B *C 1.7600 0.4050 
*I *29:d B *C 1.7600 0.4050 
*I *32:d B *C 2.2400 0.4050 
*I *33:s B *C 2.2400 0.4050 
*I *34:s B *C 2.6500 0.4050 
*I *35:s B *C 2.6500 0.4050 
*I *36:s B *C 3.0500 0.4050 
*I *41:d B *C 1.3600 0.4050 

*CAP
0 *36:s 1.76588e-16
1 *34:s 7.91049e-17
2 *26:d 8.96051e-17

*RES
0 *34:s *36:s 75  // $metal1_conn
1 *26:d *36:s 75  // $metal1_conn

*END

*D_NET *7 3.04976e-16

*CONN
*I *26:s B *C 1.5550 0.4050 
*I *29:s B *C 2.0000 0.4050 
*I *32:s B *C 2.0000 0.4050 
*I *38:d B *C 0.3800 0.4050 
*I *40:d B *C 0.3800 0.4050 
*I *37:d B *C 0.8025 0.4050 
*I *39:d B *C 0.8025 0.4050 
*I *41:s B *C 1.5550 0.4050 

*CAP
0 *37:d 1.26738e-16
1 *29:s 1.78238e-16

*RES
0 *29:s *37:d 0.506535  // $metal1_conn

*END

