*SPEF "IEEE 1481-1999"
*DESIGN  "OAI222X4"
*DATE "Mon Sep 27 10:40:12 2010"
*VENDOR "Cadence Design Systems"
*PROGRAM "Assura RCX"
*VERSION "3.2 Red Hat Linux release 7.2 (Enigma) - (09/09/2009-10:39)"
*DESIGN_FLOW "Physical Verification"
*DIVIDER /
*DELIMITER :
*BUS_DELIMITER []
*T_UNIT 1 PS
*C_UNIT 1e15 FF
*R_UNIT 1 OHM
*L_UNIT 1 MH
// DeviceFingerDelim "@"
// MATCHED
// caps2d version: 10

*NAME_MAP
*1 mn3\@3
*2 mn5
*3 mn4
*4 mn4\@1
*5 mn5\@1
*6 mp5
*7 mn5\@2
*8 mp5\@1
*9 mn4\@2
*10 mp4\@1
*11 mn2
*12 mp4\@2
*13 mn3
*14 mp5\@2
*15 mn3\@1
*16 mp5\@3
*17 mp4\@3
*18 mp2
*19 mp2\@1
*20 VSS
*21 A0
*22 A1
*23 B0
*24 B1
*25 mp3\@1
*26 mp3\@2
*27 mp2\@2
*28 mp4
*29 mp0
*30 mp1
*31 mp1\@1
*32 mp0\@1
*33 mp0\@2
*34 mp1\@2
*35 C0
*36 C1
*37 n1
*38 mp1\@3
*39 n0
*40 mp0\@3
*41 n2
*42 mp2\@3
*43 n2\@1
*44 mp3\@3
*45 n2\@2
*46 mp3
*47 n2\@3
*48 n3\@3
*49 n3
*50 n3\@1
*51 n3\@2
*52 n4
*53 n4\@1
*54 n4\@2
*55 n4\@3
*56 VDD
*57 Y
*58 mn2\@1
*59 mn4\@3
*60 mn5\@3
*61 mn2\@2
*62 mn0
*63 mn1
*64 mn1\@1
*65 mn0\@1
*66 mn0\@2
*67 mn1\@2
*68 mn1\@3
*69 mn0\@3
*70 mn2\@3
*71 mn3\@2

*GROUND_NETS VSS

*PORTS
*56 I
*20 I
*21 I
*22 I
*23 I
*24 I
*35 I
*36 I
*57 O

*D_NET *56 6.3621e-16

*CONN
*P *56 I *C 0.1000 1.7100 
*I *10:s B *C 4.3450 1.2600 
*I *12:s B *C 4.3450 1.2600 
*I *17:s B *C 4.9600 1.2600 
*I *18:s B *C 2.8850 1.2600 
*I *19:s B *C 2.8850 1.2600 
*I *27:s B *C 3.6225 1.2600 
*I *28:s B *C 3.6225 1.2600 
*I *29:s B *C 0.5050 1.2600 
*I *32:s B *C 1.1650 1.2600 
*I *33:s B *C 1.1650 1.2600 
*I *40:s B *C 1.8850 1.2600 
*I *42:s B *C 1.8850 1.2600 
*N *56:2 *C 0.4950 1.7100 
*N *56:3 *C 0.9000 1.7100 
*N *56:4 *C 0.9000 1.7100 
*N *56:5 *C 1.1350 1.7100 
*N *56:7 *C 1.7550 1.7100 
*N *56:9 *C 2.7000 1.7100 
*N *56:10 *C 2.8550 1.7100 
*N *56:12 *C 3.5550 1.7100 
*N *56:14 *C 4.3150 1.7100 
*N *56:16 *C 4.5000 1.7100 

*CAP
0 *40:s 3.44927e-17
1 *32:s 2.56425e-17
2 *29:s 1.42776e-17
3 *27:s 2.91326e-17
4 *18:s 2.81735e-17
5 *17:s 3.12213e-17
6 *10:s 2.59974e-17
7 *56:14 1.68676e-17
8 *56:12 2.62521e-17
9 *56:10 1.57486e-17
10 *56:7 2.72298e-17
11 *56:5 1.43622e-17
12 *56:2 1.04174e-17
13 *56:3 3.34603e-16
14 *56 1.79155e-18

*RES
0 *29:s *56:2 62.190269  // $metal1_conn
1 *56:2 *56 0.196997  // $metal1_conn
2 *56:2 *56:4 0.202257  // $metal1_conn
3 *56:4 *56:5 0.117515  // $metal1_conn
4 *56:5 *32:s 62.186401  // $metal1_conn
5 *56:5 *56:7 0.310165  // $metal1_conn
6 *56:7 *40:s 62.186401  // $metal1_conn
7 *56:7 *56:9 0.473152  // $metal1_conn
8 *56:9 *56:10 0.077443  // $metal1_conn
9 *56:10 *18:s 62.186401  // $metal1_conn
10 *56:10 *56:12 0.350236  // $metal1_conn
11 *56:12 *27:s 62.186401  // $metal1_conn
12 *56:12 *56:14 0.38029  // $metal1_conn
13 *56:14 *10:s 62.186401  // $metal1_conn
14 *56:14 *56:16 0.09247  // $metal1_conn
15 *56:16 *17:s 62.441082  // $metal1_conn
16 *56:3 *56:4 8.333333  // $metal1_conn
17 *56:3 *56:9 8.333333  // $metal1_conn
18 *56:3 *56:16 8.333333  // $metal1_conn

*END

*D_NET *20 0

*CONN
*P *20 I *C 0.1000 0.0000 
*I *62:s B *C 0.1550 0.5250 
*I *63:s B *C 0.5550 0.5250 
*I *64:s B *C 0.5550 0.5250 
*I *65:s B *C 0.9650 0.5250 
*I *66:s B *C 0.9650 0.5250 
*I *67:s B *C 1.3750 0.5250 
*I *68:s B *C 1.3750 0.5250 
*I *69:s B *C 1.7750 0.5250 
*N *20:1 *C 4.5000 0.0000 
*N *20:2 *C 2.7000 0.0000 


*RES
0 *69:s *20 0.022089  // $metal1_conn
1 *20:1 *20:2 6.888889  // $metal1_conn
2 *20:1 *20:2 7.790504  // $metal1_conn
3 *20:1 *69:s 6.888889  // $metal1_conn
4 *20:2 *69:s 0.458125  // $metal1_conn

*END

*D_NET *21 8.33285e-16

*CONN
*P *21 I *C 1.7000 0.8550 
*I *62:g B *C 0.2475 0.5250 
*I *65:g B *C 0.8625 0.5250 
*I *66:g B *C 1.0675 0.5250 
*I *69:g B *C 1.6825 0.5250 
*I *29:g B *C 0.5975 1.2600 
*I *32:g B *C 1.0625 1.2600 
*I *33:g B *C 1.2675 1.2600 
*I *40:g B *C 1.6825 1.2600 

*CAP
0 *40:g 6.95111e-17
1 *33:g 6.11896e-17
2 *32:g 3.58095e-17
3 *29:g 7.99973e-17
4 *21 5.86778e-16

*RES
0 *40:g *21 46.615028  // $poly_conn
1 *33:g *21 45.266819  // $poly_conn
2 *21 *32:g 20.385904  // $poly_conn
3 *29:g *21 79.47197  // $poly_conn

*END

*D_NET *22 6.83547e-16

*CONN
*P *22 I *C 0.9000 0.8550 
*I *63:g B *C 0.4525 0.5250 
*I *64:g B *C 0.6575 0.5250 
*I *67:g B *C 1.2725 0.5250 
*I *68:g B *C 1.4775 0.5250 
*I *30:g B *C 0.7025 1.2600 
*I *31:g B *C 0.9075 1.2600 
*I *34:g B *C 1.3725 1.2600 
*I *38:g B *C 1.5775 1.2600 
*N *22:2 *C 0.7300 0.8575 

*CAP
0 *38:g 7.0407e-17
1 *34:g 6.74831e-17
2 *31:g 4.91323e-17
3 *30:g 6.64067e-17
4 *68:g 4.03438e-16
5 *22 2.66797e-17

*RES
0 *38:g *68:g 79.692764  // $poly_conn
1 *68:g *34:g 57.180859  // $poly_conn
2 *31:g *22:2 83.032295  // $poly_conn
3 *22:2 *30:g 53.470257  // $poly_conn
4 *22:2 *68:g 2.815496  // $poly_conn
5 *68:g *22 0.009675  // $metal1_conn

*END

*D_NET *23 7.70616e-16

*CONN
*P *23 I *C 3.5000 0.8550 
*I *11:g B *C 2.9125 0.5250 
*I *58:g B *C 3.5575 0.5250 
*I *61:g B *C 2.7075 0.5250 
*I *70:g B *C 2.0875 0.5250 
*I *18:g B *C 2.7825 1.2600 
*I *19:g B *C 2.9875 1.2600 
*I *27:g B *C 3.4825 1.2600 
*I *42:g B *C 2.0875 1.2600 

*CAP
0 *42:g 3.49198e-17
1 *27:g 5.991e-17
2 *19:g 3.87523e-17
3 *18:g 2.33986e-17
4 *23 6.13635e-16

*RES
0 *23 *27:g 44.321754  // $poly_conn
1 *19:g *23 44.857056  // $poly_conn
2 *23 *18:g 14.93473  // $poly_conn
3 *42:g *23 19.691952  // $poly_conn

*END

*D_NET *24 5.6685e-16

*CONN
*P *24 I *C 2.5000 0.8550 
*I *13:g B *C 3.1475 0.5250 
*I *15:g B *C 3.3525 0.5250 
*I *71:g B *C 2.2925 0.5250 
*I *1:g B *C 2.4975 0.5250 
*I *25:g B *C 3.1475 1.2600 
*I *26:g B *C 3.3525 1.2600 
*I *44:g B *C 2.2925 1.2600 
*I *46:g B *C 2.4975 1.2600 

*CAP
0 *46:g 2.97331e-17
1 *44:g 3.70123e-17
2 *26:g 5.22349e-17
3 *25:g 4.30744e-17
4 *15:g 3.75554e-16
5 *24 2.92409e-17

*RES
0 *26:g *15:g 55.899281  // $poly_conn
1 *15:g *25:g 55.61676  // $poly_conn
2 *46:g *15:g 55.61676  // $poly_conn
3 *15:g *44:g 55.516506  // $poly_conn
4 *15:g *24 0.019771  // $metal1_conn

*END

*D_NET *35 8.46418e-16

*CONN
*P *35 I *C 3.9000 0.8550 
*I *3:g B *C 4.3775 0.5250 
*I *4:g B *C 4.5825 0.5250 
*I *9:g B *C 5.1975 0.5250 
*I *59:g B *C 3.7625 0.5250 
*I *10:g B *C 4.2425 1.2600 
*I *12:g B *C 4.4475 1.2600 
*I *17:g B *C 4.8675 1.2600 
*I *28:g B *C 3.7625 1.2600 

*CAP
0 *28:g 4.95859e-17
1 *17:g 5.93595e-17
2 *12:g 5.32385e-17
3 *10:g 7.80094e-17
4 *35 6.06225e-16

*RES
0 *35 *17:g 16.530039  // $poly_conn
1 *35 *12:g 19.156202  // $poly_conn
2 *35 *10:g 49.769836  // $poly_conn
3 *28:g *35 42.768875  // $poly_conn

*END

*D_NET *36 6.77296e-16

*CONN
*P *36 I *C 4.7000 0.8550 
*I *2:g B *C 4.1725 0.5250 
*I *5:g B *C 4.7875 0.5250 
*I *7:g B *C 4.9925 0.5250 
*I *60:g B *C 3.9675 0.5250 
*I *6:g B *C 3.9325 1.2600 
*I *8:g B *C 4.1375 1.2600 
*I *14:g B *C 4.5575 1.2600 
*I *16:g B *C 4.7625 1.2600 

*CAP
0 *16:g 6.53684e-17
1 *14:g 6.85609e-17
2 *8:g 7.04486e-17
3 *6:g 4.04031e-17
4 *36 4.32515e-16

*RES
0 *36 *16:g 47.92445  // $poly_conn
1 *36 *14:g 79.47197  // $poly_conn
2 *36 *8:g 57.180859  // $poly_conn
3 *36 *6:g 69.870934  // $poly_conn

*END

*D_NET *57 1.107e-15

*CONN
*P *57 O *C 5.1000 0.8550 
*I *2:d B *C 4.2750 0.5250 
*I *3:d B *C 4.2750 0.5250 
*I *4:d B *C 4.6850 0.5250 
*I *5:d B *C 4.6850 0.5250 
*I *7:d B *C 5.0950 0.5250 
*I *9:d B *C 5.0950 0.5250 
*I *59:d B *C 3.8650 0.5250 
*I *60:d B *C 3.8650 0.5250 
*I *6:d B *C 4.0350 1.2600 
*I *8:d B *C 4.0350 1.2600 
*I *14:d B *C 4.6600 1.2600 
*I *16:d B *C 4.6600 1.2600 
*I *25:d B *C 3.2500 1.2600 
*I *26:d B *C 3.2500 1.2600 
*I *30:d B *C 0.8050 1.2600 
*I *31:d B *C 0.8050 1.2600 
*I *34:d B *C 1.4750 1.2600 
*I *38:d B *C 1.4750 1.2600 
*I *44:d B *C 2.3950 1.2600 
*I *46:d B *C 2.3950 1.2600 
*N *57:8 *C 4.6600 1.2150 
*N *57:10 *C 4.0350 1.2150 
*N *57:12 *C 3.2500 1.2150 
*N *57:14 *C 2.3950 1.2150 
*N *57:16 *C 1.4750 1.2150 

*CAP
0 *44:d 1.42435e-16
1 *34:d 1.4117e-16
2 *30:d 7.48038e-17
3 *25:d 1.50333e-16
4 *14:d 1.14511e-16
5 *6:d 1.17952e-16
6 *7:d 3.01842e-16
7 *57 6.39513e-17

*RES
0 *7:d *57 0.17152  // $metal1_conn
1 *57 *57:8 0.533537  // $metal1_conn
2 *14:d *57:8 62  // $metal1_conn
3 *6:d *57:10 62  // $metal1_conn
4 *25:d *57:12 62  // $metal1_conn
5 *44:d *57:14 62  // $metal1_conn
6 *34:d *57:16 62  // $metal1_conn
7 *57:16 *30:d 62.492588  // $metal1_conn
8 *57:8 *57:10 0.459459  // $metal1_conn
9 *57:10 *57:12 0.550014  // $metal1_conn
10 *57:12 *57:14 0.628789  // $metal1_conn
11 *57:14 *57:16 0.649311  // $metal1_conn

*END

*D_NET *55 1.75543e-18

*CONN
*I *16:s B *C 4.8150 1.2600 
*I *17:d B *C 4.8150 1.2600 

*CAP
0 *16:s 1.75543e-18

*RES
0 *17:d *16:s 0.001  // $mwires

*END

*D_NET *54 1.90172e-18

*CONN
*I *12:d B *C 4.5025 1.2600 
*I *14:s B *C 4.5025 1.2600 

*CAP
0 *12:d 1.90172e-18

*RES
0 *14:s *12:d 0.001  // $mwires

*END

*D_NET *53 1.75543e-18

*CONN
*I *8:s B *C 4.1900 1.2600 
*I *10:d B *C 4.1900 1.2600 

*CAP
0 *8:s 1.75543e-18

*RES
0 *10:d *8:s 0.001  // $mwires

*END

*D_NET *52 3.34407e-18

*CONN
*I *6:s B *C 3.8475 1.2600 
*I *28:d B *C 3.8475 1.2600 

*CAP
0 *6:s 3.34407e-18

*RES
0 *28:d *6:s 0.001  // $mwires

*END

*D_NET *51 2.48686e-18

*CONN
*I *26:s B *C 3.4175 1.2600 
*I *27:d B *C 3.4175 1.2600 

*CAP
0 *26:s 2.48686e-18

*RES
0 *27:d *26:s 0.001  // $mwires

*END

*D_NET *50 3.36458e-18

*CONN
*I *19:d B *C 3.0675 1.2600 
*I *25:s B *C 3.0675 1.2600 

*CAP
0 *19:d 3.36458e-18

*RES
0 *25:s *19:d 0.001  // $mwires

*END

*D_NET *49 7.00791e-18

*CONN
*I *18:d B *C 2.6400 1.2600 
*I *46:s B *C 2.6400 1.2600 

*CAP
0 *18:d 7.00791e-18

*RES
0 *46:s *18:d 0.001  // $mwires

*END

*D_NET *48 4.62148e-18

*CONN
*I *42:d B *C 2.1900 1.2600 
*I *44:s B *C 2.1900 1.2600 

*CAP
0 *42:d 4.62148e-18

*RES
0 *44:s *42:d 0.001  // $mwires

*END

*D_NET *47 1.75543e-18

*CONN
*I *38:s B *C 1.6300 1.2600 
*I *40:d B *C 1.6300 1.2600 

*CAP
0 *38:s 1.75543e-18

*RES
0 *40:d *38:s 0.001  // $mwires

*END

*D_NET *45 1.75543e-18

*CONN
*I *33:d B *C 1.3200 1.2600 
*I *34:s B *C 1.3200 1.2600 

*CAP
0 *33:d 1.75543e-18

*RES
0 *34:s *33:d 0.001  // $mwires

*END

*D_NET *43 3.19897e-18

*CONN
*I *31:s B *C 0.9850 1.2600 
*I *32:d B *C 0.9850 1.2600 

*CAP
0 *31:s 3.19897e-18

*RES
0 *32:d *31:s 0.001  // $mwires

*END

*D_NET *41 0

*CONN
*I *29:d B *C 0.6500 1.2600 
*I *30:s B *C 0.6500 1.2600 


*RES
0 *30:s *29:d 0.001  // $mwires

*END

*D_NET *39 5.86146e-16

*CONN
*I *2:s B *C 4.0700 0.5250 
*I *3:s B *C 4.4800 0.5250 
*I *4:s B *C 4.4800 0.5250 
*I *5:s B *C 4.8900 0.5250 
*I *7:s B *C 4.8900 0.5250 
*I *9:s B *C 5.2900 0.5250 
*I *11:d B *C 2.8100 0.5250 
*I *13:d B *C 3.2500 0.5250 
*I *15:d B *C 3.2500 0.5250 
*I *58:d B *C 3.6600 0.5250 
*I *59:s B *C 3.6600 0.5250 
*I *60:s B *C 4.0700 0.5250 
*I *61:d B *C 2.8100 0.5250 
*I *70:d B *C 1.9950 0.5250 
*I *71:d B *C 2.3950 0.5250 
*I *1:d B *C 2.3950 0.5250 

*CAP
0 *9:s 5.86146e-16


*END

*D_NET *37 6.13861e-16

*CONN
*I *11:s B *C 3.0300 0.5250 
*I *13:s B *C 3.0300 0.5250 
*I *15:s B *C 3.4550 0.5250 
*I *58:s B *C 3.4550 0.5250 
*I *61:s B *C 2.6025 0.5250 
*I *62:d B *C 0.3500 0.5250 
*I *63:d B *C 0.3500 0.5250 
*I *64:d B *C 0.7600 0.5250 
*I *65:d B *C 0.7600 0.5250 
*I *66:d B *C 1.1700 0.5250 
*I *67:d B *C 1.1700 0.5250 
*I *68:d B *C 1.5800 0.5250 
*I *69:d B *C 1.5800 0.5250 
*I *70:s B *C 2.1900 0.5250 
*I *71:s B *C 2.1900 0.5250 
*I *1:s B *C 2.6025 0.5250 

*CAP
0 *68:d 2.65572e-16
1 *15:s 3.48288e-16

*RES
0 *15:s *68:d 0.410437  // $metal1_conn

*END

