*SPEF "IEEE 1481-1999"
*DESIGN  "OAI33X1"
*DATE "Mon Sep 27 10:48:30 2010"
*VENDOR "Cadence Design Systems"
*PROGRAM "Assura RCX"
*VERSION "3.2 Red Hat Linux release 7.2 (Enigma) - (09/09/2009-10:39)"
*DESIGN_FLOW "Physical Verification"
*DIVIDER /
*DELIMITER :
*BUS_DELIMITER []
*T_UNIT 1 PS
*C_UNIT 1e15 FF
*R_UNIT 1 OHM
*L_UNIT 1 MH
// DeviceFingerDelim "@"
// MATCHED
// caps2d version: 10

*NAME_MAP
*1 no
*2 mp0
*3 n3
*4 mp1
*5 n4
*6 mp2
*7 n2
*8 mp5
*9 n1
*10 mp3
*11 A0
*12 mp4
*13 A1
*14 VDD
*15 A2
*16 mn0
*17 mn1
*18 mn2
*19 mn5
*20 mn3
*21 mn4
*22 B0
*23 B1
*24 B2
*25 Y
*26 VSS

*GROUND_NETS VSS

*PORTS
*14 I
*26 I
*11 I
*13 I
*15 I
*22 I
*23 I
*24 I
*25 O

*D_NET *14 2.13576e-16

*CONN
*P *14 I *C 0.1000 1.7100 
*I *2:s B *C 0.2800 1.2650 
*I *12:d B *C 1.3150 1.2650 
*N *14:2 *C 0.8000 1.7100 
*N *14:3 *C 0.8000 1.7100 
*N *14:4 *C 0.2700 1.7100 

*CAP
0 *12:d 5.03232e-17
1 *2:s 3.57036e-17
2 *14:4 1.11876e-17
3 *14:2 1.16362e-16

*RES
0 *12:d *14:3 62.405018  // $metal1_conn
1 *14:3 *14:4 0.265679  // $metal1_conn
2 *14:4 *14 0.084834  // $metal1_conn
3 *14:4 *2:s 31.232101  // $metal1_conn
4 *14:2 *14:3 9.375  // $metal1_conn

*END

*D_NET *26 0

*CONN
*P *26 I *C 0.1000 0.0000 
*I *16:s B *C 0.1800 0.3600 
*I *17:s B *C 0.5800 0.3600 
*I *18:s B *C 0.5800 0.3600 
*N *26:1 *C 0.8000 0.0000 
*N *26:2 *C 0.5800 0.0000 
*N *26:3 *C 0.1700 0.0000 


*RES
0 *26:1 *26:2 7.860518  // $metal1_conn
1 *26:2 *26:3 0.205284  // $metal1_conn
2 *26:3 *26 0.034663  // $metal1_conn
3 *26:2 *17:s 75.181168  // $metal1_conn
4 *26:3 *16:s 75.175217  // $metal1_conn

*END

*D_NET *11 2.58775e-16

*CONN
*P *11 I *C 0.3000 0.8550 
*I *16:g B *C 0.2725 0.3600 
*I *2:g B *C 0.3725 1.2650 
*N *11:2 *C 0.3050 0.6700 

*CAP
0 *2:g 8.11376e-17
1 *16:g 3.25904e-17
2 *11:2 8.39369e-17
3 *11 6.11101e-17

*RES
0 *2:g *11:2 95.45462  // $poly_conn
1 *11:2 *16:g 35.297974  // $poly_conn
2 *11 *11:2 45.11116  // $metal1_conn

*END

*D_NET *13 3.15344e-16

*CONN
*P *13 I *C 0.5000 1.0450 
*I *17:g B *C 0.4775 0.3600 
*I *4:g B *C 0.4775 1.2650 
*N *13:2 *C 0.4975 0.6700 

*CAP
0 *4:g 9.82019e-17
1 *17:g 4.22257e-17
2 *13:2 1.28201e-16
3 *13 4.67153e-17

*RES
0 *4:g *13:2 91.692101  // $poly_conn
1 *13:2 *17:g 35.281841  // $poly_conn
2 *13 *13:2 45.225323  // $metal1_conn

*END

*D_NET *15 2.58017e-16

*CONN
*P *15 I *C 0.7000 1.0450 
*I *18:g B *C 0.6825 0.3600 
*I *6:g B *C 0.6825 1.2650 
*N *15:2 *C 0.7100 0.9600 
*N *15:4 *C 0.7050 0.9600 

*CAP
0 *6:g 4.08956e-17
1 *18:g 6.42794e-17
2 *15:4 8.46403e-17
3 *15:2 4.35762e-17
4 *15 2.46257e-17

*RES
0 *6:g *15:2 19.691952  // $poly_conn
1 *15:2 *18:g 111.999641  // $poly_conn
2 *15:4 *15 0.052964  // $metal1_conn
3 *15:2 *15:4 45  // $metal1_conn

*END

*D_NET *22 2.91514e-16

*CONN
*P *22 I *C 1.3000 0.8550 
*I *21:g B *C 1.3275 0.3600 
*I *12:g B *C 1.2225 1.2650 
*N *22:2 *C 1.3000 0.9350 

*CAP
0 *12:g 6.55289e-17
1 *21:g 4.76453e-17
2 *22:2 1.11223e-16
3 *22 6.71174e-17

*RES
0 *21:g *22:2 102.427475  // $poly_conn
1 *22:2 *12:g 29.471972  // $poly_conn
2 *22 *22:2 45.048069  // $metal1_conn

*END

*D_NET *23 3.15227e-16

*CONN
*P *23 I *C 1.1000 1.0450 
*I *20:g B *C 1.1225 0.3600 
*I *10:g B *C 1.1175 1.2650 
*N *23:2 *C 1.0900 0.6700 

*CAP
0 *10:g 1.01969e-16
1 *20:g 4.23573e-17
2 *23:2 1.15072e-16
3 *23 5.58282e-17

*RES
0 *20:g *23:2 35.342789  // $poly_conn
1 *23:2 *10:g 90.889008  // $poly_conn
2 *23 *23:2 45.225323  // $metal1_conn

*END

*D_NET *24 2.60572e-16

*CONN
*P *24 I *C 0.9000 1.0450 
*I *19:g B *C 0.9175 0.3600 
*I *8:g B *C 0.9175 1.2650 
*N *24:2 *C 0.9000 0.6700 

*CAP
0 *8:g 6.12886e-17
1 *19:g 4.04883e-17
2 *24:2 1.00583e-16
3 *24 5.82124e-17

*RES
0 *8:g *24:2 91.679878  // $poly_conn
1 *24:2 *19:g 35.269619  // $poly_conn
2 *24 *24:2 45.225323  // $metal1_conn

*END

*D_NET *25 3.37834e-16

*CONN
*P *25 O *C 1.5000 1.0450 
*I *19:d B *C 1.0200 0.3600 
*I *20:d B *C 1.0200 0.3600 
*I *21:d B *C 1.4200 0.3600 
*I *6:d B *C 0.8000 1.2650 
*I *8:d B *C 0.8000 1.2650 
*N *25:3 *C 1.4300 0.4300 

*CAP
0 *6:d 8.23352e-17
1 *21:d 7.96528e-17
2 *19:d 5.77903e-17
3 *25 1.18056e-16

*RES
0 *19:d *25:3 75.304947  // $metal1_conn
1 *25:3 *25 0.450712  // $metal1_conn
2 *25 *6:d 31.644604  // $metal1_conn
3 *21:d *25:3 75  // $metal1_conn

*END

*D_NET *9 0

*CONN
*I *2:d B *C 0.4250 1.2650 
*I *4:s B *C 0.4250 1.2650 


*RES
0 *4:s *2:d 0.001  // $mwires

*END

*D_NET *7 1.78301e-18

*CONN
*I *4:d B *C 0.5800 1.2650 
*I *6:s B *C 0.5800 1.2650 

*CAP
0 *4:d 1.78301e-18

*RES
0 *6:s *4:d 0.001  // $mwires

*END

*D_NET *5 6.62107e-18

*CONN
*I *8:s B *C 1.0175 1.2650 
*I *10:s B *C 1.0175 1.2650 

*CAP
0 *8:s 6.62107e-18

*RES
0 *10:s *8:s 0.001  // $mwires

*END

*D_NET *3 2.33123e-18

*CONN
*I *10:d B *C 1.1700 1.2650 
*I *12:s B *C 1.1700 1.2650 

*CAP
0 *10:d 2.33123e-18

*RES
0 *12:s *10:d 0.001  // $mwires

*END

*D_NET *1 1.89484e-16

*CONN
*I *16:d B *C 0.3750 0.3600 
*I *17:d B *C 0.3750 0.3600 
*I *18:d B *C 0.8000 0.3600 
*I *19:s B *C 0.8000 0.3600 
*I *20:s B *C 1.2250 0.3600 
*I *21:s B *C 1.2250 0.3600 
*N *1:3 *C 0.7850 0.2900 

*CAP
0 *20:s 6.33041e-17
1 *18:d 8.10386e-17
2 *16:d 4.51408e-17

*RES
0 *16:d *1:3 75.416664  // $metal1_conn
1 *1:3 *20:s 75.32399  // $metal1_conn
2 *18:d *1:3 75  // $metal1_conn

*END

