*SPEF "IEEE 1481-1999"
*DESIGN  "OAI33X2"
*DATE "Mon Sep 27 10:48:53 2010"
*VENDOR "Cadence Design Systems"
*PROGRAM "Assura RCX"
*VERSION "3.2 Red Hat Linux release 7.2 (Enigma) - (09/09/2009-10:39)"
*DESIGN_FLOW "Physical Verification"
*DIVIDER /
*DELIMITER :
*BUS_DELIMITER []
*T_UNIT 1 PS
*C_UNIT 1e15 FF
*R_UNIT 1 OHM
*L_UNIT 1 MH
// DeviceFingerDelim "@"
// MATCHED
// caps2d version: 10

*NAME_MAP
*1 Y
*2 VDD
*3 n3\@3
*4 n3\@4
*5 n3\@5
*6 VSS
*7 B0
*8 B1
*9 B2
*10 mn5
*11 mn3
*12 mn4
*13 mp2
*14 mn4\@1
*15 mp0\@1
*16 mn3\@1
*17 mp1\@1
*18 mp5
*19 mn5\@1
*20 mp2\@1
*21 mp3
*22 mn5\@2
*23 mp2\@2
*24 mp4
*25 mn0
*26 mn3\@2
*27 mp1\@2
*28 mp4\@1
*29 mn1
*30 mn4\@2
*31 mp0\@2
*32 mp3\@1
*33 mn2
*34 mp0
*35 mp5\@1
*36 mn2\@1
*37 mp1
*38 mp5\@2
*39 mn1\@1
*40 mp3\@2
*41 mn0\@1
*42 mp4\@2
*43 mn0\@2
*44 mn1\@2
*45 mn2\@2
*46 n0
*47 n1\@1
*48 n1\@2
*49 n1\@3
*50 n1\@4
*51 n1\@5
*52 n1
*53 n3
*54 n3\@1
*55 n3\@2
*56 A0
*57 A1
*58 A2

*GROUND_NETS VSS

*PORTS
*2 I
*6 I
*56 I
*57 I
*58 I
*7 I
*8 I
*9 I
*1 O

*D_NET *2 5.60534e-16

*CONN
*P *2 I *C 0.1000 1.7100 
*I *24:d B *C 3.0800 1.2675 
*I *28:d B *C 3.0800 1.2675 
*I *42:d B *C 4.1050 1.3000 
*I *15:s B *C 0.3200 1.2675 
*I *31:s B *C 1.4800 1.2650 
*I *34:s B *C 1.4800 1.2650 
*N *2:2 *C 0.3100 1.7100 
*N *2:3 *C 1.1000 1.7100 
*N *2:4 *C 1.1000 1.7100 
*N *2:5 *C 1.3650 1.7100 
*N *2:7 *C 2.9650 1.7100 
*N *2:9 *C 3.3000 1.7100 

*CAP
0 *31:s 4.1652e-17
1 *15:s 1.40368e-17
2 *42:d 4.732e-17
3 *24:d 3.7306e-17
4 *2:7 3.24693e-17
5 *2:5 2.91797e-17
6 *2:2 1.0444e-17
7 *2:3 3.48126e-16

*RES
0 *15:s *2:2 62.227352  // $metal1_conn
1 *2:2 *2 0.104401  // $metal1_conn
2 *2:2 *2:4 0.395366  // $metal1_conn
3 *2:4 *2:5 0.13263  // $metal1_conn
4 *2:5 *31:s 62.183605  // $metal1_conn
5 *2:5 *2:7 0.801579  // $metal1_conn
6 *2:7 *24:d 62.183605  // $metal1_conn
7 *2:7 *2:9 0.167717  // $metal1_conn
8 *2:9 *42:d 62.608891  // $metal1_conn
9 *2:3 *2:4 6.818182  // $metal1_conn
10 *2:3 *2:9 6.818182  // $metal1_conn

*END

*D_NET *6 0

*CONN
*P *6 I *C 0.1000 0.0000 
*I *25:s B *C 0.2200 0.4125 
*I *29:s B *C 0.7350 0.4125 
*I *33:s B *C 0.7350 0.4125 
*I *36:s B *C 1.2150 0.4125 
*I *39:s B *C 1.2150 0.4125 
*I *41:s B *C 1.6850 0.4150 
*I *43:s B *C 1.6850 0.4150 
*I *44:s B *C 2.1550 0.4150 
*I *45:s B *C 2.1550 0.4150 
*N *6:1 *C 3.3000 0.0000 


*RES
0 *44:s *6 0.054689  // $metal1_conn
1 *6:1 *44:s 6.26772  // $metal1_conn
2 *6:1 *44:s 5.636364  // $metal1_conn

*END

*D_NET *56 6.77961e-16

*CONN
*P *56 I *C 0.5000 0.6650 
*I *25:g B *C 0.3125 0.4125 
*I *41:g B *C 1.4675 0.4125 
*I *43:g B *C 1.7325 0.4150 
*I *15:g B *C 0.4125 1.2675 
*I *31:g B *C 1.2625 1.2675 
*I *34:g B *C 1.5275 1.2650 
*N *56:7 *C 1.4675 1.0375 

*CAP
0 *34:g 2.19311e-17
1 *31:g 7.3148e-17
2 *15:g 8.13895e-17
3 *56:7 3.15291e-17
4 *56 4.69964e-16

*RES
0 *56:7 *34:g 32.935822  // $poly_conn
1 *56:7 *31:g 70.115311  // $poly_conn
2 *15:g *56 106.273636  // $poly_conn
3 *56 *56:7 79.927414  // $poly_conn

*END

*D_NET *57 8.35024e-16

*CONN
*P *57 I *C 1.7000 0.8550 
*I *29:g B *C 0.5175 0.4125 
*I *39:g B *C 1.2625 0.4125 
*I *44:g B *C 1.9375 0.4150 
*I *17:g B *C 0.5175 1.2675 
*I *27:g B *C 1.1575 1.2675 
*I *37:g B *C 1.9375 1.2650 

*CAP
0 *37:g 3.96841e-17
1 *27:g 8.70375e-17
2 *17:g 7.21249e-17
3 *57 6.36178e-16

*RES
0 *37:g *57 71.047935  // $poly_conn
1 *57 *27:g 62.683887  // $poly_conn
2 *17:g *57 65.845795  // $poly_conn

*END

*D_NET *58 6.34659e-16

*CONN
*P *58 I *C 2.1000 1.0450 
*I *33:g B *C 0.7825 0.4125 
*I *36:g B *C 0.9975 0.4125 
*I *45:g B *C 2.2025 0.4150 
*I *13:g B *C 2.2025 1.2650 
*I *20:g B *C 0.7825 1.2675 
*I *23:g B *C 0.9975 1.2675 

*CAP
0 *23:g 2.9803e-17
1 *20:g 2.09969e-17
2 *13:g 3.86482e-17
3 *58 5.45211e-16

*RES
0 *13:g *58 19.691952  // $poly_conn
1 *23:g *58 19.691952  // $poly_conn
2 *20:g *58 19.691952  // $poly_conn

*END

*D_NET *7 6.46313e-16

*CONN
*P *7 I *C 3.1000 1.0450 
*I *12:g B *C 2.8625 0.4175 
*I *14:g B *C 3.0925 0.4175 
*I *30:g B *C 4.1625 0.4200 
*I *24:g B *C 2.8625 1.2675 
*I *28:g B *C 3.1275 1.2675 
*I *42:g B *C 3.9725 1.2700 

*CAP
0 *42:g 4.08042e-17
1 *28:g 3.13538e-17
2 *24:g 2.65506e-17
3 *7 5.47604e-16

*RES
0 *7 *42:g 22.940296  // $poly_conn
1 *28:g *7 16.15522  // $poly_conn
2 *24:g *7 16.15522  // $poly_conn

*END

*D_NET *8 9.01531e-16

*CONN
*P *8 I *C 2.7000 1.0450 
*I *11:g B *C 2.6525 0.4175 
*I *16:g B *C 3.2975 0.4175 
*I *26:g B *C 3.9575 0.4200 
*I *21:g B *C 2.6525 1.2675 
*I *32:g B *C 3.2975 1.2675 
*I *40:g B *C 3.8375 1.2700 

*CAP
0 *40:g 6.79841e-17
1 *32:g 5.90168e-17
2 *21:g 6.22818e-17
3 *26:g 6.85542e-16
4 *8 2.67058e-17

*RES
0 *26:g *40:g 56.273628  // $poly_conn
1 *32:g *26:g 58.153492  // $poly_conn
2 *26:g *21:g 33.073196  // $poly_conn
3 *26:g *8 0.043191  // $metal1_conn

*END

*D_NET *9 7.4909e-16

*CONN
*P *9 I *C 2.5000 0.8550 
*I *10:g B *C 2.4325 0.4175 
*I *19:g B *C 3.5175 0.4175 
*I *22:g B *C 3.7375 0.4200 
*I *18:g B *C 2.5475 1.2675 
*I *35:g B *C 3.4625 1.2675 
*I *38:g B *C 3.6775 1.2700 

*CAP
0 *38:g 4.87198e-17
1 *35:g 4.75931e-17
2 *18:g 9.0393e-17
3 *22:g 5.38819e-16
4 *9 2.35653e-17

*RES
0 *22:g *38:g 97.299263  // $poly_conn
1 *22:g *35:g 99.179131  // $poly_conn
2 *18:g *22:g 96.01722  // $poly_conn
3 *22:g *9 0.087331  // $metal1_conn

*END

*D_NET *1 9.6919e-16

*CONN
*P *1 O *C 2.5000 0.4750 
*I *10:d B *C 2.5425 0.4175 
*I *11:d B *C 2.5425 0.4175 
*I *12:d B *C 2.9775 0.4175 
*I *14:d B *C 2.9775 0.4175 
*I *16:d B *C 3.4075 0.4175 
*I *19:d B *C 3.4075 0.4175 
*I *22:d B *C 3.8475 0.4200 
*I *26:d B *C 3.8475 0.4200 
*I *30:d B *C 4.2550 0.4200 
*I *18:d B *C 2.4750 1.2675 
*I *35:d B *C 3.6200 1.2700 
*I *38:d B *C 3.6200 1.2700 
*I *13:d B *C 2.4750 1.2675 
*I *20:d B *C 0.8900 1.2675 
*I *23:d B *C 0.8900 1.2675 
*N *1:2 *C 3.5650 1.2400 
*N *1:7 *C 2.3050 1.2400 

*CAP
0 *20:d 1.26838e-16
1 *35:d 2.0329e-16
2 *18:d 1.71248e-16
3 *30:d 4.4252e-16
4 *1 2.52935e-17

*RES
0 *30:d *1 0.020041  // $metal1_conn
1 *35:d *1:2 62  // $metal1_conn
2 *18:d *1:7 62  // $metal1_conn
3 *1:7 *20:d 63.046913  // $metal1_conn
4 *1:2 *30:d 0.851402  // $metal1_conn
5 *1:2 *1:7 0.907742  // $metal1_conn

*END

*D_NET *5 2.72147e-18

*CONN
*I *40:s B *C 3.9050 1.2700 
*I *42:s B *C 3.9050 1.2700 

*CAP
0 *40:s 2.72147e-18

*RES
0 *42:s *40:s 0.001  // $mwires

*END

*D_NET *4 3.45893e-18

*CONN
*I *38:s B *C 3.7575 1.2700 
*I *40:d B *C 3.7575 1.2700 

*CAP
0 *38:s 3.45893e-18

*RES
0 *40:d *38:s 0.001  // $mwires

*END

*D_NET *3 3.62862e-18

*CONN
*I *32:s B *C 3.3800 1.2675 
*I *35:s B *C 3.3800 1.2675 

*CAP
0 *32:s 3.62862e-18

*RES
0 *35:s *32:s 0.001  // $mwires

*END

*D_NET *55 3.61323e-18

*CONN
*I *28:s B *C 3.2125 1.2675 
*I *32:d B *C 3.2125 1.2675 

*CAP
0 *28:s 3.61323e-18

*RES
0 *32:d *28:s 0.001  // $mwires

*END

*D_NET *54 5.0251e-18

*CONN
*I *21:s B *C 2.7575 1.2675 
*I *24:s B *C 2.7575 1.2675 

*CAP
0 *21:s 5.0251e-18

*RES
0 *24:s *21:s 0.001  // $mwires

*END

*D_NET *53 2.1945e-18

*CONN
*I *18:s B *C 2.6000 1.2675 
*I *21:d B *C 2.6000 1.2675 

*CAP
0 *18:s 2.1945e-18

*RES
0 *21:d *18:s 0.001  // $mwires

*END

*D_NET *52 6.12062e-18

*CONN
*I *13:s B *C 2.0700 1.2650 
*I *37:s B *C 2.0700 1.2650 

*CAP
0 *13:s 6.12062e-18

*RES
0 *37:s *13:s 0.001  // $mwires

*END

*D_NET *51 1.12231e-17

*CONN
*I *34:d B *C 1.7325 1.2650 
*I *37:d B *C 1.7325 1.2650 

*CAP
0 *34:d 1.12231e-17

*RES
0 *37:d *34:d 0.001  // $mwires

*END

*D_NET *50 1.84995e-18

*CONN
*I *27:s B *C 1.2100 1.2675 
*I *31:d B *C 1.2100 1.2675 

*CAP
0 *27:s 1.84995e-18

*RES
0 *31:d *27:s 0.001  // $mwires

*END

*D_NET *49 3.54575e-18

*CONN
*I *23:s B *C 1.0775 1.2675 
*I *27:d B *C 1.0775 1.2675 

*CAP
0 *23:s 3.54575e-18

*RES
0 *27:d *23:s 0.001  // $mwires

*END

*D_NET *48 0

*CONN
*I *17:s B *C 0.6500 1.2675 
*I *20:s B *C 0.6500 1.2675 


*RES
0 *20:s *17:s 0.001  // $mwires

*END

*D_NET *47 0

*CONN
*I *15:d B *C 0.4650 1.2675 
*I *17:d B *C 0.4650 1.2675 


*RES
0 *17:d *15:d 0.001  // $mwires

*END

*D_NET *46 6.98303e-16

*CONN
*I *10:s B *C 2.3600 0.4175 
*I *11:s B *C 2.7575 0.4175 
*I *12:s B *C 2.7575 0.4175 
*I *14:s B *C 3.1950 0.4175 
*I *16:s B *C 3.1950 0.4175 
*I *19:s B *C 3.6775 0.4200 
*I *22:s B *C 3.6775 0.4200 
*I *26:s B *C 4.0600 0.4200 
*I *30:s B *C 4.0600 0.4200 
*I *25:d B *C 0.4150 0.4125 
*I *29:d B *C 0.4150 0.4125 
*I *33:d B *C 0.8900 0.4125 
*I *36:d B *C 0.8900 0.4125 
*I *39:d B *C 1.3650 0.4125 
*I *41:d B *C 1.3650 0.4125 
*I *43:d B *C 1.8350 0.4150 
*I *44:d B *C 1.8350 0.4150 
*I *45:d B *C 2.3600 0.4175 

*CAP
0 *26:s 6.98303e-16


*END

