*SPEF "IEEE 1481-1999"
*DESIGN  "OAI31X2"
*DATE "Mon Sep 27 10:45:50 2010"
*VENDOR "Cadence Design Systems"
*PROGRAM "Assura RCX"
*VERSION "3.2 Red Hat Linux release 7.2 (Enigma) - (09/09/2009-10:39)"
*DESIGN_FLOW "Physical Verification"
*DIVIDER /
*DELIMITER :
*BUS_DELIMITER []
*T_UNIT 1 PS
*C_UNIT 1e15 FF
*R_UNIT 1 OHM
*L_UNIT 1 MH
// DeviceFingerDelim "@"
// MATCHED
// caps2d version: 10

*NAME_MAP
*1 mp1
*2 mn3\@1
*3 mp2
*4 mp2\@1
*5 VDD
*6 mp1\@1
*7 n1\@1
*8 mp0\@1
*9 n1\@2
*10 mp3
*11 n1\@3
*12 A0
*13 mp3\@1
*14 A1
*15 Y
*16 A2
*17 n0
*18 n1
*19 B0
*20 VSS
*21 mn0
*22 mn1
*23 mn2
*24 mn2\@1
*25 mn1\@1
*26 mn0\@1
*27 mp0
*28 mn3

*GROUND_NETS VSS

*PORTS
*5 I
*20 I
*12 I
*14 I
*16 I
*19 I
*15 O

*D_NET *5 2.62832e-16

*CONN
*P *5 I *C 0.1000 1.7100 
*I *27:s B *C 0.3300 1.2400 
*I *8:s B *C 1.4800 1.2400 
*I *10:s B *C 1.4800 1.2400 
*I *13:s B *C 1.8800 1.2400 
*N *5:3 *C 1.1000 1.7100 
*N *5:4 *C 1.1000 1.7100 
*N *5:5 *C 0.3200 1.7100 

*CAP
0 *13:s 1.06825e-16
1 *27:s 3.07054e-17
2 *5:5 1.16999e-17
3 *5:3 1.13601e-16

*RES
0 *5:5 *5 0.110056  // $metal1_conn
1 *5:3 *5:4 6.818182  // $metal1_conn
2 *5:5 *27:s 20.958595  // $metal1_conn
3 *13:s *5:4 0.174827  // $metal1_conn
4 *5:4 *5:5 0.389854  // $metal1_conn

*END

*D_NET *20 0

*CONN
*P *20 I *C 0.1000 0.0000 
*I *21:s B *C 0.4800 0.5050 
*I *22:s B *C 0.4800 0.5050 
*I *23:s B *C 0.9500 0.5050 
*I *24:s B *C 0.9500 0.5050 
*I *25:s B *C 1.4200 0.5050 
*I *26:s B *C 1.4200 0.5050 
*N *20:5 *C 1.1000 0.0000 


*RES
0 *20 *25:s 0.132071  // $metal1_conn
1 *20:5 *25:s 5.636364  // $metal1_conn
2 *25:s *23:s 75.096809  // $metal1_conn

*END

*D_NET *12 6.11627e-16

*CONN
*P *12 I *C 1.5000 0.6650 
*I *21:g B *C 0.2625 0.5050 
*I *26:g B *C 1.4675 0.5050 
*I *27:g B *C 0.4225 1.2400 
*I *8:g B *C 1.3775 1.2400 

*CAP
0 *8:g 6.30618e-17
1 *27:g 7.987e-17
2 *12 4.68696e-16

*RES
0 *12 *8:g 67.667961  // $poly_conn
1 *27:g *12 74.002747  // $poly_conn

*END

*D_NET *14 5.03663e-16

*CONN
*P *14 I *C 0.7000 0.8550 
*I *22:g B *C 0.5275 0.5050 
*I *25:g B *C 1.2025 0.5050 
*I *1:g B *C 0.5275 1.2400 
*I *6:g B *C 1.2025 1.2400 

*CAP
0 *6:g 7.11111e-17
1 *1:g 8.09013e-17
2 *25:g 3.36127e-16
3 *14 1.55241e-17

*RES
0 *6:g *25:g 58.153492  // $poly_conn
1 *1:g *25:g 58.153492  // $poly_conn
2 *25:g *14 0.023897  // $metal1_conn

*END

*D_NET *16 3.12007e-16

*CONN
*P *16 I *C 1.1000 1.0450 
*I *23:g B *C 0.7325 0.5050 
*I *24:g B *C 0.9975 0.5050 
*I *3:g B *C 0.8375 1.2400 
*I *4:g B *C 1.0425 1.2400 
*N *16:2 *C 1.0050 0.9450 

*CAP
0 *4:g 3.57967e-17
1 *3:g 3.10658e-17
2 *24:g 1.00736e-16
3 *16:2 8.87607e-17
4 *16 5.56472e-17

*RES
0 *4:g *16:2 14.651913  // $poly_conn
1 *16:2 *3:g 51.41053  // $poly_conn
2 *16:2 *24:g 38.949451  // $poly_conn
3 *16 *16:2 45.023739  // $metal1_conn

*END

*D_NET *19 2.26024e-16

*CONN
*P *19 I *C 1.9000 0.8550 
*I *28:g B *C 1.7125 0.5050 
*I *2:g B *C 1.9175 0.5050 
*I *10:g B *C 1.5825 1.2400 
*I *13:g B *C 1.7875 1.2400 
*N *19:7 *C 1.8900 0.7700 

*CAP
0 *13:g 6.53484e-17
1 *28:g 6.34278e-17
2 *19:7 2.58679e-17
3 *19 7.13799e-17

*RES
0 *28:g *13:g 46.002483  // $poly_conn
1 *28:g *19:7 45  // $metal1_conn
2 *19:7 *19 0.052641  // $metal1_conn

*END

*D_NET *15 3.19078e-16

*CONN
*P *15 O *C 1.5000 1.0450 
*I *28:d B *C 1.8150 0.5050 
*I *2:d B *C 1.8150 0.5050 
*I *3:d B *C 0.9400 1.2400 
*I *4:d B *C 0.9400 1.2400 
*I *10:d B *C 1.6850 1.2400 
*I *13:d B *C 1.6850 1.2400 
*N *15:2 *C 1.5875 1.1175 
*N *15:4 *C 1.6850 1.2425 

*CAP
0 *10:d 9.82487e-17
1 *3:d 6.77474e-17
2 *28:d 7.59913e-17
3 *15:2 6.18746e-17
4 *15 1.52161e-17

*RES
0 *15:2 *15 0.011667  // $metal1_conn
1 *10:d *15:4 20.666666  // $metal1_conn
2 *28:d *15:2 75.507912  // $metal1_conn
3 *15:4 *3:d 62.45332  // $metal1_conn
4 *15:2 *15:4 0.023469  // $metal1_conn

*END

*D_NET *11 4.99603e-18

*CONN
*I *6:s B *C 1.2900 1.2400 
*I *8:d B *C 1.2900 1.2400 

*CAP
0 *6:s 4.99603e-18

*RES
0 *8:d *6:s 0.001  // $mwires

*END

*D_NET *9 4.0338e-18

*CONN
*I *4:s B *C 1.1225 1.2400 
*I *6:d B *C 1.1225 1.2400 

*CAP
0 *4:s 4.0338e-18

*RES
0 *6:d *4:s 0.001  // $mwires

*END

*D_NET *7 1.32716e-19

*CONN
*I *1:s B *C 0.6825 1.2400 
*I *3:s B *C 0.6825 1.2400 

*CAP
0 *1:s 1.32716e-19

*RES
0 *3:s *1:s 0.001  // $mwires

*END

*D_NET *18 1.2331e-19

*CONN
*I *27:d B *C 0.4750 1.2400 
*I *1:d B *C 0.4750 1.2400 

*CAP
0 *27:d 1.2331e-19

*RES
0 *1:d *27:d 0.001  // $mwires

*END

*D_NET *17 2.96729e-16

*CONN
*I *21:d B *C 0.1700 0.5050 
*I *22:d B *C 0.6300 0.5050 
*I *23:d B *C 0.6300 0.5050 
*I *24:d B *C 1.1000 0.5050 
*I *25:d B *C 1.1000 0.5050 
*I *26:d B *C 1.5900 0.5050 
*I *28:s B *C 1.5900 0.5050 
*I *2:s B *C 2.0100 0.5050 

*CAP
0 *2:s 2.96729e-16


*END

