*SPEF "IEEE 1481-1999"
*DESIGN  "OR2XL"
*DATE "Mon Sep 27 10:51:51 2010"
*VENDOR "Cadence Design Systems"
*PROGRAM "Assura RCX"
*VERSION "3.2 Red Hat Linux release 7.2 (Enigma) - (09/09/2009-10:39)"
*DESIGN_FLOW "Physical Verification"
*DIVIDER /
*DELIMITER :
*BUS_DELIMITER []
*T_UNIT 1 PS
*C_UNIT 1e15 FF
*R_UNIT 1 OHM
*L_UNIT 1 MH
// DeviceFingerDelim "@"
// MATCHED
// caps2d version: 10

*NAME_MAP
*1 mp0
*2 mn2
*3 VDD
*4 mp2
*5 n0
*6 n1
*7 Y
*8 A
*9 mn1
*10 B
*11 VSS
*12 mp1
*13 mn0

*GROUND_NETS VSS

*PORTS
*3 I
*11 I
*8 I
*10 I
*7 O

*D_NET *3 9.69285e-17

*CONN
*P *3 I *C 0.1000 1.7100 
*I *1:s B *C 0.4700 1.0725 
*I *4:s B *C 0.4700 1.0725 
*N *3:2 *C 0.4000 1.7100 
*N *3:3 *C 0.4000 1.7100 

*CAP
0 *1:s 3.51787e-17
1 *3:2 5.49506e-17
2 *3 6.79922e-18

*RES
0 *1:s *3:3 62.423565  // $metal1_conn
1 *3:3 *3 0.150094  // $metal1_conn
2 *3:2 *3:3 18.75  // $metal1_conn

*END

*D_NET *11 0

*CONN
*P *11 I *C 0.1000 0.0000 
*I *9:s B *C 0.1150 0.4825 
*I *13:s B *C 0.5200 0.4825 
*I *2:s B *C 0.5200 0.4825 
*N *11:2 *C 0.4000 0.0000 
*N *11:3 *C 0.4000 0.0000 


*RES
0 *13:s *11:3 75.128014  // $metal1_conn
1 *11:3 *11 0.150702  // $metal1_conn
2 *11 *9:s 75.082245  // $metal1_conn
3 *11:2 *11:3 15.5  // $metal1_conn

*END

*D_NET *8 2.46951e-16

*CONN
*P *8 I *C 0.5050 0.8550 
*I *13:g B *C 0.3675 0.4825 
*I *1:g B *C 0.3675 1.0725 
*N *8:2 *C 0.3950 0.8500 

*CAP
0 *1:g 5.19129e-17
1 *13:g 5.03229e-17
2 *8:2 8.99218e-17
3 *8 5.47933e-17

*RES
0 *1:g *8:2 20.974003  // $poly_conn
1 *8:2 *13:g 67.127846  // $poly_conn
2 *8:2 *8 45.051624  // $metal1_conn

*END

*D_NET *10 1.88747e-16

*CONN
*P *10 I *C 0.0950 0.8550 
*I *9:g B *C 0.1625 0.4825 
*I *12:g B *C 0.2625 1.0725 
*N *10:2 *C 0.1625 0.6900 
*N *10:3 *C 0.1050 0.6900 

*CAP
0 *12:g 6.31221e-17
1 *9:g 2.61546e-17
2 *10:2 2.92071e-17
3 *10:3 4.13009e-17
4 *10 2.89621e-17

*RES
0 *12:g *10:2 83.53891  // $poly_conn
1 *10:2 *10:3 48.400734  // $poly_conn
2 *10:2 *9:g 24.801132  // $poly_conn
3 *10 *10:3 0.098763  // $metal1_conn

*END

*D_NET *7 1.00249e-16

*CONN
*P *7 O *C 0.6850 0.8550 
*I *2:d B *C 0.6700 0.4825 
*I *4:d B *C 0.6650 1.0725 

*CAP
0 *4:d 2.4482e-17
1 *2:d 3.47506e-17
2 *7 4.10167e-17

*RES
0 *2:d *7 75.22628  // $metal1_conn
1 *7 *4:d 62.113064  // $metal1_conn

*END

*D_NET *6 1.01303e-18

*CONN
*I *12:s B *C 0.3150 1.0725 
*I *1:d B *C 0.3150 1.0725 

*CAP
0 *12:s 1.01303e-18

*RES
0 *1:d *12:s 0.001  // $mwires

*END

*D_NET *5 2.6937e-16

*CONN
*I *9:d B *C 0.2650 0.4825 
*I *13:d B *C 0.2650 0.4825 
*I *2:g B *C 0.5725 0.4825 
*I *12:d B *C 0.1700 1.0725 
*I *4:g B *C 0.5725 1.0725 
*N *5:2 *C 0.5450 0.6700 
*N *5:5 *C 0.2650 0.6350 

*CAP
0 *4:g 3.70331e-17
1 *12:d 4.42277e-17
2 *2:g 3.05595e-17
3 *9:d 1.32229e-17
4 *5:5 5.83966e-17
5 *5:2 8.59302e-17

*RES
0 *4:g *5:2 67.127846  // $poly_conn
1 *5:2 *2:g 20.974003  // $poly_conn
2 *9:d *5:5 75.112785  // $metal1_conn
3 *5:5 *12:d 62.418011  // $metal1_conn
4 *5:5 *5:2 45.178993  // $metal1_conn

*END

