*SPEF "IEEE 1481-1999"
*DESIGN  "OR2X8"
*DATE "Mon Sep 27 10:51:29 2010"
*VENDOR "Cadence Design Systems"
*PROGRAM "Assura RCX"
*VERSION "3.2 Red Hat Linux release 7.2 (Enigma) - (09/09/2009-10:39)"
*DESIGN_FLOW "Physical Verification"
*DIVIDER /
*DELIMITER :
*BUS_DELIMITER []
*T_UNIT 1 PS
*C_UNIT 1e15 FF
*R_UNIT 1 OHM
*L_UNIT 1 MH
// DeviceFingerDelim "@"
// MATCHED
// caps2d version: 10

*NAME_MAP
*1 VDD
*2 mn0
*3 mn1
*4 mn1\@1
*5 mn0\@1
*6 mn2
*7 VSS
*8 mp2\@5
*9 mn2\@1
*10 mp2\@6
*11 mn2\@2
*12 mn2\@3
*13 mn2\@4
*14 A
*15 B
*16 n0
*17 n1
*18 Y
*19 n1\@1
*20 mp0
*21 mp1
*22 mp1\@1
*23 mp0\@1
*24 mp2
*25 mp2\@1
*26 mp2\@2
*27 mp2\@3
*28 mp2\@4
*29 mn2\@5
*30 mn2\@6

*GROUND_NETS VSS

*PORTS
*1 I
*7 I
*14 I
*15 I
*18 O

*D_NET *1 5.04544e-16

*CONN
*P *1 I *C 0.1000 1.7100 
*I *20:s B *C 0.2400 1.2350 
*I *23:s B *C 0.9800 1.2050 
*I *24:s B *C 0.9800 1.2050 
*I *25:s B *C 1.3600 1.2050 
*I *26:s B *C 1.3600 1.2050 
*I *27:s B *C 1.7700 1.2050 
*I *28:s B *C 1.7700 1.2050 
*I *8:s B *C 2.1800 1.2050 
*I *10:s B *C 2.1800 1.2050 
*N *1:2 *C 2.0000 1.7100 
*N *1:7 *C 0.7000 1.7100 
*N *1:8 *C 0.2300 1.7100 

*CAP
0 *8:s 3.0054e-16
1 *20:s 4.18088e-17
2 *1:8 8.31327e-18
3 *1:2 1.52772e-16
4 *1 1.11063e-18

*RES
0 *1:8 *1 0.064811  // $metal1_conn
1 *1:2 *8:s 12.5  // $metal1_conn
2 *1:2 *1:7 10.714286  // $metal1_conn
3 *1:8 *20:s 20.967405  // $metal1_conn
4 *8:s *1:7 0.090161  // $metal1_conn
5 *1:7 *1:8 0.235737  // $metal1_conn

*END

*D_NET *7 0

*CONN
*P *7 I *C 0.1000 0.0000 
*I *2:s B *C 0.1100 0.4800 
*I *3:s B *C 0.5250 0.4800 
*I *4:s B *C 0.5250 0.4800 
*I *5:s B *C 0.9800 0.5000 
*I *6:s B *C 0.9800 0.5000 
*I *9:s B *C 1.3600 0.5000 
*I *11:s B *C 1.3600 0.5000 
*I *12:s B *C 1.7700 0.5000 
*I *13:s B *C 1.7700 0.5000 
*I *29:s B *C 2.1800 0.5000 
*I *30:s B *C 2.1800 0.5000 
*N *7:2 *C 2.0000 0.0000 


*RES
0 *7:2 *7 10.333333  // $metal1_conn
1 *7:2 *7 8.857142  // $metal1_conn
2 *7 *3:s 37.817566  // $metal1_conn

*END

*D_NET *14 5.01168e-16

*CONN
*P *14 I *C 0.2000 0.8400 
*I *2:g B *C 0.2025 0.4800 
*I *5:g B *C 0.8325 0.4800 
*I *20:g B *C 0.3325 1.2350 
*I *23:g B *C 0.7775 1.2350 

*CAP
0 *23:g 8.62518e-17
1 *20:g 5.8143e-17
2 *5:g 2.67305e-16
3 *14 8.94686e-17

*RES
0 *5:g *23:g 50.461182  // $poly_conn
1 *20:g *5:g 57.677105  // $poly_conn
2 *5:g *14 0.018556  // $metal1_conn

*END

*D_NET *15 3.14647e-16

*CONN
*P *15 I *C 0.4000 1.0000 
*I *3:g B *C 0.4225 0.4800 
*I *4:g B *C 0.6275 0.4800 
*I *21:g B *C 0.4675 1.2350 
*I *22:g B *C 0.6725 1.2350 
*N *15:2 *C 0.5050 0.9400 

*CAP
0 *22:g 7.4189e-17
1 *21:g 4.1192e-17
2 *4:g 8.90263e-17
3 *15:2 5.57411e-17
4 *15 5.44988e-17

*RES
0 *22:g *15:2 51.618866  // $poly_conn
1 *15:2 *21:g 14.611425  // $poly_conn
2 *15:2 *4:g 36.385349  // $poly_conn
3 *15:2 *15 45.080898  // $metal1_conn

*END

*D_NET *18 8.17486e-16

*CONN
*P *18 O *C 2.2650 0.7000 
*I *6:d B *C 1.1550 0.5000 
*I *9:d B *C 1.1550 0.5000 
*I *11:d B *C 1.5650 0.5000 
*I *12:d B *C 1.5650 0.5000 
*I *13:d B *C 1.9750 0.5000 
*I *29:d B *C 1.9750 0.5000 
*I *30:d B *C 2.3750 0.5000 
*I *24:d B *C 1.1550 1.2050 
*I *25:d B *C 1.1550 1.2050 
*I *26:d B *C 1.5650 1.2050 
*I *27:d B *C 1.5650 1.2050 
*I *28:d B *C 1.9750 1.2050 
*I *8:d B *C 1.9750 1.2050 
*I *10:d B *C 2.3750 1.2050 

*CAP
0 *10:d 3.97106e-16
1 *18 4.2038e-16

*RES
0 *10:d *18 0.150036  // $metal1_conn

*END

*D_NET *19 1.36103e-18

*CONN
*I *22:s B *C 0.7250 1.2350 
*I *23:d B *C 0.7250 1.2350 

*CAP
0 *22:s 1.36103e-18

*RES
0 *23:d *22:s 0.001  // $mwires

*END

*D_NET *17 4.51495e-18

*CONN
*I *20:d B *C 0.4000 1.2350 
*I *21:s B *C 0.4000 1.2350 

*CAP
0 *20:d 4.51495e-18

*RES
0 *21:s *20:d 0.001  // $mwires

*END

*D_NET *16 9.92054e-16

*CONN
*I *2:d B *C 0.3125 0.4800 
*I *3:d B *C 0.3125 0.4800 
*I *4:d B *C 0.7300 0.4800 
*I *5:d B *C 0.7300 0.4800 
*I *6:g B *C 1.0525 0.5000 
*I *9:g B *C 1.2575 0.5000 
*I *11:g B *C 1.4625 0.5000 
*I *12:g B *C 1.6675 0.5000 
*I *13:g B *C 1.8725 0.5000 
*I *29:g B *C 2.0775 0.5000 
*I *30:g B *C 2.2825 0.5000 
*I *21:d B *C 0.5700 1.2350 
*I *22:d B *C 0.5700 1.2350 
*I *24:g B *C 1.0525 1.2050 
*I *25:g B *C 1.2575 1.2050 
*I *26:g B *C 1.4625 1.2050 
*I *27:g B *C 1.6675 1.2050 
*I *28:g B *C 1.8725 1.2050 
*I *8:g B *C 2.0775 1.2050 
*I *10:g B *C 2.2825 1.2050 
*N *16:25 *C 0.9950 0.8100 
*N *16:29 *C 0.5700 1.1500 

*CAP
0 *10:g 5.80324e-16
1 *21:d 1.10998e-16
2 *2:d 2.28769e-16
3 *16:25 7.19635e-17

*RES
0 *10:g *16:25 0.238167  // $metal1_conn
1 *21:d *16:29 62  // $metal1_conn
2 *16:29 *21:d 62.148071  // $metal1_conn
3 *16:25 *2:d 0.300334  // $metal1_conn
4 *16:25 *16:29 0.519235  // $metal1_conn

*END

