*SPEF "IEEE 1481-1999"
*DESIGN  "OR2X1"
*DATE "Mon Sep 27 10:49:59 2010"
*VENDOR "Cadence Design Systems"
*PROGRAM "Assura RCX"
*VERSION "3.2 Red Hat Linux release 7.2 (Enigma) - (09/09/2009-10:39)"
*DESIGN_FLOW "Physical Verification"
*DIVIDER /
*DELIMITER :
*BUS_DELIMITER []
*T_UNIT 1 PS
*C_UNIT 1e15 FF
*R_UNIT 1 OHM
*L_UNIT 1 MH
// DeviceFingerDelim "@"
// MATCHED
// caps2d version: 10

*NAME_MAP
*1 mp0
*2 mn2
*3 VDD
*4 mp2
*5 n0
*6 n1
*7 Y
*8 A
*9 mn1
*10 B
*11 VSS
*12 mp1
*13 mn0

*GROUND_NETS VSS

*PORTS
*3 I
*11 I
*8 I
*10 I
*7 O

*D_NET *3 1.35035e-16

*CONN
*P *3 I *C 0.1000 1.7100 
*I *1:s B *C 0.5050 1.0950 
*I *4:s B *C 0.5050 1.0950 
*N *3:2 *C 0.4000 1.7100 
*N *3:3 *C 0.4000 1.7100 

*CAP
0 *1:s 7.79622e-17
1 *3:2 4.95655e-17
2 *3 7.50755e-18

*RES
0 *1:s *3:3 21.132448  // $metal1_conn
1 *3:3 *3 0.150219  // $metal1_conn
2 *3:2 *3:3 18.75  // $metal1_conn

*END

*D_NET *11 0

*CONN
*P *11 I *C 0.1000 0.0000 
*I *9:s B *C 0.1400 0.5625 
*I *13:s B *C 0.5250 0.5050 
*I *2:s B *C 0.5250 0.5050 
*N *11:2 *C 0.4000 0.0000 
*N *11:3 *C 0.4000 0.0000 


*RES
0 *9:s *11 75.110451  // $metal1_conn
1 *11 *11:3 0.151084  // $metal1_conn
2 *11:3 *13:s 75.418877  // $metal1_conn
3 *11:2 *11:3 15.5  // $metal1_conn

*END

*D_NET *8 2.56171e-16

*CONN
*P *8 I *C 0.3500 0.8550 
*I *13:g B *C 0.3925 0.5625 
*I *1:g B *C 0.3625 1.0075 
*N *8:2 *C 0.3900 0.7900 

*CAP
0 *1:g 5.58888e-17
1 *13:g 3.68207e-17
2 *8:2 9.70992e-17
3 *8 6.63628e-17

*RES
0 *13:g *8:2 28.937136  // $poly_conn
1 *8:2 *1:g 17.398676  // $poly_conn
2 *8 *8:2 45.03595  // $metal1_conn

*END

*D_NET *10 1.85972e-16

*CONN
*P *10 I *C 0.0800 0.7150 
*I *9:g B *C 0.1875 0.5625 
*I *12:g B *C 0.2575 1.0075 
*N *10:2 *C 0.1875 0.7400 
*N *10:3 *C 0.1000 0.7400 
*N *10:5 *C 0.0900 0.7150 
*N *10:6 *C 0.0900 0.7400 

*CAP
0 *12:g 5.41044e-17
1 *9:g 2.91237e-17
2 *10:6 4.61065e-17
3 *10:5 2.19679e-17
4 *10:2 2.47622e-17
5 *10:3 9.90689e-18

*RES
0 *12:g *10:2 46.359428  // $poly_conn
1 *10:2 *10:3 51.496479  // $poly_conn
2 *10:2 *9:g 17.108824  // $poly_conn
3 *10 *10:5 0.002677  // $metal1_conn
4 *10:6 *10:3 0.002818  // $metal1_conn
5 *10:5 *10:6 0.01557  // $metal1_conn

*END

*D_NET *7 1.21078e-16

*CONN
*P *7 O *C 0.7100 0.6650 
*I *2:d B *C 0.6900 0.5050 
*I *4:d B *C 0.6900 1.0950 

*CAP
0 *4:d 4.06421e-17
1 *7 8.04358e-17

*RES
0 *4:d *7 20.967676  // $metal1_conn
1 *7 *2:d 37.60717  // $metal1_conn

*END

*D_NET *6 1.6426e-18

*CONN
*I *12:s B *C 0.3100 1.0075 
*I *1:d B *C 0.3100 1.0075 

*CAP
0 *12:s 1.6426e-18

*RES
0 *1:d *12:s 0.001  // $mwires

*END

*D_NET *5 3.45615e-16

*CONN
*I *9:d B *C 0.2900 0.5625 
*I *13:d B *C 0.2900 0.5625 
*I *2:g B *C 0.5975 0.5050 
*I *12:d B *C 0.1650 1.0075 
*I *4:g B *C 0.5975 1.0950 
*N *5:2 *C 0.5650 0.7500 
*N *5:4 *C 0.2900 0.6650 

*CAP
0 *4:g 4.36557e-17
1 *12:d 6.01138e-17
2 *2:g 3.70912e-17
3 *9:d 1.74659e-17
4 *5:4 8.28198e-17
5 *5:2 1.04469e-16

*RES
0 *4:g *5:2 27.655087  // $poly_conn
1 *5:2 *2:g 18.680727  // $poly_conn
2 *5:2 *5:4 45.289009  // $metal1_conn
3 *5:4 *12:d 62.4268  // $metal1_conn
4 *5:4 *9:d 75.052956  // $metal1_conn

*END

