*SPEF "IEEE 1481-1999"
*DESIGN  "OR3XL"
*DATE "Mon Sep 27 10:54:08 2010"
*VENDOR "Cadence Design Systems"
*PROGRAM "Assura RCX"
*VERSION "3.2 Red Hat Linux release 7.2 (Enigma) - (09/09/2009-10:39)"
*DESIGN_FLOW "Physical Verification"
*DIVIDER /
*DELIMITER :
*BUS_DELIMITER []
*T_UNIT 1 PS
*C_UNIT 1e15 FF
*R_UNIT 1 OHM
*L_UNIT 1 MH
// DeviceFingerDelim "@"
// MATCHED
// caps2d version: 10

*NAME_MAP
*1 mp2
*2 mp1
*3 mp0
*4 mp3
*5 VSS
*6 n0
*7 n1
*8 n2
*9 mn2
*10 mn1
*11 A
*12 VDD
*13 mn0
*14 Y
*15 B
*16 mn3
*17 C

*GROUND_NETS VSS

*PORTS
*12 I
*5 I
*11 I
*15 I
*17 I
*14 O

*D_NET *12 1.41891e-16

*CONN
*P *12 I *C 0.1000 1.7100 
*I *3:s B *C 0.7050 1.1975 
*I *4:s B *C 0.7050 1.1975 
*N *12:2 *C 0.6000 1.7100 
*N *12:3 *C 0.6000 1.7100 

*CAP
0 *3:s 3.39573e-17
1 *12:2 9.56929e-17
2 *12 1.22407e-17

*RES
0 *3:s *12:3 62.371742  // $metal1_conn
1 *12:3 *12 0.250365  // $metal1_conn
2 *12:2 *12:3 12.5  // $metal1_conn

*END

*D_NET *5 0

*CONN
*P *5 I *C 0.1000 0.0000 
*I *9:s B *C 0.3050 0.3075 
*I *10:s B *C 0.3050 0.3075 
*I *13:s B *C 0.7175 0.3075 
*I *16:s B *C 0.7175 0.3075 
*N *5:2 *C 0.6000 0.0000 
*N *5:3 *C 0.6000 0.0000 
*N *5:4 *C 0.3050 0.0000 


*RES
0 *13:s *5:3 75.269531  // $metal1_conn
1 *5:3 *5:4 0.147667  // $metal1_conn
2 *5:4 *5 0.102306  // $metal1_conn
3 *5:4 *9:s 75.183113  // $metal1_conn
4 *5:2 *5:3 10.333333  // $metal1_conn

*END

*D_NET *11 2.61741e-16

*CONN
*P *11 I *C 0.6650 1.0450 
*I *13:g B *C 0.6125 0.3075 
*I *3:g B *C 0.6025 1.1975 
*N *11:2 *C 0.6075 0.7050 
*N *11:4 *C 0.6550 0.7050 

*CAP
0 *3:g 5.18406e-17
1 *13:g 4.5384e-17
2 *11:4 1.18601e-16
3 *11 4.59152e-17

*RES
0 *13:g *11:2 81.072258  // $poly_conn
1 *11:2 *3:g 96.456879  // $poly_conn
2 *11:2 *11:4 47.049397  // $poly_conn
3 *11 *11:4 0.203642  // $metal1_conn

*END

*D_NET *15 2.59517e-16

*CONN
*P *15 I *C 0.3600 0.8550 
*I *10:g B *C 0.4075 0.3075 
*I *2:g B *C 0.4075 1.1975 
*N *15:2 *C 0.3750 0.7000 

*CAP
0 *2:g 5.38526e-17
1 *10:g 4.35037e-17
2 *15:2 1.02653e-16
3 *15 5.95069e-17

*RES
0 *2:g *15:2 89.193542  // $poly_conn
1 *15:2 *10:g 71.244827  // $poly_conn
2 *15 *15:2 45.099339  // $metal1_conn

*END

*D_NET *17 2.06074e-16

*CONN
*P *17 I *C 0.1000 0.8550 
*I *9:g B *C 0.2025 0.3075 
*I *1:g B *C 0.2025 1.1975 
*N *17:2 *C 0.2025 0.6750 
*N *17:3 *C 0.1100 0.6750 

*CAP
0 *1:g 4.23688e-17
1 *9:g 3.48384e-17
2 *17:2 3.96206e-17
3 *17:3 4.7747e-17
4 *17 4.14988e-17

*RES
0 *1:g *17:2 103.099213  // $poly_conn
1 *17:2 *17:3 48.73896  // $poly_conn
2 *17:2 *9:g 72.329987  // $poly_conn
3 *17 *17:3 0.10781  // $metal1_conn

*END

*D_NET *14 1.3447e-16

*CONN
*P *14 O *C 0.9350 1.0450 
*I *16:d B *C 0.9150 0.3075 
*I *4:d B *C 0.9000 1.1975 

*CAP
0 *4:d 1.58358e-17
1 *16:d 6.75432e-17
2 *14 5.10908e-17

*RES
0 *16:d *14 75.438461  // $metal1_conn
1 *14 *4:d 62.060123  // $metal1_conn

*END

*D_NET *8 5.66162e-18

*CONN
*I *1:s B *C 0.3050 1.1975 
*I *2:d B *C 0.3050 1.1975 

*CAP
0 *1:s 5.66162e-18

*RES
0 *2:d *1:s 0.001  // $mwires

*END

*D_NET *7 6.65915e-18

*CONN
*I *2:s B *C 0.5050 1.1975 
*I *3:d B *C 0.5050 1.1975 

*CAP
0 *2:s 6.65915e-18

*RES
0 *3:d *2:s 0.001  // $mwires

*END

*D_NET *6 4.82724e-16

*CONN
*I *9:d B *C 0.1100 0.3075 
*I *10:d B *C 0.5100 0.3075 
*I *13:d B *C 0.5100 0.3075 
*I *16:g B *C 0.8225 0.3075 
*I *1:d B *C 0.1100 1.1975 
*I *4:g B *C 0.8075 1.1975 
*N *6:2 *C 0.7950 0.5150 
*N *6:5 *C 0.5100 0.4850 

*CAP
0 *4:g 5.21727e-17
1 *1:d 7.91602e-17
2 *16:g 2.6049e-17
3 *10:d 2.40688e-17
4 *9:d 4.88261e-17
5 *6:5 1.5175e-16
6 *6:2 1.00697e-16

*RES
0 *16:g *6:2 23.808931  // $poly_conn
1 *6:2 *4:g 136.629456  // $poly_conn
2 *1:d *6:5 62.916996  // $metal1_conn
3 *6:5 *9:d 75.400131  // $metal1_conn
4 *6:5 *10:d 75.126579  // $metal1_conn
5 *6:5 *6:2 45.200333  // $metal1_conn

*END

