*SPEF "IEEE 1481-1999"
*DESIGN  "OR3X8"
*DATE "Mon Sep 27 10:53:44 2010"
*VENDOR "Cadence Design Systems"
*PROGRAM "Assura RCX"
*VERSION "3.2 Red Hat Linux release 7.2 (Enigma) - (09/09/2009-10:39)"
*DESIGN_FLOW "Physical Verification"
*DIVIDER /
*DELIMITER :
*BUS_DELIMITER []
*T_UNIT 1 PS
*C_UNIT 1e15 FF
*R_UNIT 1 OHM
*L_UNIT 1 MH
// DeviceFingerDelim "@"
// MATCHED
// caps2d version: 10

*NAME_MAP
*1 C
*2 mn2
*3 mn2\@1
*4 mn1\@1
*5 mp2\@1
*6 mn0\@1
*7 VDD
*8 mp1\@1
*9 mp0\@1
*10 VSS
*11 mp3\@6
*12 Y
*13 n2\@2
*14 n2\@3
*15 mn3
*16 mn3\@1
*17 mn3\@2
*18 n0
*19 mn3\@3
*20 n2
*21 mn3\@4
*22 n2\@1
*23 mn3\@5
*24 mn3\@6
*25 mn0
*26 mn1
*27 mp3
*28 mp3\@1
*29 mp3\@2
*30 mp3\@3
*31 mp3\@4
*32 mp3\@5
*33 mp0
*34 mp1
*35 mp2
*36 A
*37 B

*GROUND_NETS VSS

*PORTS
*7 I
*10 I
*36 I
*37 I
*1 I
*12 O

*D_NET *7 4.40235e-16

*CONN
*P *7 I *C 0.1000 1.7100 
*I *27:s B *C 1.8700 1.1225 
*I *28:s B *C 1.8700 1.1225 
*I *29:s B *C 2.2800 1.1225 
*I *30:s B *C 2.2800 1.1225 
*I *31:s B *C 2.6900 1.1225 
*I *32:s B *C 2.6900 1.1225 
*I *33:s B *C 0.3650 1.1500 
*I *9:s B *C 1.4900 1.1225 
*I *11:s B *C 1.4900 1.1225 
*N *7:2 *C 2.4000 1.7100 
*N *7:7 *C 0.8000 1.7100 
*N *7:8 *C 0.3550 1.7100 

*CAP
0 *33:s 3.79241e-17
1 *31:s 2.68881e-16
2 *7:8 6.13755e-18
3 *7:2 1.27063e-16
4 *7 2.291e-19

*RES
0 *7:8 *7 0.127346  // $metal1_conn
1 *7:2 *31:s 9.375  // $metal1_conn
2 *7:2 *7:7 9.375  // $metal1_conn
3 *7:8 *33:s 21.019552  // $metal1_conn
4 *31:s *7:7 0.330562  // $metal1_conn
5 *7:7 *7:8 0.222815  // $metal1_conn

*END

*D_NET *10 0

*CONN
*P *10 I *C 0.1000 0.0000 
*I *15:s B *C 1.6150 0.5125 
*I *16:s B *C 1.9700 0.5125 
*I *17:s B *C 1.9700 0.5125 
*I *19:s B *C 2.3800 0.5125 
*I *21:s B *C 2.3800 0.5125 
*I *23:s B *C 2.7900 0.5125 
*I *24:s B *C 2.7900 0.5125 
*I *25:s B *C 0.1600 0.4300 
*I *26:s B *C 0.6750 0.4300 
*I *2:s B *C 0.6750 0.4300 
*I *3:s B *C 1.1450 0.4300 
*I *4:s B *C 1.1450 0.4300 
*I *6:s B *C 1.6150 0.5125 
*N *10:2 *C 2.4000 0.0000 


*RES
0 *23:s *10 0.024606  // $metal1_conn
1 *10:2 *23:s 7.75  // $metal1_conn
2 *10:2 *23:s 7.75  // $metal1_conn

*END

*D_NET *36 6.10033e-16

*CONN
*P *36 I *C 0.3000 0.6650 
*I *25:g B *C 0.2525 0.4300 
*I *6:g B *C 1.3975 0.4300 
*I *33:g B *C 0.4575 1.1500 
*I *9:g B *C 1.3575 1.1500 

*CAP
0 *9:g 7.61552e-17
1 *33:g 8.37353e-17
2 *6:g 4.50142e-16

*RES
0 *6:g *9:g 54.991577  // $poly_conn
1 *33:g *6:g 89.93084  // $poly_conn
2 *6:g *36 0.003318  // $metal1_conn

*END

*D_NET *37 5.40988e-16

*CONN
*P *37 I *C 1.1000 0.8550 
*I *26:g B *C 0.4575 0.4300 
*I *4:g B *C 1.1925 0.4300 
*I *34:g B *C 0.5625 1.1500 
*I *8:g B *C 1.1925 1.1500 

*CAP
0 *8:g 6.87374e-17
1 *34:g 8.19159e-17
2 *4:g 3.56613e-16
3 *37 3.37217e-17

*RES
0 *8:g *4:g 50.461182  // $poly_conn
1 *34:g *4:g 54.991577  // $poly_conn
2 *37 *4:g 0.067924  // $metal1_conn

*END

*D_NET *1 2.90004e-16

*CONN
*P *1 I *C 0.7000 1.0450 
*I *2:g B *C 0.7225 0.4300 
*I *3:g B *C 0.9275 0.4300 
*I *35:g B *C 0.8275 1.1500 
*I *5:g B *C 1.0325 1.1500 
*N *1:2 *C 0.8650 0.8550 

*CAP
0 *5:g 4.77005e-17
1 *35:g 2.26778e-17
2 *3:g 1.01919e-16
3 *1:2 8.68674e-17
4 *1 3.08397e-17

*RES
0 *5:g *1:2 51.618866  // $poly_conn
1 *1:2 *35:g 14.611425  // $poly_conn
2 *1:2 *3:g 35.103298  // $poly_conn
3 *1:2 *1 45.192062  // $metal1_conn

*END

*D_NET *12 5.9147e-16

*CONN
*P *12 O *C 2.7000 0.6650 
*I *15:d B *C 1.7650 0.5125 
*I *16:d B *C 1.7650 0.5125 
*I *17:d B *C 2.1750 0.5125 
*I *19:d B *C 2.1750 0.5125 
*I *21:d B *C 2.5850 0.5125 
*I *23:d B *C 2.5850 0.5125 
*I *24:d B *C 2.9850 0.5125 
*I *27:d B *C 1.6650 1.1225 
*I *28:d B *C 2.0750 1.1225 
*I *29:d B *C 2.0750 1.1225 
*I *30:d B *C 2.4850 1.1225 
*I *31:d B *C 2.4850 1.1225 
*I *32:d B *C 2.8850 1.1225 
*I *11:d B *C 1.6650 1.1225 

*CAP
0 *32:d 3.8685e-16
1 *15:d 1.92852e-16
2 *12 1.1767e-17

*RES
0 *32:d *12 0.169576  // $metal1_conn
1 *12 *15:d 0.013591  // $metal1_conn

*END

*D_NET *14 4.16048e-18

*CONN
*I *8:s B *C 1.2750 1.1500 
*I *9:d B *C 1.2750 1.1500 

*CAP
0 *8:s 4.16048e-18

*RES
0 *9:d *8:s 0.001  // $mwires

*END

*D_NET *13 3.34413e-18

*CONN
*I *5:s B *C 1.1125 1.1500 
*I *8:d B *C 1.1125 1.1500 

*CAP
0 *5:s 3.34413e-18

*RES
0 *8:d *5:s 0.001  // $mwires

*END

*D_NET *22 5.41575e-18

*CONN
*I *34:s B *C 0.6950 1.1500 
*I *35:s B *C 0.6950 1.1500 

*CAP
0 *34:s 5.41575e-18

*RES
0 *35:s *34:s 0.001  // $mwires

*END

*D_NET *20 0

*CONN
*I *33:d B *C 0.5100 1.1500 
*I *34:d B *C 0.5100 1.1500 


*RES
0 *34:d *33:d 0.001  // $mwires

*END

*D_NET *18 9.34396e-16

*CONN
*I *15:g B *C 1.6625 0.5125 
*I *16:g B *C 1.8675 0.5125 
*I *17:g B *C 2.0725 0.5125 
*I *19:g B *C 2.2775 0.5125 
*I *21:g B *C 2.4825 0.5125 
*I *23:g B *C 2.6875 0.5125 
*I *24:g B *C 2.8925 0.5125 
*I *25:d B *C 0.3550 0.4300 
*I *26:d B *C 0.3550 0.4300 
*I *2:d B *C 0.8250 0.4300 
*I *3:d B *C 0.8250 0.4300 
*I *4:d B *C 1.2950 0.4300 
*I *6:d B *C 1.2950 0.4300 
*I *27:g B *C 1.7675 1.1225 
*I *28:g B *C 1.9725 1.1225 
*I *29:g B *C 2.1775 1.1225 
*I *30:g B *C 2.3825 1.1225 
*I *31:g B *C 2.5875 1.1225 
*I *32:g B *C 2.7925 1.1225 
*I *35:d B *C 0.9300 1.1500 
*I *5:d B *C 0.9300 1.1500 
*I *11:g B *C 1.5625 1.1225 
*N *18:27 *C 1.4900 0.7750 

*CAP
0 *35:d 8.62676e-17
1 *32:g 4.92593e-16
2 *2:d 9.27654e-17
3 *25:d 1.60545e-16
4 *18:27 1.02224e-16

*RES
0 *32:g *18:27 0.238893  // $metal1_conn
1 *2:d *25:d 75  // $metal1_conn
2 *18:27 *25:d 0.42522  // $metal1_conn
3 *18:27 *35:d 31.663481  // $metal1_conn

*END

