*SPEF "IEEE 1481-1999"
*DESIGN  "OR3X6"
*DATE "Mon Sep 27 10:53:21 2010"
*VENDOR "Cadence Design Systems"
*PROGRAM "Assura RCX"
*VERSION "3.2 Red Hat Linux release 7.2 (Enigma) - (09/09/2009-10:39)"
*DESIGN_FLOW "Physical Verification"
*DIVIDER /
*DELIMITER :
*BUS_DELIMITER []
*T_UNIT 1 PS
*C_UNIT 1e15 FF
*R_UNIT 1 OHM
*L_UNIT 1 MH
// DeviceFingerDelim "@"
// MATCHED
// caps2d version: 10

*NAME_MAP
*1 VDD
*2 mn0
*3 mn1
*4 mn2
*5 mn2\@1
*6 mn1\@1
*7 VSS
*8 mp3\@3
*9 mn0\@1
*10 mp3\@4
*11 mn3
*12 mn3\@1
*13 mn3\@2
*14 A
*15 B
*16 C
*17 n2\@2
*18 n2\@3
*19 n0
*20 Y
*21 n2
*22 mp0
*23 n2\@1
*24 mp1
*25 mp2
*26 mp2\@1
*27 mp1\@1
*28 mp0\@1
*29 mp3
*30 mp3\@1
*31 mp3\@2
*32 mn3\@3
*33 mn3\@4

*GROUND_NETS VSS

*PORTS
*1 I
*7 I
*14 I
*15 I
*16 I
*20 O

*D_NET *1 3.67038e-16

*CONN
*P *1 I *C 0.1000 1.7100 
*I *22:s B *C 0.3950 1.1750 
*I *28:s B *C 1.5200 1.1350 
*I *29:s B *C 1.5200 1.1350 
*I *30:s B *C 1.9000 1.1350 
*I *31:s B *C 1.9000 1.1350 
*I *8:s B *C 2.3100 1.1350 
*I *10:s B *C 2.3100 1.1350 
*N *1:2 *C 2.1000 1.7100 
*N *1:6 *C 0.7000 1.7100 
*N *1:7 *C 0.3850 1.7100 

*CAP
0 *8:s 1.99013e-16
1 *22:s 3.71306e-17
2 *1:7 5.4556e-18
3 *1:2 1.2528e-16
4 *1 1.58176e-19

*RES
0 *1:7 *1 0.142381  // $metal1_conn
1 *1:2 *8:s 10.714286  // $metal1_conn
2 *1:2 *1:6 10.714286  // $metal1_conn
3 *1:7 *22:s 21.002964  // $metal1_conn
4 *8:s *1:6 0.395711  // $metal1_conn
5 *1:6 *1:7 0.157666  // $metal1_conn

*END

*D_NET *7 0

*CONN
*P *7 I *C 0.1000 0.0000 
*I *2:s B *C 0.1900 0.4400 
*I *3:s B *C 0.7050 0.4400 
*I *4:s B *C 0.7050 0.4400 
*I *5:s B *C 1.1750 0.4400 
*I *6:s B *C 1.1750 0.4400 
*I *9:s B *C 1.6450 0.5050 
*I *11:s B *C 1.6450 0.5050 
*I *12:s B *C 2.0300 0.5050 
*I *13:s B *C 2.0300 0.5050 
*I *32:s B *C 2.4700 0.5050 
*I *33:s B *C 2.4700 0.5050 
*N *7:2 *C 2.1000 0.0000 


*RES
0 *32:s *7 0.039637  // $metal1_conn
1 *7:2 *32:s 8.857142  // $metal1_conn
2 *7:2 *32:s 8.857142  // $metal1_conn

*END

*D_NET *14 6.15372e-16

*CONN
*P *14 I *C 0.3000 0.6650 
*I *2:g B *C 0.2825 0.4400 
*I *9:g B *C 1.4275 0.4400 
*I *22:g B *C 0.4875 1.1750 
*I *28:g B *C 1.3875 1.1750 

*CAP
0 *28:g 7.82309e-17
1 *22:g 8.61487e-17
2 *14 4.50992e-16

*RES
0 *14 *28:g 66.307457  // $poly_conn
1 *22:g *14 94.070778  // $poly_conn

*END

*D_NET *15 5.46208e-16

*CONN
*P *15 I *C 1.1000 0.8550 
*I *3:g B *C 0.4875 0.4400 
*I *6:g B *C 1.2225 0.4400 
*I *24:g B *C 0.5925 1.1750 
*I *27:g B *C 1.2225 1.1750 

*CAP
0 *27:g 6.89535e-17
1 *24:g 8.24726e-17
2 *6:g 3.65995e-16
3 *15 2.87875e-17

*RES
0 *27:g *6:g 50.461182  // $poly_conn
1 *24:g *6:g 54.991577  // $poly_conn
2 *15 *6:g 0.037519  // $metal1_conn

*END

*D_NET *16 2.95343e-16

*CONN
*P *16 I *C 0.7000 1.0450 
*I *4:g B *C 0.7525 0.4400 
*I *5:g B *C 0.9575 0.4400 
*I *25:g B *C 0.8575 1.1750 
*I *26:g B *C 1.0625 1.1750 
*N *16:2 *C 0.8950 0.8800 

*CAP
0 *26:g 4.7725e-17
1 *25:g 2.29272e-17
2 *5:g 1.01971e-16
3 *16:2 7.23811e-17
4 *16 5.03384e-17

*RES
0 *26:g *16:2 51.618866  // $poly_conn
1 *16:2 *25:g 14.611425  // $poly_conn
2 *16:2 *5:g 38.949451  // $poly_conn
3 *16:2 *16 45.195057  // $metal1_conn

*END

*D_NET *20 4.48347e-16

*CONN
*P *20 O *C 2.3000 0.6650 
*I *11:d B *C 1.7950 0.5050 
*I *12:d B *C 1.7950 0.5050 
*I *13:d B *C 2.2650 0.5050 
*I *32:d B *C 2.2650 0.5050 
*I *33:d B *C 2.6650 0.5050 
*I *29:d B *C 1.6950 1.1350 
*I *30:d B *C 1.6950 1.1350 
*I *31:d B *C 2.1050 1.1350 
*I *8:d B *C 2.1050 1.1350 
*I *10:d B *C 2.5050 1.1350 

*CAP
0 *10:d 2.68657e-16
1 *11:d 1.7969e-16

*RES
0 *11:d *20 0.025039  // $metal1_conn
1 *20 *10:d 0.159861  // $metal1_conn

*END

*D_NET *18 4.06156e-18

*CONN
*I *27:s B *C 1.3050 1.1750 
*I *28:d B *C 1.3050 1.1750 

*CAP
0 *27:s 4.06156e-18

*RES
0 *28:d *27:s 0.001  // $mwires

*END

*D_NET *17 3.3988e-18

*CONN
*I *26:s B *C 1.1425 1.1750 
*I *27:d B *C 1.1425 1.1750 

*CAP
0 *26:s 3.3988e-18

*RES
0 *27:d *26:s 0.001  // $mwires

*END

*D_NET *23 5.29833e-18

*CONN
*I *24:s B *C 0.7250 1.1750 
*I *25:s B *C 0.7250 1.1750 

*CAP
0 *24:s 5.29833e-18

*RES
0 *25:s *24:s 0.001  // $mwires

*END

*D_NET *21 0

*CONN
*I *22:d B *C 0.5400 1.1750 
*I *24:d B *C 0.5400 1.1750 


*RES
0 *24:d *22:d 0.001  // $mwires

*END

*D_NET *19 7.83611e-16

*CONN
*I *2:d B *C 0.3850 0.4400 
*I *3:d B *C 0.3850 0.4400 
*I *4:d B *C 0.8550 0.4400 
*I *5:d B *C 0.8550 0.4400 
*I *6:d B *C 1.3250 0.4400 
*I *9:d B *C 1.3250 0.4400 
*I *11:g B *C 1.6925 0.5050 
*I *12:g B *C 1.8975 0.5050 
*I *13:g B *C 2.1625 0.5050 
*I *32:g B *C 2.3675 0.5050 
*I *33:g B *C 2.5725 0.5050 
*I *25:d B *C 0.9600 1.1750 
*I *26:d B *C 0.9600 1.1750 
*I *29:g B *C 1.5925 1.1350 
*I *30:g B *C 1.7975 1.1350 
*I *31:g B *C 2.0025 1.1350 
*I *8:g B *C 2.2075 1.1350 
*I *10:g B *C 2.4125 1.1350 
*N *19:19 *C 1.5200 0.7850 
*N *19:26 *C 0.9600 1.0900 

*CAP
0 *10:g 3.49166e-16
1 *25:d 8.51585e-17
2 *4:d 8.96625e-17
3 *2:d 1.57392e-16
4 *19:19 1.02232e-16

*RES
0 *10:g *19:19 0.215393  // $metal1_conn
1 *4:d *2:d 75  // $metal1_conn
2 *19:19 *2:d 0.395093  // $metal1_conn
3 *19:26 *25:d 62.145977  // $metal1_conn
4 *25:d *19:26 62  // $metal1_conn
5 *19:19 *19:26 0.57609  // $metal1_conn

*END

