*SPEF "IEEE 1481-1999"
*DESIGN  "OR3X1"
*DATE "Mon Sep 27 10:52:14 2010"
*VENDOR "Cadence Design Systems"
*PROGRAM "Assura RCX"
*VERSION "3.2 Red Hat Linux release 7.2 (Enigma) - (09/09/2009-10:39)"
*DESIGN_FLOW "Physical Verification"
*DIVIDER /
*DELIMITER :
*BUS_DELIMITER []
*T_UNIT 1 PS
*C_UNIT 1e15 FF
*R_UNIT 1 OHM
*L_UNIT 1 MH
// DeviceFingerDelim "@"
// MATCHED
// caps2d version: 10

*NAME_MAP
*1 mp2
*2 mp1
*3 mp0
*4 mp3
*5 VSS
*6 n0
*7 n1
*8 n2
*9 mn2
*10 mn1
*11 A
*12 VDD
*13 mn0
*14 Y
*15 B
*16 mn3
*17 C

*GROUND_NETS VSS

*PORTS
*12 I
*5 I
*11 I
*15 I
*17 I
*14 O

*D_NET *12 1.37334e-16

*CONN
*P *12 I *C 0.1000 1.7100 
*I *3:s B *C 0.7700 1.1050 
*I *4:s B *C 0.7700 1.1050 
*N *12:2 *C 0.6000 1.7100 
*N *12:3 *C 0.6000 1.7100 

*CAP
0 *3:s 3.95276e-17
1 *12:2 8.56853e-17
2 *12 1.2121e-17

*RES
0 *3:s *12:3 62.418198  // $metal1_conn
1 *12:3 *12 0.250365  // $metal1_conn
2 *12:2 *12:3 12.5  // $metal1_conn

*END

*D_NET *5 0

*CONN
*P *5 I *C 0.1000 0.0000 
*I *9:s B *C 0.3050 0.3975 
*I *10:s B *C 0.3050 0.3975 
*I *13:s B *C 0.7900 0.4550 
*I *16:s B *C 0.7900 0.4550 
*N *5:2 *C 0.6000 0.0000 
*N *5:3 *C 0.6000 0.0000 
*N *5:4 *C 0.3050 0.0000 


*RES
0 *13:s *5:3 75.327026  // $metal1_conn
1 *5:3 *5:4 0.147667  // $metal1_conn
2 *5:4 *5 0.102306  // $metal1_conn
3 *5:4 *9:s 75.24292  // $metal1_conn
4 *5:2 *5:3 10.333333  // $metal1_conn

*END

*D_NET *11 2.19176e-16

*CONN
*P *11 I *C 0.6450 0.8550 
*I *13:g B *C 0.6175 0.3975 
*I *3:g B *C 0.6175 1.1925 
*N *11:2 *C 0.6500 0.7050 

*CAP
0 *3:g 5.20554e-17
1 *13:g 3.78855e-17
2 *11:2 9.48968e-17
3 *11 3.4338e-17

*RES
0 *3:g *11:2 86.580032  // $poly_conn
1 *11:2 *13:g 49.400536  // $poly_conn
2 *11 *11:2 45.093945  // $metal1_conn

*END

*D_NET *15 2.58525e-16

*CONN
*P *15 I *C 0.3300 0.8550 
*I *10:g B *C 0.4075 0.3975 
*I *2:g B *C 0.4075 1.1925 
*N *15:2 *C 0.4075 0.7050 
*N *15:3 *C 0.3450 0.7050 

*CAP
0 *2:g 5.35469e-17
1 *10:g 3.74274e-17
2 *15:2 4.26374e-17
3 *15:3 7.54215e-17
4 *15 4.94914e-17

*RES
0 *2:g *15:2 94.124863  // $poly_conn
1 *15:2 *15:3 46.195099  // $poly_conn
2 *15:2 *10:g 56.94537  // $poly_conn
3 *15:3 *15 0.095511  // $metal1_conn

*END

*D_NET *17 2.00054e-16

*CONN
*P *17 I *C 0.1000 0.8550 
*I *9:g B *C 0.2025 0.3975 
*I *1:g B *C 0.2025 1.1925 
*N *17:2 *C 0.2025 0.7050 
*N *17:3 *C 0.1100 0.7050 

*CAP
0 *1:g 4.21471e-17
1 *9:g 3.15909e-17
2 *17:2 4.4412e-17
3 *17:3 4.89449e-17
4 *17 3.29589e-17

*RES
0 *1:g *17:2 94.124863  // $poly_conn
1 *17:2 *17:3 48.73896  // $poly_conn
2 *17:2 *9:g 56.94537  // $poly_conn
3 *17 *17:3 0.093943  // $metal1_conn

*END

*D_NET *14 1.25936e-16

*CONN
*P *14 O *C 0.9750 0.8450 
*I *16:d B *C 0.9550 0.4550 
*I *4:d B *C 0.9550 1.1050 

*CAP
0 *4:d 3.90044e-17
1 *16:d 5.68291e-17
2 *14 3.01027e-17

*RES
0 *14 *16:d 37.74147  // $metal1_conn
1 *14 *4:d 20.827888  // $metal1_conn

*END

*D_NET *8 5.34647e-18

*CONN
*I *1:s B *C 0.3050 1.1925 
*I *2:d B *C 0.3050 1.1925 

*CAP
0 *1:s 5.34647e-18

*RES
0 *2:d *1:s 0.001  // $mwires

*END

*D_NET *7 6.19197e-18

*CONN
*I *2:s B *C 0.5125 1.1925 
*I *3:d B *C 0.5125 1.1925 

*CAP
0 *2:s 6.19197e-18

*RES
0 *3:d *2:s 0.001  // $mwires

*END

*D_NET *6 4.88856e-16

*CONN
*I *9:d B *C 0.1100 0.3975 
*I *10:d B *C 0.5125 0.3975 
*I *13:d B *C 0.5125 0.3975 
*I *16:g B *C 0.8625 0.4550 
*I *1:d B *C 0.1100 1.1925 
*I *4:g B *C 0.8625 1.1050 
*N *6:2 *C 0.8350 0.7050 
*N *6:4 *C 0.5150 0.5400 
*N *6:5 *C 0.4625 0.5400 

*CAP
0 *4:g 4.54033e-17
1 *1:d 6.94617e-17
2 *16:g 3.36587e-17
3 *10:d 2.83349e-17
4 *9:d 5.03043e-17
5 *6:5 1.67522e-16
6 *6:2 9.41716e-17

*RES
0 *4:g *6:2 44.050922  // $poly_conn
1 *6:2 *16:g 22.256054  // $poly_conn
2 *6:2 *6:4 45.367348  // $metal1_conn
3 *6:4 *6:5 0.04766  // $metal1_conn
4 *6:5 *9:d 75.36219  // $metal1_conn
5 *6:4 *10:d 75.075592  // $metal1_conn
6 *6:5 *1:d 62.724659  // $metal1_conn

*END

