*SPEF "IEEE 1481-1999"
*DESIGN  "OR4X6"
*DATE "Mon Sep 27 10:55:40 2010"
*VENDOR "Cadence Design Systems"
*PROGRAM "Assura RCX"
*VERSION "3.2 Red Hat Linux release 7.2 (Enigma) - (09/09/2009-10:39)"
*DESIGN_FLOW "Physical Verification"
*DIVIDER /
*DELIMITER :
*BUS_DELIMITER []
*T_UNIT 1 PS
*C_UNIT 1e15 FF
*R_UNIT 1 OHM
*L_UNIT 1 MH
// DeviceFingerDelim "@"
// MATCHED
// caps2d version: 10

*NAME_MAP
*1 C
*2 D
*3 mn2
*4 mn3
*5 mn3\@1
*6 mp2\@1
*7 mn2\@1
*8 VDD
*9 mp3\@1
*10 mp3
*11 VSS
*12 mp2
*13 Y
*14 n3\@3
*15 n3\@4
*16 n3\@5
*17 n3\@1
*18 n3
*19 mn0
*20 mn4
*21 mn4\@1
*22 mn4\@2
*23 n0
*24 mn4\@3
*25 n3\@2
*26 mn4\@4
*27 mn1
*28 mn0\@1
*29 mn1\@1
*30 mp0
*31 mp4
*32 mp4\@1
*33 mp4\@2
*34 mp4\@3
*35 mp4\@4
*36 mp1
*37 mp0\@1
*38 mp1\@1
*39 A
*40 B

*GROUND_NETS VSS

*PORTS
*8 I
*11 I
*39 I
*40 I
*1 I
*2 I
*13 O

*D_NET *8 4.10352e-16

*CONN
*P *8 I *C 0.1000 1.7100 
*I *30:s B *C 1.8800 1.1350 
*I *31:s B *C 1.8800 1.1350 
*I *32:s B *C 2.2350 1.1350 
*I *33:s B *C 2.2350 1.1350 
*I *34:s B *C 2.6450 1.1350 
*I *35:s B *C 2.6450 1.1350 
*I *37:s B *C 0.2950 1.2550 
*N *8:2 *C 2.4000 1.7100 
*N *8:6 *C 0.8000 1.7100 
*N *8:7 *C 0.2850 1.7100 

*CAP
0 *37:s 3.47778e-17
1 *34:s 1.76612e-16
2 *8:7 1.21505e-17
3 *8:2 1.86812e-16

*RES
0 *8:7 *8 0.092297  // $metal1_conn
1 *8:2 *34:s 9.375  // $metal1_conn
2 *8:2 *8:6 9.375  // $metal1_conn
3 *8:7 *37:s 62.194187  // $metal1_conn
4 *34:s *8:6 0.497664  // $metal1_conn
5 *8:6 *8:7 0.257982  // $metal1_conn

*END

*D_NET *11 0

*CONN
*P *11 I *C 0.1000 0.0000 
*I *19:s B *C 1.9450 0.4300 
*I *20:s B *C 1.9450 0.4300 
*I *21:s B *C 2.3250 0.4300 
*I *22:s B *C 2.3250 0.4300 
*I *24:s B *C 2.7350 0.4300 
*I *26:s B *C 2.7350 0.4300 
*I *27:s B *C 1.4700 0.4050 
*I *28:s B *C 0.1800 0.4050 
*I *29:s B *C 0.6025 0.4050 
*I *3:s B *C 0.6025 0.4050 
*I *4:s B *C 1.0350 0.4050 
*I *5:s B *C 1.0350 0.4050 
*I *7:s B *C 1.4700 0.4050 
*N *11:2 *C 2.4000 0.0000 


*RES
0 *24:s *11 0.034639  // $metal1_conn
1 *11:2 *24:s 7.75  // $metal1_conn
2 *11:2 *24:s 7.75  // $metal1_conn
3 *24:s *4:s 75.2005  // $metal1_conn

*END

*D_NET *39 7.61159e-16

*CONN
*P *39 I *C 1.7000 1.0450 
*I *19:g B *C 1.7975 0.4050 
*I *28:g B *C 0.2725 0.4050 
*I *30:g B *C 1.6625 1.2550 
*I *37:g B *C 0.3875 1.2550 

*CAP
0 *37:g 5.71667e-17
1 *30:g 8.45533e-17
2 *39 6.19439e-16

*RES
0 *39 *30:g 38.324913  // $poly_conn
1 *37:g *39 20.339144  // $poly_conn

*END

*D_NET *40 6.87166e-16

*CONN
*P *40 I *C 0.5000 0.8550 
*I *27:g B *C 1.5775 0.4050 
*I *29:g B *C 0.4925 0.4050 
*I *36:g B *C 1.5575 1.2550 
*I *38:g B *C 0.4925 1.2550 

*CAP
0 *38:g 7.18884e-17
1 *36:g 7.57514e-17
2 *27:g 5.121e-16
3 *40 2.74259e-17

*RES
0 *27:g *36:g 19.691952  // $poly_conn
1 *38:g *27:g 17.320902  // $poly_conn
2 *27:g *40 0.055346  // $metal1_conn

*END

*D_NET *1 5.01863e-16

*CONN
*P *1 I *C 1.3000 0.6650 
*I *3:g B *C 0.7125 0.4050 
*I *7:g B *C 1.3625 0.4050 
*I *6:g B *C 0.7125 1.2550 
*I *12:g B *C 1.3625 1.2550 

*CAP
0 *12:g 7.81152e-17
1 *6:g 4.49368e-17
2 *7:g 3.58524e-16
3 *1 2.02865e-17

*RES
0 *12:g *7:g 87.640671  // $poly_conn
1 *6:g *7:g 37.640671  // $poly_conn
2 *1 *7:g 0.021454  // $metal1_conn

*END

*D_NET *2 3.20706e-16

*CONN
*P *2 I *C 0.9000 0.6650 
*I *4:g B *C 0.9325 0.4050 
*I *5:g B *C 1.1375 0.4050 
*I *9:g B *C 0.9975 1.2550 
*I *10:g B *C 1.2025 1.2550 
*N *2:2 *C 1.0750 0.7000 

*CAP
0 *10:g 5.16322e-17
1 *9:g 3.45768e-17
2 *5:g 1.15113e-16
3 *2:2 3.10482e-17
4 *2 8.83351e-17

*RES
0 *10:g *2:2 99.984795  // $poly_conn
1 *2:2 *9:g 87.164284  // $poly_conn
2 *2:2 *5:g 1.794373  // $poly_conn
3 *2:2 *2 45.116543  // $metal1_conn

*END

*D_NET *13 4.31987e-16

*CONN
*P *13 O *C 2.7000 1.0450 
*I *20:d B *C 2.1200 0.4300 
*I *21:d B *C 2.1200 0.4300 
*I *22:d B *C 2.5300 0.4300 
*I *24:d B *C 2.5300 0.4300 
*I *26:d B *C 2.9300 0.4300 
*I *31:d B *C 2.0300 1.1350 
*I *32:d B *C 2.0300 1.1350 
*I *33:d B *C 2.4400 1.1350 
*I *34:d B *C 2.4400 1.1350 
*I *35:d B *C 2.8400 1.1350 

*CAP
0 *20:d 1.9674e-16
1 *13 2.35246e-16

*RES
0 *20:d *13 0.276941  // $metal1_conn

*END

*D_NET *18 3.16723e-18

*CONN
*I *30:d B *C 1.6100 1.2550 
*I *36:d B *C 1.6100 1.2550 

*CAP
0 *30:d 3.16723e-18

*RES
0 *36:d *30:d 0.001  // $mwires

*END

*D_NET *17 7.55258e-18

*CONN
*I *36:s B *C 1.4600 1.2550 
*I *12:s B *C 1.4600 1.2550 

*CAP
0 *36:s 7.55258e-18

*RES
0 *12:s *36:s 0.001  // $mwires

*END

*D_NET *16 6.26333e-18

*CONN
*I *10:s B *C 1.2825 1.2550 
*I *12:d B *C 1.2825 1.2550 

*CAP
0 *10:s 6.26333e-18

*RES
0 *12:d *10:s 0.001  // $mwires

*END

*D_NET *15 9.15911e-18

*CONN
*I *6:s B *C 0.8550 1.2550 
*I *9:s B *C 0.8550 1.2550 

*CAP
0 *6:s 9.15911e-18

*RES
0 *9:s *6:s 0.001  // $mwires

*END

*D_NET *14 6.34788e-18

*CONN
*I *38:d B *C 0.6025 1.2550 
*I *6:d B *C 0.6025 1.2550 

*CAP
0 *38:d 6.34788e-18

*RES
0 *6:d *38:d 0.001  // $mwires

*END

*D_NET *25 2.72414e-18

*CONN
*I *37:d B *C 0.4400 1.2550 
*I *38:s B *C 0.4400 1.2550 

*CAP
0 *37:d 2.72414e-18

*RES
0 *38:s *37:d 0.001  // $mwires

*END

*D_NET *23 8.7265e-16

*CONN
*I *19:d B *C 1.6875 0.4050 
*I *20:g B *C 2.0175 0.4300 
*I *21:g B *C 2.2225 0.4300 
*I *22:g B *C 2.4275 0.4300 
*I *24:g B *C 2.6325 0.4300 
*I *26:g B *C 2.8375 0.4300 
*I *27:d B *C 1.6875 0.4050 
*I *28:d B *C 0.3825 0.4050 
*I *29:d B *C 0.3825 0.4050 
*I *3:d B *C 0.8225 0.4050 
*I *4:d B *C 0.8225 0.4050 
*I *5:d B *C 1.2500 0.4050 
*I *7:d B *C 1.2500 0.4050 
*I *31:g B *C 1.9275 1.1350 
*I *32:g B *C 2.1325 1.1350 
*I *33:g B *C 2.3375 1.1350 
*I *34:g B *C 2.5425 1.1350 
*I *35:g B *C 2.7475 1.1350 
*I *9:d B *C 1.1000 1.2550 
*I *10:d B *C 1.1000 1.2550 
*N *23:19 *C 1.8700 0.7200 

*CAP
0 *9:d 1.43608e-16
1 *35:g 3.37534e-16
2 *19:d 2.56405e-16
3 *23:19 1.35103e-16

*RES
0 *35:g *23:19 0.192899  // $metal1_conn
1 *23:19 *9:d 63.023182  // $metal1_conn
2 *23:19 *19:d 0.27607  // $metal1_conn

*END

