*SPEF "IEEE 1481-1999"
*DESIGN  "OR4X1"
*DATE "Mon Sep 27 10:54:30 2010"
*VENDOR "Cadence Design Systems"
*PROGRAM "Assura RCX"
*VERSION "3.2 Red Hat Linux release 7.2 (Enigma) - (09/09/2009-10:39)"
*DESIGN_FLOW "Physical Verification"
*DIVIDER /
*DELIMITER :
*BUS_DELIMITER []
*T_UNIT 1 PS
*C_UNIT 1e15 FF
*R_UNIT 1 OHM
*L_UNIT 1 MH
// DeviceFingerDelim "@"
// MATCHED
// caps2d version: 10

*NAME_MAP
*1 mp0
*2 mp4
*3 mn3
*4 Y
*5 mn2
*6 mn1
*7 mn0
*8 mn4
*9 n2
*10 A
*11 VDD
*12 n0
*13 n3
*14 B
*15 n1
*16 C
*17 D
*18 VSS
*19 mp3
*20 mp2
*21 mp1

*GROUND_NETS VSS

*PORTS
*11 I
*18 I
*10 I
*14 I
*16 I
*17 I
*4 O

*D_NET *11 1.84242e-16

*CONN
*P *11 I *C 0.1000 1.7100 
*I *1:s B *C 0.9350 1.1900 
*I *2:s B *C 0.9350 1.1900 
*N *11:2 *C 0.8500 1.5200 
*N *11:3 *C 0.6000 1.7100 
*N *11:4 *C 0.6000 1.7100 

*CAP
0 *1:s 7.61135e-17
1 *11:3 9.57619e-17
2 *11 1.23662e-17

*RES
0 *1:s *11:2 62.305847  // $metal1_conn
1 *11:2 *11:4 0.211378  // $metal1_conn
2 *11:4 *11 0.250574  // $metal1_conn
3 *1:s *11:2 62  // $metal1_conn
4 *11:3 *11:4 12.5  // $metal1_conn

*END

*D_NET *18 0

*CONN
*P *18 I *C 0.1000 0.0000 
*I *3:s B *C 0.1150 0.4425 
*I *5:s B *C 0.5150 0.4425 
*I *6:s B *C 0.5150 0.4425 
*I *7:s B *C 0.9100 0.3850 
*I *8:s B *C 0.9100 0.3850 
*N *18:2 *C 0.6000 0.0000 
*N *18:3 *C 0.6000 0.0000 
*N *18:4 *C 0.5000 0.0000 


*RES
0 *7:s *18:3 75.458755  // $metal1_conn
1 *18:3 *18:4 0.049097  // $metal1_conn
2 *18:4 *18 0.199872  // $metal1_conn
3 *18 *3:s 75.062263  // $metal1_conn
4 *18:4 *5:s 75.04583  // $metal1_conn
5 *18:2 *18:3 10.333333  // $metal1_conn

*END

*D_NET *10 2.22687e-16

*CONN
*P *10 I *C 0.9150 0.6650 
*I *7:g B *C 0.7675 0.4425 
*I *1:g B *C 0.7675 1.1525 
*N *10:2 *C 0.8150 0.7150 

*CAP
0 *1:g 5.90296e-17
1 *7:g 3.86398e-17
2 *10:2 1.07692e-16
3 *10 1.73257e-17

*RES
0 *1:g *10:2 73.808937  // $poly_conn
1 *10:2 *7:g 40.475597  // $poly_conn
2 *10 *10:2 45.081642  // $metal1_conn

*END

*D_NET *14 2.68369e-16

*CONN
*P *14 I *C 0.4600 1.0450 
*I *6:g B *C 0.5625 0.4425 
*I *21:g B *C 0.5625 1.1525 
*N *14:2 *C 0.5200 0.7200 

*CAP
0 *21:g 4.85894e-17
1 *6:g 4.07526e-17
2 *14:2 1.10632e-16
3 *14 6.83946e-17

*RES
0 *21:g *14:2 72.526878  // $poly_conn
1 *14:2 *6:g 41.757648  // $poly_conn
2 *14:2 *14 45.196724  // $metal1_conn

*END

*D_NET *16 2.85926e-16

*CONN
*P *16 I *C 0.2600 0.8550 
*I *5:g B *C 0.3675 0.4425 
*I *20:g B *C 0.3875 1.1525 
*N *16:2 *C 0.3400 0.6500 

*CAP
0 *20:g 8.26895e-17
1 *5:g 3.79383e-17
2 *16:2 1.04864e-16
3 *16 6.0434e-17

*RES
0 *20:g *16:2 93.110962  // $poly_conn
1 *16:2 *5:g 22.940296  // $poly_conn
2 *16:2 *16 45.133373  // $metal1_conn

*END

*D_NET *17 2.04637e-16

*CONN
*P *17 I *C 0.1200 0.6650 
*I *3:g B *C 0.1625 0.4425 
*I *19:g B *C 0.2825 1.1525 
*N *17:2 *C 0.1200 0.7650 

*CAP
0 *19:g 6.92477e-17
1 *3:g 3.3473e-17
2 *17:2 7.15743e-17
3 *17 3.03417e-17

*RES
0 *19:g *17:2 88.664284  // $poly_conn
1 *17:2 *3:g 54.61676  // $poly_conn
2 *17:2 *17 45.073547  // $metal1_conn

*END

*D_NET *4 1.47718e-16

*CONN
*P *4 O *C 1.1150 0.4750 
*I *8:d B *C 1.0750 0.3850 
*I *2:d B *C 1.0750 1.1900 

*CAP
0 *2:d 6.57147e-17
1 *4 8.20034e-17

*RES
0 *2:d *4 21.158417  // $metal1_conn
1 *4 *8:d 37.572178  // $metal1_conn

*END

*D_NET *13 6.34833e-19

*CONN
*I *19:s B *C 0.3350 1.1525 
*I *20:d B *C 0.3350 1.1525 

*CAP
0 *19:s 6.34833e-19

*RES
0 *20:d *19:s 0.001  // $mwires

*END

*D_NET *9 6.29902e-18

*CONN
*I *20:s B *C 0.4750 1.1525 
*I *21:d B *C 0.4750 1.1525 

*CAP
0 *20:s 6.29902e-18

*RES
0 *21:d *20:s 0.001  // $mwires

*END

*D_NET *15 3.05147e-18

*CONN
*I *21:s B *C 0.6650 1.1525 
*I *1:d B *C 0.6650 1.1525 

*CAP
0 *21:s 3.05147e-18

*RES
0 *1:d *21:s 0.001  // $mwires

*END

*D_NET *12 4.51467e-16

*CONN
*I *3:d B *C 0.2650 0.4425 
*I *5:d B *C 0.2650 0.4425 
*I *6:d B *C 0.6650 0.4425 
*I *7:d B *C 0.6650 0.4425 
*I *8:g B *C 0.9825 0.3850 
*I *19:d B *C 0.1900 1.1525 
*I *2:g B *C 0.9825 1.1900 
*N *12:2 *C 0.9825 0.8950 
*N *12:3 *C 0.9100 0.8950 
*N *12:5 *C 0.6650 0.8950 
*N *12:8 *C 0.6650 0.4300 

*CAP
0 *2:g 3.87778e-17
1 *19:d 5.58342e-17
2 *8:g 5.12187e-17
3 *6:d 5.56481e-17
4 *3:d 3.44169e-17
5 *12:5 1.20664e-16
6 *12:2 2.65116e-17
7 *12:3 6.83953e-17

*RES
0 *2:g *12:2 22.886339  // $poly_conn
1 *12:2 *12:3 47.294373  // $poly_conn
2 *12:2 *8:g 94.681206  // $poly_conn
3 *12:3 *12:5 0.168347  // $metal1_conn
4 *12:5 *19:d 62.589493  // $metal1_conn
5 *12:5 *12:8 0.383337  // $metal1_conn
6 *12:8 *3:d 75.270256  // $metal1_conn
7 *6:d *12:8 75  // $metal1_conn

*END

