*SPEF "IEEE 1481-1999"
*DESIGN  "OR4XL"
*DATE "Mon Sep 27 10:56:25 2010"
*VENDOR "Cadence Design Systems"
*PROGRAM "Assura RCX"
*VERSION "3.2 Red Hat Linux release 7.2 (Enigma) - (09/09/2009-10:39)"
*DESIGN_FLOW "Physical Verification"
*DIVIDER /
*DELIMITER :
*BUS_DELIMITER []
*T_UNIT 1 PS
*C_UNIT 1e15 FF
*R_UNIT 1 OHM
*L_UNIT 1 MH
// DeviceFingerDelim "@"
// MATCHED
// caps2d version: 10

*NAME_MAP
*1 mp0
*2 mp4
*3 mn3
*4 Y
*5 mn2
*6 mn1
*7 mn0
*8 mn4
*9 n2
*10 A
*11 VDD
*12 n0
*13 n1
*14 B
*15 n3
*16 C
*17 D
*18 VSS
*19 mp3
*20 mp2
*21 mp1

*GROUND_NETS VSS

*PORTS
*11 I
*18 I
*10 I
*14 I
*16 I
*17 I
*4 O

*D_NET *11 1.90978e-16

*CONN
*P *11 I *C 0.1000 1.7100 
*I *1:s B *C 1.1825 1.3025 
*I *2:s B *C 1.1825 1.3025 
*N *11:2 *C 0.8000 1.7100 
*N *11:3 *C 0.8000 1.7100 

*CAP
0 *1:s 4.28105e-17
1 *11:2 1.38284e-16
2 *11 9.88292e-18

*RES
0 *1:s *11:3 62.431538  // $metal1_conn
1 *11:3 *11 0.349503  // $metal1_conn
2 *11:2 *11:3 9.375  // $metal1_conn

*END

*D_NET *18 0

*CONN
*P *18 I *C 0.1000 0.0000 
*I *3:s B *C 0.3050 0.4425 
*I *5:s B *C 0.7050 0.4425 
*I *6:s B *C 0.7050 0.4425 
*I *7:s B *C 1.2375 0.4425 
*I *8:s B *C 1.2375 0.4425 
*N *18:2 *C 0.8000 0.0000 
*N *18:3 *C 0.8000 0.0000 
*N *18:4 *C 0.6900 0.0000 
*N *18:5 *C 0.2900 0.0000 


*RES
0 *7:s *18:3 75.503487  // $metal1_conn
1 *18:3 *18:4 0.054766  // $metal1_conn
2 *18:4 *18:5 0.199468  // $metal1_conn
3 *18:5 *18 0.094488  // $metal1_conn
4 *18:4 *5:s 75.073784  // $metal1_conn
5 *18:5 *3:s 75.073784  // $metal1_conn
6 *18:2 *18:3 7.75  // $metal1_conn

*END

*D_NET *10 2.01213e-16

*CONN
*P *10 I *C 1.1000 0.6650 
*I *7:g B *C 1.1175 0.4425 
*I *1:g B *C 1.0625 1.3025 
*N *10:2 *C 1.0900 0.6500 
*N *10:4 *C 1.0900 0.6500 

*CAP
0 *1:g 4.90759e-17
1 *7:g 2.45962e-17
2 *10:2 3.67097e-17
3 *10 9.08309e-17

*RES
0 *7:g *10:2 26.102209  // $poly_conn
1 *10:2 *1:g 131.230423  // $poly_conn
2 *10:4 *10 0.006448  // $metal1_conn
3 *10:2 *10:4 45  // $metal1_conn

*END

*D_NET *14 2.61279e-16

*CONN
*P *14 I *C 0.7000 0.6650 
*I *6:g B *C 0.7525 0.4425 
*I *21:g B *C 0.7525 1.3025 
*N *14:2 *C 0.7250 0.7100 
*N *14:4 *C 0.7250 0.7100 

*CAP
0 *21:g 5.21931e-17
1 *6:g 3.62092e-17
2 *14:2 1.43764e-16
3 *14 2.91128e-17

*RES
0 *21:g *14:2 115.845802  // $poly_conn
1 *14:2 *6:g 41.486824  // $poly_conn
2 *14 *14:4 0.024795  // $metal1_conn
3 *14:2 *14:4 45  // $metal1_conn

*END

*D_NET *16 2.92672e-16

*CONN
*P *16 I *C 0.5000 1.0450 
*I *5:g B *C 0.5575 0.4425 
*I *20:g B *C 0.5575 1.3025 
*N *16:2 *C 0.5300 1.0400 

*CAP
0 *20:g 4.43952e-17
1 *5:g 6.99169e-17
2 *16:2 6.51391e-17
3 *16 1.13221e-16

*RES
0 *20:g *16:2 31.230413  // $poly_conn
1 *16:2 *5:g 126.102203  // $poly_conn
2 *16:2 *16 45.003952  // $metal1_conn

*END

*D_NET *17 2.16254e-16

*CONN
*P *17 I *C 0.3000 0.6650 
*I *3:g B *C 0.3525 0.4425 
*I *19:g B *C 0.3975 1.3025 
*N *17:2 *C 0.3100 0.6600 
*N *17:4 *C 0.3100 0.6600 

*CAP
0 *19:g 6.334e-17
1 *3:g 2.73757e-17
2 *17:2 4.65277e-17
3 *17 7.90106e-17

*RES
0 *19:g *17:2 134.695068  // $poly_conn
1 *17:2 *3:g 27.69368  // $poly_conn
2 *17:4 *17 0.003093  // $metal1_conn
3 *17:2 *17:4 45  // $metal1_conn

*END

*D_NET *4 1.15826e-16

*CONN
*P *4 O *C 1.5000 0.4750 
*I *8:d B *C 1.4650 0.4425 
*I *2:d B *C 1.4375 1.3025 

*CAP
0 *2:d 6.42074e-17
1 *8:d 1.47728e-17
2 *4 3.68454e-17

*RES
0 *4 *8:d 75.026863  // $metal1_conn
1 *4 *2:d 62.465691  // $metal1_conn

*END

*D_NET *13 5.6949e-18

*CONN
*I *21:s B *C 0.9075 1.3025 
*I *1:d B *C 0.9075 1.3025 

*CAP
0 *21:s 5.6949e-18

*RES
0 *1:d *21:s 0.001  // $mwires

*END

*D_NET *9 5.6746e-18

*CONN
*I *20:s B *C 0.6550 1.3025 
*I *21:d B *C 0.6550 1.3025 

*CAP
0 *20:s 5.6746e-18

*RES
0 *21:d *20:s 0.001  // $mwires

*END

*D_NET *15 3.91494e-18

*CONN
*I *19:s B *C 0.4775 1.3025 
*I *20:d B *C 0.4775 1.3025 

*CAP
0 *19:s 3.91494e-18

*RES
0 *20:d *19:s 0.001  // $mwires

*END

*D_NET *12 4.46684e-16

*CONN
*I *3:d B *C 0.4550 0.4425 
*I *5:d B *C 0.4550 0.4425 
*I *6:d B *C 0.9350 0.4425 
*I *7:d B *C 0.9350 0.4425 
*I *8:g B *C 1.3575 0.4425 
*I *19:d B *C 0.3050 1.3025 
*I *2:g B *C 1.3025 1.3025 
*N *12:2 *C 1.3300 1.0850 
*N *12:4 *C 0.8850 1.1600 
*N *12:7 *C 0.8850 0.4300 

*CAP
0 *2:g 2.37931e-17
1 *19:d 5.04711e-17
2 *8:g 4.41659e-17
3 *6:d 8.68646e-17
4 *3:d 3.3838e-17
5 *12:4 1.02134e-16
6 *12:2 1.05417e-16

*RES
0 *8:g *12:2 137.640671  // $poly_conn
1 *12:2 *2:g 19.691952  // $poly_conn
2 *12:2 *12:4 45.342503  // $metal1_conn
3 *12:4 *19:d 62.473881  // $metal1_conn
4 *12:4 *12:7 0.509959  // $metal1_conn
5 *12:7 *3:d 75.289246  // $metal1_conn
6 *6:d *12:7 75  // $metal1_conn

*END

