*SPEF "IEEE 1481-1999"
*DESIGN  "SDFFX1"
*DATE "Mon Sep 27 11:12:04 2010"
*VENDOR "Cadence Design Systems"
*PROGRAM "Assura RCX"
*VERSION "3.2 Red Hat Linux release 7.2 (Enigma) - (09/09/2009-10:39)"
*DESIGN_FLOW "Physical Verification"
*DIVIDER /
*DELIMITER :
*BUS_DELIMITER []
*T_UNIT 1 PS
*C_UNIT 1e15 FF
*R_UNIT 1 OHM
*L_UNIT 1 MH
// DeviceFingerDelim "@"
// MATCHED
// caps2d version: 10

*NAME_MAP
*1 mn20
*2 QN
*3 mn45
*4 mn50
*5 mn51
*6 mn40
*7 mp10
*8 mp57
*9 SE
*10 mp56
*11 mp55
*12 mp20
*13 mp45
*14 SI
*15 mp50
*16 mp51
*17 mp40
*18 mout
*19 mp30
*20 n20
*21 mp35
*22 n30
*23 mp36
*24 SEb
*25 mp25
*26 qbint
*27 mp21
*28 Db
*29 mp11
*30 CKbb
*31 mp12
*32 CKb
*33 mp14
*34 net376
*35 mp13
*36 net356
*37 net384
*38 CK
*39 net392
*40 net436
*41 net429
*42 net449
*43 net461
*44 VSS
*45 D
*46 mn30
*47 mn35
*48 mn36
*49 mn25
*50 Q
*51 mn21
*52 VDD
*53 mn11
*54 mn12
*55 mn14
*56 mn13
*57 net367
*58 mn10
*59 mn57
*60 mn56
*61 mn55

*GROUND_NETS VSS

*PORTS
*52 I
*44 I
*38 I
*45 I
*9 I
*14 I
*50 O
*2 O

*D_NET *52 6.66284e-16

*CONN
*P *52 I *C 0.1000 1.7100 
*I *19:s B *C 3.0200 1.1375 
*I *21:s B *C 3.0200 1.1375 
*I *27:s B *C 4.0075 1.2075 
*I *29:s B *C 4.0075 1.2075 
*I *35:s B *C 4.8850 1.2075 
*I *7:s B *C 4.8850 1.2075 
*I *8:s B *C 0.5400 1.0075 
*I *10:s B *C 0.5400 1.0075 
*I *11:s B *C 1.2000 1.0325 
*I *12:s B *C 1.2000 1.0325 
*I *13:s B *C 2.0800 1.1375 
*I *15:s B *C 2.0800 1.1375 
*N *52:2 *C 4.5000 1.7100 
*N *52:3 *C 4.5000 1.7100 
*N *52:4 *C 3.9850 1.7100 
*N *52:5 *C 2.9350 1.7100 
*N *52:6 *C 2.7000 1.7100 
*N *52:7 *C 1.9650 1.7100 
*N *52:8 *C 1.0950 1.7100 
*N *52:9 *C 0.9000 1.7100 
*N *52:10 *C 0.4550 1.7100 

*CAP
0 *13:s 1.28467e-17
1 *11:s 3.85096e-17
2 *8:s 6.84061e-17
3 *35:s 2.96734e-17
4 *27:s 4.56386e-17
5 *19:s 1.20641e-17
6 *52:10 6.36075e-18
7 *52:8 1.26787e-17
8 *52:7 2.79289e-17
9 *52:5 2.65614e-17
10 *52:4 2.62795e-17
11 *52:2 3.5112e-16
12 *52 8.21598e-18

*RES
0 *35:s *52:3 62.512074  // $metal1_conn
1 *52:3 *52:4 0.257895  // $metal1_conn
2 *52:4 *52:5 0.525814  // $metal1_conn
3 *52:5 *52:6 0.117574  // $metal1_conn
4 *52:6 *52:7 0.368148  // $metal1_conn
5 *52:7 *52:8 0.435607  // $metal1_conn
6 *52:8 *52:9 0.097528  // $metal1_conn
7 *52:9 *52:10 0.222815  // $metal1_conn
8 *52:10 *52 0.177461  // $metal1_conn
9 *52:4 *27:s 62.279556  // $metal1_conn
10 *52:5 *19:s 62.074203  // $metal1_conn
11 *52:7 *13:s 62.097115  // $metal1_conn
12 *52:8 *11:s 62.28764  // $metal1_conn
13 *52:10 *8:s 21.070423  // $metal1_conn
14 *52:2 *52:3 8.333333  // $metal1_conn
15 *52:2 *52:6 8.333333  // $metal1_conn
16 *52:2 *52:9 8.333333  // $metal1_conn

*END

*D_NET *44 0

*CONN
*P *44 I *C 0.1000 0.0000 
*I *46:s B *C 3.0200 0.5675 
*I *47:s B *C 3.0200 0.5675 
*I *51:s B *C 4.0300 0.4375 
*I *53:s B *C 4.0300 0.4375 
*I *56:s B *C 4.8850 0.4375 
*I *58:s B *C 4.8850 0.4375 
*I *59:s B *C 0.5175 0.5875 
*I *60:s B *C 0.5175 0.5875 
*I *61:s B *C 1.1800 0.5875 
*I *1:s B *C 1.1800 0.5875 
*I *3:s B *C 2.0100 0.5675 
*I *4:s B *C 2.0100 0.5675 
*N *44:2 *C 4.5000 0.0000 
*N *44:3 *C 4.5000 0.0000 
*N *44:4 *C 4.0300 0.0000 
*N *44:5 *C 2.9350 0.0000 
*N *44:6 *C 2.7000 0.0000 
*N *44:7 *C 1.9950 0.0000 
*N *44:8 *C 1.0650 0.0000 
*N *44:9 *C 0.9000 0.0000 
*N *44:10 *C 0.4850 0.0000 


*RES
0 *56:s *44:3 75.493523  // $metal1_conn
1 *44:3 *44:4 0.235344  // $metal1_conn
2 *44:4 *44:5 0.547416  // $metal1_conn
3 *44:5 *44:6 0.116625  // $metal1_conn
4 *44:6 *44:7 0.352165  // $metal1_conn
5 *44:7 *44:8 0.464727  // $metal1_conn
6 *44:8 *44:9 0.082493  // $metal1_conn
7 *44:9 *44:10 0.207781  // $metal1_conn
8 *44:10 *44 0.192496  // $metal1_conn
9 *44:4 *51:s 75.265991  // $metal1_conn
10 *44:5 *46:s 75.045784  // $metal1_conn
11 *44:7 *3:s 75.045784  // $metal1_conn
12 *44:8 *61:s 75.28656  // $metal1_conn
13 *44:10 *59:s 75.074203  // $metal1_conn
14 *44:2 *44:3 6.888889  // $metal1_conn
15 *44:2 *44:6 6.888889  // $metal1_conn
16 *44:2 *44:9 6.888889  // $metal1_conn

*END

*D_NET *38 1.87045e-16

*CONN
*P *38 I *C 1.1000 1.0450 
*I *1:g B *C 1.2275 0.5875 
*I *12:g B *C 1.2675 1.0325 
*N *38:2 *C 1.2400 0.8100 

*CAP
0 *12:g 2.70564e-17
1 *1:g 2.87466e-17
2 *38:2 6.89929e-17
3 *38 6.22493e-17

*RES
0 *12:g *38:2 18.680727  // $poly_conn
1 *38:2 *1:g 27.655087  // $poly_conn
2 *38 *38:2 45.200951  // $metal1_conn

*END

*D_NET *45 2.38241e-16

*CONN
*P *45 I *C 3.9000 0.6650 
*I *53:g B *C 4.1325 0.4375 
*I *29:g B *C 4.1175 1.2075 
*N *45:2 *C 4.1175 0.7500 
*N *45:3 *C 4.0300 0.7500 

*CAP
0 *29:g 5.17216e-17
1 *53:g 3.20131e-17
2 *45:2 3.08532e-17
3 *45:3 9.31565e-17
4 *45 3.04965e-17

*RES
0 *53:g *45:2 56.204727  // $poly_conn
1 *45:2 *45:3 48.300362  // $poly_conn
2 *45:2 *29:g 86.432549  // $poly_conn
3 *45:3 *45 0.065117  // $metal1_conn

*END

*D_NET *9 5.25067e-16

*CONN
*P *9 I *C 5.1000 0.6650 
*I *55:g B *C 4.6775 0.4375 
*I *58:g B *C 4.9875 0.4375 
*I *31:g B *C 4.2975 1.2075 
*I *7:g B *C 4.9875 1.2075 
*N *9:1 *C 4.3800 0.9350 
*N *9:4 *C 4.6400 0.6700 
*N *9:6 *C 4.9600 0.6450 
*N *9:8 *C 4.9600 0.6450 

*CAP
0 *7:g 4.7491e-17
1 *31:g 3.93718e-17
2 *58:g 2.52133e-17
3 *55:g 6.61929e-17
4 *9:1 1.0161e-16
5 *9:4 1.19454e-16
6 *9:6 8.31322e-17
7 *9 4.2603e-17

*RES
0 *9:1 *31:g 86.983063  // $poly_conn
1 *55:g *9:4 76.539833  // $poly_conn
2 *7:g *9:6 108.153488  // $poly_conn
3 *9:6 *58:g 26.102209  // $poly_conn
4 *9:8 *9:4 0.228211  // $metal1_conn
5 *9:4 *9:1 0.358364  // $metal1_conn
6 *9:8 *9 0.0808  // $metal1_conn
7 *9:6 *9:8 45  // $metal1_conn

*END

*D_NET *14 3.13401e-16

*CONN
*P *14 I *C 4.9000 0.8545 
*I *56:g B *C 4.7825 0.4375 
*I *35:g B *C 4.7825 1.2075 
*N *14:2 *C 4.8200 0.8850 

*CAP
0 *35:g 3.93761e-17
1 *56:g 7.68999e-17
2 *14:2 1.97125e-16

*RES
0 *35:g *14:2 45.642399  // $poly_conn
1 *14:2 *56:g 86.668037  // $poly_conn
2 *14 *14:2 45.0047  // $metal1_conn

*END

*D_NET *50 1.35961e-16

*CONN
*P *50 O *C 0.9000 0.6650 
*I *61:d B *C 0.9000 0.5300 
*I *11:d B *C 0.9000 1.1200 

*CAP
0 *11:d 6.43413e-17
1 *61:d 7.16195e-17

*RES
0 *11:d *50 21.022907  // $metal1_conn
1 *50 *61:d 75.061615  // $metal1_conn

*END

*D_NET *2 9.43981e-17

*CONN
*P *2 O *C 0.1000 0.6650 
*I *59:d B *C 0.2600 0.5300 
*I *8:d B *C 0.2600 1.0950 
*N *2:3 *C 0.2500 0.6000 

*CAP
0 *8:d 4.78212e-17
1 *59:d 2.56301e-17
2 *2 2.09468e-17

*RES
0 *8:d *2:3 20.971601  // $metal1_conn
1 *2:3 *2 0.07102  // $metal1_conn
2 *59:d *2:3 75  // $metal1_conn

*END

*D_NET *43 0

*CONN
*I *55:s B *C 4.7300 0.4375 
*I *56:d B *C 4.7300 0.4375 


*RES
0 *56:d *55:s 0.001  // $mwires

*END

*D_NET *42 5.86399e-18

*CONN
*I *53:d B *C 4.3025 0.4375 
*I *54:s B *C 4.3025 0.4375 

*CAP
0 *53:d 5.86399e-18

*RES
0 *54:s *53:d 0.001  // $mwires

*END

*D_NET *41 0

*CONN
*I *47:d B *C 3.1200 0.5675 
*I *48:s B *C 3.1200 0.5675 


*RES
0 *48:s *47:d 0.001  // $mwires

*END

*D_NET *40 4.68352e-18

*CONN
*I *4:d B *C 2.1600 0.5675 
*I *5:s B *C 2.1600 0.5675 

*CAP
0 *4:d 4.68352e-18

*RES
0 *5:s *4:d 0.001  // $mwires

*END

*D_NET *39 0

*CONN
*I *33:s B *C 4.6725 1.2075 
*I *35:d B *C 4.6725 1.2075 


*RES
0 *35:d *33:s 0.001  // $mwires

*END

*D_NET *37 3.13284e-18

*CONN
*I *29:d B *C 4.2075 1.2075 
*I *31:s B *C 4.2075 1.2075 

*CAP
0 *29:d 3.13284e-18

*RES
0 *31:s *29:d 0.001  // $mwires

*END

*D_NET *36 0

*CONN
*I *21:d B *C 3.1200 1.1375 
*I *23:s B *C 3.1200 1.1375 


*RES
0 *23:s *21:d 0.001  // $mwires

*END

*D_NET *34 2.74505e-18

*CONN
*I *15:d B *C 2.2200 1.1375 
*I *16:s B *C 2.2200 1.1375 

*CAP
0 *15:d 2.74505e-18

*RES
0 *16:s *15:d 0.001  // $mwires

*END

*D_NET *32 9.07918e-16

*CONN
*I *49:g B *C 3.3775 0.5675 
*I *51:g B *C 3.9275 0.4375 
*I *1:d B *C 1.3775 0.5875 
*I *5:g B *C 2.2625 0.5675 
*I *23:g B *C 3.1725 1.1375 
*I *27:g B *C 3.8975 1.2075 
*I *12:d B *C 1.3750 1.0325 
*I *17:g B *C 2.5175 1.1375 
*N *32:2 *C 2.2250 0.8000 
*N *32:4 *C 2.5550 1.3950 
*N *32:6 *C 3.8975 0.7625 
*N *32:7 *C 3.3775 0.7625 
*N *32:11 *C 3.2100 1.3450 
*N *32:12 *C 2.2550 1.2500 
*N *32:14 *C 1.4000 1.0800 

*CAP
0 *17:g 5.43909e-17
1 *12:d 1.13604e-16
2 *27:g 4.11782e-17
3 *23:g 6.56468e-17
4 *5:g 4.19396e-17
5 *1:d 6.30622e-17
6 *51:g 3.82938e-17
7 *49:g 2.78348e-17
8 *32:12 9.72e-17
9 *32:7 5.76016e-17
10 *32:6 4.73696e-17
11 *32:2 8.21497e-17
12 *32:4 9.11513e-17
13 *32:11 8.64947e-17

*RES
0 *5:g *32:2 76.539833  // $poly_conn
1 *17:g *32:4 73.975731  // $poly_conn
2 *51:g *32:6 64.771629  // $poly_conn
3 *32:6 *32:7 127.481812  // $poly_conn
4 *32:7 *23:g 102.259804  // $poly_conn
5 *32:6 *27:g 85.386459  // $poly_conn
6 *32:7 *49:g 26.710743  // $poly_conn
7 *23:g *32:11 61.15522  // $poly_conn
8 *32:11 *32:4 0.433844  // $metal1_conn
9 *32:4 *32:12 0.268593  // $metal1_conn
10 *32:12 *32:14 0.675673  // $metal1_conn
11 *32:12 *32:2 0.329256  // $metal1_conn
12 *32:14 *1:d 75.36454  // $metal1_conn
13 *12:d *32:14 62  // $metal1_conn

*END

*D_NET *30 8.44587e-16

*CONN
*I *48:g B *C 3.1725 0.5675 
*I *51:d B *C 3.8350 0.4375 
*I *6:g B *C 2.5375 0.5675 
*I *25:g B *C 3.4075 1.1375 
*I *27:d B *C 3.8050 1.2075 
*I *16:g B *C 2.3125 1.1375 
*N *30:2 *C 2.5750 0.7400 
*N *30:5 *C 3.2100 0.3050 
*N *30:7 *C 3.4350 0.9050 
*N *30:8 *C 3.2100 0.3900 
*N *30:9 *C 3.4650 0.3900 
*N *30:11 *C 3.8400 0.4250 

*CAP
0 *16:g 6.52851e-17
1 *27:d 9.07337e-17
2 *25:g 4.40785e-17
3 *6:g 2.12922e-17
4 *51:d 4.49701e-17
5 *48:g 8.53803e-17
6 *30:9 5.65427e-17
7 *30:8 9.71121e-17
8 *30:2 1.52814e-16
9 *30:5 2.72953e-17
10 *30:7 1.59083e-16

*RES
0 *6:g *30:2 16.15522  // $poly_conn
1 *30:2 *16:g 105.823433  // $poly_conn
2 *48:g *30:5 84.232147  // $poly_conn
3 *25:g *30:7 68.538101  // $poly_conn
4 *30:5 *30:8 0.027621  // $metal1_conn
5 *30:8 *30:9 0.192728  // $metal1_conn
6 *30:9 *30:11 0.261366  // $metal1_conn
7 *30:8 *30:2 45.71386  // $metal1_conn
8 *30:9 *30:7 0.42309  // $metal1_conn
9 *30:7 *27:d 62.58802  // $metal1_conn
10 *51:d *30:11 75  // $metal1_conn

*END

*D_NET *28 4.19331e-16

*CONN
*I *49:s B *C 3.5425 0.5675 
*I *54:d B *C 4.5750 0.4375 
*I *55:d B *C 4.5750 0.4375 
*I *25:s B *C 3.5425 1.1375 
*I *31:d B *C 4.4300 1.2075 
*I *33:d B *C 4.4300 1.2075 
*N *28:2 *C 4.1900 1.0950 
*N *28:4 *C 3.5950 1.1250 

*CAP
0 *31:d 3.2621e-17
1 *25:s 9.59938e-17
2 *54:d 8.20306e-17
3 *49:s 6.61757e-17
4 *28:2 1.4251e-16

*RES
0 *54:d *28:2 75.685501  // $metal1_conn
1 *28:2 *28:4 0.438832  // $metal1_conn
2 *28:2 *31:d 62.191608  // $metal1_conn
3 *28:4 *49:s 75.418381  // $metal1_conn
4 *25:s *28:4 62  // $metal1_conn

*END

*D_NET *26 6.41589e-16

*CONN
*I *60:g B *C 0.5825 0.5875 
*I *61:g B *C 0.9925 0.5300 
*I *3:d B *C 1.7550 0.5675 
*I *4:g B *C 2.0575 0.5675 
*I *10:g B *C 0.5875 1.0075 
*I *11:g B *C 0.9925 1.1200 
*I *13:d B *C 1.7700 1.1375 
*I *15:g B *C 2.1275 1.1375 
*N *26:2 *C 0.9925 0.7600 
*N *26:3 *C 0.5825 0.7575 
*N *26:6 *C 1.0700 0.7600 
*N *26:9 *C 2.0575 0.7400 
*N *26:10 *C 2.0050 0.7400 
*N *26:12 *C 1.7300 0.7400 
*N *26:14 *C 1.7300 0.5750 

*CAP
0 *15:g 5.63477e-17
1 *13:d 4.78382e-17
2 *11:g 3.523e-17
3 *10:g 2.60483e-17
4 *4:g 3.68382e-17
5 *3:d 8.51324e-17
6 *61:g 3.10635e-17
7 *60:g 2.69774e-17
8 *26:12 3.35792e-17
9 *26:3 3.05692e-17
10 *26:2 1.16229e-17
11 *26:6 1.45716e-16
12 *26:10 7.46255e-17

*RES
0 *11:g *26:2 38.958176  // $poly_conn
1 *26:2 *26:3 98.934677  // $poly_conn
2 *26:3 *60:g 23.627766  // $poly_conn
3 *26:2 *61:g 22.29151  // $poly_conn
4 *26:2 *26:6 50.288631  // $poly_conn
5 *26:3 *10:g 35.51049  // $poly_conn
6 *15:g *26:9 77.724976  // $poly_conn
7 *26:9 *26:10 45.294373  // $poly_conn
8 *26:9 *4:g 22.886339  // $poly_conn
9 *26:10 *26:12 0.180557  // $metal1_conn
10 *26:12 *26:14 0.110404  // $metal1_conn
11 *26:14 *26:6 0.773609  // $metal1_conn
12 *26:12 *13:d 62.236771  // $metal1_conn
13 *3:d *26:14 75  // $metal1_conn

*END

*D_NET *24 4.28435e-16

*CONN
*I *54:g B *C 4.4725 0.4375 
*I *58:d B *C 5.0950 0.4375 
*I *33:g B *C 4.5625 1.2075 
*I *7:d B *C 5.0800 1.2075 
*N *24:2 *C 4.6000 0.8300 
*N *24:5 *C 5.0900 1.0650 

*CAP
0 *7:d 1.23426e-17
1 *33:g 3.76305e-17
2 *58:d 7.67916e-17
3 *54:g 4.82294e-17
4 *24:5 1.1896e-16
5 *24:2 1.34481e-16

*RES
0 *33:g *24:2 59.744961  // $poly_conn
1 *24:2 *54:g 90.728386  // $poly_conn
2 *58:d *24:5 75.713226  // $metal1_conn
3 *24:5 *24:2 45.498669  // $metal1_conn
4 *24:5 *7:d 62.04916  // $metal1_conn

*END

*D_NET *22 3.42164e-16

*CONN
*I *3:g B *C 1.8625 0.5675 
*I *5:d B *C 2.4000 0.5675 
*I *6:d B *C 2.4000 0.5675 
*I *13:g B *C 1.8625 1.1375 
*I *16:d B *C 2.4150 1.1375 
*I *17:d B *C 2.4150 1.1375 
*N *22:3 *C 1.8350 0.3850 
*N *22:6 *C 2.4150 0.5550 

*CAP
0 *16:d 6.58791e-17
1 *13:g 5.20032e-17
2 *5:d 8.58466e-17
3 *3:g 4.34147e-17
4 *22:3 9.50203e-17

*RES
0 *13:g *3:g 100  // $poly_conn
1 *3:g *22:3 64.691956  // $poly_conn
2 *16:d *22:6 62.397198  // $metal1_conn
3 *22:6 *22:3 0.443693  // $metal1_conn
4 *5:d *22:6 75  // $metal1_conn

*END

*D_NET *20 3.14498e-16

*CONN
*I *46:g B *C 2.8725 0.5675 
*I *48:d B *C 3.2750 0.5675 
*I *49:d B *C 3.2750 0.5675 
*I *19:g B *C 2.8025 1.1375 
*I *23:d B *C 3.2900 1.1375 
*I *25:d B *C 3.2900 1.1375 
*N *20:2 *C 2.8725 0.9300 
*N *20:4 *C 2.9250 0.9300 
*N *20:6 *C 3.2600 0.9300 

*CAP
0 *23:d 3.15224e-17
1 *19:g 4.0362e-17
2 *48:d 5.82997e-17
3 *46:g 4.97982e-17
4 *20:6 5.12725e-17
5 *20:2 4.36883e-17
6 *20:4 3.95544e-17

*RES
0 *46:g *20:2 64.889359  // $poly_conn
1 *20:2 *19:g 26.250877  // $poly_conn
2 *20:2 *20:4 47.59745  // $poly_conn
3 *23:d *20:6 62.118397  // $metal1_conn
4 *20:6 *20:4 0.214787  // $metal1_conn
5 *20:6 *48:d 75.213676  // $metal1_conn

*END

*D_NET *18 3.50703e-16

*CONN
*I *46:d B *C 2.7050 0.5675 
*I *47:g B *C 3.0675 0.5675 
*I *6:s B *C 2.7050 0.5675 
*I *19:d B *C 2.6600 1.1375 
*I *21:g B *C 3.0675 1.1375 
*I *17:s B *C 2.6600 1.1375 
*N *18:2 *C 3.0300 0.7400 
*N *18:4 *C 2.7350 0.7700 

*CAP
0 *21:g 8.62215e-17
1 *19:d 3.34863e-17
2 *47:g 5.49841e-17
3 *46:d 3.77959e-17
4 *18:4 4.1175e-17
5 *18:2 9.70404e-17

*RES
0 *21:g *18:2 64.873169  // $poly_conn
1 *18:2 *47:g 16.15522  // $poly_conn
2 *18:2 *18:4 45.193859  // $metal1_conn
3 *18:4 *19:d 62.220837  // $metal1_conn
4 *18:4 *46:d 75.14019  // $metal1_conn

*END

*D_NET *57 2.08891e-16

*CONN
*I *59:g B *C 0.3525 0.5300 
*I *60:d B *C 0.6750 0.5875 
*I *8:g B *C 0.3525 1.0950 
*I *10:d B *C 0.6800 1.0075 
*N *57:1 *C 0.4400 0.7600 
*N *57:2 *C 0.3525 0.7600 
*N *57:6 *C 0.6800 0.7500 

*CAP
0 *10:d 3.14427e-17
1 *8:g 4.04664e-17
2 *60:d 2.01917e-17
3 *59:g 3.54085e-17
4 *57:6 2.66756e-17
5 *57:2 6.57213e-18
6 *57:1 4.81342e-17

*RES
0 *57:1 *57:2 48.890118  // $poly_conn
1 *57:2 *59:g 20.563484  // $poly_conn
2 *57:2 *8:g 30.819893  // $poly_conn
3 *10:d *57:6 62.129395  // $metal1_conn
4 *57:6 *57:1 0.125154  // $metal1_conn
5 *57:6 *60:d 75.093483  // $metal1_conn

*END

