*SPEF "IEEE 1481-1999"
*DESIGN  "SDFFSX1"
*DATE "Mon Sep 27 11:09:01 2010"
*VENDOR "Cadence Design Systems"
*PROGRAM "Assura RCX"
*VERSION "3.2 Red Hat Linux release 7.2 (Enigma) - (09/09/2009-10:39)"
*DESIGN_FLOW "Physical Verification"
*DIVIDER /
*DELIMITER :
*BUS_DELIMITER []
*T_UNIT 1 PS
*C_UNIT 1e15 FF
*R_UNIT 1 OHM
*L_UNIT 1 MH
// DeviceFingerDelim "@"
// MATCHED
// caps2d version: 10

*NAME_MAP
*1 mp13
*2 mp10
*3 mp57
*4 CK
*5 mp56
*6 mp55
*7 mp45
*8 mp50
*9 mp51
*10 mp52
*11 mp40
*12 mp21
*13 VDD
*14 mn31
*15 mn35
*16 mn36
*17 mn25
*18 QN
*19 mn20
*20 mn11
*21 mn12
*22 mp30
*23 mn14
*24 mp31
*25 mn13
*26 mp35
*27 mp36
*28 mp25
*29 mp20
*30 mp11
*31 mp12
*32 mp14
*33 net492
*34 net405
*35 n20
*36 SEb
*37 n35
*38 SE
*39 qbint
*40 Db
*41 D
*42 mout
*43 CKbb
*44 SI
*45 CKb
*46 SN
*47 net417
*48 net433
*49 net441
*50 Q
*51 net521
*52 mn10
*53 net518
*54 mn30
*55 net442
*56 mn57
*57 net478
*58 mn56
*59 net494
*60 mn55
*61 net506
*62 mn45
*63 VSS
*64 mn50
*65 mn51
*66 mn52
*67 mn40
*68 mn21

*GROUND_NETS VSS

*PORTS
*13 I
*63 I
*4 I
*41 I
*38 I
*44 I
*46 I
*50 O
*18 O

*D_NET *13 8.88911e-16

*CONN
*P *13 I *C 0.1000 1.7100 
*I *22:s B *C 3.6550 1.0425 
*I *24:s B *C 4.1975 1.0425 
*I *26:s B *C 4.1975 1.0425 
*I *29:s B *C 5.7350 1.2675 
*I *30:s B *C 5.7350 1.2675 
*I *1:s B *C 6.5650 1.2675 
*I *2:s B *C 6.5650 1.2675 
*I *3:s B *C 0.2550 1.0950 
*I *5:s B *C 0.9150 1.0950 
*I *6:s B *C 0.9150 1.0950 
*I *7:s B *C 1.7850 1.3175 
*I *8:s B *C 1.7850 1.3175 
*I *9:s B *C 2.1925 1.3175 
*I *12:s B *C 3.6550 1.0425 
*N *13:2 *C 5.8000 1.7100 
*N *13:3 *C 5.8000 1.7100 
*N *13:4 *C 5.7350 1.7100 
*N *13:5 *C 4.1000 1.7100 
*N *13:6 *C 3.5000 1.7100 
*N *13:7 *C 2.1800 1.7100 
*N *13:8 *C 1.7850 1.7100 
*N *13:9 *C 1.2000 1.7100 
*N *13:10 *C 0.9050 1.7100 
*N *13:11 *C 0.2450 1.7100 

*CAP
0 *9:s 3.22415e-17
1 *7:s 1.58965e-17
2 *5:s 7.40003e-17
3 *3:s 4.99773e-17
4 *1:s 4.44782e-17
5 *29:s 3.89887e-17
6 *24:s 1.00325e-17
7 *22:s 1.33781e-17
8 *13:11 9.45983e-18
9 *13:10 7.46848e-18
10 *13:8 1.6502e-17
11 *13:7 2.72901e-17
12 *13:5 4.66033e-17
13 *13:4 5.59817e-17
14 *13:2 4.46613e-16

*RES
0 *1:s *13:3 62.669533  // $metal1_conn
1 *13:3 *13:4 0.032446  // $metal1_conn
2 *13:4 *13:5 0.818985  // $metal1_conn
3 *13:5 *13:6 0.30172  // $metal1_conn
4 *13:6 *13:7 0.66132  // $metal1_conn
5 *13:7 *13:8 0.197562  // $metal1_conn
6 *13:8 *13:9 0.292976  // $metal1_conn
7 *13:9 *13:10 0.147643  // $metal1_conn
8 *13:10 *13:11 0.330366  // $metal1_conn
9 *13:11 *13 0.07222  // $metal1_conn
10 *13:4 *29:s 62.245613  // $metal1_conn
11 *13:5 *24:s 62.074203  // $metal1_conn
12 *13:6 *22:s 62.059875  // $metal1_conn
13 *13:7 *9:s 62.20657  // $metal1_conn
14 *13:8 *7:s 62.210224  // $metal1_conn
15 *13:10 *5:s 21.070423  // $metal1_conn
16 *13:11 *3:s 21.066736  // $metal1_conn
17 *13:2 *13:3 6.25  // $metal1_conn
18 *13:2 *13:6 6.818182  // $metal1_conn
19 *13:2 *13:9 6.25  // $metal1_conn

*END

*D_NET *63 0

*CONN
*P *63 I *C 0.1000 0.0000 
*I *15:s B *C 4.2100 0.4825 
*I *19:s B *C 5.5975 0.3675 
*I *20:s B *C 5.5975 0.3675 
*I *25:s B *C 6.6200 0.3675 
*I *52:s B *C 6.6200 0.3675 
*I *54:s B *C 3.4075 0.5325 
*I *56:s B *C 0.3000 0.5300 
*I *58:s B *C 0.9150 0.5300 
*I *60:s B *C 0.9150 0.5300 
*I *62:s B *C 1.8400 0.5225 
*I *64:s B *C 1.8400 0.5225 
*I *68:s B *C 3.4075 0.5325 
*N *63:2 *C 5.8000 0.0000 
*N *63:3 *C 5.8000 0.0000 
*N *63:4 *C 5.4900 0.0000 
*N *63:5 *C 4.1250 0.0000 
*N *63:6 *C 3.5000 0.0000 
*N *63:7 *C 3.2650 0.0000 
*N *63:8 *C 1.8400 0.0000 
*N *63:9 *C 1.2000 0.0000 
*N *63:10 *C 0.9050 0.0000 
*N *63:11 *C 0.2150 0.0000 


*RES
0 *25:s *63:3 75.67025  // $metal1_conn
1 *63:3 *63:4 0.15516  // $metal1_conn
2 *63:4 *63:5 0.683675  // $metal1_conn
3 *63:5 *63:6 0.313022  // $metal1_conn
4 *63:6 *63:7 0.117574  // $metal1_conn
5 *63:7 *63:8 0.713744  // $metal1_conn
6 *63:8 *63:9 0.320539  // $metal1_conn
7 *63:9 *63:10 0.147643  // $metal1_conn
8 *63:10 *63:11 0.3454  // $metal1_conn
9 *63:11 *63 0.057186  // $metal1_conn
10 *63:4 *19:s 75.219177  // $metal1_conn
11 *63:5 *15:s 75.190323  // $metal1_conn
12 *63:7 *54:s 75.117203  // $metal1_conn
13 *63:8 *62:s 75.331139  // $metal1_conn
14 *63:10 *58:s 75.296669  // $metal1_conn
15 *63:11 *56:s 75.074203  // $metal1_conn
16 *63:2 *63:3 5.166667  // $metal1_conn
17 *63:2 *63:6 5.636364  // $metal1_conn
18 *63:2 *63:9 5.166667  // $metal1_conn

*END

*D_NET *4 2.35829e-16

*CONN
*P *4 I *C 5.3000 0.6650 
*I *19:g B *C 5.3575 0.3675 
*I *29:g B *C 5.6325 1.2675 
*N *4:2 *C 5.3300 0.6100 
*N *4:4 *C 5.3150 0.6100 
*N *4:5 *C 5.3300 0.6100 
*N *4:6 *C 5.3150 0.6650 

*CAP
0 *29:g 6.37371e-17
1 *19:g 2.33906e-17
2 *4:6 6.79339e-17
3 *4:4 3.55571e-17
4 *4:2 4.521e-17

*RES
0 *29:g *4:2 191.197266  // $poly_conn
1 *4:2 *19:g 35.076569  // $poly_conn
2 *4:4 *4:5 0.002015  // $metal1_conn
3 *4 *4:6 0.001948  // $metal1_conn
4 *4:4 *4:6 0.030147  // $metal1_conn
5 *4:2 *4:5 45  // $metal1_conn

*END

*D_NET *41 2.37115e-16

*CONN
*P *41 I *C 5.5000 0.6650 
*I *20:g B *C 5.8375 0.3675 
*I *30:g B *C 5.8375 1.2675 
*N *41:2 *C 5.8375 0.7775 
*N *41:3 *C 5.6950 0.7500 

*CAP
0 *30:g 5.67979e-17
1 *20:g 2.8571e-17
2 *41:2 4.02156e-17
3 *41:3 4.99299e-17
4 *41 6.16003e-17

*RES
0 *30:g *41:2 96.924919  // $poly_conn
1 *41:2 *41:3 68.325768  // $poly_conn
2 *41:2 *20:g 85.386459  // $poly_conn
3 *41:3 *41 0.159142  // $metal1_conn

*END

*D_NET *38 5.2429e-16

*CONN
*P *38 I *C 6.5000 0.6650 
*I *23:g B *C 6.4125 0.3675 
*I *52:g B *C 6.7225 0.3675 
*I *31:g B *C 6.0475 1.2675 
*I *2:g B *C 6.6675 1.2675 
*N *38:2 *C 6.0750 0.9000 
*N *38:4 *C 6.3850 0.6450 
*N *38:6 *C 6.6950 0.6450 

*CAP
0 *2:g 4.99468e-17
1 *31:g 4.44341e-17
2 *52:g 3.07119e-17
3 *23:g 6.68015e-17
4 *38:2 1.11542e-16
5 *38:4 1.0287e-16
6 *38:6 9.10314e-17
7 *38 2.69524e-17

*RES
0 *31:g *38:2 103.153488  // $poly_conn
1 *23:g *38:4 89.050919  // $poly_conn
2 *52:g *38:6 44.050922  // $poly_conn
3 *38:6 *2:g 123.538109  // $poly_conn
4 *38:6 *38 45.127831  // $metal1_conn
5 *38 *38:4 0.063486  // $metal1_conn
6 *38:4 *38:2 0.342803  // $metal1_conn

*END

*D_NET *44 3.30102e-16

*CONN
*P *44 I *C 6.3000 0.8550 
*I *25:g B *C 6.5175 0.3675 
*I *1:g B *C 6.4625 1.2675 
*N *44:2 *C 6.4900 0.8750 

*CAP
0 *1:g 4.92308e-17
1 *25:g 8.35149e-17
2 *44:2 1.49342e-16
3 *44 4.80147e-17

*RES
0 *25:g *44:2 103.025291  // $poly_conn
1 *44:2 *1:g 64.563744  // $poly_conn
2 *44 *44:2 45.115234  // $metal1_conn

*END

*D_NET *46 7.20039e-16

*CONN
*P *46 I *C 2.3000 0.8550 
*I *54:g B *C 3.5425 0.5325 
*I *64:g B *C 1.9425 0.5225 
*I *22:g B *C 3.7025 1.0425 
*I *8:g B *C 1.8875 1.3175 
*N *46:2 *C 1.9150 0.8650 
*N *46:6 *C 3.4550 0.3600 
*N *46:7 *C 2.2650 0.8550 

*CAP
0 *8:g 5.53805e-17
1 *22:g 7.67483e-17
2 *64:g 5.93833e-17
3 *54:g 4.28433e-17
4 *46:7 1.53416e-16
5 *46:2 1.39164e-16
6 *46:6 1.70581e-16
7 *46 2.25222e-17

*RES
0 *64:g *46:2 60.71759  // $poly_conn
1 *46:2 *8:g 79.948364  // $poly_conn
2 *22:g *54:g 113.812988  // $poly_conn
3 *54:g *46:6 68.795837  // $poly_conn
4 *46:2 *46:7 45.285854  // $metal1_conn
5 *46:7 *46 0.027163  // $metal1_conn
6 *46:7 *46:6 1.169959  // $metal1_conn

*END

*D_NET *50 1.49756e-16

*CONN
*P *50 O *C 1.1000 1.0450 
*I *60:d B *C 1.1575 0.5300 
*I *6:d B *C 1.1000 1.0950 
*N *50:3 *C 1.1105 1.0950 

*CAP
0 *6:d 3.91852e-17
1 *60:d 6.8141e-17
2 *50 4.24298e-17

*RES
0 *60:d *50 75.287033  // $metal1_conn
1 *50 *50:3 0.029928  // $metal1_conn
2 *6:d *50:3 20.666666  // $metal1_conn

*END

*D_NET *18 1.7077e-16

*CONN
*P *18 O *C 0.5000 0.6650 
*I *56:d B *C 0.4400 0.5300 
*I *3:d B *C 0.4400 1.0950 

*CAP
0 *3:d 7.56047e-17
1 *56:d 4.85681e-17
2 *18 4.65971e-17

*RES
0 *56:d *18 75.035011  // $metal1_conn
1 *18 *3:d 20.923361  // $metal1_conn

*END

*D_NET *61 2.0737e-20

*CONN
*I *23:s B *C 6.4650 0.3675 
*I *25:d B *C 6.4650 0.3675 

*CAP
0 *23:s 2.0737e-20

*RES
0 *25:d *23:s 0.001  // $mwires

*END

*D_NET *59 7.49144e-18

*CONN
*I *20:d B *C 6.0225 0.3675 
*I *21:s B *C 6.0225 0.3675 

*CAP
0 *20:d 7.49144e-18

*RES
0 *21:s *20:d 0.001  // $mwires

*END

*D_NET *57 3.30288e-18

*CONN
*I *15:d B *C 4.3375 0.4825 
*I *16:s B *C 4.3375 0.4825 

*CAP
0 *15:d 3.30288e-18

*RES
0 *16:s *15:d 0.001  // $mwires

*END

*D_NET *55 1.8506e-18

*CONN
*I *14:s B *C 3.6225 0.5325 
*I *54:d B *C 3.6225 0.5325 

*CAP
0 *14:s 1.8506e-18

*RES
0 *54:d *14:s 0.001  // $mwires

*END

*D_NET *53 1.59805e-18

*CONN
*I *65:d B *C 2.2050 0.5225 
*I *66:s B *C 2.2050 0.5225 

*CAP
0 *65:d 1.59805e-18

*RES
0 *66:s *65:d 0.001  // $mwires

*END

*D_NET *51 0

*CONN
*I *64:d B *C 1.9950 0.5225 
*I *65:s B *C 1.9950 0.5225 


*RES
0 *65:s *64:d 0.001  // $mwires

*END

*D_NET *49 0

*CONN
*I *32:s B *C 6.3725 1.2675 
*I *1:d B *C 6.3725 1.2675 


*RES
0 *1:d *32:s 0.001  // $mwires

*END

*D_NET *48 0

*CONN
*I *30:d B *C 5.9425 1.2675 
*I *31:s B *C 5.9425 1.2675 


*RES
0 *31:s *30:d 0.001  // $mwires

*END

*D_NET *47 0

*CONN
*I *26:d B *C 4.3100 1.0425 
*I *27:s B *C 4.3100 1.0425 


*RES
0 *27:s *26:d 0.001  // $mwires

*END

*D_NET *45 1.06002e-15

*CONN
*I *17:g B *C 4.7125 0.4825 
*I *19:d B *C 5.2650 0.3675 
*I *66:g B *C 2.3625 0.5225 
*I *68:g B *C 3.1025 0.5325 
*I *27:g B *C 4.3625 1.0425 
*I *29:d B *C 5.5400 1.2675 
*I *11:g B *C 2.8025 1.1375 
*I *12:g B *C 3.4375 1.0425 
*N *45:1 *C 3.4100 1.3150 
*N *45:3 *C 3.1025 0.8375 
*N *45:8 *C 4.3900 1.3400 
*N *45:10 *C 4.7400 0.6650 
*N *45:12 *C 4.7400 1.3150 

*CAP
0 *12:g 4.54717e-17
1 *11:g 1.05105e-16
2 *29:d 8.01401e-17
3 *27:g 7.26978e-17
4 *68:g 3.43693e-17
5 *66:g 1.08282e-16
6 *19:d 7.60523e-17
7 *17:g 3.97724e-17
8 *45:12 9.78503e-17
9 *45:3 4.00384e-17
10 *45:1 1.15668e-16
11 *45:8 1.06013e-16
12 *45:10 1.38559e-16

*RES
0 *45:1 *12:g 78.79451  // $poly_conn
1 *12:g *45:3 103.831421  // $poly_conn
2 *45:3 *11:g 119.216034  // $poly_conn
3 *11:g *66:g 371.50531  // $poly_conn
4 *45:3 *68:g 54.915871  // $poly_conn
5 *27:g *45:8 85.204773  // $poly_conn
6 *17:g *45:10 64.691956  // $poly_conn
7 *29:d *45:12 62.594639  // $metal1_conn
8 *45:12 *45:8 0.245062  // $metal1_conn
9 *45:8 *45:1 0.685545  // $metal1_conn
10 *45:12 *45:10 0.453547  // $metal1_conn
11 *45:10 *19:d 75.584518  // $metal1_conn

*END

*D_NET *43 6.95464e-16

*CONN
*I *16:g B *C 4.4175 0.4825 
*I *67:g B *C 2.5825 0.5225 
*I *68:d B *C 2.9525 0.5325 
*I *28:g B *C 4.5675 1.0425 
*I *10:g B *C 2.5975 1.1375 
*I *12:d B *C 3.3450 1.0425 
*N *43:1 *C 2.8450 0.7050 
*N *43:2 *C 2.5825 0.7325 
*N *43:6 *C 4.3900 0.6650 
*N *43:9 *C 3.3650 0.7050 

*CAP
0 *12:d 4.20729e-17
1 *10:g 6.76865e-17
2 *28:g 4.05098e-17
3 *68:d 3.00778e-17
4 *67:g 3.07906e-17
5 *16:g 2.93684e-17
6 *43:9 1.27278e-16
7 *43:2 2.66366e-17
8 *43:1 8.97581e-17
9 *43:6 2.11286e-16

*RES
0 *43:1 *43:2 98.93689  // $poly_conn
1 *43:2 *67:g 34.15237  // $poly_conn
2 *43:2 *10:g 77.435913  // $poly_conn
3 *28:g *43:6 89.728386  // $poly_conn
4 *43:6 *16:g 16.530039  // $poly_conn
5 *12:d *43:9 62.176163  // $metal1_conn
6 *43:9 *43:1 0.371764  // $metal1_conn
7 *43:9 *43:6 46.128117  // $metal1_conn
8 *43:1 *68:d 75.101624  // $metal1_conn

*END

*D_NET *42 6.21933e-16

*CONN
*I *14:d B *C 3.7950 0.5325 
*I *15:g B *C 4.2575 0.4825 
*I *67:s B *C 2.6750 0.5225 
*I *22:d B *C 3.8350 1.0425 
*I *24:d B *C 3.8350 1.0425 
*I *26:g B *C 4.2575 1.0425 
*I *11:s B *C 2.8950 1.1375 
*N *42:2 *C 4.2575 0.6650 
*N *42:3 *C 4.1700 0.6650 
*N *42:5 *C 3.8050 0.6650 
*N *42:7 *C 3.8050 1.0150 
*N *42:10 *C 2.9050 1.0900 

*CAP
0 *11:s 1.21668e-16
1 *26:g 7.45485e-17
2 *22:d 1.04953e-16
3 *67:s 1.01069e-16
4 *15:g 2.89024e-17
5 *14:d 2.6266e-17
6 *42:5 4.4663e-17
7 *42:2 3.90345e-17
8 *42:3 8.08285e-17

*RES
0 *26:g *42:2 65.919731  // $poly_conn
1 *42:2 *42:3 48.300362  // $poly_conn
2 *42:2 *15:g 24.894089  // $poly_conn
3 *42:3 *42:5 0.268568  // $metal1_conn
4 *42:5 *42:7 0.2478  // $metal1_conn
5 *42:5 *14:d 75.094078  // $metal1_conn
6 *42:7 *42:10 0.756814  // $metal1_conn
7 *42:10 *67:s 75.576454  // $metal1_conn
8 *22:d *42:7 62  // $metal1_conn
9 *11:s *42:10 62  // $metal1_conn

*END

*D_NET *40 4.73081e-16

*CONN
*I *17:d B *C 4.8625 0.4825 
*I *21:d B *C 6.3100 0.3675 
*I *23:d B *C 6.3100 0.3675 
*I *28:s B *C 4.7900 1.0425 
*I *31:d B *C 6.1650 1.2675 
*I *32:d B *C 6.1650 1.2675 
*N *40:2 *C 5.8850 1.1250 
*N *40:4 *C 4.9300 1.0900 

*CAP
0 *31:d 4.17147e-17
1 *28:s 1.32839e-16
2 *21:d 8.83092e-17
3 *17:d 6.95639e-17
4 *40:2 1.40655e-16

*RES
0 *21:d *40:2 75.752228  // $metal1_conn
1 *40:2 *40:4 0.696549  // $metal1_conn
2 *40:4 *17:d 75.426605  // $metal1_conn
3 *40:2 *31:d 62.238544  // $metal1_conn
4 *28:s *40:4 62  // $metal1_conn

*END

*D_NET *39 5.97653e-16

*CONN
*I *58:g B *C 0.7725 0.5875 
*I *60:g B *C 1.0075 0.5300 
*I *62:d B *C 1.6450 0.5225 
*I *65:g B *C 2.0475 0.5225 
*I *5:g B *C 0.7725 1.0075 
*I *6:g B *C 1.0075 1.0950 
*I *7:d B *C 1.5625 1.3175 
*I *9:g B *C 2.0925 1.3175 
*N *39:2 *C 0.9700 0.7600 
*N *39:3 *C 0.7725 0.7375 
*N *39:8 *C 2.0750 0.7050 
*N *39:10 *C 1.5550 0.7050 
*N *39:12 *C 1.6350 0.5150 

*CAP
0 *9:g 6.17248e-17
1 *7:d 4.58056e-17
2 *6:g 2.48358e-17
3 *5:g 1.66986e-17
4 *65:g 3.79992e-17
5 *62:d 7.60907e-17
6 *60:g 1.52579e-17
7 *58:g 1.54291e-17
8 *39:10 5.49024e-17
9 *39:3 5.86814e-18
10 *39:2 1.11943e-16
11 *39:8 1.31098e-16

*RES
0 *6:g *39:2 26.411629  // $poly_conn
1 *39:2 *39:3 34.282146  // $poly_conn
2 *39:3 *58:g 18.337015  // $poly_conn
3 *39:2 *60:g 16.15522  // $poly_conn
4 *39:3 *5:g 40.131889  // $poly_conn
5 *9:g *39:8 118.680725  // $poly_conn
6 *39:8 *65:g 17.398676  // $poly_conn
7 *39:8 *39:10 45.359249  // $metal1_conn
8 *39:10 *39:12 0.166208  // $metal1_conn
9 *39:12 *39:2 45.800186  // $metal1_conn
10 *39:10 *7:d 62.383854  // $metal1_conn
11 *62:d *39:12 75  // $metal1_conn

*END

*D_NET *37 4.57857e-16

*CONN
*I *62:g B *C 1.7375 0.5225 
*I *66:d B *C 2.4725 0.5225 
*I *67:d B *C 2.4725 0.5225 
*I *7:g B *C 1.6825 1.3175 
*I *10:d B *C 2.7000 1.1375 
*I *11:d B *C 2.7000 1.1375 
*N *37:2 *C 1.7450 1.0250 
*N *37:5 *C 2.4950 1.0250 

*CAP
0 *10:d 3.87439e-17
1 *7:g 3.55628e-17
2 *66:d 6.99791e-17
3 *62:g 4.05644e-17
4 *37:5 1.26464e-16
5 *37:2 1.46543e-16

*RES
0 *62:g *37:2 100.770599  // $poly_conn
1 *37:2 *7:g 51.002392  // $poly_conn
2 *10:d *37:5 62.195255  // $metal1_conn
3 *37:5 *37:2 45.592831  // $metal1_conn
4 *37:5 *66:d 75.354851  // $metal1_conn

*END

*D_NET *36 3.68062e-16

*CONN
*I *21:g B *C 6.2075 0.3675 
*I *52:d B *C 6.8300 0.3675 
*I *32:g B *C 6.2825 1.2675 
*I *2:d B *C 6.7600 1.2675 
*N *36:2 *C 6.2450 1.0600 
*N *36:5 *C 6.7700 1.0650 

*CAP
0 *2:d 1.48354e-17
1 *32:g 3.42005e-17
2 *52:d 5.75537e-17
3 *21:g 6.51145e-17
4 *36:5 8.46198e-17
5 *36:2 1.11739e-16

*RES
0 *32:g *36:2 18.425531  // $poly_conn
1 *36:2 *21:g 151.758865  // $poly_conn
2 *52:d *36:5 75.537956  // $metal1_conn
3 *36:5 *36:2 45.397758  // $metal1_conn
4 *36:5 *2:d 62.083134  // $metal1_conn

*END

*D_NET *35 3.4693e-16

*CONN
*I *14:g B *C 3.7025 0.5325 
*I *16:d B *C 4.5650 0.4825 
*I *17:s B *C 4.5650 0.4825 
*I *24:g B *C 3.9675 1.0425 
*I *27:d B *C 4.4650 1.0425 
*I *28:d B *C 4.4650 1.0425 
*N *35:2 *C 3.9950 0.8250 
*N *35:5 *C 4.4650 0.8250 

*CAP
0 *27:d 2.18465e-17
1 *24:g 3.54801e-17
2 *16:d 5.74708e-17
3 *14:g 5.55749e-17
4 *35:5 7.43014e-17
5 *35:2 1.02256e-16

*RES
0 *24:g *35:2 19.691952  // $poly_conn
1 *35:2 *14:g 104.017769  // $poly_conn
2 *16:d *35:5 75.343811  // $metal1_conn
3 *35:5 *35:2 45.347656  // $metal1_conn
4 *35:5 *27:d 62.093006  // $metal1_conn

*END

*D_NET *34 1.53674e-16

*CONN
*I *8:d B *C 1.9900 1.3175 
*I *9:d B *C 1.9900 1.3175 
*I *10:s B *C 2.5050 1.1375 

*CAP
0 *10:s 7.04871e-17
1 *8:d 8.31868e-17

*RES
0 *10:s *8:d 124.33284  // $metal1_conn

*END

*D_NET *33 2.81657e-16

*CONN
*I *56:g B *C 0.3475 0.5300 
*I *58:d B *C 0.6800 0.5875 
*I *3:g B *C 0.3475 1.0950 
*I *5:d B *C 0.6800 1.0075 
*N *33:2 *C 0.3000 0.7800 
*N *33:6 *C 0.6700 0.5750 

*CAP
0 *5:d 5.4442e-17
1 *3:g 2.80599e-17
2 *58:d 9.13822e-17
3 *56:g 2.08494e-17
4 *33:2 8.69234e-17

*RES
0 *3:g *33:2 21.283424  // $poly_conn
1 *33:2 *56:g 21.283424  // $poly_conn
2 *5:d *33:6 62.286724  // $metal1_conn
3 *33:6 *33:2 45.601406  // $metal1_conn
4 *58:d *33:6 75  // $metal1_conn

*END

