*SPEF "IEEE 1481-1999"
*DESIGN  "SDFFRHQX1"
*DATE "Mon Sep 27 11:01:22 2010"
*VENDOR "Cadence Design Systems"
*PROGRAM "Assura RCX"
*VERSION "3.2 Red Hat Linux release 7.2 (Enigma) - (09/09/2009-10:39)"
*DESIGN_FLOW "Physical Verification"
*DIVIDER /
*DELIMITER :
*BUS_DELIMITER []
*T_UNIT 1 PS
*C_UNIT 1e15 FF
*R_UNIT 1 OHM
*L_UNIT 1 MH
// DeviceFingerDelim "@"
// MATCHED
// caps2d version: 10

*NAME_MAP
*1 mn50
*2 mn51
*3 mn40
*4 mn30
*5 mn35
*6 RN
*7 mp55
*8 mp20
*9 SE
*10 mp46
*11 mp45
*12 mp50
*13 mp51
*14 SI
*15 mp40
*16 mp30
*17 mp35
*18 mout
*19 mp36
*20 SEb
*21 mp37
*22 n30
*23 mp25
*24 n20
*25 mp21
*26 qbint
*27 mp11
*28 Db
*29 mp12
*30 CKbb
*31 mp14
*32 CKb
*33 mp13
*34 net326
*35 mp10
*36 net381
*37 net373
*38 CK
*39 net337
*40 net405
*41 net426
*42 net422
*43 net450
*44 net442
*45 VSS
*46 D
*47 mn36
*48 mn37
*49 mn25
*50 mn21
*51 Q
*52 mn11
*53 VDD
*54 mn12
*55 mn14
*56 mn13
*57 mn10
*58 net349
*59 mn55
*60 mn20
*61 mn46
*62 mn45

*GROUND_NETS VSS

*PORTS
*53 I
*45 I
*38 I
*46 I
*6 I
*9 I
*14 I
*51 O

*D_NET *53 8.32563e-16

*CONN
*P *53 I *C 0.1000 1.7100 
*I *19:s B *C 2.7225 1.5700 
*I *25:s B *C 3.7050 1.2450 
*I *27:s B *C 3.7050 1.2450 
*I *33:s B *C 4.4875 1.1575 
*I *35:s B *C 4.4875 1.1575 
*I *7:s B *C 0.4350 1.3025 
*I *8:s B *C 0.4350 1.3025 
*I *10:s B *C 0.8900 1.2200 
*I *11:d B *C 1.2750 1.2200 
*I *12:s B *C 1.2750 1.2200 
*I *16:s B *C 2.3050 1.2200 
*I *17:s B *C 2.3050 1.2200 
*N *53:2 *C 3.6000 1.7100 
*N *53:3 *C 3.6000 1.7100 
*N *53:4 *C 2.6900 1.7000 
*N *53:5 *C 2.2500 1.7000 
*N *53:6 *C 1.3050 1.7000 
*N *53:7 *C 1.2000 1.7100 
*N *53:8 *C 0.7750 1.7000 
*N *53:9 *C 0.3500 1.7000 

*CAP
0 *16:s 4.52008e-17
1 *11:d 4.81049e-17
2 *10:s 3.70426e-17
3 *7:s 6.49038e-17
4 *33:s 6.25283e-17
5 *25:s 1.58045e-17
6 *19:s 3.02435e-17
7 *53:9 1.36588e-17
8 *53:8 1.43309e-17
9 *53:6 2.86064e-17
10 *53:5 3.73544e-17
11 *53:4 4.1303e-17
12 *53:2 3.84102e-16
13 *53 9.37935e-18

*RES
0 *33:s *53:3 62.563866  // $metal1_conn
1 *53:3 *53:4 0.39261  // $metal1_conn
2 *53:4 *53:5 0.189282  // $metal1_conn
3 *53:5 *53:6 0.408296  // $metal1_conn
4 *53:6 *53:7 0.0453  // $metal1_conn
5 *53:7 *53:8 0.183617  // $metal1_conn
6 *53:8 *53:9 0.183532  // $metal1_conn
7 *53:9 *53 0.107759  // $metal1_conn
8 *53:3 *25:s 62.10191  // $metal1_conn
9 *53:4 *19:s 62.03912  // $metal1_conn
10 *53:5 *16:s 62.146175  // $metal1_conn
11 *53:6 *11:d 62.237984  // $metal1_conn
12 *53:8 *10:s 62.146175  // $metal1_conn
13 *53:9 *7:s 20.978001  // $metal1_conn
14 *53:2 *53:3 6.25  // $metal1_conn
15 *53:2 *53:7 6.25  // $metal1_conn

*END

*D_NET *45 0

*CONN
*P *45 I *C 0.1000 0.0000 
*I *50:s B *C 3.6800 0.4450 
*I *52:s B *C 3.6800 0.4450 
*I *56:s B *C 4.5200 0.4775 
*I *57:s B *C 4.5200 0.4775 
*I *59:s B *C 0.4350 0.4975 
*I *60:s B *C 0.4350 0.4975 
*I *62:s B *C 1.3600 0.4075 
*I *1:s B *C 1.3600 0.4075 
*I *4:s B *C 2.3200 0.4075 
*I *5:s B *C 2.3200 0.4075 
*N *45:2 *C 3.6000 0.0000 
*N *45:3 *C 3.6000 0.0000 
*N *45:4 *C 2.2500 0.0000 
*N *45:5 *C 1.2000 0.0000 
*N *45:6 *C 0.3500 0.0000 


*RES
0 *56:s *45:3 75.783279  // $metal1_conn
1 *45:3 *45:4 0.678165  // $metal1_conn
2 *45:4 *45:5 0.528033  // $metal1_conn
3 *45:5 *45:6 0.42692  // $metal1_conn
4 *45:6 *45 0.125175  // $metal1_conn
5 *45:3 *50:s 75.330574  // $metal1_conn
6 *45:4 *4:s 75.255562  // $metal1_conn
7 *45:5 *62:s 75.161179  // $metal1_conn
8 *45:6 *59:s 37.809761  // $metal1_conn
9 *45:2 *45:3 5.166667  // $metal1_conn
10 *45:2 *45:5 5.166667  // $metal1_conn

*END

*D_NET *38 2.04555e-16

*CONN
*P *38 I *C 0.4450 0.8950 
*I *60:g B *C 0.4825 0.4975 
*I *8:g B *C 0.4825 1.3025 
*N *38:2 *C 0.4550 0.8900 
*N *38:4 *C 0.4550 0.8900 

*CAP
0 *8:g 3.99359e-17
1 *60:g 4.60944e-17
2 *38:2 4.14468e-17
3 *38 7.70776e-17

*RES
0 *8:g *38:2 69.691948  // $poly_conn
1 *38:2 *60:g 73.538109  // $poly_conn
2 *38:4 *38 0.003024  // $metal1_conn
3 *38:2 *38:4 45  // $metal1_conn

*END

*D_NET *46 2.93724e-16

*CONN
*P *46 I *C 3.6700 0.7900 
*I *52:g B *C 3.7525 0.4450 
*I *27:g B *C 3.7525 1.2450 
*N *46:2 *C 3.7525 0.7050 
*N *46:3 *C 3.6800 0.7050 

*CAP
0 *27:g 1.08475e-16
1 *52:g 3.56743e-17
2 *46:2 2.80222e-17
3 *46:3 6.15366e-17
4 *46 6.00164e-17

*RES
0 *27:g *46:2 85.150505  // $poly_conn
1 *46:2 *46:3 47.037205  // $poly_conn
2 *46:2 *52:g 30.022295  // $poly_conn
3 *46:3 *46 0.055913  // $metal1_conn

*END

*D_NET *6 5.11657e-16

*CONN
*P *6 I *C 1.2500 0.8550 
*I *62:g B *C 1.1425 0.4075 
*I *5:g B *C 2.3825 0.4075 
*I *11:g B *C 1.1425 1.2200 
*I *17:g B *C 2.3525 1.2200 
*N *6:4 *C 1.1425 0.8000 
*N *6:6 *C 1.2300 0.8000 
*N *6:7 *C 1.2400 0.8000 
*N *6:8 *C 1.2400 0.8550 

*CAP
0 *17:g 1.43737e-16
1 *11:g 1.06857e-16
2 *5:g 8.5474e-17
3 *62:g 5.19137e-17
4 *6:7 2.3535e-17
5 *6:4 3.25683e-17
6 *6:6 2.3766e-17
7 *6 4.38058e-17

*RES
0 *5:g *17:g 149.467316  // $poly_conn
1 *17:g *11:g 402.274506  // $poly_conn
2 *11:g *6:4 64.63768  // $poly_conn
3 *6:4 *62:g 71.047935  // $poly_conn
4 *6:4 *6:6 48.300362  // $poly_conn
5 *6:6 *6:7 0.002833  // $metal1_conn
6 *6:8 *6 0.002975  // $metal1_conn
7 *6:7 *6:8 0.027665  // $metal1_conn

*END

*D_NET *9 5.47843e-16

*CONN
*P *9 I *C 3.9600 0.6650 
*I *55:g B *C 4.2625 0.4450 
*I *57:g B *C 4.5725 0.4775 
*I *29:g B *C 3.8575 1.2450 
*I *35:g B *C 4.5725 1.1575 
*N *9:1 *C 3.9500 0.9400 
*N *9:4 *C 4.2250 0.6750 
*N *9:6 *C 4.6000 0.7050 

*CAP
0 *35:g 4.25427e-17
1 *29:g 7.47775e-17
2 *57:g 3.12234e-17
3 *55:g 5.74769e-17
4 *9:1 9.99416e-17
5 *9:4 9.09585e-17
6 *9:6 9.06143e-17
7 *9 6.03084e-17

*RES
0 *9:1 *29:g 69.283562  // $poly_conn
1 *55:g *9:4 61.15522  // $poly_conn
2 *35:g *9:6 79.948364  // $poly_conn
3 *9:6 *57:g 31.230413  // $poly_conn
4 *9:1 *9 0.219821  // $metal1_conn
5 *9 *9:4 0.160952  // $metal1_conn
6 *9:4 *9:6 45.224541  // $metal1_conn

*END

*D_NET *14 2.69942e-16

*CONN
*P *14 I *C 4.4400 0.8550 
*I *56:g B *C 4.3675 0.4450 
*I *33:g B *C 4.2625 1.2450 
*N *14:2 *C 4.4050 0.8350 
*N *14:4 *C 4.4050 0.8350 

*CAP
0 *33:g 6.69408e-17
1 *56:g 7.84683e-17
2 *14:2 9.81304e-17
3 *14 2.64027e-17

*RES
0 *56:g *14:2 57.180859  // $poly_conn
1 *14:2 *33:g 67.651459  // $poly_conn
2 *14:4 *14 0.009447  // $metal1_conn
3 *14:2 *14:4 45  // $metal1_conn

*END

*D_NET *51 1.47026e-16

*CONN
*P *51 O *C 0.1000 0.6650 
*I *59:d B *C 0.1550 0.4400 
*I *7:d B *C 0.1550 1.2150 
*N *51:2 *C 0.1450 0.6650 

*CAP
0 *7:d 6.2618e-17
1 *59:d 3.14109e-17
2 *51:2 3.96952e-17
3 *51 1.33018e-17

*RES
0 *7:d *51:2 21.074755  // $metal1_conn
1 *51:2 *51 0.007019  // $metal1_conn
2 *51:2 *59:d 37.68277  // $metal1_conn

*END

*D_NET *44 0

*CONN
*I *55:s B *C 4.3150 0.4450 
*I *56:d B *C 4.3150 0.4450 


*RES
0 *56:d *55:s 0.001  // $mwires

*END

*D_NET *43 7.07692e-18

*CONN
*I *52:d B *C 3.9050 0.4450 
*I *54:s B *C 3.9050 0.4450 

*CAP
0 *52:d 7.07692e-18

*RES
0 *54:s *52:d 0.001  // $mwires

*END

*D_NET *42 0

*CONN
*I *47:d B *C 2.6125 0.4075 
*I *48:s B *C 2.6125 0.4075 


*RES
0 *48:s *47:d 0.001  // $mwires

*END

*D_NET *41 0

*CONN
*I *47:s B *C 2.4700 0.4075 
*I *5:d B *C 2.4700 0.4075 


*RES
0 *5:d *47:s 0.001  // $mwires

*END

*D_NET *40 2.74566e-18

*CONN
*I *1:d B *C 1.4600 0.4075 
*I *2:s B *C 1.4600 0.4075 

*CAP
0 *1:d 2.74566e-18

*RES
0 *2:s *1:d 0.001  // $mwires

*END

*D_NET *39 4.46366e-18

*CONN
*I *61:s B *C 1.0400 0.4075 
*I *62:d B *C 1.0400 0.4075 

*CAP
0 *61:s 4.46366e-18

*RES
0 *62:d *61:s 0.001  // $mwires

*END

*D_NET *37 3.05793e-18

*CONN
*I *31:s B *C 4.1725 1.2450 
*I *33:d B *C 4.1725 1.2450 

*CAP
0 *31:s 3.05793e-18

*RES
0 *33:d *31:s 0.001  // $mwires

*END

*D_NET *36 1.82339e-18

*CONN
*I *27:d B *C 3.8050 1.2450 
*I *29:s B *C 3.8050 1.2450 

*CAP
0 *27:d 1.82339e-18

*RES
0 *29:s *27:d 0.001  // $mwires

*END

*D_NET *34 3.63434e-18

*CONN
*I *12:d B *C 1.5075 1.2200 
*I *13:s B *C 1.5075 1.2200 

*CAP
0 *12:d 3.63434e-18

*RES
0 *13:s *12:d 0.001  // $mwires

*END

*D_NET *32 1.34872e-15

*CONN
*I *49:g B *C 2.9375 0.4075 
*I *50:g B *C 3.5475 0.5025 
*I *60:d B *C 0.5775 0.4975 
*I *2:g B *C 1.5125 0.4075 
*I *21:g B *C 2.9375 1.0550 
*I *25:g B *C 3.5475 1.1575 
*I *8:d B *C 0.5775 1.3025 
*I *15:g B *C 1.8125 1.2200 
*N *32:2 *C 1.5500 0.7300 
*N *32:4 *C 1.8500 0.9350 
*N *32:6 *C 2.9100 1.4100 
*N *32:9 *C 3.4600 1.4100 
*N *32:11 *C 1.8500 1.3000 
*N *32:12 *C 1.5500 1.1250 
*N *32:14 *C 0.5900 1.2550 

*CAP
0 *15:g 4.42149e-17
1 *8:d 1.42028e-16
2 *25:g 4.97366e-17
3 *21:g 5.24955e-17
4 *2:g 5.75675e-17
5 *60:d 1.12672e-16
6 *50:g 5.95557e-17
7 *49:g 4.64006e-17
8 *32:12 1.51233e-16
9 *32:11 1.30043e-16
10 *32:2 1.00595e-16
11 *32:4 1.12619e-16
12 *32:6 1.79766e-16
13 *32:9 1.09793e-16

*RES
0 *2:g *32:2 91.924454  // $poly_conn
1 *15:g *32:4 68.847527  // $poly_conn
2 *21:g *32:6 87.768875  // $poly_conn
3 *21:g *49:g 100  // $poly_conn
4 *25:g *32:9 79.790802  // $poly_conn
5 *25:g *50:g 121.794876  // $poly_conn
6 *32:9 *32:6 0.393231  // $metal1_conn
7 *32:6 *32:11 0.840093  // $metal1_conn
8 *32:11 *32:12 0.348086  // $metal1_conn
9 *32:12 *32:14 0.767741  // $metal1_conn
10 *32:14 *60:d 75.503586  // $metal1_conn
11 *32:11 *32:4 0.296691  // $metal1_conn
12 *32:12 *32:2 0.305349  // $metal1_conn
13 *8:d *32:14 62  // $metal1_conn

*END

*D_NET *30 9.87432e-16

*CONN
*I *48:g B *C 2.6675 0.4075 
*I *50:d B *C 3.4550 0.5025 
*I *3:g B *C 1.8125 0.4075 
*I *23:g B *C 3.1425 1.0550 
*I *25:d B *C 3.4550 1.1575 
*I *13:g B *C 1.6075 1.2200 
*N *30:2 *C 1.8500 0.6100 
*N *30:5 *C 2.7050 0.6550 
*N *30:6 *C 3.2150 0.6200 
*N *30:9 *C 3.4450 0.6200 
*N *30:10 *C 2.6850 0.5550 

*CAP
0 *13:g 8.64979e-17
1 *25:d 6.81157e-17
2 *23:g 4.88461e-17
3 *3:g 2.16788e-17
4 *50:d 1.91516e-17
5 *48:g 4.67395e-17
6 *30:10 2.20344e-16
7 *30:9 3.83343e-17
8 *30:2 2.36894e-16
9 *30:5 7.12099e-17
10 *30:6 1.29621e-16

*RES
0 *3:g *30:2 16.15522  // $poly_conn
1 *30:2 *13:g 143.00293  // $poly_conn
2 *48:g *30:5 72.69368  // $poly_conn
3 *30:6 *23:g 111.171555  // $poly_conn
4 *25:d *30:9 62.398293  // $metal1_conn
5 *30:9 *30:6 0.148178  // $metal1_conn
6 *30:6 *30:10 0.839692  // $metal1_conn
7 *30:10 *30:2 46.094238  // $metal1_conn
8 *30:9 *50:d 75.092232  // $metal1_conn
9 *30:10 *30:5 0.083785  // $metal1_conn

*END

*D_NET *28 5.87762e-16

*CONN
*I *49:s B *C 3.0375 0.4075 
*I *54:d B *C 4.1600 0.4450 
*I *55:d B *C 4.1600 0.4450 
*I *23:s B *C 3.2350 1.0550 
*I *29:d B *C 3.9700 1.2450 
*I *31:d B *C 3.9700 1.2450 
*N *28:2 *C 3.8100 1.1300 
*N *28:4 *C 3.2450 1.0550 
*N *28:7 *C 3.9600 1.1600 

*CAP
0 *29:d 5.38576e-17
1 *23:s 1.75236e-16
2 *54:d 1.16025e-16
3 *49:s 1.0069e-16
4 *28:2 1.41954e-16

*RES
0 *54:d *28:2 75.700653  // $metal1_conn
1 *28:2 *28:4 0.673908  // $metal1_conn
2 *28:4 *49:s 75.608635  // $metal1_conn
3 *28:2 *28:7 0.081292  // $metal1_conn
4 *28:7 *29:d 62.163452  // $metal1_conn
5 *23:s *28:4 31  // $metal1_conn
6 *29:d *28:7 62  // $metal1_conn

*END

*D_NET *26 7.76751e-16

*CONN
*I *59:g B *C 0.2475 0.4400 
*I *61:d B *C 0.8225 0.4075 
*I *1:g B *C 1.4075 0.4075 
*I *7:g B *C 0.2475 1.2150 
*I *10:d B *C 1.0400 1.2200 
*I *11:s B *C 1.0400 1.2200 
*I *12:g B *C 1.4075 1.2200 
*N *26:1 *C 0.3050 0.6900 
*N *26:2 *C 0.2475 0.6900 
*N *26:6 *C 1.3700 0.6100 
*N *26:8 *C 1.0400 0.8100 
*N *26:10 *C 0.7900 0.3650 

*CAP
0 *12:g 6.73696e-17
1 *10:d 5.01146e-17
2 *7:g 5.89624e-17
3 *1:g 5.6129e-17
4 *61:d 1.40745e-16
5 *59:g 3.3449e-17
6 *26:8 1.00488e-16
7 *26:2 3.60544e-17
8 *26:1 1.11557e-16
9 *26:6 1.21882e-16

*RES
0 *26:1 *26:2 45.778431  // $poly_conn
1 *26:2 *59:g 24.098839  // $poly_conn
2 *26:2 *7:g 77.944992  // $poly_conn
3 *12:g *26:6 107.180855  // $poly_conn
4 *26:6 *1:g 16.15522  // $poly_conn
5 *26:6 *26:8 45.375885  // $metal1_conn
6 *26:8 *26:10 0.541655  // $metal1_conn
7 *26:10 *26:1 0.633896  // $metal1_conn
8 *26:8 *10:d 62.237755  // $metal1_conn
9 *61:d *26:10 75  // $metal1_conn

*END

*D_NET *24 4.70843e-16

*CONN
*I *48:d B *C 2.8025 0.4075 
*I *49:d B *C 2.8025 0.4075 
*I *4:g B *C 2.1475 0.4075 
*I *21:d B *C 3.0400 1.0550 
*I *23:d B *C 3.0400 1.0550 
*I *16:g B *C 2.0875 1.2200 
*N *24:2 *C 2.1200 0.9000 
*N *24:5 *C 2.8650 0.9400 

*CAP
0 *16:g 5.77428e-17
1 *21:d 5.26564e-17
2 *4:g 4.92376e-17
3 *48:d 9.02809e-17
4 *24:5 9.60387e-17
5 *24:2 1.24887e-16

*RES
0 *4:g *24:2 89.193542  // $poly_conn
1 *24:2 *16:g 31.50124  // $poly_conn
2 *21:d *24:5 31.215437  // $metal1_conn
3 *24:5 *24:2 45.548523  // $metal1_conn
4 *24:5 *48:d 75.360207  // $metal1_conn

*END

*D_NET *22 4.96772e-16

*CONN
*I *61:g B *C 0.9375 0.4075 
*I *2:d B *C 1.6625 0.4075 
*I *3:d B *C 1.6625 0.4075 
*I *10:g B *C 0.9375 1.2200 
*I *13:d B *C 1.7100 1.2200 
*I *15:d B *C 1.7100 1.2200 
*N *22:2 *C 0.9100 0.6200 
*N *22:6 *C 1.7100 0.3900 

*CAP
0 *13:d 1.15206e-16
1 *10:g 5.28851e-17
2 *2:d 1.47729e-16
3 *61:g 2.75074e-17
4 *22:2 1.53444e-16

*RES
0 *10:g *22:2 105.589386  // $poly_conn
1 *22:2 *61:g 19.691952  // $poly_conn
2 *13:d *22:6 62.588848  // $metal1_conn
3 *22:6 *22:2 45.741024  // $metal1_conn
4 *2:d *22:6 75  // $metal1_conn

*END

*D_NET *20 4.00128e-16

*CONN
*I *54:g B *C 4.0575 0.4450 
*I *57:d B *C 4.6650 0.4775 
*I *31:g B *C 4.0825 1.2450 
*I *35:d B *C 4.6650 1.1575 
*N *20:2 *C 4.1200 0.9500 
*N *20:5 *C 4.6750 1.2050 

*CAP
0 *35:d 9.20777e-17
1 *31:g 4.67347e-17
2 *57:d 7.16746e-17
3 *54:g 6.38103e-17
4 *20:2 1.2583e-16

*RES
0 *31:g *20:2 16.15522  // $poly_conn
1 *20:2 *54:g 90.269585  // $poly_conn
2 *20:2 *20:5 45.543499  // $metal1_conn
3 *20:5 *57:d 75.542229  // $metal1_conn
4 *35:d *20:5 62  // $metal1_conn

*END

*D_NET *18 5.19236e-16

*CONN
*I *47:g B *C 2.5575 0.4075 
*I *3:s B *C 1.9800 0.4075 
*I *4:d B *C 1.9800 0.4075 
*I *19:g B *C 2.5575 1.2200 
*I *15:s B *C 1.9500 1.2200 
*I *16:d B *C 1.9500 1.2200 
*N *18:2 *C 2.5250 0.7400 
*N *18:4 *C 1.9750 0.6750 

*CAP
0 *15:s 8.30217e-17
1 *19:g 6.14729e-17
2 *3:s 6.35927e-17
3 *47:g 6.52133e-17
4 *18:4 1.03028e-16
5 *18:2 1.42907e-16

*RES
0 *19:g *18:2 72.526878  // $poly_conn
1 *18:2 *47:g 48.167908  // $poly_conn
2 *18:2 *18:4 45.474373  // $metal1_conn
3 *18:4 *3:s 75.203651  // $metal1_conn
4 *18:4 *15:s 62.322289  // $metal1_conn

*END

*D_NET *58 1.20518e-16

*CONN
*I *19:d B *C 2.4550 1.2200 
*I *21:s B *C 2.8450 1.0550 
*I *17:d B *C 2.4550 1.2200 

*CAP
0 *21:s 5.44181e-17
1 *19:d 6.61002e-17

*RES
0 *21:s *19:d 124.319206  // $metal1_conn

*END

