*SPEF "IEEE 1481-1999"
*DESIGN  "SDFFTRXL"
*DATE "Mon Sep 27 11:11:42 2010"
*VENDOR "Cadence Design Systems"
*PROGRAM "Assura RCX"
*VERSION "3.2 Red Hat Linux release 7.2 (Enigma) - (09/09/2009-10:39)"
*DESIGN_FLOW "Physical Verification"
*DIVIDER /
*DELIMITER :
*BUS_DELIMITER []
*T_UNIT 1 PS
*C_UNIT 1e15 FF
*R_UNIT 1 OHM
*L_UNIT 1 MH
// DeviceFingerDelim "@"
// MATCHED
// caps2d version: 10

*NAME_MAP
*1 mn20
*2 QN
*3 mn45
*4 mn50
*5 mn51
*6 mn40
*7 mn30
*8 RN
*9 mp1
*10 mp57
*11 SE
*12 mp56
*13 mp55
*14 mp20
*15 mp45
*16 SI
*17 mp50
*18 mp51
*19 mp40
*20 mp30
*21 net436
*22 mp35
*23 n20
*24 mp36
*25 mout
*26 mp25
*27 n30
*28 mp21
*29 Dbp
*30 mp12
*31 SEb
*32 mp13
*33 qbint
*34 mp11
*35 CKbb
*36 mp10
*37 Db
*38 mp0
*39 CKb
*40 net395
*41 CK
*42 net375
*43 net411
*44 net460
*45 net452
*46 net484
*47 net476
*48 VSS
*49 D
*50 mn35
*51 mn36
*52 mn25
*53 mn21
*54 Q
*55 mn12
*56 VDD
*57 mn13
*58 mn11
*59 mn10
*60 mn0
*61 mn1
*62 mn57
*63 mn56
*64 mn55

*GROUND_NETS VSS

*PORTS
*56 I
*48 I
*41 I
*49 I
*8 I
*11 I
*16 I
*54 O
*2 O

*D_NET *56 6.71144e-16

*CONN
*P *56 I *C 0.1000 1.7100 
*I *22:s B *C 3.1500 1.0525 
*I *28:s B *C 4.1300 1.2375 
*I *30:s B *C 4.1300 1.2375 
*I *36:s B *C 5.4550 1.0775 
*I *38:s B *C 5.4550 1.0775 
*I *9:s B *C 5.8700 1.0775 
*I *10:s B *C 0.5050 1.0075 
*I *12:s B *C 0.5050 1.0075 
*I *13:s B *C 1.2225 1.1975 
*I *14:s B *C 1.2225 1.1975 
*I *15:s B *C 2.1550 1.0525 
*I *17:s B *C 2.1550 1.0525 
*I *20:s B *C 3.1500 1.0525 
*N *56:2 *C 5.3000 1.7100 
*N *56:3 *C 5.3000 1.7100 
*N *56:4 *C 4.1300 1.7100 
*N *56:5 *C 3.2000 1.7100 
*N *56:6 *C 3.0650 1.7100 
*N *56:7 *C 2.0400 1.7100 
*N *56:8 *C 1.2000 1.7100 
*N *56:9 *C 1.1000 1.7100 
*N *56:10 *C 0.5050 1.7100 

*CAP
0 *15:s 3.01147e-17
1 *13:s 2.17989e-17
2 *10:s 3.14508e-17
3 *9:s 3.56925e-17
4 *36:s 2.21661e-17
5 *28:s 3.9839e-17
6 *22:s 7.06429e-18
7 *56:10 8.55005e-18
8 *56:8 9.71933e-18
9 *56:7 2.86745e-17
10 *56:6 2.13589e-17
11 *56:4 3.46109e-17
12 *56:2 3.7414e-16
13 *56 5.96376e-18

*RES
0 *9:s *56:3 62.711975  // $metal1_conn
1 *56:3 *56:4 0.586147  // $metal1_conn
2 *56:4 *56:5 0.465872  // $metal1_conn
3 *56:5 *56:6 0.067459  // $metal1_conn
4 *56:6 *56:7 0.513285  // $metal1_conn
5 *56:7 *56:8 0.420573  // $metal1_conn
6 *56:8 *56:9 0.049919  // $metal1_conn
7 *56:9 *56:10 0.297987  // $metal1_conn
8 *56:10 *56 0.202518  // $metal1_conn
9 *56:3 *36:s 62.189873  // $metal1_conn
10 *56:4 *28:s 62.263309  // $metal1_conn
11 *56:6 *22:s 62.074203  // $metal1_conn
12 *56:7 *15:s 62.223156  // $metal1_conn
13 *56:8 *13:s 62.289848  // $metal1_conn
14 *56:10 *10:s 62.41592  // $metal1_conn
15 *56:2 *56:3 6.818182  // $metal1_conn
16 *56:2 *56:5 7.5  // $metal1_conn
17 *56:2 *56:9 6.818182  // $metal1_conn

*END

*D_NET *48 0

*CONN
*P *48 I *C 0.1000 0.0000 
*I *50:s B *C 3.1300 0.5025 
*I *53:s B *C 4.1600 0.3675 
*I *55:s B *C 4.1600 0.3675 
*I *59:s B *C 5.4275 0.4525 
*I *60:s B *C 5.4275 0.4525 
*I *62:s B *C 0.5550 0.5875 
*I *63:s B *C 0.5550 0.5875 
*I *64:s B *C 1.2725 0.5225 
*I *1:s B *C 1.2725 0.5225 
*I *3:s B *C 2.0850 0.5025 
*I *4:s B *C 2.0850 0.5025 
*I *7:s B *C 3.1300 0.5025 
*N *48:2 *C 5.3000 0.0000 
*N *48:3 *C 5.3000 0.0000 
*N *48:4 *C 4.1600 0.0000 
*N *48:5 *C 3.2000 0.0000 
*N *48:6 *C 3.0950 0.0000 
*N *48:7 *C 2.0700 0.0000 
*N *48:8 *C 1.1600 0.0000 
*N *48:9 *C 1.1000 0.0000 
*N *48:10 *C 0.5350 0.0000 


*RES
0 *59:s *48:3 75.404396  // $metal1_conn
1 *48:3 *48:4 0.571113  // $metal1_conn
2 *48:4 *48:5 0.480906  // $metal1_conn
3 *48:5 *48:6 0.051583  // $metal1_conn
4 *48:6 *48:7 0.511387  // $metal1_conn
5 *48:7 *48:8 0.454704  // $metal1_conn
6 *48:8 *48:9 0.029867  // $metal1_conn
7 *48:9 *48:10 0.282953  // $metal1_conn
8 *48:10 *48 0.217553  // $metal1_conn
9 *48:4 *53:s 75.221283  // $metal1_conn
10 *48:6 *50:s 75.045784  // $metal1_conn
11 *48:7 *3:s 75.045784  // $metal1_conn
12 *48:8 *64:s 75.074203  // $metal1_conn
13 *48:10 *62:s 75.074203  // $metal1_conn
14 *48:2 *48:3 5.636364  // $metal1_conn
15 *48:2 *48:5 6.2  // $metal1_conn
16 *48:2 *48:9 5.636364  // $metal1_conn

*END

*D_NET *41 1.94427e-16

*CONN
*P *41 I *C 1.3000 1.0450 
*I *1:g B *C 1.3475 0.5225 
*I *14:g B *C 1.3475 1.1975 
*N *41:2 *C 1.3100 0.8750 

*CAP
0 *14:g 2.7744e-17
1 *1:g 3.49476e-17
2 *41:2 6.0558e-17
3 *41 7.1177e-17

*RES
0 *14:g *41:2 45.642399  // $poly_conn
1 *41:2 *1:g 62.309063  // $poly_conn
2 *41 *41:2 45.08062  // $metal1_conn

*END

*D_NET *49 2.23844e-16

*CONN
*P *49 I *C 6.1000 0.6650 
*I *61:g B *C 5.7775 0.4525 
*I *9:g B *C 5.7775 1.0775 
*N *49:1 *C 5.9250 0.7550 
*N *49:2 *C 5.7775 0.7550 

*CAP
0 *9:g 3.21219e-17
1 *61:g 2.89325e-17
2 *49:2 2.47668e-17
3 *49:1 5.13307e-17
4 *49 8.66915e-17

*RES
0 *49:1 *49:2 55.273098  // $poly_conn
1 *49:2 *61:g 53.896816  // $poly_conn
2 *49:2 *9:g 50.050663  // $poly_conn
3 *49 *49:1 0.125124  // $metal1_conn

*END

*D_NET *8 1.99137e-16

*CONN
*P *8 I *C 5.7000 0.6650 
*I *60:g B *C 5.5325 0.4525 
*I *38:g B *C 5.5325 1.0775 
*N *8:2 *C 5.4950 0.6850 

*CAP
0 *38:g 4.28561e-17
1 *60:g 3.08624e-17
2 *8:2 9.73995e-17
3 *8 2.80187e-17

*RES
0 *38:g *8:2 63.591114  // $poly_conn
1 *8:2 *60:g 31.539833  // $poly_conn
2 *8 *8:2 45.118561  // $metal1_conn

*END

*D_NET *11 3.96902e-16

*CONN
*P *11 I *C 5.3000 0.6650 
*I *57:g B *C 4.4625 0.3675 
*I *59:g B *C 5.3225 0.4525 
*I *34:g B *C 4.6575 1.2375 
*I *36:g B *C 5.2075 1.0775 
*N *11:2 *C 5.2950 0.7500 
*N *11:3 *C 5.2075 0.7875 
*N *11:4 *C 4.6575 0.7875 

*CAP
0 *36:g 2.61306e-17
1 *34:g 3.40082e-17
2 *59:g 2.66649e-17
3 *57:g 5.73265e-17
4 *11:4 8.0632e-17
5 *11:3 1.90808e-17
6 *11:2 1.28035e-16
7 *11 2.50241e-17

*RES
0 *59:g *11:2 46.017216  // $poly_conn
1 *11:2 *11:3 11.798085  // $poly_conn
2 *11:3 *11:4 138.721634  // $poly_conn
3 *11:4 *57:g 120.208511  // $poly_conn
4 *11:3 *36:g 42.09536  // $poly_conn
5 *11:4 *34:g 83.121002  // $poly_conn
6 *11 *11:2 45.04113  // $metal1_conn

*END

*D_NET *16 2.5255e-16

*CONN
*P *16 I *C 4.1000 0.8550 
*I *55:g B *C 4.2625 0.3675 
*I *30:g B *C 4.2325 1.2375 
*N *16:2 *C 4.2250 0.8500 
*N *16:3 *C 4.1600 0.8500 

*CAP
0 *30:g 4.54495e-17
1 *55:g 4.89313e-17
2 *16:2 4.03619e-17
3 *16:3 9.48757e-17
4 *16 2.2932e-17

*RES
0 *55:g *16:2 108.976784  // $poly_conn
1 *16:2 *16:3 47.037205  // $poly_conn
2 *16:2 *30:g 68.483833  // $poly_conn
3 *16:3 *16 0.034635  // $metal1_conn

*END

*D_NET *54 1.53808e-16

*CONN
*P *54 O *C 0.9000 0.8550 
*I *64:d B *C 1.0025 0.5225 
*I *13:d B *C 0.9625 1.1975 

*CAP
0 *13:d 4.48726e-17
1 *64:d 6.48171e-17
2 *54 4.41184e-17

*RES
0 *64:d *54 75.229744  // $metal1_conn
1 *54 *13:d 62.176579  // $metal1_conn

*END

*D_NET *2 7.27155e-17

*CONN
*P *2 O *C 0.1000 0.6650 
*I *62:d B *C 0.2975 0.5875 
*I *10:d B *C 0.2975 1.0075 
*N *2:3 *C 0.2750 0.6000 

*CAP
0 *10:d 1.84495e-17
1 *62:d 3.21869e-17
2 *2 2.20791e-17

*RES
0 *10:d *2:3 62.224129  // $metal1_conn
1 *2:3 *2 0.083117  // $metal1_conn
2 *62:d *2:3 75  // $metal1_conn

*END

*D_NET *47 0

*CONN
*I *60:d B *C 5.6550 0.4525 
*I *61:s B *C 5.6550 0.4525 


*RES
0 *61:s *60:d 0.001  // $mwires

*END

*D_NET *46 0

*CONN
*I *55:d B *C 4.3625 0.3675 
*I *57:s B *C 4.3625 0.3675 


*RES
0 *57:s *55:d 0.001  // $mwires

*END

*D_NET *45 0

*CONN
*I *50:d B *C 3.2500 0.5025 
*I *51:s B *C 3.2500 0.5025 


*RES
0 *51:s *50:d 0.001  // $mwires

*END

*D_NET *44 4.26185e-18

*CONN
*I *4:d B *C 2.2350 0.5025 
*I *5:s B *C 2.2350 0.5025 

*CAP
0 *4:d 4.26185e-18

*RES
0 *5:s *4:d 0.001  // $mwires

*END

*D_NET *43 0

*CONN
*I *30:d B *C 4.3425 1.2375 
*I *32:s B *C 4.3425 1.2375 


*RES
0 *32:s *30:d 0.001  // $mwires

*END

*D_NET *42 6.52131e-20

*CONN
*I *22:d B *C 3.2500 1.0525 
*I *24:s B *C 3.2500 1.0525 

*CAP
0 *22:d 6.52131e-20

*RES
0 *24:s *22:d 0.001  // $mwires

*END

*D_NET *40 3.79212e-18

*CONN
*I *17:d B *C 2.3525 1.0525 
*I *18:s B *C 2.3525 1.0525 

*CAP
0 *17:d 3.79212e-18

*RES
0 *18:s *17:d 0.001  // $mwires

*END

*D_NET *39 8.98486e-16

*CONN
*I *52:g B *C 3.5075 0.5025 
*I *53:g B *C 4.0575 0.3675 
*I *1:d B *C 1.4800 0.5225 
*I *5:g B *C 2.3375 0.5025 
*I *24:g B *C 3.3025 1.0525 
*I *28:g B *C 4.0275 1.2375 
*I *14:d B *C 1.4625 1.1975 
*I *19:g B *C 2.7075 1.0525 
*N *39:2 *C 2.3000 0.7150 
*N *39:4 *C 2.6700 1.3500 
*N *39:6 *C 4.0425 0.7100 
*N *39:7 *C 3.5075 0.7125 
*N *39:11 *C 3.3400 1.2600 
*N *39:12 *C 2.6700 1.2000 
*N *39:13 *C 2.2700 1.2000 
*N *39:15 *C 1.4950 1.1500 

*CAP
0 *19:g 5.17207e-17
1 *14:d 1.01139e-16
2 *28:g 5.0578e-17
3 *24:g 5.80896e-17
4 *5:g 4.28776e-17
5 *1:d 6.14879e-17
6 *53:g 3.18507e-17
7 *52:g 2.79068e-17
8 *39:13 8.63424e-17
9 *39:12 6.45838e-17
10 *39:7 6.38087e-17
11 *39:6 5.83198e-17
12 *39:2 7.4949e-17
13 *39:4 3.45247e-17
14 *39:11 9.03069e-17

*RES
0 *5:g *39:2 71.411629  // $poly_conn
1 *19:g *39:4 84.232147  // $poly_conn
2 *53:g *39:6 66.563347  // $poly_conn
3 *39:6 *39:7 129.063614  // $poly_conn
4 *39:7 *24:g 93.285439  // $poly_conn
5 *39:6 *28:g 107.332169  // $poly_conn
6 *39:7 *52:g 30.556894  // $poly_conn
7 *24:g *39:11 61.15522  // $poly_conn
8 *39:4 *39:12 0.070996  // $metal1_conn
9 *39:12 *39:13 0.362987  // $metal1_conn
10 *39:13 *39:15 0.529551  // $metal1_conn
11 *39:12 *39:11 0.612852  // $metal1_conn
12 *39:13 *39:2 0.318255  // $metal1_conn
13 *39:15 *1:d 75.413155  // $metal1_conn
14 *14:d *39:15 62  // $metal1_conn

*END

*D_NET *37 5.7052e-16

*CONN
*I *58:d B *C 4.8425 0.3675 
*I *61:d B *C 5.8700 0.4525 
*I *34:s B *C 4.7500 1.2375 
*I *38:d B *C 5.6550 1.0775 
*I *9:d B *C 5.6550 1.0775 
*N *37:3 *C 5.6750 1.0300 
*N *37:5 *C 4.7600 1.1900 

*CAP
0 *38:d 1.95837e-16
1 *34:s 1.23947e-16
2 *61:d 1.23388e-16
3 *58:d 1.27348e-16

*RES
0 *61:d *37:3 76.190659  // $metal1_conn
1 *37:3 *37:5 0.770955  // $metal1_conn
2 *37:5 *58:d 75.777267  // $metal1_conn
3 *38:d *37:3 62  // $metal1_conn
4 *34:s *37:5 62  // $metal1_conn

*END

*D_NET *35 8.27526e-16

*CONN
*I *51:g B *C 3.3025 0.5025 
*I *53:d B *C 3.9650 0.3675 
*I *6:g B *C 2.6225 0.5025 
*I *26:g B *C 3.5275 1.0525 
*I *28:d B *C 3.9350 1.2375 
*I *18:g B *C 2.5025 1.0525 
*N *35:2 *C 2.6500 0.6850 
*N *35:5 *C 3.3300 0.2100 
*N *35:7 *C 3.5650 0.8450 
*N *35:9 *C 3.5950 0.3250 
*N *35:10 *C 3.3300 0.3250 

*CAP
0 *18:g 4.30041e-17
1 *28:d 8.17837e-17
2 *26:g 4.52671e-17
3 *6:g 2.14294e-17
4 *53:d 3.83842e-17
5 *51:g 8.16445e-17
6 *35:10 9.19634e-17
7 *35:9 5.92009e-17
8 *35:2 1.48091e-16
9 *35:5 5.07076e-17
10 *35:7 1.6605e-16

*RES
0 *6:g *35:2 18.648361  // $poly_conn
1 *35:2 *18:g 69.796791  // $poly_conn
2 *51:g *35:5 92.897079  // $poly_conn
3 *26:g *35:7 61.15522  // $poly_conn
4 *28:d *35:7 62.592869  // $metal1_conn
5 *35:7 *35:9 0.422419  // $metal1_conn
6 *35:9 *35:10 0.209919  // $metal1_conn
7 *35:10 *35:2 45.737926  // $metal1_conn
8 *35:9 *53:d 75.247833  // $metal1_conn
9 *35:10 *35:5 0.042598  // $metal1_conn

*END

*D_NET *33 5.91074e-16

*CONN
*I *63:g B *C 0.6075 0.5875 
*I *64:g B *C 1.0975 0.5225 
*I *3:d B *C 1.8300 0.5025 
*I *4:g B *C 2.1325 0.5025 
*I *12:g B *C 0.6075 1.0075 
*I *13:g B *C 1.0975 1.1975 
*I *15:d B *C 1.8450 1.0525 
*I *17:g B *C 2.2025 1.0525 
*N *33:2 *C 1.1250 0.7050 
*N *33:3 *C 0.6075 0.7425 
*N *33:8 *C 2.1325 0.6750 
*N *33:9 *C 2.0800 0.6750 
*N *33:11 *C 1.8050 0.6750 
*N *33:13 *C 1.8050 0.5100 

*CAP
0 *17:g 4.14835e-17
1 *15:d 4.32125e-17
2 *13:g 3.69402e-17
3 *12:g 2.52e-17
4 *4:g 3.7251e-17
5 *3:d 9.64561e-17
6 *64:g 2.0026e-17
7 *63:g 2.53277e-17
8 *33:11 3.01033e-17
9 *33:3 3.04634e-17
10 *33:2 1.21437e-16
11 *33:9 8.31732e-17

*RES
0 *13:g *33:2 87.668037  // $poly_conn
1 *33:2 *33:3 118.698372  // $poly_conn
2 *33:3 *63:g 19.619068  // $poly_conn
3 *33:2 *64:g 16.530039  // $poly_conn
4 *33:3 *12:g 38.849838  // $poly_conn
5 *17:g *33:8 72.596771  // $poly_conn
6 *33:8 *33:9 45.294373  // $poly_conn
7 *33:8 *4:g 22.886339  // $poly_conn
8 *33:9 *33:11 0.180557  // $metal1_conn
9 *33:11 *33:13 0.110404  // $metal1_conn
10 *33:13 *33:2 45.717884  // $metal1_conn
11 *33:11 *15:d 62.223499  // $metal1_conn
12 *3:d *33:13 75  // $metal1_conn

*END

*D_NET *31 6.21945e-16

*CONN
*I *58:g B *C 4.7175 0.3675 
*I *59:d B *C 5.2300 0.4525 
*I *32:g B *C 4.4525 1.2375 
*I *36:d B *C 5.1150 1.0775 
*N *31:2 *C 4.4800 0.9050 
*N *31:4 *C 4.7550 0.6550 
*N *31:7 *C 5.2200 0.4400 

*CAP
0 *36:d 9.57101e-17
1 *32:g 4.13212e-17
2 *59:d 1.56043e-16
3 *58:g 3.58209e-17
4 *31:2 9.40647e-17
5 *31:4 1.98985e-16

*RES
0 *32:g *31:2 94.179131  // $poly_conn
1 *58:g *31:4 90.642395  // $poly_conn
2 *36:d *31:7 62.519733  // $metal1_conn
3 *31:7 *31:4 0.853827  // $metal1_conn
4 *31:4 *31:2 0.323466  // $metal1_conn
5 *59:d *31:7 75  // $metal1_conn

*END

*D_NET *29 4.19309e-16

*CONN
*I *52:d B *C 3.6725 0.5025 
*I *57:d B *C 4.5900 0.3675 
*I *58:s B *C 4.5900 0.3675 
*I *26:s B *C 3.6675 1.0525 
*I *32:d B *C 4.5550 1.2375 
*I *34:d B *C 4.5550 1.2375 
*N *29:2 *C 4.3200 1.0950 
*N *29:4 *C 3.7250 1.0650 

*CAP
0 *32:d 4.39358e-17
1 *26:s 9.73254e-17
2 *57:d 9.72348e-17
3 *52:d 6.5829e-17
4 *29:2 1.14984e-16

*RES
0 *57:d *29:2 75.669876  // $metal1_conn
1 *29:2 *29:4 0.425539  // $metal1_conn
2 *29:2 *32:d 62.234741  // $metal1_conn
3 *29:4 *52:d 75.397446  // $metal1_conn
4 *26:s *29:4 62  // $metal1_conn

*END

*D_NET *27 3.33512e-16

*CONN
*I *3:g B *C 1.9375 0.5025 
*I *5:d B *C 2.4800 0.5025 
*I *6:d B *C 2.4800 0.5025 
*I *15:g B *C 1.9375 1.0525 
*I *18:d B *C 2.6050 1.0525 
*I *19:d B *C 2.6050 1.0525 
*N *27:3 *C 1.9100 0.3200 
*N *27:5 *C 2.4900 0.4900 

*CAP
0 *18:d 6.60704e-17
1 *15:g 4.79566e-17
2 *5:d 8.49761e-17
3 *3:g 4.03715e-17
4 *27:3 9.41378e-17

*RES
0 *15:g *3:g 94.871796  // $poly_conn
1 *3:g *27:3 64.691956  // $poly_conn
2 *27:3 *27:5 0.443693  // $metal1_conn
3 *27:5 *18:d 62.426014  // $metal1_conn
4 *5:d *27:5 75  // $metal1_conn

*END

*D_NET *25 3.6227e-16

*CONN
*I *50:g B *C 3.1975 0.5025 
*I *6:s B *C 2.7925 0.5025 
*I *7:d B *C 2.7925 0.5025 
*I *22:g B *C 3.1975 1.0525 
*I *19:s B *C 2.8200 1.0525 
*I *20:d B *C 2.8200 1.0525 
*N *25:2 *C 3.1700 0.6850 
*N *25:4 *C 2.8100 0.6850 

*CAP
0 *19:s 3.88627e-17
1 *22:g 7.96476e-17
2 *6:s 3.6595e-17
3 *50:g 5.39282e-17
4 *25:4 4.96342e-17
5 *25:2 1.03602e-16

*RES
0 *22:g *25:2 58.153492  // $poly_conn
1 *25:2 *50:g 19.691952  // $poly_conn
2 *25:2 *25:4 45.243225  // $metal1_conn
3 *25:4 *6:s 75.123459  // $metal1_conn
4 *25:4 *19:s 62.227158  // $metal1_conn

*END

*D_NET *23 3.13159e-16

*CONN
*I *51:d B *C 3.4050 0.5025 
*I *52:s B *C 3.4050 0.5025 
*I *7:g B *C 2.9625 0.5025 
*I *24:d B *C 3.4150 1.0525 
*I *26:d B *C 3.4150 1.0525 
*I *20:g B *C 2.9325 1.0525 
*N *23:2 *C 3.0000 0.8450 
*N *23:5 *C 3.3900 0.8450 

*CAP
0 *20:g 4.00491e-17
1 *24:d 3.03596e-17
2 *7:g 4.31413e-17
3 *51:d 5.33164e-17
4 *23:5 5.61072e-17
5 *23:2 9.01851e-17

*RES
0 *7:g *23:2 59.744961  // $poly_conn
1 *23:2 *20:g 25.390009  // $poly_conn
2 *24:d *23:5 62.118397  // $metal1_conn
3 *23:5 *23:2 45.258286  // $metal1_conn
4 *23:5 *51:d 75.199615  // $metal1_conn

*END

*D_NET *21 2.03409e-16

*CONN
*I *62:g B *C 0.4025 0.5875 
*I *63:d B *C 0.7000 0.5875 
*I *10:g B *C 0.4025 1.0075 
*I *12:d B *C 0.7000 1.0075 
*N *21:1 *C 0.4650 0.7600 
*N *21:2 *C 0.4025 0.7600 
*N *21:6 *C 0.7000 0.7700 

*CAP
0 *12:d 3.32018e-17
1 *10:g 2.83262e-17
2 *63:d 2.78911e-17
3 *62:g 2.97084e-17
4 *21:6 2.85672e-17
5 *21:2 2.9164e-17
6 *21:1 2.65508e-17

*RES
0 *21:1 *21:2 46.294373  // $poly_conn
1 *21:2 *62:g 20.563484  // $poly_conn
2 *21:2 *10:g 30.819893  // $poly_conn
3 *12:d *21:6 62.11742  // $metal1_conn
4 *21:6 *21:1 0.122162  // $metal1_conn
5 *21:6 *63:d 75.109444  // $metal1_conn

*END

