*SPEF "IEEE 1481-1999"
*DESIGN  "SDFFHQX4"
*DATE "Mon Sep 27 10:57:33 2010"
*VENDOR "Cadence Design Systems"
*PROGRAM "Assura RCX"
*VERSION "3.2 Red Hat Linux release 7.2 (Enigma) - (09/09/2009-10:39)"
*DESIGN_FLOW "Physical Verification"
*DIVIDER /
*DELIMITER :
*BUS_DELIMITER []
*T_UNIT 1 PS
*C_UNIT 1e15 FF
*R_UNIT 1 OHM
*L_UNIT 1 MH
// DeviceFingerDelim "@"
// MATCHED
// caps2d version: 10

*NAME_MAP
*1 mp10
*2 mp20
*3 mp55
*4 CK
*5 mp55\@1
*6 mp55\@2
*7 mp55\@3
*8 mp45
*9 mp45\@1
*10 mp50
*11 mp51
*12 mp40
*13 VDD
*14 mn30
*15 mn35
*16 mn36
*17 mn25
*18 mn21
*19 mn11
*20 mn12
*21 mp30
*22 mn14
*23 mp35
*24 mn13
*25 mp36
*26 mp25
*27 mp21
*28 mp11
*29 mp12
*30 mp14
*31 mp13
*32 n30
*33 n20
*34 SEb
*35 Db
*36 CKbb
*37 SE
*38 CKb
*39 net334
*40 D
*41 net319
*42 net342
*43 SI
*44 net350
*45 net391
*46 net378
*47 net399
*48 Q
*49 net411
*50 mn10
*51 mn20
*52 mn55
*53 mn55\@1
*54 mn55\@2
*55 mn55\@3
*56 VSS
*57 mn45
*58 mn45\@1
*59 mn50
*60 qbint
*61 mn51
*62 mout
*63 mn40

*GROUND_NETS VSS

*PORTS
*13 I
*56 I
*4 I
*40 I
*37 I
*43 I
*48 O

*D_NET *13 7.00633e-16

*CONN
*P *13 I *C 0.1000 1.7100 
*I *21:s B *C 2.9950 1.1400 
*I *23:s B *C 2.9950 1.1400 
*I *27:s B *C 4.2500 1.1850 
*I *28:s B *C 4.2500 1.1850 
*I *31:s B *C 5.0525 1.0975 
*I *1:s B *C 5.0525 1.0975 
*I *2:s B *C 0.3850 1.1800 
*I *3:s B *C 0.3850 1.1800 
*I *5:s B *C 0.8550 1.1800 
*I *6:s B *C 0.8550 1.1800 
*I *7:s B *C 1.3250 1.1400 
*I *8:s B *C 1.3250 1.1400 
*I *9:s B *C 1.7950 1.1400 
*I *10:s B *C 1.7950 1.1400 
*N *13:2 *C 4.5000 1.7100 
*N *13:3 *C 4.5000 1.7100 
*N *13:4 *C 4.2200 1.7100 
*N *13:5 *C 2.8800 1.7100 
*N *13:6 *C 2.7000 1.7100 

*CAP
0 *9:s 1.68434e-16
1 *31:s 4.32099e-17
2 *27:s 3.39841e-17
3 *21:s 3.09801e-17
4 *13:5 2.85199e-17
5 *13:4 2.63716e-17
6 *13:2 3.60901e-16
7 *13 8.2322e-18

*RES
0 *9:s *13 0.0998  // $metal1_conn
1 *13:2 *13:3 8.333333  // $metal1_conn
2 *13:2 *13:6 8.333333  // $metal1_conn
3 *13:2 *9:s 8.333333  // $metal1_conn
4 *31:s *13:3 62.498203  // $metal1_conn
5 *13:4 *27:s 62.240425  // $metal1_conn
6 *13:5 *21:s 62.16367  // $metal1_conn
7 *13:3 *13:4 0.140149  // $metal1_conn
8 *13:4 *13:5 0.671259  // $metal1_conn
9 *13:5 *13:6 0.090026  // $metal1_conn
10 *13:6 *9:s 0.511061  // $metal1_conn

*END

*D_NET *56 0

*CONN
*P *56 I *C 0.1000 0.0000 
*I *14:s B *C 2.9950 0.5025 
*I *15:s B *C 2.9950 0.5025 
*I *18:s B *C 4.2500 0.4450 
*I *19:s B *C 4.2500 0.4450 
*I *24:s B *C 5.0700 0.4775 
*I *50:s B *C 5.0700 0.4775 
*I *51:s B *C 0.3600 0.5300 
*I *52:s B *C 0.3600 0.5300 
*I *53:s B *C 0.7800 0.5300 
*I *54:s B *C 0.7800 0.5300 
*I *55:s B *C 1.3150 0.5025 
*I *57:s B *C 1.3150 0.5025 
*I *58:s B *C 1.7100 0.5025 
*I *59:s B *C 1.7100 0.5025 
*N *56:2 *C 4.5000 0.0000 
*N *56:3 *C 4.5000 0.0000 
*N *56:4 *C 4.1500 0.0000 
*N *56:5 *C 2.9400 0.0000 
*N *56:6 *C 2.7000 0.0000 


*RES
0 *58:s *56 0.124861  // $metal1_conn
1 *56:2 *56:3 6.888889  // $metal1_conn
2 *56:2 *56:6 6.888889  // $metal1_conn
3 *56:2 *58:s 6.888889  // $metal1_conn
4 *24:s *56:3 75.583466  // $metal1_conn
5 *56:4 *18:s 75.316841  // $metal1_conn
6 *56:5 *14:s 75.120369  // $metal1_conn
7 *56:3 *56:4 0.175235  // $metal1_conn
8 *56:4 *56:5 0.606099  // $metal1_conn
9 *56:5 *56:6 0.1201  // $metal1_conn
10 *56:6 *58:s 0.511061  // $metal1_conn

*END

*D_NET *4 2.12655e-16

*CONN
*P *4 I *C 0.3000 1.0450 
*I *51:g B *C 0.2175 0.5875 
*I *2:g B *C 0.2175 1.0925 
*N *4:1 *C 0.2900 0.7600 
*N *4:2 *C 0.2175 0.7600 

*CAP
0 *2:g 3.45756e-17
1 *51:g 2.8835e-17
2 *4:2 3.54339e-17
3 *4:1 5.21075e-17
4 *4 6.17034e-17

*RES
0 *4:1 *4:2 47.294373  // $poly_conn
1 *4:2 *51:g 20.563484  // $poly_conn
2 *4:2 *2:g 52.614765  // $poly_conn
3 *4 *4:1 0.1707  // $metal1_conn

*END

*D_NET *40 2.97506e-16

*CONN
*P *40 I *C 3.9000 0.8550 
*I *19:g B *C 4.3225 0.4450 
*I *28:g B *C 4.3225 1.1850 
*N *40:2 *C 4.3225 0.8450 
*N *40:3 *C 4.1800 0.8450 

*CAP
0 *28:g 8.76047e-17
1 *19:g 4.10937e-17
2 *40:2 3.66366e-17
3 *40:3 8.43894e-17
4 *40 4.77818e-17

*RES
0 *28:g *40:2 33.86845  // $poly_conn
1 *40:2 *40:3 53.124924  // $poly_conn
2 *40:2 *19:g 65.919731  // $poly_conn
3 *40:3 *40 0.152531  // $metal1_conn

*END

*D_NET *37 5.19951e-16

*CONN
*P *37 I *C 5.1000 0.6650 
*I *22:g B *C 4.8125 0.4450 
*I *50:g B *C 5.1225 0.4775 
*I *29:g B *C 4.4275 1.1850 
*I *1:g B *C 5.1225 1.0975 
*N *37:1 *C 4.5000 0.8700 
*N *37:4 *C 4.7750 0.6850 
*N *37:6 *C 5.0950 0.6850 
*N *37:8 *C 5.0950 0.6850 

*CAP
0 *1:g 4.20031e-17
1 *29:g 7.24018e-17
2 *50:g 3.06039e-17
3 *22:g 6.88718e-17
4 *37:1 1.16592e-16
5 *37:4 9.30499e-17
6 *37:6 3.51973e-17
7 *37 6.12306e-17

*RES
0 *37:1 *29:g 70.145912  // $poly_conn
1 *22:g *37:4 63.719322  // $poly_conn
2 *1:g *37:6 69.691948  // $poly_conn
3 *37:6 *50:g 26.102209  // $poly_conn
4 *37 *37:8 0.00312  // $metal1_conn
5 *37:8 *37:4 0.236433  // $metal1_conn
6 *37:4 *37:1 0.298502  // $metal1_conn
7 *37:6 *37:8 45  // $metal1_conn

*END

*D_NET *43 2.88194e-16

*CONN
*P *43 I *C 4.9000 0.8550 
*I *24:g B *C 4.9175 0.4450 
*I *31:g B *C 4.8425 1.1850 
*N *43:2 *C 4.8800 0.8450 
*N *43:4 *C 4.8800 0.8450 

*CAP
0 *31:g 5.49526e-17
1 *24:g 8.54317e-17
2 *43:2 5.26208e-17
3 *43 9.51892e-17

*RES
0 *24:g *43:2 62.01527  // $poly_conn
1 *43:2 *31:g 29.963991  // $poly_conn
2 *43:4 *43 0.007054  // $metal1_conn
3 *43:2 *43:4 45  // $metal1_conn

*END

*D_NET *48 1.84567e-16

*CONN
*P *48 O *C 0.5000 0.8550 
*I *52:d B *C 0.5550 0.5300 
*I *53:d B *C 0.5550 0.5300 
*I *54:d B *C 1.0300 0.5300 
*I *55:d B *C 1.0300 0.5300 
*I *3:d B *C 0.5350 1.1800 
*I *5:d B *C 0.5350 1.1800 
*I *6:d B *C 1.0050 1.1800 
*I *7:d B *C 1.0050 1.1800 

*CAP
0 *48 1.84567e-16


*END

*D_NET *49 0

*CONN
*I *22:s B *C 4.8650 0.4450 
*I *24:d B *C 4.8650 0.4450 


*RES
0 *24:d *22:s 0.001  // $mwires

*END

*D_NET *47 6.54874e-18

*CONN
*I *19:d B *C 4.4650 0.4450 
*I *20:s B *C 4.4650 0.4450 

*CAP
0 *19:d 6.54874e-18

*RES
0 *20:s *19:d 0.001  // $mwires

*END

*D_NET *46 1.08109e-18

*CONN
*I *15:d B *C 3.1225 0.5025 
*I *16:s B *C 3.1225 0.5025 

*CAP
0 *15:d 1.08109e-18

*RES
0 *16:s *15:d 0.001  // $mwires

*END

*D_NET *45 5.29027e-18

*CONN
*I *59:d B *C 1.9450 0.5025 
*I *61:s B *C 1.9450 0.5025 

*CAP
0 *59:d 5.29027e-18

*RES
0 *61:s *59:d 0.001  // $mwires

*END

*D_NET *44 4.31396e-18

*CONN
*I *30:s B *C 4.7475 1.1850 
*I *31:d B *C 4.7475 1.1850 

*CAP
0 *30:s 4.31396e-18

*RES
0 *31:d *30:s 0.001  // $mwires

*END

*D_NET *42 1.70668e-18

*CONN
*I *28:d B *C 4.3750 1.1850 
*I *29:s B *C 4.3750 1.1850 

*CAP
0 *28:d 1.70668e-18

*RES
0 *29:s *28:d 0.001  // $mwires

*END

*D_NET *41 1.78927e-18

*CONN
*I *23:d B *C 3.1375 1.1400 
*I *25:s B *C 3.1375 1.1400 

*CAP
0 *23:d 1.78927e-18

*RES
0 *25:s *23:d 0.001  // $mwires

*END

*D_NET *39 5.48591e-18

*CONN
*I *10:d B *C 1.9275 1.1400 
*I *11:s B *C 1.9275 1.1400 

*CAP
0 *10:d 5.48591e-18

*RES
0 *11:s *10:d 0.001  // $mwires

*END

*D_NET *38 1.06031e-15

*CONN
*I *17:g B *C 3.4675 0.5025 
*I *18:g B *C 4.0475 0.5025 
*I *51:d B *C 0.1250 0.5875 
*I *61:g B *C 2.0475 0.5025 
*I *25:g B *C 3.2325 1.1400 
*I *27:g B *C 4.1175 1.2725 
*I *2:d B *C 0.1250 1.0925 
*I *12:g B *C 2.2175 1.1400 
*N *38:1 *C 2.4750 0.8600 
*N *38:2 *C 2.2175 0.8875 
*N *38:6 *C 4.0475 0.7025 
*N *38:7 *C 3.4675 0.7025 
*N *38:9 *C 3.1950 1.3950 
*N *38:12 *C 2.4750 1.2650 
*N *38:14 *C 0.1150 1.1400 

*CAP
0 *12:g 2.66244e-17
1 *2:d 2.20782e-16
2 *27:g 6.10848e-17
3 *25:g 6.07562e-17
4 *61:g 5.08359e-17
5 *51:d 4.1002e-17
6 *18:g 2.39836e-17
7 *17:g 2.47039e-17
8 *38:12 2.30209e-16
9 *38:7 5.31913e-17
10 *38:6 4.7665e-17
11 *38:2 5.33196e-17
12 *38:1 6.43789e-17
13 *38:9 1.01777e-16

*RES
0 *38:1 *38:2 101.360458  // $poly_conn
1 *38:2 *61:g 97.131592  // $poly_conn
2 *38:2 *12:g 20.300484  // $poly_conn
3 *27:g *38:6 123.558426  // $poly_conn
4 *38:6 *38:7 142.866425  // $poly_conn
5 *38:7 *25:g 113.798256  // $poly_conn
6 *25:g *38:9 61.15522  // $poly_conn
7 *38:6 *18:g 31.540302  // $poly_conn
8 *38:7 *17:g 20.300484  // $poly_conn
9 *38:1 *38:12 0.298909  // $metal1_conn
10 *38:12 *38:14 1.797953  // $metal1_conn
11 *38:14 *51:d 75.392036  // $metal1_conn
12 *38:12 *38:9 0.549397  // $metal1_conn
13 *2:d *38:14 62  // $metal1_conn

*END

*D_NET *36 9.71487e-16

*CONN
*I *16:g B *C 3.2025 0.5025 
*I *18:d B *C 3.9550 0.5025 
*I *63:g B *C 2.3325 0.5025 
*I *26:g B *C 3.4575 1.1400 
*I *27:d B *C 4.0250 1.2725 
*I *11:g B *C 2.0125 1.1400 
*N *36:2 *C 2.0400 0.8450 
*N *36:4 *C 2.3050 0.7250 
*N *36:6 *C 3.1750 0.7150 
*N *36:8 *C 3.4950 0.8700 
*N *36:10 *C 3.5550 0.3850 
*N *36:11 *C 3.1750 0.3850 

*CAP
0 *11:g 4.74322e-17
1 *27:d 8.44495e-17
2 *26:g 3.87715e-17
3 *63:g 2.73175e-17
4 *18:d 4.99937e-17
5 *16:g 4.18237e-17
6 *36:11 1.08924e-16
7 *36:10 7.43753e-17
8 *36:2 9.83938e-17
9 *36:4 1.32679e-16
10 *36:6 9.03332e-17
11 *36:8 1.76993e-16

*RES
0 *11:g *36:2 72.384262  // $poly_conn
1 *63:g *36:4 67.256058  // $poly_conn
2 *16:g *36:6 64.691956  // $poly_conn
3 *26:g *36:8 65.001373  // $poly_conn
4 *27:d *36:8 62.658882  // $metal1_conn
5 *36:8 *36:10 0.377817  // $metal1_conn
6 *36:10 *36:11 0.280307  // $metal1_conn
7 *36:11 *36:4 0.817843  // $metal1_conn
8 *36:10 *18:d 75.34877  // $metal1_conn
9 *36:11 *36:6 0.222917  // $metal1_conn
10 *36:4 *36:2 0.235377  // $metal1_conn

*END

*D_NET *35 4.62254e-16

*CONN
*I *17:s B *C 3.6475 0.5025 
*I *20:d B *C 4.7100 0.4450 
*I *22:d B *C 4.7100 0.4450 
*I *26:d B *C 3.6625 1.0525 
*I *29:d B *C 4.5400 1.1850 
*I *30:d B *C 4.5400 1.1850 
*N *35:2 *C 4.3250 1.0600 
*N *35:4 *C 3.6850 1.0600 
*N *35:6 *C 4.5300 1.0900 

*CAP
0 *29:d 6.32936e-17
1 *26:d 1.22241e-16
2 *20:d 8.18029e-17
3 *17:s 7.01804e-17
4 *35:2 1.24736e-16

*RES
0 *20:d *35:2 75.665138  // $metal1_conn
1 *35:2 *35:4 0.517937  // $metal1_conn
2 *35:2 *35:6 0.161585  // $metal1_conn
3 *35:6 *29:d 62.156891  // $metal1_conn
4 *35:4 *17:s 75.373428  // $metal1_conn
5 *26:d *35:4 62  // $metal1_conn
6 *29:d *35:6 62  // $metal1_conn

*END

*D_NET *34 3.72356e-16

*CONN
*I *20:g B *C 4.6075 0.4450 
*I *50:d B *C 5.2500 0.4775 
*I *30:g B *C 4.6525 1.1850 
*I *1:d B *C 5.2150 1.0975 
*N *34:2 *C 4.6325 0.8900 
*N *34:4 *C 4.6900 0.8900 
*N *34:7 *C 5.2250 1.1450 

*CAP
0 *1:d 8.86236e-17
1 *30:g 4.41369e-17
2 *50:d 4.64181e-17
3 *20:g 5.94261e-17
4 *34:2 5.68499e-17
5 *34:4 7.69013e-17

*RES
0 *30:g *34:2 44.983788  // $poly_conn
1 *34:2 *20:g 98.44281  // $poly_conn
2 *34:2 *34:4 45.794373  // $poly_conn
3 *50:d *34:7 75.462051  // $metal1_conn
4 *34:7 *34:4 0.536248  // $metal1_conn
5 *1:d *34:7 62  // $metal1_conn

*END

*D_NET *33 3.66113e-16

*CONN
*I *14:g B *C 2.7775 0.5025 
*I *16:d B *C 3.3350 0.5025 
*I *17:d B *C 3.3350 0.5025 
*I *21:g B *C 2.7775 1.1400 
*I *25:d B *C 3.3450 1.1400 
*I *26:s B *C 3.3450 1.1400 
*N *33:2 *C 2.8250 0.8750 
*N *33:5 *C 3.3350 0.9050 

*CAP
0 *25:d 5.705e-17
1 *21:g 3.8222e-17
2 *16:d 6.20877e-17
3 *14:g 4.58695e-17
4 *33:5 6.08642e-17
5 *33:2 1.02019e-16

*RES
0 *21:g *33:2 17.398676  // $poly_conn
1 *33:2 *14:g 58.424316  // $poly_conn
2 *25:d *33:5 31.154099  // $metal1_conn
3 *33:5 *33:2 45.341228  // $metal1_conn
4 *33:5 *16:d 75.286903  // $metal1_conn

*END

*D_NET *32 4.13727e-16

*CONN
*I *57:g B *C 1.3725 0.5025 
*I *58:g B *C 1.5775 0.5025 
*I *61:d B *C 2.1900 0.5025 
*I *63:s B *C 2.1900 0.5025 
*I *8:g B *C 1.3725 1.1400 
*I *9:g B *C 1.5775 1.1400 
*I *11:d B *C 2.1150 1.1400 
*I *12:d B *C 2.1150 1.1400 
*N *32:8 *C 1.8800 0.8950 

*CAP
0 *11:d 5.3157e-17
1 *9:g 2.27265e-16
2 *61:d 5.69096e-17
3 *32:8 7.63952e-17

*RES
0 *32:8 *9:g 45.214272  // $metal1_conn
1 *32:8 *11:d 62.298737  // $metal1_conn
2 *61:d *32:8 75.447296  // $metal1_conn

*END

*D_NET *62 3.82086e-16

*CONN
*I *14:d B *C 2.5550 0.5025 
*I *15:g B *C 3.0425 0.5025 
*I *63:d B *C 2.5550 0.5025 
*I *21:d B *C 2.4975 1.1400 
*I *23:g B *C 3.0425 1.1400 
*I *12:s B *C 2.4975 1.1400 
*N *62:2 *C 3.0425 0.7150 
*N *62:3 *C 2.9850 0.7150 
*N *62:5 *C 2.6350 0.7150 

*CAP
0 *23:g 7.01132e-17
1 *21:d 6.06613e-17
2 *15:g 4.38013e-17
3 *14:d 4.72986e-17
4 *62:5 5.42033e-17
5 *62:2 4.19512e-17
6 *62:3 6.40572e-17

*RES
0 *23:g *62:2 65.919731  // $poly_conn
1 *62:2 *62:3 45.778431  // $poly_conn
2 *62:2 *15:g 24.894089  // $poly_conn
3 *62:3 *62:5 0.236186  // $metal1_conn
4 *62:5 *14:d 75.193726  // $metal1_conn
5 *62:5 *21:d 62.257378  // $metal1_conn

*END

*D_NET *60 6.11648e-16

*CONN
*I *52:g B *C 0.4525 0.5300 
*I *53:g B *C 0.6575 0.5300 
*I *54:g B *C 0.9025 0.5300 
*I *55:g B *C 1.1575 0.5300 
*I *57:d B *C 1.4750 0.5025 
*I *58:d B *C 1.4750 0.5025 
*I *59:g B *C 1.8425 0.5025 
*I *3:g B *C 0.4325 1.1800 
*I *5:g B *C 0.6375 1.1800 
*I *6:g B *C 0.9025 1.1800 
*I *7:g B *C 1.1075 1.1800 
*I *8:d B *C 1.4750 1.1400 
*I *9:d B *C 1.4750 1.1400 
*I *10:g B *C 1.8425 1.1400 
*N *60:15 *C 1.8425 0.7050 
*N *60:16 *C 1.7200 0.7050 
*N *60:19 *C 1.3900 0.6750 
*N *60:20 *C 1.4750 0.6750 

*CAP
0 *10:g 6.31531e-17
1 *8:d 4.48147e-17
2 *7:g 3.1798e-16
3 *59:g 2.98269e-17
4 *57:d 2.30906e-17
5 *60:20 1.36968e-17
6 *60:19 2.30151e-17
7 *60:15 2.5053e-17
8 *60:16 7.1018e-17

*RES
0 *10:g *60:15 69.040184  // $poly_conn
1 *60:15 *59:g 22.886339  // $poly_conn
2 *60:15 *60:16 52.613522  // $poly_conn
3 *60:19 *7:g 45.205078  // $metal1_conn
4 *60:20 *60:16 0.186123  // $metal1_conn
5 *8:d *60:19 62.302475  // $metal1_conn
6 *60:20 *57:d 75.068726  // $metal1_conn
7 *60:19 *60:20 0.075429  // $metal1_conn

*END

