*SPEF "IEEE 1481-1999"
*DESIGN  "SDFFRHQX4"
*DATE "Mon Sep 27 11:02:08 2010"
*VENDOR "Cadence Design Systems"
*PROGRAM "Assura RCX"
*VERSION "3.2 Red Hat Linux release 7.2 (Enigma) - (09/09/2009-10:39)"
*DESIGN_FLOW "Physical Verification"
*DIVIDER /
*DELIMITER :
*BUS_DELIMITER []
*T_UNIT 1 PS
*C_UNIT 1e15 FF
*R_UNIT 1 OHM
*L_UNIT 1 MH
// DeviceFingerDelim "@"
// MATCHED
// caps2d version: 10

*NAME_MAP
*1 mn35
*2 RN
*3 mn36
*4 mn37
*5 mn25
*6 mp30
*7 mn21
*8 mp35
*9 mn11
*10 mp36
*11 mn12
*12 mp37
*13 mn14
*14 mp25
*15 mn13
*16 SE
*17 mp21
*18 mp11
*19 mp12
*20 mp14
*21 SI
*22 VSS
*23 mp13
*24 mp10
*25 mp46
*26 mp46\@1
*27 mp45
*28 mp50
*29 mp51
*30 mp40
*31 mp20
*32 mp55
*33 mout
*34 mp55\@1
*35 SEb
*36 mp55\@2
*37 n30
*38 mp55\@3
*39 qbint
*40 mp45\@1
*41 n20
*42 Db
*43 D
*44 CKbb
*45 CKb
*46 net326
*47 net381
*48 net373
*49 net337
*50 Q
*51 net349
*52 net337\@1
*53 net405
*54 net426
*55 CK
*56 net422
*57 net450
*58 net442
*59 VDD
*60 mn10
*61 mn30
*62 mn20
*63 mn55
*64 mn55\@1
*65 mn55\@2
*66 mn55\@3
*67 mn45
*68 mn46
*69 mn46\@1
*70 mn45\@1
*71 mn50
*72 mn51
*73 mn40

*GROUND_NETS VSS

*PORTS
*59 I
*22 I
*55 I
*43 I
*2 I
*16 I
*21 I
*50 O

*D_NET *59 9.59937e-16

*CONN
*P *59 I *C 0.1000 1.7100 
*I *6:s B *C 3.8800 1.0850 
*I *8:s B *C 3.8800 1.0850 
*I *10:s B *C 4.5100 1.5700 
*I *17:s B *C 5.8900 1.1450 
*I *18:s B *C 5.8900 1.1450 
*I *23:s B *C 6.7250 1.0575 
*I *24:s B *C 6.7250 1.0575 
*I *25:s B *C 2.0650 1.0850 
*I *26:s B *C 2.0650 1.0850 
*I *27:d B *C 2.5550 1.0850 
*I *28:s B *C 2.5550 1.0850 
*I *31:s B *C 0.6050 1.1250 
*I *32:s B *C 0.6050 1.1250 
*I *34:s B *C 1.0750 1.1250 
*I *36:s B *C 1.0750 1.1250 
*I *38:s B *C 1.5950 1.0850 
*I *40:d B *C 1.5950 1.0850 
*N *59:2 *C 6.0000 1.7100 
*N *59:3 *C 6.0000 1.7100 
*N *59:4 *C 5.8200 1.7100 
*N *59:5 *C 4.4850 1.7100 
*N *59:6 *C 3.7950 1.7100 
*N *59:7 *C 3.6000 1.7100 

*CAP
0 *27:d 1.99683e-16
1 *25:s 1.59467e-17
2 *23:s 5.7104e-17
3 *17:s 4.61168e-17
4 *10:s 1.61492e-17
5 *6:s 2.15204e-17
6 *59:6 1.46596e-17
7 *59:5 5.09644e-17
8 *59:4 3.69137e-17
9 *59:2 4.89713e-16
10 *59 1.1166e-17

*RES
0 *27:d *59 0.195099  // $metal1_conn
1 *59:2 *59:3 6.25  // $metal1_conn
2 *59:2 *59:7 6.25  // $metal1_conn
3 *59:2 *27:d 6.25  // $metal1_conn
4 *23:s *59:3 62.58984  // $metal1_conn
5 *59:4 *17:s 62.308853  // $metal1_conn
6 *59:5 *10:s 62.045811  // $metal1_conn
7 *59:6 *6:s 62.045811  // $metal1_conn
8 *27:d *25:s 62.074516  // $metal1_conn
9 *59:3 *59:4 0.090056  // $metal1_conn
10 *59:4 *59:5 0.668026  // $metal1_conn
11 *59:5 *59:6 0.343674  // $metal1_conn
12 *59:6 *59:7 0.096627  // $metal1_conn
13 *59:7 *27:d 0.576413  // $metal1_conn

*END

*D_NET *22 0

*CONN
*P *22 I *C 0.1000 0.0000 
*I *1:s B *C 3.7950 0.4825 
*I *7:s B *C 5.8000 0.4050 
*I *9:s B *C 5.8000 0.4050 
*I *15:s B *C 6.7250 0.4625 
*I *60:s B *C 6.7250 0.4625 
*I *61:s B *C 3.7950 0.4825 
*I *62:s B *C 0.6950 0.5100 
*I *63:s B *C 0.6950 0.5100 
*I *64:s B *C 1.0950 0.5100 
*I *65:s B *C 1.0950 0.5100 
*I *66:s B *C 1.6350 0.4825 
*I *67:s B *C 1.6350 0.4825 
*I *70:s B *C 2.5550 0.4825 
*I *71:s B *C 2.5550 0.4825 
*N *22:2 *C 6.0000 0.0000 
*N *22:3 *C 6.0000 0.0000 
*N *22:4 *C 5.7600 0.0000 
*N *22:5 *C 3.7650 0.0000 
*N *22:6 *C 3.6000 0.0000 
*N *22:7 *C 2.4500 0.0000 


*RES
0 *66:s *22 0.292872  // $metal1_conn
1 *22:2 *22:3 5.166667  // $metal1_conn
2 *22:2 *22:6 5.166667  // $metal1_conn
3 *22:2 *66:s 5.166667  // $metal1_conn
4 *15:s *22:3 75.526535  // $metal1_conn
5 *22:4 *7:s 75.200783  // $metal1_conn
6 *22:5 *1:s 75.282196  // $metal1_conn
7 *22:7 *70:s 75.045807  // $metal1_conn
8 *22:3 *22:4 0.12014  // $metal1_conn
9 *22:4 *22:5 0.999899  // $metal1_conn
10 *22:5 *22:6 0.082535  // $metal1_conn
11 *22:6 *22:7 0.575464  // $metal1_conn
12 *22:7 *66:s 0.432369  // $metal1_conn

*END

*D_NET *55 1.95758e-16

*CONN
*P *55 I *C 0.3000 1.0450 
*I *62:g B *C 0.4425 0.5675 
*I *31:g B *C 0.2825 1.2475 
*N *55:2 *C 0.3100 0.8950 

*CAP
0 *31:g 3.4587e-17
1 *62:g 3.2394e-17
2 *55:2 9.22763e-17
3 *55 3.65011e-17

*RES
0 *62:g *55:2 74.343773  // $poly_conn
1 *55:2 *31:g 51.145424  // $poly_conn
2 *55 *55:2 45.093979  // $metal1_conn

*END

*D_NET *43 3.40874e-16

*CONN
*P *43 I *C 5.7000 0.6650 
*I *9:g B *C 5.8925 0.4050 
*I *18:g B *C 5.9625 1.1450 
*N *43:2 *C 5.8650 0.6850 

*CAP
0 *18:g 9.93805e-17
1 *9:g 6.83484e-17
2 *43:2 1.15766e-16
3 *43 5.73786e-17

*RES
0 *18:g *43:2 65.556229  // $poly_conn
1 *43:2 *9:g 29.94836  // $poly_conn
2 *43 *43:2 45.09008  // $metal1_conn

*END

*D_NET *2 9.33902e-16

*CONN
*P *2 I *C 1.7000 0.6650 
*I *1:g B *C 3.9275 0.4825 
*I *67:g B *C 1.6875 0.4825 
*I *70:g B *C 2.3175 0.4825 
*I *8:g B *C 3.9275 1.0850 
*I *27:g B *C 2.3175 1.0850 
*I *40:g B *C 1.6425 1.0850 
*N *2:9 *C 3.9000 0.8200 

*CAP
0 *8:g 3.90116e-17
1 *70:g 3.07726e-17
2 *67:g 4.09343e-17
3 *1:g 3.30481e-17
4 *2:9 2.65194e-16
5 *2 5.24942e-16

*RES
0 *8:g *2:9 19.691952  // $poly_conn
1 *2:9 *1:g 51.743237  // $poly_conn
2 *2 *70:g 22.886339  // $poly_conn
3 *67:g *2 16.530041  // $poly_conn
4 *2:9 *2 46.554813  // $metal1_conn

*END

*D_NET *16 4.42861e-16

*CONN
*P *16 I *C 6.9000 0.6650 
*I *13:g B *C 6.2025 0.4050 
*I *60:g B *C 6.8675 0.4625 
*I *19:g B *C 6.0675 1.1450 
*I *24:g B *C 6.8675 1.0575 
*N *16:2 *C 6.2400 0.6350 
*N *16:5 *C 6.8950 0.6550 
*N *16:7 *C 6.8950 0.6550 

*CAP
0 *24:g 3.33997e-17
1 *19:g 1.10468e-16
2 *60:g 2.25479e-17
3 *13:g 3.47264e-17
4 *16:2 1.30134e-16
5 *16:5 1.11585e-16

*RES
0 *13:g *16:2 16.15522  // $poly_conn
1 *16:2 *19:g 89.156769  // $poly_conn
2 *24:g *16:5 67.127846  // $poly_conn
3 *16:5 *60:g 22.256054  // $poly_conn
4 *16 *16:7 0.004838  // $metal1_conn
5 *16:7 *16:2 45.567158  // $metal1_conn
6 *16:5 *16:7 45  // $metal1_conn

*END

*D_NET *21 2.49673e-16

*CONN
*P *21 I *C 6.5000 0.8550 
*I *15:g B *C 6.4425 0.4050 
*I *23:g B *C 6.4425 1.1450 
*N *21:2 *C 6.4900 0.8500 
*N *21:4 *C 6.4900 0.8500 

*CAP
0 *23:g 5.03696e-17
1 *15:g 4.74103e-17
2 *21:2 1.51893e-16

*RES
0 *23:g *21:2 16.15522  // $poly_conn
1 *21:2 *15:g 71.283424  // $poly_conn
2 *21:4 *21 0.003618  // $metal1_conn
3 *21:2 *21:4 45  // $metal1_conn

*END

*D_NET *50 1.49224e-16

*CONN
*P *50 O *C 0.9000 0.6650 
*I *63:d B *C 0.8900 0.5100 
*I *64:d B *C 0.8900 0.5100 
*I *65:d B *C 1.3400 0.5100 
*I *66:d B *C 1.3400 0.5100 
*I *32:d B *C 0.7550 1.1250 
*I *34:d B *C 0.7550 1.1250 
*I *36:d B *C 1.2500 1.1250 
*I *38:d B *C 1.2500 1.1250 

*CAP
0 *50 1.49224e-16


*END

*D_NET *58 4.47651e-18

*CONN
*I *13:s B *C 6.3225 0.4050 
*I *15:d B *C 6.3225 0.4050 

*CAP
0 *13:s 4.47651e-18

*RES
0 *15:d *13:s 0.001  // $mwires

*END

*D_NET *57 1.80894e-18

*CONN
*I *9:d B *C 5.9450 0.4050 
*I *11:s B *C 5.9450 0.4050 

*CAP
0 *9:d 1.80894e-18

*RES
0 *11:s *9:d 0.001  // $mwires

*END

*D_NET *56 4.24278e-19

*CONN
*I *3:d B *C 4.4625 0.4825 
*I *4:s B *C 4.4625 0.4825 

*CAP
0 *3:d 4.24278e-19

*RES
0 *4:s *3:d 0.001  // $mwires

*END

*D_NET *54 0

*CONN
*I *1:d B *C 4.1400 0.4825 
*I *3:s B *C 4.1400 0.4825 


*RES
0 *3:s *1:d 0.001  // $mwires

*END

*D_NET *53 4.90124e-18

*CONN
*I *71:d B *C 2.8375 0.4825 
*I *72:s B *C 2.8375 0.4825 

*CAP
0 *71:d 4.90124e-18

*RES
0 *72:s *71:d 0.001  // $mwires

*END

*D_NET *52 2.91878e-18

*CONN
*I *69:s B *C 2.2050 0.4825 
*I *70:d B *C 2.2050 0.4825 

*CAP
0 *69:s 2.91878e-18

*RES
0 *70:d *69:s 0.001  // $mwires

*END

*D_NET *49 2.73884e-18

*CONN
*I *67:d B *C 1.7675 0.4825 
*I *68:s B *C 1.7675 0.4825 

*CAP
0 *67:d 2.73884e-18

*RES
0 *68:s *67:d 0.001  // $mwires

*END

*D_NET *48 4.93146e-18

*CONN
*I *20:s B *C 6.3575 1.1450 
*I *23:d B *C 6.3575 1.1450 

*CAP
0 *20:s 4.93146e-18

*RES
0 *23:d *20:s 0.001  // $mwires

*END

*D_NET *47 1.85926e-18

*CONN
*I *18:d B *C 6.0150 1.1450 
*I *19:s B *C 6.0150 1.1450 

*CAP
0 *18:d 1.85926e-18

*RES
0 *19:s *18:d 0.001  // $mwires

*END

*D_NET *46 2.84457e-18

*CONN
*I *28:d B *C 2.7525 1.0850 
*I *29:s B *C 2.7525 1.0850 

*CAP
0 *28:d 2.84457e-18

*RES
0 *29:s *28:d 0.001  // $mwires

*END

*D_NET *45 1.37957e-15

*CONN
*I *5:g B *C 4.7775 0.4825 
*I *7:g B *C 5.6575 0.4625 
*I *62:d B *C 0.3500 0.5675 
*I *72:g B *C 3.0525 0.4825 
*I *12:g B *C 4.7775 1.0900 
*I *17:g B *C 5.6575 1.1775 
*I *30:g B *C 3.0875 1.0850 
*I *31:d B *C 0.1650 1.2475 
*N *45:3 *C 3.0500 1.3550 
*N *45:5 *C 4.6750 1.3850 
*N *45:8 *C 5.6300 1.4150 
*N *45:11 *C 0.1300 1.2950 

*CAP
0 *31:d 2.47433e-16
1 *30:g 4.60021e-17
2 *17:g 4.3904e-17
3 *12:g 4.63872e-17
4 *72:g 6.00656e-17
5 *62:d 7.53559e-17
6 *7:g 5.44672e-17
7 *5:g 4.19057e-17
8 *45:3 3.84077e-16
9 *45:5 2.62302e-16
10 *45:8 1.1767e-16

*RES
0 *72:g *30:g 89.18071  // $poly_conn
1 *30:g *45:3 65.001373  // $poly_conn
2 *12:g *45:5 85.701019  // $poly_conn
3 *12:g *5:g 89.743584  // $poly_conn
4 *17:g *45:8 69.82016  // $poly_conn
5 *17:g *7:g 137.179489  // $poly_conn
6 *45:8 *45:5 0.701528  // $metal1_conn
7 *45:5 *45:3 1.274525  // $metal1_conn
8 *45:3 *45:11 2.046636  // $metal1_conn
9 *45:11 *62:d 75.636215  // $metal1_conn
10 *31:d *45:11 62  // $metal1_conn

*END

*D_NET *44 1.15999e-15

*CONN
*I *4:g B *C 4.5725 0.4825 
*I *7:d B *C 5.4125 0.4625 
*I *73:g B *C 3.2575 0.4825 
*I *14:g B *C 5.1825 1.0900 
*I *17:d B *C 5.5850 1.1775 
*I *29:g B *C 2.8825 1.0850 
*N *44:1 *C 2.9350 0.8300 
*N *44:4 *C 3.2200 0.7200 
*N *44:6 *C 4.6100 0.8050 
*N *44:8 *C 5.1550 0.8100 
*N *44:10 *C 5.1550 1.2300 
*N *44:11 *C 4.8350 1.1825 
*N *44:12 *C 3.1900 0.8600 

*CAP
0 *29:g 4.36533e-17
1 *17:d 5.94637e-17
2 *14:g 3.01838e-17
3 *73:g 4.25308e-17
4 *7:d 6.31059e-17
5 *4:g 4.13215e-17
6 *44:12 2.16661e-16
7 *44:11 2.70295e-16
8 *44:10 5.75544e-17
9 *44:1 7.91047e-17
10 *44:4 5.78007e-17
11 *44:6 1.13314e-16
12 *44:8 8.50017e-17

*RES
0 *44:1 *29:g 65.232071  // $poly_conn
1 *73:g *44:4 70.129578  // $poly_conn
2 *4:g *44:6 91.924454  // $poly_conn
3 *14:g *44:8 68.538101  // $poly_conn
4 *17:d *44:10 62.315491  // $metal1_conn
5 *44:10 *44:11 0.284367  // $metal1_conn
6 *44:11 *44:12 1.594766  // $metal1_conn
7 *44:12 *44:1 0.163978  // $metal1_conn
8 *44:10 *44:8 0.27038  // $metal1_conn
9 *44:8 *7:d 75.288597  // $metal1_conn
10 *44:11 *44:6 0.456006  // $metal1_conn
11 *44:12 *44:4 0.095685  // $metal1_conn

*END

*D_NET *42 4.99601e-16

*CONN
*I *5:s B *C 4.8700 0.4825 
*I *11:d B *C 6.1000 0.4050 
*I *13:d B *C 6.1000 0.4050 
*I *14:s B *C 5.3550 0.9950 
*I *19:d B *C 6.1700 1.1450 
*I *20:d B *C 6.1700 1.1450 
*N *42:2 *C 5.4400 0.9950 
*N *42:3 *C 5.4400 0.4950 

*CAP
0 *19:d 1.00651e-16
1 *14:s 2.35332e-17
2 *11:d 7.43565e-17
3 *5:s 6.90677e-17
4 *42:3 1.40069e-16
5 *42:2 9.19227e-17

*RES
0 *19:d *42:2 21.317438  // $metal1_conn
1 *42:2 *42:3 0.337755  // $metal1_conn
2 *42:3 *5:s 75.602776  // $metal1_conn
3 *42:2 *14:s 62.077175  // $metal1_conn
4 *42:3 *11:d 75.54216  // $metal1_conn

*END

*D_NET *41 4.38738e-16

*CONN
*I *4:d B *C 4.6750 0.4825 
*I *5:d B *C 4.6750 0.4825 
*I *61:g B *C 3.6625 0.4825 
*I *6:g B *C 3.6625 1.0850 
*I *12:d B *C 4.9800 1.0900 
*I *14:d B *C 4.9800 1.0900 
*N *41:1 *C 3.7300 0.6850 
*N *41:2 *C 3.6625 0.6850 
*N *41:6 *C 4.6750 0.6300 

*CAP
0 *12:d 9.90679e-17
1 *6:g 5.16243e-17
2 *61:g 2.40673e-17
3 *4:d 1.75337e-17
4 *41:6 1.14073e-16
5 *41:2 3.33253e-17
6 *41:1 9.90471e-17

*RES
0 *41:1 *41:2 46.794373  // $poly_conn
1 *41:2 *61:g 20.563484  // $poly_conn
2 *41:2 *6:g 57.74297  // $poly_conn
3 *12:d *41:6 62.526215  // $metal1_conn
4 *41:6 *41:1 0.675087  // $metal1_conn
5 *41:6 *4:d 75.056038  // $metal1_conn

*END

*D_NET *39 6.69772e-16

*CONN
*I *63:g B *C 0.7875 0.5100 
*I *64:g B *C 0.9925 0.5100 
*I *65:g B *C 1.1975 0.5100 
*I *66:g B *C 1.4825 0.5100 
*I *68:d B *C 1.9700 0.4825 
*I *69:d B *C 1.9700 0.4825 
*I *71:g B *C 2.6225 0.4825 
*I *25:d B *C 1.7450 1.0850 
*I *26:d B *C 2.2150 1.0850 
*I *27:s B *C 2.2150 1.0850 
*I *28:g B *C 2.6225 1.0850 
*I *32:g B *C 0.6525 1.1250 
*I *34:g B *C 0.8575 1.1250 
*I *36:g B *C 1.1225 1.1250 
*I *38:g B *C 1.3775 1.1250 
*I *40:s B *C 1.7450 1.0850 
*N *39:17 *C 2.5850 0.8300 

*CAP
0 *38:g 2.8858e-16
1 *28:g 3.83237e-17
2 *26:d 1.46355e-16
3 *71:g 3.78204e-17
4 *68:d 7.13377e-17
5 *39:17 8.73556e-17

*RES
0 *28:g *39:17 16.15522  // $poly_conn
1 *39:17 *71:g 53.334705  // $poly_conn
2 *38:g *26:d 45.320835  // $metal1_conn
3 *26:d *39:17 45.381298  // $metal1_conn
4 *26:d *68:d 75.348328  // $metal1_conn

*END

*D_NET *37 5.61703e-16

*CONN
*I *68:g B *C 1.8475 0.4825 
*I *69:g B *C 2.0925 0.4825 
*I *72:d B *C 3.1550 0.4825 
*I *73:d B *C 3.1550 0.4825 
*I *25:g B *C 1.8475 1.0850 
*I *26:g B *C 2.1125 1.0850 
*I *29:d B *C 2.9850 1.0850 
*I *30:d B *C 2.9850 1.0850 
*N *37:8 *C 2.7750 0.6400 

*CAP
0 *29:d 8.12364e-17
1 *26:g 2.25386e-16
2 *72:d 7.50936e-17
3 *69:g 2.76061e-17
4 *68:g 3.48175e-17
5 *37:8 1.17563e-16

*RES
0 *26:g *69:g 43.0397  // $poly_conn
1 *26:g *68:g 42.695988  // $poly_conn
2 *37:8 *26:g 45.732559  // $metal1_conn
3 *37:8 *29:d 62.471451  // $metal1_conn
4 *72:d *37:8 75.34919  // $metal1_conn

*END

*D_NET *35 5.346e-16

*CONN
*I *11:g B *C 5.9975 0.4050 
*I *60:d B *C 6.9875 0.4625 
*I *20:g B *C 6.2725 1.1450 
*I *24:d B *C 6.9600 1.0575 
*N *35:2 *C 6.0250 0.7100 
*N *35:4 *C 6.3000 0.8500 
*N *35:7 *C 6.9700 1.0900 

*CAP
0 *24:d 8.72312e-17
1 *20:g 4.68761e-17
2 *60:d 6.87568e-17
3 *11:g 6.55167e-17
4 *35:2 1.17877e-16
5 *35:4 1.48343e-16

*RES
0 *11:g *35:2 81.35862  // $poly_conn
1 *20:g *35:4 61.15522  // $poly_conn
2 *60:d *35:7 75.528191  // $metal1_conn
3 *35:7 *35:4 0.62107  // $metal1_conn
4 *35:4 *35:2 0.281933  // $metal1_conn
5 *24:d *35:7 62  // $metal1_conn

*END

*D_NET *33 4.67767e-16

*CONN
*I *3:g B *C 4.3525 0.4825 
*I *61:d B *C 3.4600 0.4825 
*I *73:s B *C 3.4600 0.4825 
*I *6:d B *C 3.3750 1.0850 
*I *10:g B *C 4.3525 1.0850 
*I *30:s B *C 3.3750 1.0850 
*N *33:2 *C 4.3150 0.8300 
*N *33:5 *C 3.3800 1.0350 

*CAP
0 *10:g 3.65571e-17
1 *6:d 1.6471e-16
2 *61:d 8.36031e-17
3 *3:g 3.58155e-17
4 *33:2 1.47081e-16

*RES
0 *10:g *33:2 16.15522  // $poly_conn
1 *33:2 *3:g 53.334705  // $poly_conn
2 *33:2 *33:5 45.884842  // $metal1_conn
3 *33:5 *61:d 75.386055  // $metal1_conn
4 *6:d *33:5 62  // $metal1_conn

*END

*D_NET *51 1.45507e-16

*CONN
*I *8:d B *C 4.1400 1.0850 
*I *10:d B *C 4.1400 1.0850 
*I *12:s B *C 4.7050 1.0900 

*CAP
0 *12:s 7.02161e-17
1 *8:d 7.52912e-17

*RES
0 *12:s *8:d 124.249367  // $metal1_conn

*END

