*SPEF "IEEE 1481-1999"
*DESIGN  "SDFFNSRX4"
*DATE "Mon Sep 27 10:59:05 2010"
*VENDOR "Cadence Design Systems"
*PROGRAM "Assura RCX"
*VERSION "3.2 Red Hat Linux release 7.2 (Enigma) - (09/09/2009-10:39)"
*DESIGN_FLOW "Physical Verification"
*DIVIDER /
*DELIMITER :
*BUS_DELIMITER []
*T_UNIT 1 PS
*C_UNIT 1e15 FF
*R_UNIT 1 OHM
*L_UNIT 1 MH
// DeviceFingerDelim "@"
// MATCHED
// caps2d version: 10

*NAME_MAP
*1 VDD
*2 CKN
*3 mn55
*4 mn55\@1
*5 mn55\@2
*6 mn57
*7 mn57\@1
*8 mn57\@2
*9 mn57\@3
*10 mn56
*11 mn55\@3
*12 mn40
*13 mn53
*14 mn51
*15 mn52
*16 mn50
*17 mn45
*18 mn45\@1
*19 mn21
*20 mn31
*21 mn32
*22 mp40
*23 mp53
*24 mn30
*25 mp51
*26 mp55
*27 mn22
*28 mp52
*29 mp55\@1
*30 mn35
*31 mp50
*32 mp55\@2
*33 mn10
*34 mp45
*35 mp55\@3
*36 mn13
*37 qint
*38 mp45\@1
*39 mp57
*40 mn14
*41 net498
*42 mp21
*43 mp57\@1
*44 mn12
*45 net0363
*46 mp31
*47 mp57\@2
*48 mn11
*49 qbint
*50 D
*51 mp32
*52 mp57\@3
*53 mn20
*54 net566
*55 mp56
*56 mn25
*57 n35
*58 RNb
*59 net521
*60 CKNb
*61 mp30
*62 mp22
*63 mn36
*64 mp10
*65 mp13
*66 mp14
*67 n20
*68 Q
*69 mp12
*70 mout
*71 mp11
*72 CKNbb
*73 mp20
*74 Db
*75 mp25
*76 SEb
*77 mp36
*78 net453
*79 net461
*80 net486
*81 net478
*82 net414
*83 mp35
*84 net538
*85 net546
*86 net582
*87 QN
*88 VSS
*89 RN
*90 SE
*91 SI
*92 SN

*GROUND_NETS VSS

*PORTS
*1 I
*88 I
*2 I
*50 I
*89 I
*90 I
*91 I
*92 I
*68 O
*87 O

*D_NET *1 1.42037e-15

*CONN
*P *1 I *C 0.1000 1.7100 
*I *26:s B *C 7.0250 1.1100 
*I *29:s B *C 7.4600 1.1100 
*I *32:s B *C 7.4600 1.1100 
*I *35:s B *C 7.8700 1.1100 
*I *39:s B *C 7.8700 1.1100 
*I *43:s B *C 8.2800 1.1100 
*I *47:s B *C 8.2800 1.1100 
*I *52:s B *C 8.7150 1.1100 
*I *55:s B *C 8.7150 1.1100 
*I *25:s B *C 5.9350 1.1975 
*I *31:s B *C 6.5850 1.1500 
*I *34:s B *C 6.5850 1.1500 
*I *38:s B *C 7.0250 1.1100 
*I *42:s B *C 2.6800 1.1375 
*I *46:s B *C 3.5450 1.0075 
*I *61:s B *C 4.2975 1.0075 
*I *62:s B *C 4.2975 1.0075 
*I *64:s B *C 0.5650 1.3475 
*I *65:s B *C 0.5650 1.3475 
*I *71:s B *C 1.4750 1.1825 
*I *73:s B *C 1.4750 1.1825 
*I *83:s B *C 2.6800 1.1375 
*N *1:4 *C 8.2000 1.7100 
*N *1:10 *C 5.9000 1.7100 
*N *1:11 *C 3.9600 1.7100 
*N *1:12 *C 3.6000 1.7100 
*N *1:13 *C 3.0550 1.7100 
*N *1:14 *C 2.6250 1.7100 
*N *1:15 *C 1.3950 1.7100 
*N *1:16 *C 1.2000 1.7100 
*N *1:17 *C 0.5650 1.7100 

*CAP
0 *71:s 1.64725e-17
1 *64:s 2.97488e-17
2 *61:s 3.31569e-17
3 *46:s 1.80869e-17
4 *42:s 2.48882e-17
5 *25:s 4.27312e-17
6 *52:s 4.27632e-16
7 *1:17 2.27122e-17
8 *1:15 2.77202e-17
9 *1:14 3.37894e-17
10 *1:13 2.16834e-17
11 *1:11 6.34504e-17
12 *1:4 6.48547e-16
13 *1 9.7483e-18

*RES
0 *1:17 *1 0.232859  // $metal1_conn
1 *1:4 *52:s 6.25  // $metal1_conn
2 *1:4 *1:10 6.818182  // $metal1_conn
3 *1:4 *1:12 6.25  // $metal1_conn
4 *1:4 *1:16 6.25  // $metal1_conn
5 *1:10 *25:s 62.306576  // $metal1_conn
6 *1:11 *61:s 62.09745  // $metal1_conn
7 *1:13 *46:s 62.045841  // $metal1_conn
8 *1:14 *42:s 62.09745  // $metal1_conn
9 *1:15 *71:s 62.074944  // $metal1_conn
10 *1:17 *64:s 62.192223  // $metal1_conn
11 *52:s *1:10 0.27074  // $metal1_conn
12 *1:10 *1:11 0.973168  // $metal1_conn
13 *1:11 *1:12 0.180428  // $metal1_conn
14 *1:12 *1:13 0.272299  // $metal1_conn
15 *1:13 *1:14 0.214403  // $metal1_conn
16 *1:14 *1:15 0.616741  // $metal1_conn
17 *1:15 *1:16 0.097642  // $metal1_conn
18 *1:16 *1:17 0.318405  // $metal1_conn

*END

*D_NET *88 0

*CONN
*P *88 I *C 0.1000 0.0000 
*I *3:s B *C 7.5200 0.4400 
*I *4:s B *C 7.5200 0.4400 
*I *5:s B *C 7.9900 0.4400 
*I *6:s B *C 7.9900 0.4400 
*I *7:s B *C 8.4600 0.4400 
*I *8:s B *C 8.4600 0.4400 
*I *9:s B *C 8.8875 0.4400 
*I *10:s B *C 8.8875 0.4400 
*I *11:s B *C 7.0250 0.4400 
*I *16:s B *C 6.4700 0.4675 
*I *17:s B *C 6.4700 0.4675 
*I *18:s B *C 7.0250 0.4400 
*I *19:s B *C 2.6850 0.5875 
*I *24:s B *C 4.5700 0.5075 
*I *27:s B *C 4.5700 0.5075 
*I *30:s B *C 2.6850 0.5875 
*I *33:s B *C 0.5950 0.5025 
*I *36:s B *C 0.5950 0.5025 
*I *48:s B *C 1.3500 0.5025 
*I *53:s B *C 1.3500 0.5025 
*N *88:3 *C 8.2000 0.0000 
*N *88:9 *C 5.9000 0.0000 
*N *88:10 *C 4.5150 0.0000 
*N *88:11 *C 3.6000 0.0000 
*N *88:12 *C 2.7200 0.0000 
*N *88:13 *C 1.3300 0.0000 
*N *88:14 *C 1.2000 0.0000 
*N *88:15 *C 0.4050 0.0000 


*RES
0 *88:15 *88 0.152582  // $metal1_conn
1 *88:3 *9:s 5.166667  // $metal1_conn
2 *88:3 *88:9 5.636364  // $metal1_conn
3 *88:3 *88:11 5.166667  // $metal1_conn
4 *88:3 *88:14 5.166667  // $metal1_conn
5 *88:10 *24:s 75.229858  // $metal1_conn
6 *88:12 *19:s 75.045837  // $metal1_conn
7 *88:13 *48:s 75.325882  // $metal1_conn
8 *88:15 *33:s 75.2472  // $metal1_conn
9 *9:s *88:9 0.27074  // $metal1_conn
10 *88:9 *88:10 0.694706  // $metal1_conn
11 *88:10 *88:11 0.458891  // $metal1_conn
12 *88:11 *88:12 0.44038  // $metal1_conn
13 *88:12 *88:13 0.696068  // $metal1_conn
14 *88:13 *88:14 0.065029  // $metal1_conn
15 *88:14 *88:15 0.398683  // $metal1_conn

*END

*D_NET *2 2.32775e-16

*CONN
*P *2 I *C 1.5000 1.0450 
*I *53:g B *C 1.4725 0.5025 
*I *73:g B *C 1.5475 1.1825 
*N *2:2 *C 1.5100 0.7600 

*CAP
0 *73:g 4.29744e-17
1 *53:g 2.62951e-17
2 *2:2 9.04824e-17
3 *2 7.30233e-17

*RES
0 *73:g *2:2 73.553734  // $poly_conn
1 *2:2 *53:g 40.220406  // $poly_conn
2 *2 *2:2 45.171356  // $metal1_conn

*END

*D_NET *50 2.89318e-16

*CONN
*P *50 I *C 1.3000 1.0450 
*I *48:g B *C 1.2275 0.5025 
*I *71:g B *C 1.2625 1.3475 
*N *50:2 *C 1.2900 0.7100 

*CAP
0 *71:g 7.12363e-17
1 *48:g 3.20816e-17
2 *50:2 1.25643e-16
3 *50 6.03572e-17

*RES
0 *71:g *50:2 124.222351  // $poly_conn
1 *50:2 *48:g 29.178047  // $poly_conn
2 *50 *50:2 45.20142  // $metal1_conn

*END

*D_NET *89 2.05041e-16

*CONN
*P *89 I *C 4.1000 0.6650 
*I *27:g B *C 4.6175 0.5075 
*I *62:g B *C 4.5675 1.0075 
*N *89:2 *C 4.5300 0.7050 

*CAP
0 *62:g 2.48534e-17
1 *27:g 3.80736e-17
2 *89:2 8.0046e-17
3 *89 6.20675e-17

*RES
0 *27:g *89:2 30.471972  // $poly_conn
1 *89:2 *62:g 40.514191  // $poly_conn
2 *89:2 *89 45.261589  // $metal1_conn

*END

*D_NET *90 6.69598e-16

*CONN
*P *90 I *C 0.7000 0.4750 
*I *33:g B *C 0.3025 0.4075 
*I *40:g B *C 0.7725 0.5025 
*I *64:g B *C 0.4625 1.3475 
*I *69:g B *C 1.1025 1.3475 
*N *90:2 *C 0.3300 0.6150 
*N *90:5 *C 0.8100 0.7350 
*N *90:7 *C 1.1300 1.0000 
*N *90:8 *C 0.7500 0.5850 

*CAP
0 *69:g 4.30251e-17
1 *64:g 5.56824e-17
2 *40:g 5.24103e-17
3 *33:g 2.29786e-17
4 *90:8 4.73535e-17
5 *90:2 1.00061e-16
6 *90:5 7.80129e-17
7 *90:7 1.79047e-16
8 *90 9.1027e-17

*RES
0 *64:g *90:2 166.838272  // $poly_conn
1 *90:2 *33:g 26.102209  // $poly_conn
2 *40:g *90:5 76.539833  // $poly_conn
3 *69:g *90:7 98.025284  // $poly_conn
4 *90:7 *90 0.861352  // $metal1_conn
5 *90 *90:8 0.040099  // $metal1_conn
6 *90:8 *90:2 45.261459  // $metal1_conn
7 *90:8 *90:5 0.126958  // $metal1_conn

*END

*D_NET *91 3.00821e-16

*CONN
*P *91 I *C 0.5000 0.8550 
*I *36:g B *C 0.6675 0.5025 
*I *65:g B *C 0.6675 1.3475 
*N *91:2 *C 0.6400 0.8300 

*CAP
0 *65:g 8.33797e-17
1 *36:g 6.04694e-17
2 *91:2 9.91933e-17
3 *91 5.77781e-17

*RES
0 *65:g *91:2 96.615021  // $poly_conn
1 *91:2 *36:g 56.871437  // $poly_conn
2 *91:2 *91 45.040436  // $metal1_conn

*END

*D_NET *92 5.43133e-16

*CONN
*P *92 I *C 3.7000 0.6650 
*I *16:g B *C 6.3375 0.4375 
*I *24:g B *C 4.3525 0.5075 
*I *31:g B *C 6.3375 1.1975 
*I *61:g B *C 3.9275 1.0075 
*N *92:4 *C 3.8900 0.7050 

*CAP
0 *61:g 3.3421e-17
1 *31:g 6.89054e-17
2 *24:g 1.30458e-16
3 *16:g 1.48113e-16
4 *92:4 1.12424e-16
5 *92 4.98115e-17

*RES
0 *31:g *16:g 148.717941  // $poly_conn
1 *16:g *24:g 618.941162  // $poly_conn
2 *24:g *92:4 126.625824  // $poly_conn
3 *92:4 *61:g 40.514191  // $poly_conn
4 *92 *92:4 45.114746  // $metal1_conn

*END

*D_NET *68 2.95184e-16

*CONN
*P *68 O *C 7.3000 0.8550 
*I *3:d B *C 7.2000 0.4400 
*I *4:d B *C 7.6700 0.4400 
*I *5:d B *C 7.6700 0.4400 
*I *11:d B *C 7.2000 0.4400 
*I *26:d B *C 7.2275 1.1100 
*I *29:d B *C 7.2275 1.1100 
*I *32:d B *C 7.6650 1.1100 
*I *35:d B *C 7.6650 1.1100 

*CAP
0 *32:d 1.6044e-16
1 *3:d 1.17794e-16
2 *68 1.69502e-17

*RES
0 *3:d *68 0.224342  // $metal1_conn
1 *68 *32:d 0.031832  // $metal1_conn

*END

*D_NET *87 2.8122e-16

*CONN
*P *87 O *C 8.1000 0.8550 
*I *6:d B *C 8.1400 0.4400 
*I *7:d B *C 8.1400 0.4400 
*I *8:d B *C 8.6100 0.4400 
*I *9:d B *C 8.6100 0.4400 
*I *39:d B *C 8.0750 1.1100 
*I *43:d B *C 8.0750 1.1100 
*I *47:d B *C 8.4975 1.1100 
*I *52:d B *C 8.4975 1.1100 

*CAP
0 *47:d 1.45794e-16
1 *6:d 1.19729e-16
2 *87 1.56966e-17

*RES
0 *6:d *87 0.235546  // $metal1_conn
1 *87 *47:d 0.057637  // $metal1_conn

*END

*D_NET *86 1.44418e-19

*CONN
*I *30:d B *C 2.3825 0.5875 
*I *63:s B *C 2.3825 0.5875 

*CAP
0 *30:d 1.44418e-19

*RES
0 *63:s *30:d 0.001  // $mwires

*END

*D_NET *85 1.37725e-18

*CONN
*I *44:s B *C 1.1500 0.5025 
*I *48:d B *C 1.1500 0.5025 

*CAP
0 *44:s 1.37725e-18

*RES
0 *48:d *44:s 0.001  // $mwires

*END

*D_NET *84 7.30944e-19

*CONN
*I *36:d B *C 0.7200 0.5025 
*I *40:s B *C 0.7200 0.5025 

*CAP
0 *36:d 7.30944e-19

*RES
0 *40:s *36:d 0.001  // $mwires

*END

*D_NET *82 1.5788e-18

*CONN
*I *25:d B *C 6.0800 1.1975 
*I *28:s B *C 6.0800 1.1975 

*CAP
0 *25:d 1.5788e-18

*RES
0 *28:s *25:d 0.001  // $mwires

*END

*D_NET *81 1.83677e-20

*CONN
*I *46:d B *C 3.6700 1.0075 
*I *51:s B *C 3.6700 1.0075 

*CAP
0 *46:d 1.83677e-20

*RES
0 *51:s *46:d 0.001  // $mwires

*END

*D_NET *80 0

*CONN
*I *77:s B *C 2.3725 1.2075 
*I *83:d B *C 2.3725 1.2075 


*RES
0 *83:d *77:s 0.001  // $mwires

*END

*D_NET *79 4.74628e-18

*CONN
*I *69:s B *C 1.1825 1.3475 
*I *71:d B *C 1.1825 1.3475 

*CAP
0 *69:s 4.74628e-18

*RES
0 *71:d *69:s 0.001  // $mwires

*END

*D_NET *78 0

*CONN
*I *65:d B *C 0.7200 1.3475 
*I *66:s B *C 0.7200 1.3475 


*RES
0 *66:s *65:d 0.001  // $mwires

*END

*D_NET *76 4.0529e-16

*CONN
*I *33:d B *C 0.1950 0.4075 
*I *44:g B *C 1.0725 0.5025 
*I *64:d B *C 0.3700 1.3475 
*I *66:g B *C 0.7725 1.3475 
*N *76:2 *C 0.8100 1.1400 
*N *76:4 *C 0.3600 1.2050 

*CAP
0 *66:g 4.74634e-17
1 *64:d 1.44054e-17
2 *44:g 6.95723e-17
3 *33:d 6.54352e-17
4 *76:4 7.5193e-17
5 *76:2 1.33221e-16

*RES
0 *44:g *76:2 175.711044  // $poly_conn
1 *76:2 *66:g 16.15522  // $poly_conn
2 *76:2 *76:4 45.366333  // $metal1_conn
3 *76:4 *33:d 75.671783  // $metal1_conn
4 *76:4 *64:d 62.049652  // $metal1_conn

*END

*D_NET *74 4.74635e-16

*CONN
*I *40:d B *C 0.9225 0.5025 
*I *44:d B *C 0.9225 0.5025 
*I *56:d B *C 1.8975 0.5875 
*I *66:d B *C 0.9375 1.3475 
*I *69:d B *C 0.9375 1.3475 
*I *75:s B *C 1.9250 1.2075 
*N *74:3 *C 1.9150 1.1600 
*N *74:5 *C 0.9700 1.3000 

*CAP
0 *75:s 1.32084e-16
1 *66:d 1.37431e-16
2 *56:d 9.29611e-17
3 *40:d 1.12159e-16

*RES
0 *56:d *74:3 75.481987  // $metal1_conn
1 *74:3 *74:5 0.775818  // $metal1_conn
2 *74:5 *40:d 75.526077  // $metal1_conn
3 *75:s *74:3 62  // $metal1_conn
4 *66:d *74:5 62  // $metal1_conn

*END

*D_NET *72 9.70503e-16

*CONN
*I *13:g B *C 5.2925 0.5875 
*I *19:d B *C 2.8250 0.5875 
*I *56:g B *C 2.0475 0.5875 
*I *22:g B *C 5.1075 1.1325 
*I *42:d B *C 2.8200 1.1375 
*I *77:g B *C 2.2825 1.2075 
*N *72:2 *C 2.3100 0.9900 
*N *72:6 *C 5.0800 1.4400 
*N *72:8 *C 2.8300 1.1550 
*N *72:9 *C 2.8650 0.9600 

*CAP
0 *77:g 3.27346e-17
1 *42:d 2.47379e-16
2 *22:g 6.06839e-17
3 *56:g 5.57442e-17
4 *19:d 4.52871e-17
5 *13:g 5.574e-17
6 *72:9 6.59844e-17
7 *72:2 1.26581e-16
8 *72:6 2.80368e-16

*RES
0 *77:g *72:2 16.530041  // $poly_conn
1 *72:2 *56:g 115.079834  // $poly_conn
2 *13:g *22:g 117.369583  // $poly_conn
3 *22:g *72:6 87.768875  // $poly_conn
4 *72:6 *72:8 1.938216  // $metal1_conn
5 *72:8 *72:9 0.140106  // $metal1_conn
6 *72:9 *72:2 45.388489  // $metal1_conn
7 *72:9 *19:d 75.255104  // $metal1_conn
8 *42:d *72:8 62  // $metal1_conn

*END

*D_NET *70 8.69316e-16

*CONN
*I *12:d B *C 4.9950 0.5875 
*I *20:d B *C 3.6200 0.5075 
*I *21:d B *C 3.6200 0.5075 
*I *30:g B *C 2.4625 0.5875 
*I *22:s B *C 4.9575 1.1325 
*I *51:d B *C 3.8250 1.0075 
*I *61:d B *C 3.8250 1.0075 
*I *83:g B *C 2.4625 1.2075 
*N *70:3 *C 2.5000 0.4150 
*N *70:6 *C 4.8900 1.0900 
*N *70:8 *C 3.8250 1.0350 
*N *70:9 *C 3.5050 0.6850 

*CAP
0 *83:g 7.15463e-17
1 *51:d 1.59029e-16
2 *22:s 1.70588e-16
3 *30:g 6.24928e-17
4 *20:d 5.95735e-17
5 *12:d 8.40062e-17
6 *70:9 1.38342e-16
7 *70:3 1.23738e-16

*RES
0 *83:g *30:g 112.820511  // $poly_conn
1 *30:g *70:3 61.15522  // $poly_conn
2 *12:d *70:6 75.384842  // $metal1_conn
3 *70:6 *70:8 0.84847  // $metal1_conn
4 *70:8 *70:9 0.476124  // $metal1_conn
5 *70:9 *70:3 0.891986  // $metal1_conn
6 *70:9 *20:d 75.223267  // $metal1_conn
7 *22:s *70:6 62  // $metal1_conn
8 *51:d *70:8 62  // $metal1_conn

*END

*D_NET *67 6.13532e-16

*CONN
*I *21:g B *C 3.7225 0.5075 
*I *56:s B *C 2.1750 0.5875 
*I *63:d B *C 2.1750 0.5875 
*I *51:g B *C 3.7225 1.0075 
*I *75:d B *C 2.1500 1.2075 
*I *77:d B *C 2.1500 1.2075 
*N *67:2 *C 3.6850 1.5150 
*N *67:5 *C 2.1500 1.2550 

*CAP
0 *75:d 1.73706e-16
1 *51:g 8.26423e-17
2 *56:s 9.25098e-17
3 *21:g 6.15545e-17
4 *67:2 2.03119e-16

*RES
0 *51:g *67:2 138.078293  // $poly_conn
1 *51:g *21:g 82.051285  // $poly_conn
2 *67:2 *67:5 1.310201  // $metal1_conn
3 *67:5 *56:s 75.482735  // $metal1_conn
4 *75:d *67:5 62  // $metal1_conn

*END

*D_NET *60 1.64309e-15

*CONN
*I *12:g B *C 5.0875 0.5875 
*I *19:g B *C 2.7325 0.5875 
*I *53:d B *C 1.5650 0.5025 
*I *63:g B *C 2.3025 0.5875 
*I *23:g B *C 5.3125 1.1325 
*I *42:g B *C 2.7275 1.1375 
*I *73:d B *C 1.6500 1.1825 
*I *75:g B *C 2.0175 1.2075 
*N *60:2 *C 1.9900 0.9000 
*N *60:4 *C 2.3300 0.7700 
*N *60:6 *C 2.7325 0.8000 
*N *60:7 *C 2.6750 0.8000 
*N *60:8 *C 2.7300 0.9325 
*N *60:10 *C 3.0250 0.9600 
*N *60:12 *C 5.0500 0.7950 
*N *60:13 *C 5.5850 1.3100 
*N *60:15 *C 1.9900 0.4100 
*N *60:17 *C 1.5750 0.4900 
*N *60:19 *C 5.0500 1.2800 

*CAP
0 *75:g 3.28849e-17
1 *73:d 8.96508e-17
2 *42:g 3.63211e-17
3 *23:g 5.44239e-17
4 *63:g 4.76275e-17
5 *53:d 9.93892e-17
6 *19:g 2.83574e-17
7 *12:g 5.13278e-17
8 *60:19 3.1493e-16
9 *60:15 1.10587e-16
10 *60:8 1.66911e-17
11 *60:6 1.09843e-17
12 *60:2 1.04745e-16
13 *60:4 1.23612e-16
14 *60:7 6.37166e-17
15 *60:10 2.67533e-16
16 *60:12 1.13595e-16
17 *60:13 7.67111e-17

*RES
0 *75:g *60:2 87.768875  // $poly_conn
1 *63:g *60:4 64.691956  // $poly_conn
2 *19:g *60:6 33.14275  // $poly_conn
3 *60:6 *60:7 45.794373  // $poly_conn
4 *60:6 *60:8 29.923958  // $poly_conn
5 *60:8 *42:g 23.857714  // $poly_conn
6 *60:8 *60:10 106.899628  // $poly_conn
7 *12:g *60:12 70.129578  // $poly_conn
8 *60:13 *23:g 125.444611  // $poly_conn
9 *60:7 *60:4 0.25097  // $metal1_conn
10 *60:4 *60:15 0.490685  // $metal1_conn
11 *60:15 *60:17 0.35203  // $metal1_conn
12 *60:15 *60:2 0.374684  // $metal1_conn
13 *60:17 *73:d 62.574009  // $metal1_conn
14 *53:d *60:17 75  // $metal1_conn
15 *60:12 *60:19 0.371312  // $metal1_conn
16 *60:19 *60:10 1.77918  // $metal1_conn
17 *60:19 *60:13 0.418467  // $metal1_conn

*END

*D_NET *59 1.82074e-16

*CONN
*I *20:s B *C 3.3900 0.5075 
*I *21:s B *C 4.0375 0.5075 
*I *24:d B *C 4.0375 0.5075 

*CAP
0 *21:s 9.39999e-17
1 *20:s 8.80745e-17

*RES
0 *20:s *21:s 150.461502  // $metal1_conn

*END

*D_NET *58 8.78333e-16

*CONN
*I *14:g B *C 5.9225 0.4375 
*I *20:g B *C 3.5175 0.5075 
*I *27:d B *C 4.7100 0.5075 
*I *25:g B *C 6.0275 1.1975 
*I *46:g B *C 3.6175 1.0075 
*I *62:d B *C 4.6700 1.0075 
*N *58:3 *C 4.0200 0.2600 
*N *58:5 *C 5.8950 0.7650 
*N *58:8 *C 4.7200 0.4950 

*CAP
0 *62:d 5.41363e-17
1 *46:g 7.30391e-17
2 *25:g 7.51758e-17
3 *27:d 2.02762e-16
4 *20:g 6.55879e-17
5 *14:g 4.06084e-17
6 *58:3 1.13064e-16
7 *58:5 2.5396e-16

*RES
0 *46:g *20:g 95.864273  // $poly_conn
1 *20:g *58:3 211.342041  // $poly_conn
2 *25:g *58:5 92.29248  // $poly_conn
3 *58:5 *14:g 53.709526  // $poly_conn
4 *58:5 *58:8 46.229183  // $metal1_conn
5 *58:8 *58:3 0.692258  // $metal1_conn
6 *58:8 *62:d 62.351868  // $metal1_conn
7 *27:d *58:8 75  // $metal1_conn

*END

*D_NET *57 5.78621e-16

*CONN
*I *12:s B *C 5.1900 0.5875 
*I *13:d B *C 5.1900 0.5875 
*I *17:g B *C 6.5425 0.4675 
*I *18:g B *C 6.7475 0.4675 
*I *22:d B *C 5.2100 1.1325 
*I *23:d B *C 5.2100 1.1325 
*I *34:g B *C 6.6575 1.1500 
*I *38:g B *C 6.8625 1.1500 
*N *57:8 *C 5.2100 0.9250 
*N *57:10 *C 5.1900 0.6000 

*CAP
0 *38:g 3.12097e-16
1 *22:d 3.72486e-17
2 *12:s 5.65381e-17
3 *57:8 1.72737e-16

*RES
0 *12:s *57:10 75  // $metal1_conn
1 *57:8 *22:d 62.127972  // $metal1_conn
2 *38:g *57:8 46.021194  // $metal1_conn
3 *57:8 *57:10 0.251872  // $metal1_conn

*END

*D_NET *54 2.04126e-16

*CONN
*I *23:s B *C 5.4050 1.1325 
*I *28:d B *C 6.2350 1.1975 
*I *31:d B *C 6.2350 1.1975 

*CAP
0 *28:d 1.05116e-16
1 *23:s 9.90099e-17

*RES
0 *28:d *23:s 124.687279  // $metal1_conn

*END

*D_NET *49 1.19137e-15

*CONN
*I *3:g B *C 7.3025 0.4400 
*I *4:g B *C 7.5675 0.4400 
*I *5:g B *C 7.7725 0.4400 
*I *10:g B *C 9.0625 0.4400 
*I *11:g B *C 7.0975 0.4400 
*I *15:g B *C 6.1325 0.4375 
*I *17:d B *C 6.6450 0.4675 
*I *18:d B *C 6.6450 0.4675 
*I *26:g B *C 7.0975 1.1100 
*I *29:g B *C 7.3575 1.1100 
*I *32:g B *C 7.5625 1.1100 
*I *35:g B *C 7.7675 1.1100 
*I *55:g B *C 8.8175 1.1100 
*I *28:g B *C 6.1325 1.1975 
*I *34:d B *C 6.7600 1.1500 
*I *38:d B *C 6.7600 1.1500 
*N *49:2 *C 6.1600 0.6300 
*N *49:18 *C 8.9750 0.6700 
*N *49:20 *C 6.7600 0.6225 
*N *49:21 *C 6.6450 0.6225 
*N *49:22 *C 6.7600 0.7750 

*CAP
0 *34:d 4.83049e-17
1 *28:g 8.79969e-17
2 *55:g 4.79911e-17
3 *35:g 2.62279e-16
4 *17:d 1.9475e-17
5 *15:g 3.89196e-17
6 *10:g 1.99987e-17
7 *49:22 2.97573e-17
8 *49:21 3.63835e-17
9 *49:20 1.95693e-16
10 *49:2 1.16451e-16
11 *49:18 2.88118e-16

*RES
0 *49:18 *55:g 72.275909  // $poly_conn
1 *28:g *49:2 109.435547  // $poly_conn
2 *10:g *49:18 23.252337  // $poly_conn
3 *49:2 *15:g 22.256054  // $poly_conn
4 *49:22 *35:g 45.205654  // $metal1_conn
5 *49:18 *49:20 47.037689  // $metal1_conn
6 *49:21 *49:2 45.344894  // $metal1_conn
7 *49:21 *17:d 75.059837  // $metal1_conn
8 *49:22 *34:d 31.273693  // $metal1_conn
9 *49:20 *49:21 0.083062  // $metal1_conn
10 *49:20 *49:22 0.088911  // $metal1_conn

*END

*D_NET *45 1.73462e-16

*CONN
*I *13:s B *C 5.4525 0.5875 
*I *14:d B *C 6.0275 0.4375 
*I *15:d B *C 6.0275 0.4375 

*CAP
0 *14:d 9.80811e-17
1 *13:s 7.53805e-17

*RES
0 *13:s *14:d 150.320755  // $metal1_conn

*END

*D_NET *41 1.58603e-16

*CONN
*I *14:s B *C 5.8000 0.4375 
*I *15:s B *C 6.2350 0.4375 
*I *16:d B *C 6.2350 0.4375 

*CAP
0 *15:s 8.05744e-17
1 *14:s 7.80287e-17

*RES
0 *15:s *14:s 150.407379  // $metal1_conn

*END

*D_NET *37 4.03315e-16

*CONN
*I *6:g B *C 8.0375 0.4400 
*I *7:g B *C 8.2425 0.4400 
*I *8:g B *C 8.5075 0.4400 
*I *9:g B *C 8.7125 0.4400 
*I *10:d B *C 9.1550 0.4400 
*I *39:g B *C 7.9725 1.1100 
*I *43:g B *C 8.1775 1.1100 
*I *47:g B *C 8.3825 1.1100 
*I *52:g B *C 8.6125 1.1100 
*I *55:d B *C 8.9100 1.1100 
*N *37:17 *C 8.9200 0.8300 

*CAP
0 *55:d 3.93674e-17
1 *52:g 2.8452e-16
2 *10:d 2.78227e-17
3 *37:17 5.16052e-17

*RES
0 *37:17 *52:g 45.201164  // $metal1_conn
1 *37:17 *55:d 20.83522  // $metal1_conn
2 *10:d *37:17 75.397514  // $metal1_conn

*END

