*SPEF "IEEE 1481-1999"
*DESIGN  "SDFFSHQX2"
*DATE "Mon Sep 27 11:04:49 2010"
*VENDOR "Cadence Design Systems"
*PROGRAM "Assura RCX"
*VERSION "3.2 Red Hat Linux release 7.2 (Enigma) - (09/09/2009-10:39)"
*DESIGN_FLOW "Physical Verification"
*DIVIDER /
*DELIMITER :
*BUS_DELIMITER []
*T_UNIT 1 PS
*C_UNIT 1e15 FF
*R_UNIT 1 OHM
*L_UNIT 1 MH
// DeviceFingerDelim "@"
// MATCHED
// caps2d version: 10

*NAME_MAP
*1 mp55
*2 mp55\@1
*3 mp45
*4 CK
*5 mp50
*6 mp51
*7 mp52
*8 mp40
*9 mp30
*10 mp31
*11 mp35
*12 VDD
*13 mn36
*14 mn25
*15 mn21
*16 mn20
*17 mn11
*18 mn12
*19 mn14
*20 mp36
*21 mn13
*22 mp25
*23 mn10
*24 mp21
*25 mp20
*26 mp11
*27 mp12
*28 mp14
*29 mp13
*30 mp10
*31 n20
*32 CKb
*33 qbint
*34 SEb
*35 n30
*36 SE
*37 mout
*38 Db
*39 D
*40 CKbb
*41 net378
*42 SI
*43 net390
*44 SN
*45 net398
*46 net459
*47 net467
*48 Q
*49 net435
*50 mn55
*51 net427
*52 mn55\@1
*53 net443
*54 mn45
*55 net455
*56 mn50
*57 mn51
*58 mn52
*59 VSS
*60 mn40
*61 mn30
*62 mn31
*63 mn35
*64 net355

*GROUND_NETS VSS

*PORTS
*12 I
*59 I
*4 I
*39 I
*36 I
*42 I
*44 I
*48 O

*D_NET *12 8.54239e-16

*CONN
*P *12 I *C 0.1000 1.7100 
*I *24:s B *C 4.2000 1.0075 
*I *25:s B *C 5.0850 1.1800 
*I *26:s B *C 5.0850 1.1800 
*I *29:s B *C 5.8700 1.3150 
*I *30:s B *C 6.2900 1.0075 
*I *1:s B *C 0.2750 1.0950 
*I *2:s B *C 0.7375 1.0550 
*I *3:s B *C 0.7375 1.0550 
*I *5:s B *C 1.2400 1.1300 
*I *6:s B *C 1.6500 1.5700 
*I *9:s B *C 2.6150 1.2500 
*I *10:s B *C 3.0850 1.2500 
*I *11:s B *C 3.0850 1.2500 
*N *12:2 *C 5.8300 1.7100 
*N *12:3 *C 5.3000 1.7100 
*N *12:4 *C 5.3000 1.7100 
*N *12:5 *C 5.0750 1.7100 
*N *12:6 *C 4.2100 1.7100 
*N *12:7 *C 3.2000 1.7100 
*N *12:8 *C 3.0000 1.7100 
*N *12:9 *C 2.5300 1.7100 
*N *12:10 *C 1.6250 1.7100 
*N *12:11 *C 1.1000 1.7100 

*CAP
0 *10:s 1.74809e-17
1 *9:s 1.74503e-17
2 *6:s 1.0444e-17
3 *5:s 9.40104e-18
4 *2:s 1.34863e-16
5 *30:s 3.12991e-17
6 *29:s 2.78345e-17
7 *25:s 4.92608e-17
8 *24:s 6.60917e-17
9 *12:10 2.47437e-17
10 *12:9 2.83783e-17
11 *12:8 8.51892e-18
12 *12:6 3.85308e-17
13 *12:5 1.44148e-17
14 *12:2 1.9762e-17
15 *12:3 3.55765e-16

*RES
0 *2:s *12 0.082353  // $metal1_conn
1 *12:3 *12:4 6.818182  // $metal1_conn
2 *12:3 *12:7 7.5  // $metal1_conn
3 *12:3 *12:11 6.818182  // $metal1_conn
4 *30:s *12:2 62.677307  // $metal1_conn
5 *12:2 *29:s 62.246189  // $metal1_conn
6 *12:5 *25:s 21.003456  // $metal1_conn
7 *12:6 *24:s 62.462254  // $metal1_conn
8 *12:8 *10:s 62.045849  // $metal1_conn
9 *12:9 *9:s 62.045849  // $metal1_conn
10 *12:10 *6:s 62.045849  // $metal1_conn
11 *12:11 *5:s 62.061054  // $metal1_conn
12 *12:2 *12:4 0.265767  // $metal1_conn
13 *12:4 *12:5 0.112713  // $metal1_conn
14 *12:5 *12:6 0.43368  // $metal1_conn
15 *12:6 *12:7 0.50664  // $metal1_conn
16 *12:7 *12:8 0.099217  // $metal1_conn
17 *12:8 *12:9 0.233562  // $metal1_conn
18 *12:9 *12:10 0.451853  // $metal1_conn
19 *12:10 *12:11 0.263486  // $metal1_conn
20 *12:11 *2:s 0.213128  // $metal1_conn

*END

*D_NET *59 0

*CONN
*P *59 I *C 0.1000 0.0000 
*I *15:s B *C 4.2800 0.3600 
*I *16:s B *C 5.0550 0.3850 
*I *17:s B *C 5.0550 0.3850 
*I *21:s B *C 5.8200 0.3850 
*I *23:s B *C 6.2900 0.4525 
*I *50:s B *C 0.2750 0.5000 
*I *52:s B *C 0.7500 0.4725 
*I *54:s B *C 0.7500 0.4725 
*I *56:s B *C 1.2400 0.4725 
*I *61:s B *C 2.4725 0.4725 
*I *63:s B *C 3.1550 0.4875 
*N *59:2 *C 5.8300 0.0000 
*N *59:3 *C 5.3000 0.0000 
*N *59:4 *C 5.3000 0.0000 
*N *59:5 *C 5.0750 0.0000 
*N *59:6 *C 4.2800 0.0000 
*N *59:7 *C 3.2000 0.0000 
*N *59:8 *C 2.4450 0.0000 
*N *59:9 *C 1.1000 0.0000 


*RES
0 *52:s *59 0.082353  // $metal1_conn
1 *59:3 *59:4 5.636364  // $metal1_conn
2 *59:3 *59:7 6.2  // $metal1_conn
3 *59:3 *59:9 5.636364  // $metal1_conn
4 *23:s *59:2 75.528748  // $metal1_conn
5 *59:2 *21:s 75.192497  // $metal1_conn
6 *59:5 *16:s 75.190292  // $metal1_conn
7 *59:6 *15:s 75.045845  // $metal1_conn
8 *59:7 *63:s 75.304054  // $metal1_conn
9 *59:8 *61:s 75.293259  // $metal1_conn
10 *59:9 *56:s 75.234978  // $metal1_conn
11 *59:2 *59:4 0.265767  // $metal1_conn
12 *59:4 *59:5 0.112713  // $metal1_conn
13 *59:5 *59:6 0.397603  // $metal1_conn
14 *59:6 *59:7 0.540817  // $metal1_conn
15 *59:7 *59:8 0.378677  // $metal1_conn
16 *59:8 *59:9 0.675313  // $metal1_conn
17 *59:9 *52:s 0.200582  // $metal1_conn

*END

*D_NET *4 2.10739e-16

*CONN
*P *4 I *C 4.7000 1.0450 
*I *16:g B *C 4.7775 0.4425 
*I *25:g B *C 4.7775 1.1975 
*N *4:2 *C 4.7400 0.9200 

*CAP
0 *25:g 2.30042e-17
1 *16:g 3.51744e-17
2 *4:2 1.15537e-16
3 *4 3.7023e-17

*RES
0 *25:g *4:2 34.103935  // $poly_conn
1 *4:2 *16:g 94.360344  // $poly_conn
2 *4 *4:2 45.034283  // $metal1_conn

*END

*D_NET *39 3.03107e-16

*CONN
*P *39 I *C 4.7000 0.6650 
*I *17:g B *C 5.1475 0.3850 
*I *26:g B *C 5.1775 1.1800 
*N *39:2 *C 5.1400 0.7875 
*N *39:3 *C 4.9200 0.7600 

*CAP
0 *26:g 5.39533e-17
1 *17:g 6.89773e-17
2 *39:2 3.5245e-17
3 *39:3 9.37541e-17
4 *39 5.1177e-17

*RES
0 *26:g *39:2 58.936897  // $poly_conn
1 *39:2 *39:3 92.175812  // $poly_conn
2 *39:2 *17:g 67.388062  // $poly_conn
3 *39:3 *39 0.164529  // $metal1_conn

*END

*D_NET *36 4.48935e-16

*CONN
*P *36 I *C 6.3000 0.6650 
*I *19:g B *C 5.4675 0.3850 
*I *23:g B *C 6.1975 0.4525 
*I *27:g B *C 5.3525 1.1800 
*I *30:g B *C 6.1975 1.0075 
*N *36:1 *C 5.5850 0.6650 
*N *36:2 *C 5.4775 0.6650 
*N *36:5 *C 6.2900 0.6600 
*N *36:6 *C 6.1975 0.6600 

*CAP
0 *30:g 3.17048e-17
1 *27:g 6.17756e-17
2 *23:g 2.06577e-17
3 *19:g 4.02281e-17
4 *36:6 1.43672e-17
5 *36:2 5.28116e-17
6 *36:1 1.3055e-16
7 *36:5 9.68393e-17

*RES
0 *36:1 *36:2 53.291924  // $poly_conn
1 *36:2 *27:g 88.807159  // $poly_conn
2 *36:2 *19:g 32.388908  // $poly_conn
3 *36:5 *36:6 49.422031  // $poly_conn
4 *36:6 *23:g 29.537844  // $poly_conn
5 *36:6 *30:g 56.460918  // $poly_conn
6 *36 *36:5 0.00508  // $metal1_conn
7 *36:5 *36:1 0.422708  // $metal1_conn

*END

*D_NET *42 2.98733e-16

*CONN
*P *42 I *C 5.9000 0.8550 
*I *21:g B *C 5.7275 0.3850 
*I *29:g B *C 5.7275 1.1800 
*N *42:2 *C 5.7750 0.8750 

*CAP
0 *29:g 7.15843e-17
1 *21:g 5.07883e-17
2 *42:2 9.64255e-17
3 *42 7.9935e-17

*RES
0 *29:g *42:2 17.398676  // $poly_conn
1 *42:2 *21:g 81.501236  // $poly_conn
2 *42 *42:2 45.070572  // $metal1_conn

*END

*D_NET *44 6.72194e-16

*CONN
*P *44 I *C 1.1000 0.8550 
*I *56:g B *C 1.2875 0.4725 
*I *61:g B *C 2.5825 0.4725 
*I *5:g B *C 1.2875 1.1300 
*I *9:g B *C 2.6625 1.2500 
*N *44:2 *C 1.2875 0.8750 
*N *44:3 *C 1.1350 0.8750 
*N *44:6 *C 2.5450 0.9950 

*CAP
0 *9:g 3.93752e-17
1 *5:g 3.22077e-17
2 *61:g 6.80933e-17
3 *56:g 5.52542e-17
4 *44:2 2.74643e-17
5 *44:3 1.73157e-16
6 *44:6 2.47734e-16
7 *44 2.89092e-17

*RES
0 *5:g *44:2 22.886339  // $poly_conn
1 *44:2 *44:3 55.805012  // $poly_conn
2 *44:2 *56:g 74.168388  // $poly_conn
3 *9:g *44:6 27.662739  // $poly_conn
4 *44:6 *61:g 98.206505  // $poly_conn
5 *44 *44:3 0.021519  // $metal1_conn
6 *44:3 *44:6 46.423042  // $metal1_conn

*END

*D_NET *48 1.39199e-16

*CONN
*P *48 O *C 0.3000 0.6650 
*I *50:d B *C 0.4825 0.5000 
*I *52:d B *C 0.4825 0.5000 
*I *1:d B *C 0.4700 1.0950 
*I *2:d B *C 0.4700 1.0950 
*N *48:2 *C 0.4600 0.6650 

*CAP
0 *1:d 8.54809e-17
1 *50:d 1.169e-17
2 *48:2 1.53458e-17
3 *48 2.66825e-17

*RES
0 *48:2 *48 0.077365  // $metal1_conn
1 *48:2 *1:d 20.929083  // $metal1_conn
2 *50:d *48:2 75.060867  // $metal1_conn

*END

*D_NET *55 4.78098e-18

*CONN
*I *19:s B *C 5.5975 0.3850 
*I *21:d B *C 5.5975 0.3850 

*CAP
0 *19:s 4.78098e-18

*RES
0 *21:d *19:s 0.001  // $mwires

*END

*D_NET *53 1.73428e-18

*CONN
*I *17:d B *C 5.2050 0.3850 
*I *18:s B *C 5.2050 0.3850 

*CAP
0 *17:d 1.73428e-18

*RES
0 *18:s *17:d 0.001  // $mwires

*END

*D_NET *51 2.15595e-18

*CONN
*I *13:s B *C 3.3200 0.4875 
*I *63:d B *C 3.3200 0.4875 

*CAP
0 *13:s 2.15595e-18

*RES
0 *63:d *13:s 0.001  // $mwires

*END

*D_NET *49 5.04884e-19

*CONN
*I *61:d B *C 2.6375 0.4725 
*I *62:s B *C 2.6375 0.4725 

*CAP
0 *61:d 5.04884e-19

*RES
0 *62:s *61:d 0.001  // $mwires

*END

*D_NET *47 1.87807e-18

*CONN
*I *57:d B *C 1.5075 0.4725 
*I *58:s B *C 1.5075 0.4725 

*CAP
0 *57:d 1.87807e-18

*RES
0 *58:s *57:d 0.001  // $mwires

*END

*D_NET *46 2.63748e-18

*CONN
*I *56:d B *C 1.3525 0.4725 
*I *57:s B *C 1.3525 0.4725 

*CAP
0 *56:d 2.63748e-18

*RES
0 *57:s *56:d 0.001  // $mwires

*END

*D_NET *45 1.95393e-18

*CONN
*I *28:s B *C 5.6750 1.1800 
*I *29:d B *C 5.6750 1.1800 

*CAP
0 *28:s 1.95393e-18

*RES
0 *29:d *28:s 0.001  // $mwires

*END

*D_NET *43 4.20046e-18

*CONN
*I *26:d B *C 5.2650 1.1800 
*I *27:s B *C 5.2650 1.1800 

*CAP
0 *26:d 4.20046e-18

*RES
0 *27:s *26:d 0.001  // $mwires

*END

*D_NET *41 4.33631e-18

*CONN
*I *20:s B *C 3.2225 1.2500 
*I *11:d B *C 3.2225 1.2500 

*CAP
0 *20:s 4.33631e-18

*RES
0 *11:d *20:s 0.001  // $mwires

*END

*D_NET *40 8.18743e-16

*CONN
*I *13:g B *C 3.3925 0.4875 
*I *15:d B *C 4.0550 0.5675 
*I *60:g B *C 1.8775 0.4725 
*I *22:g B *C 3.5875 1.2500 
*I *24:d B *C 4.0150 1.0075 
*I *7:g B *C 1.8775 1.0550 
*N *40:3 *C 1.9050 1.3750 
*N *40:5 *C 3.6250 0.9950 
*N *40:7 *C 3.6250 1.3450 
*N *40:9 *C 4.0050 1.0150 

*CAP
0 *7:g 5.02775e-17
1 *24:d 1.04598e-16
2 *22:g 3.0464e-17
3 *60:g 3.96363e-17
4 *15:d 5.62884e-17
5 *13:g 7.08287e-17
6 *40:7 1.68271e-16
7 *40:3 2.06158e-16
8 *40:5 9.2221e-17

*RES
0 *7:g *60:g 83.333328  // $poly_conn
1 *7:g *40:3 78.794518  // $poly_conn
2 *22:g *40:5 16.15522  // $poly_conn
3 *40:5 *13:g 127.618301  // $poly_conn
4 *40:5 *40:7 45.259056  // $metal1_conn
5 *40:7 *40:3 1.293089  // $metal1_conn
6 *40:7 *40:9 0.531975  // $metal1_conn
7 *40:9 *15:d 75.324951  // $metal1_conn
8 *24:d *40:9 62  // $metal1_conn

*END

*D_NET *38 6.73456e-16

*CONN
*I *14:s B *C 3.7875 0.4875 
*I *18:d B *C 5.3650 0.3850 
*I *19:d B *C 5.3650 0.3850 
*I *22:s B *C 3.7275 1.2500 
*I *27:d B *C 5.4875 1.1800 
*I *28:d B *C 5.4875 1.1800 
*N *38:2 *C 5.1100 0.4750 
*N *38:4 *C 3.8450 0.4450 

*CAP
0 *27:d 1.01515e-16
1 *22:s 1.15434e-16
2 *18:d 4.01156e-17
3 *14:s 1.95318e-16
4 *38:2 2.21073e-16

*RES
0 *27:d *38:2 21.397108  // $metal1_conn
1 *38:2 *38:4 1.128114  // $metal1_conn
2 *38:4 *22:s 62.536167  // $metal1_conn
3 *38:2 *18:d 75.261131  // $metal1_conn
4 *14:s *38:4 75  // $metal1_conn

*END

*D_NET *37 5.6098e-16

*CONN
*I *60:s B *C 1.9700 0.4725 
*I *62:d B *C 2.7850 0.4725 
*I *63:g B *C 3.2475 0.4875 
*I *8:s B *C 2.2250 0.9600 
*I *9:d B *C 2.7650 1.2500 
*I *10:d B *C 2.7650 1.2500 
*I *11:g B *C 3.1325 1.2500 
*N *37:2 *C 3.1325 0.7950 
*N *37:3 *C 3.0550 0.7950 
*N *37:5 *C 2.7650 0.7950 
*N *37:6 *C 2.7200 0.7950 
*N *37:7 *C 2.1850 0.8350 

*CAP
0 *11:g 6.66308e-17
1 *9:d 5.78068e-17
2 *8:s 2.51148e-17
3 *63:g 4.89626e-17
4 *62:d 4.97928e-17
5 *60:s 6.05685e-17
6 *37:7 6.98257e-17
7 *37:5 8.42559e-17
8 *37:2 4.396e-17
9 *37:3 5.40622e-17

*RES
0 *63:g *37:2 66.912209  // $poly_conn
1 *37:2 *37:3 47.445099  // $poly_conn
2 *37:2 *11:g 73.612038  // $poly_conn
3 *37:3 *37:5 0.228969  // $metal1_conn
4 *37:5 *37:6 0.047765  // $metal1_conn
5 *37:6 *37:7 0.414938  // $metal1_conn
6 *37:7 *60:s 75.343513  // $metal1_conn
7 *37:5 *62:d 75.188919  // $metal1_conn
8 *37:6 *9:d 62.349705  // $metal1_conn
9 *37:7 *8:s 62.074783  // $metal1_conn

*END

*D_NET *35 4.96523e-16

*CONN
*I *54:g B *C 0.8025 0.4725 
*I *58:d B *C 1.7375 0.4725 
*I *60:d B *C 1.7375 0.4725 
*I *3:g B *C 0.8025 1.0550 
*I *7:d B *C 1.9800 1.0550 
*I *8:d B *C 1.9800 1.0550 
*N *35:2 *C 0.8025 0.6525 
*N *35:4 *C 1.0950 0.6850 
*N *35:5 *C 1.7800 0.8750 
*N *35:7 *C 1.9805 1.0250 

*CAP
0 *7:d 6.06688e-17
1 *3:g 5.40946e-17
2 *58:d 6.80742e-17
3 *54:g 3.28613e-17
4 *35:5 1.06841e-16
5 *35:2 3.3252e-17
6 *35:4 1.40732e-16

*RES
0 *3:g *35:2 62.309536  // $poly_conn
1 *35:2 *54:g 18.71979  // $poly_conn
2 *35:2 *35:4 105.814682  // $poly_conn
3 *35:4 *35:5 0.663617  // $metal1_conn
4 *35:5 *35:7 0.229571  // $metal1_conn
5 *35:5 *58:d 75.298882  // $metal1_conn
6 *7:d *35:7 62  // $metal1_conn

*END

*D_NET *34 5.8034e-16

*CONN
*I *18:g B *C 5.2625 0.3850 
*I *23:d B *C 6.0725 0.4525 
*I *28:g B *C 5.6225 1.1800 
*I *30:d B *C 6.1050 1.0075 
*N *34:2 *C 5.3000 0.6550 
*N *34:4 *C 5.5850 0.8850 
*N *34:5 *C 5.3950 0.6550 

*CAP
0 *30:d 8.40169e-17
1 *28:g 6.50066e-17
2 *23:d 9.79708e-17
3 *18:g 6.49124e-17
4 *34:5 7.28393e-17
5 *34:2 6.44843e-17
6 *34:4 1.3111e-16

*RES
0 *18:g *34:2 71.411629  // $poly_conn
1 *28:g *34:4 61.15522  // $poly_conn
2 *34:2 *34:5 0.051009  // $metal1_conn
3 *34:5 *34:4 0.300064  // $metal1_conn
4 *34:5 *23:d 75.550301  // $metal1_conn
5 *34:4 *30:d 62.514198  // $metal1_conn

*END

*D_NET *33 5.69751e-16

*CONN
*I *50:g B *C 0.3675 0.5000 
*I *52:g B *C 0.5975 0.5000 
*I *54:d B *C 0.8950 0.4725 
*I *57:g B *C 1.4175 0.4725 
*I *1:g B *C 0.3675 1.0950 
*I *2:g B *C 0.5725 1.0950 
*I *3:d B *C 0.8950 1.0550 
*I *6:g B *C 1.4925 1.1300 
*N *33:6 *C 0.6600 0.7300 
*N *33:10 *C 1.4550 0.6750 
*N *33:13 *C 0.9050 0.4950 
*N *33:14 *C 0.9050 0.7300 

*CAP
0 *6:g 5.66115e-17
1 *3:d 6.33207e-17
2 *2:g 1.27458e-16
3 *57:g 4.61153e-17
4 *54:d 7.42526e-17
5 *33:14 3.18425e-17
6 *33:6 4.46635e-17
7 *33:10 1.25486e-16

*RES
0 *6:g *33:10 69.707581  // $poly_conn
1 *33:10 *57:g 18.425531  // $poly_conn
2 *2:g *33:6 48.38456  // $poly_conn
3 *33:10 *33:13 45.507286  // $metal1_conn
4 *33:14 *33:6 0.153748  // $metal1_conn
5 *33:14 *3:d 31.252121  // $metal1_conn
6 *54:d *33:13 75  // $metal1_conn
7 *33:13 *33:14 0.18199  // $metal1_conn

*END

*D_NET *32 1.33705e-15

*CONN
*I *14:g B *C 3.6475 0.4875 
*I *15:g B *C 4.1475 0.5675 
*I *16:d B *C 4.6800 0.4425 
*I *58:g B *C 1.5975 0.4725 
*I *20:g B *C 3.3125 1.2500 
*I *24:g B *C 4.1075 1.0075 
*I *25:d B *C 4.6850 1.1975 
*I *8:g B *C 2.0825 1.0550 
*N *32:2 *C 1.6250 0.6850 
*N *32:3 *C 2.3150 0.6750 
*N *32:6 *C 3.2750 0.8550 
*N *32:8 *C 4.1950 0.7400 
*N *32:9 *C 4.1050 0.7425 
*N *32:10 *C 3.6850 0.6900 
*N *32:13 *C 3.3050 0.6350 
*N *32:15 *C 4.4300 0.7400 

*CAP
0 *8:g 5.77594e-17
1 *25:d 6.93779e-17
2 *24:g 1.93153e-17
3 *20:g 4.80573e-17
4 *58:g 4.39815e-17
5 *16:d 7.71121e-17
6 *15:g 1.37601e-17
7 *14:g 2.14044e-17
8 *32:15 7.02874e-17
9 *32:13 1.88281e-16
10 *32:9 2.23208e-17
11 *32:2 1.78724e-16
12 *32:3 2.7875e-16
13 *32:6 8.96202e-17
14 *32:10 1.35995e-16
15 *32:8 2.22993e-17

*RES
0 *58:g *32:2 64.691956  // $poly_conn
1 *32:3 *8:g 140.829224  // $poly_conn
2 *20:g *32:6 97.052658  // $poly_conn
3 *15:g *32:8 14.712837  // $poly_conn
4 *32:8 *32:9 6.818113  // $poly_conn
5 *32:9 *32:10 96.525398  // $poly_conn
6 *32:10 *14:g 16.15522  // $poly_conn
7 *32:9 *24:g 31.409521  // $poly_conn
8 *32:10 *32:13 45.716988  // $metal1_conn
9 *32:13 *32:3 1.075821  // $metal1_conn
10 *32:3 *32:2 1.044128  // $metal1_conn
11 *32:13 *32:6 0.172327  // $metal1_conn
12 *16:d *32:15 75.387642  // $metal1_conn
13 *32:15 *32:8 45.143681  // $metal1_conn
14 *32:15 *25:d 62.541565  // $metal1_conn

*END

*D_NET *31 4.46868e-16

*CONN
*I *13:d B *C 3.5200 0.4875 
*I *14:d B *C 3.5200 0.4875 
*I *62:g B *C 2.6925 0.4725 
*I *20:d B *C 3.4500 1.2500 
*I *22:d B *C 3.4500 1.2500 
*I *10:g B *C 2.8675 1.2500 
*N *31:2 *C 2.8950 0.9850 
*N *31:5 *C 3.4650 1.0150 

*CAP
0 *10:g 4.84993e-17
1 *20:d 3.76552e-17
2 *62:g 7.62451e-17
3 *13:d 7.62108e-17
4 *31:5 8.09438e-17
5 *31:2 1.27314e-16

*RES
0 *10:g *31:2 19.691952  // $poly_conn
1 *31:2 *62:g 129.658783  // $poly_conn
2 *20:d *31:5 62.101311  // $metal1_conn
3 *31:5 *31:2 45.387928  // $metal1_conn
4 *31:5 *13:d 75.378326  // $metal1_conn

*END

*D_NET *64 1.51249e-16

*CONN
*I *5:d B *C 1.3900 1.1300 
*I *6:d B *C 1.3900 1.1300 
*I *7:s B *C 1.7850 1.0550 

*CAP
0 *7:s 7.64983e-17
1 *5:d 7.47508e-17

*RES
0 *7:s *5:d 124.231628  // $metal1_conn

*END

