*SPEF "IEEE 1481-1999"
*DESIGN  "SDFFSRHQX4"
*DATE "Mon Sep 27 11:06:43 2010"
*VENDOR "Cadence Design Systems"
*PROGRAM "Assura RCX"
*VERSION "3.2 Red Hat Linux release 7.2 (Enigma) - (09/09/2009-10:39)"
*DESIGN_FLOW "Physical Verification"
*DIVIDER /
*DELIMITER :
*BUS_DELIMITER []
*T_UNIT 1 PS
*C_UNIT 1e15 FF
*R_UNIT 1 OHM
*L_UNIT 1 MH
// DeviceFingerDelim "@"
// MATCHED
// caps2d version: 10

*NAME_MAP
*1 mn55
*2 net486
*3 n35
*4 qbint
*5 net437
*6 net417
*7 net425
*8 net445
*9 net453
*10 mn55\@1
*11 net514
*12 mn55\@2
*13 net522
*14 mn55\@3
*15 mn45
*16 mn45\@1
*17 mn22
*18 net534
*19 mp35
*20 mp36
*21 mp25
*22 mp21
*23 mp51
*24 mp52
*25 mp50
*26 mp53
*27 mp40
*28 mp55
*29 mp55\@1
*30 mp55\@2
*31 VDD
*32 mp55\@3
*33 mp45
*34 mp45\@1
*35 mp22
*36 mn20
*37 mn11
*38 mp20
*39 mn12
*40 mp11
*41 mn14
*42 VSS
*43 mp12
*44 mn13
*45 mp14
*46 mn10
*47 mp13
*48 mn31
*49 mp10
*50 mn32
*51 mp31
*52 mn30
*53 mp32
*54 mp30
*55 D
*56 CK
*57 RN
*58 Q
*59 SE
*60 SI
*61 SN
*62 SEb
*63 CKbb
*64 Db
*65 n20
*66 net469
*67 mout
*68 CKb
*69 net394
*70 mn35
*71 net490
*72 mn36
*73 RNb
*74 mn25
*75 mn21
*76 mn51
*77 mn52
*78 mn50
*79 mn53
*80 mn40

*GROUND_NETS VSS

*PORTS
*31 I
*42 I
*56 I
*55 I
*57 I
*59 I
*60 I
*61 I
*58 O

*D_NET *31 1.22528e-15

*CONN
*P *31 I *C 0.1000 1.7100 
*I *38:s B *C 7.2400 1.1600 
*I *40:s B *C 7.2400 1.1600 
*I *47:s B *C 7.8700 1.2950 
*I *49:s B *C 8.4900 1.0075 
*I *51:s B *C 4.5225 1.0550 
*I *54:s B *C 5.3500 1.2150 
*I *19:s B *C 5.3500 1.2150 
*I *22:s B *C 6.3500 1.1975 
*I *23:s B *C 2.3125 1.1550 
*I *25:s B *C 2.8750 1.4975 
*I *28:s B *C 0.2700 1.0950 
*I *29:s B *C 0.6700 1.0950 
*I *30:s B *C 0.6700 1.0950 
*I *32:s B *C 1.1300 1.1350 
*I *33:s B *C 1.1300 1.1350 
*I *34:s B *C 1.6050 1.0875 
*I *35:s B *C 1.6050 1.0875 
*N *31:2 *C 7.8300 1.7100 
*N *31:3 *C 7.5000 1.7100 
*N *31:4 *C 7.5000 1.7100 
*N *31:5 *C 7.2100 1.7100 
*N *31:6 *C 6.3500 1.7100 
*N *31:7 *C 5.4000 1.7100 
*N *31:8 *C 5.2900 1.7100 
*N *31:9 *C 4.2700 1.7100 
*N *31:10 *C 3.3000 1.7100 
*N *31:11 *C 2.8500 1.7100 
*N *31:12 *C 2.1800 1.7100 

*CAP
0 *34:s 2.45287e-16
1 *25:s 2.44451e-17
2 *23:s 9.04228e-18
3 *22:s 3.10821e-17
4 *54:s 5.54172e-17
5 *51:s 4.73508e-17
6 *49:s 2.53043e-17
7 *47:s 2.9568e-17
8 *38:s 3.4474e-17
9 *31:12 3.22339e-17
10 *31:11 2.85532e-17
11 *31:9 4.34342e-17
12 *31:8 2.38805e-17
13 *31:6 3.24351e-17
14 *31:5 1.78666e-17
15 *31:2 1.96264e-17
16 *31:3 5.25279e-16

*RES
0 *34:s *31 0.07983  // $metal1_conn
1 *31:3 *31:4 6.818182  // $metal1_conn
2 *31:3 *31:7 7.5  // $metal1_conn
3 *31:3 *31:10 6.818182  // $metal1_conn
4 *31:3 *34:s 6.818182  // $metal1_conn
5 *49:s *31:2 62.782982  // $metal1_conn
6 *31:2 *47:s 62.259239  // $metal1_conn
7 *31:5 *38:s 62.269665  // $metal1_conn
8 *31:6 *22:s 62.18552  // $metal1_conn
9 *31:8 *54:s 62.268749  // $metal1_conn
10 *31:9 *51:s 62.175125  // $metal1_conn
11 *31:11 *25:s 62.045841  // $metal1_conn
12 *31:12 *23:s 62.074944  // $metal1_conn
13 *31:2 *31:4 0.165376  // $metal1_conn
14 *31:4 *31:5 0.145307  // $metal1_conn
15 *31:5 *31:6 0.431099  // $metal1_conn
16 *31:6 *31:7 0.476451  // $metal1_conn
17 *31:7 *31:8 0.054995  // $metal1_conn
18 *31:8 *31:9 0.511377  // $metal1_conn
19 *31:9 *31:10 0.486486  // $metal1_conn
20 *31:10 *31:11 0.224634  // $metal1_conn
21 *31:11 *31:12 0.33482  // $metal1_conn
22 *31:12 *34:s 0.330752  // $metal1_conn

*END

*D_NET *42 0

*CONN
*P *42 I *C 0.1000 0.0000 
*I *36:s B *C 7.1100 0.4050 
*I *37:s B *C 7.1100 0.4050 
*I *44:s B *C 7.7550 0.4050 
*I *46:s B *C 8.4900 0.4975 
*I *52:s B *C 5.4050 0.4375 
*I *70:s B *C 5.4050 0.4375 
*I *75:s B *C 6.5250 0.1400 
*I *78:s B *C 3.0100 0.1400 
*I *1:s B *C 0.2700 0.5300 
*I *10:s B *C 0.6700 0.5300 
*I *12:s B *C 0.6700 0.5300 
*I *14:s B *C 1.1300 0.5025 
*I *15:s B *C 1.1300 0.5025 
*I *16:s B *C 1.6275 0.5325 
*I *17:s B *C 1.6275 0.5325 
*N *42:2 *C 7.7350 0.0000 
*N *42:3 *C 7.5000 0.0000 
*N *42:4 *C 7.5000 0.0000 
*N *42:5 *C 7.0250 0.0000 
*N *42:6 *C 6.5000 0.0000 
*N *42:7 *C 5.4000 0.0000 
*N *42:8 *C 3.3000 0.0000 
*N *42:9 *C 3.0400 0.0000 


*RES
0 *16:s *42 0.07983  // $metal1_conn
1 *42:3 *42:4 5.636364  // $metal1_conn
2 *42:3 *42:7 6.2  // $metal1_conn
3 *42:3 *42:8 5.636364  // $metal1_conn
4 *42:3 *16:s 5.636364  // $metal1_conn
5 *46:s *42:2 75.716675  // $metal1_conn
6 *42:2 *44:s 75.201935  // $metal1_conn
7 *42:5 *36:s 75.045837  // $metal1_conn
8 *42:6 *75:s 75.045837  // $metal1_conn
9 *42:7 *52:s 75.254745  // $metal1_conn
10 *42:9 *78:s 75.074944  // $metal1_conn
11 *42:2 *42:4 0.117711  // $metal1_conn
12 *42:4 *42:5 0.237178  // $metal1_conn
13 *42:5 *42:6 0.261118  // $metal1_conn
14 *42:6 *42:7 0.550761  // $metal1_conn
15 *42:7 *42:8 1.053642  // $metal1_conn
16 *42:8 *42:9 0.130255  // $metal1_conn
17 *42:9 *16:s 0.762244  // $metal1_conn

*END

*D_NET *56 2.61457e-16

*CONN
*P *56 I *C 6.5000 0.8550 
*I *36:g B *C 6.7575 0.5075 
*I *38:g B *C 7.1075 1.2325 
*N *56:2 *C 6.7300 0.8750 

*CAP
0 *38:g 6.6697e-17
1 *36:g 3.08821e-17
2 *56:2 1.20441e-16
3 *56 4.34367e-17

*RES
0 *38:g *56:2 133.504944  // $poly_conn
1 *56:2 *36:g 67.127846  // $poly_conn
2 *56 *56:2 45.129395  // $metal1_conn

*END

*D_NET *55 3.82512e-16

*CONN
*P *55 I *C 6.9000 0.8550 
*I *37:g B *C 7.1575 0.4050 
*I *40:g B *C 7.3125 1.1600 
*N *55:2 *C 7.1575 0.8675 
*N *55:3 *C 6.9200 0.8950 

*CAP
0 *40:g 1.01427e-16
1 *37:g 8.74208e-17
2 *55:2 3.14066e-17
3 *55:3 1.13394e-16
4 *55 4.8863e-17

*RES
0 *40:g *55:2 57.67757  // $poly_conn
1 *55:2 *55:3 96.232254  // $poly_conn
2 *55:2 *37:g 80.5569  // $poly_conn
3 *55 *55:3 0.020737  // $metal1_conn

*END

*D_NET *57 2.05591e-16

*CONN
*P *57 I *C 1.7000 1.0450 
*I *17:g B *C 1.7275 0.5325 
*I *35:g B *C 1.6525 1.0875 
*N *57:2 *C 1.6900 0.8800 

*CAP
0 *35:g 2.83699e-17
1 *17:g 3.60356e-17
2 *57:2 8.40398e-17
3 *57 5.7146e-17

*RES
0 *17:g *57:2 63.297325  // $poly_conn
1 *57:2 *35:g 18.425531  // $poly_conn
2 *57 *57:2 45.099205  // $metal1_conn

*END

*D_NET *59 5.05221e-16

*CONN
*P *59 I *C 8.1000 0.6650 
*I *41:g B *C 7.5575 0.4050 
*I *46:g B *C 8.3975 0.4975 
*I *43:g B *C 7.4175 1.1600 
*I *49:g B *C 8.3975 1.0075 
*N *59:2 *C 7.5200 0.6550 
*N *59:5 *C 8.3700 0.6850 

*CAP
0 *49:g 2.7228e-17
1 *43:g 9.46694e-17
2 *46:g 1.92581e-17
3 *41:g 5.89703e-17
4 *59:2 1.53401e-16
5 *59:5 4.73154e-17
6 *59 1.04379e-16

*RES
0 *41:g *59:2 21.283424  // $poly_conn
1 *59:2 *43:g 80.211693  // $poly_conn
2 *49:g *59:5 46.615028  // $poly_conn
3 *59:5 *46:g 20.974003  // $poly_conn
4 *59 *59:2 45.349026  // $metal1_conn
5 *59 *59:5 45.156513  // $metal1_conn

*END

*D_NET *60 3.24098e-16

*CONN
*P *60 I *C 7.9000 0.8550 
*I *44:g B *C 7.6625 0.4050 
*I *47:g B *C 7.7275 1.1600 
*N *60:2 *C 7.7750 0.8650 

*CAP
0 *47:g 6.88369e-17
1 *44:g 7.36145e-17
2 *60:2 8.17722e-17
3 *60 9.98747e-17

*RES
0 *47:g *60:2 16.15522  // $poly_conn
1 *60:2 *44:g 79.968208  // $poly_conn
2 *60:2 *60 45.054314  // $metal1_conn

*END

*D_NET *61 7.8594e-16

*CONN
*P *61 I *C 3.1000 1.0450 
*I *52:g B *C 5.3025 0.4375 
*I *78:g B *C 2.7975 0.5075 
*I *54:g B *C 5.1125 1.0550 
*I *25:g B *C 2.7175 1.2600 
*N *61:2 *C 2.7975 1.0075 
*N *61:4 *C 2.9500 1.0350 
*N *61:7 *C 5.0750 1.3100 

*CAP
0 *25:g 4.68521e-17
1 *54:g 7.96821e-17
2 *78:g 4.65728e-17
3 *52:g 7.50184e-17
4 *61:2 3.11343e-17
5 *61:4 4.71625e-17
6 *61:7 2.3885e-16
7 *61 2.20668e-16

*RES
0 *78:g *61:2 97.414955  // $poly_conn
1 *61:2 *25:g 38.064026  // $poly_conn
2 *61:2 *61:4 74.054611  // $poly_conn
3 *52:g *54:g 129.197601  // $poly_conn
4 *54:g *61:7 61.15522  // $poly_conn
5 *61:7 *61 1.77749  // $metal1_conn
6 *61 *61:4 0.11944  // $metal1_conn

*END

*D_NET *58 2.31714e-16

*CONN
*P *58 O *C 0.5000 0.6650 
*I *1:d B *C 0.4650 0.5300 
*I *10:d B *C 0.4650 0.5300 
*I *12:d B *C 0.8750 0.5300 
*I *14:d B *C 0.8750 0.5300 
*I *28:d B *C 0.4650 1.0950 
*I *29:d B *C 0.4650 1.0950 
*I *30:d B *C 0.8750 1.0950 
*I *32:d B *C 0.8750 1.0950 

*CAP
0 *58 2.31714e-16


*END

*D_NET *18 1.69419e-18

*CONN
*I *41:s B *C 7.6100 0.4050 
*I *44:d B *C 7.6100 0.4050 

*CAP
0 *41:s 1.69419e-18

*RES
0 *44:d *41:s 0.001  // $mwires

*END

*D_NET *13 1.42528e-18

*CONN
*I *37:d B *C 7.2100 0.4050 
*I *39:s B *C 7.2100 0.4050 

*CAP
0 *37:d 1.42528e-18

*RES
0 *39:s *37:d 0.001  // $mwires

*END

*D_NET *11 0

*CONN
*I *70:d B *C 5.5600 0.4375 
*I *72:s B *C 5.5600 0.4375 


*RES
0 *72:s *70:d 0.001  // $mwires

*END

*D_NET *9 1.73548e-18

*CONN
*I *45:s B *C 7.6750 1.1600 
*I *47:d B *C 7.6750 1.1600 

*CAP
0 *45:s 1.73548e-18

*RES
0 *47:d *45:s 0.001  // $mwires

*END

*D_NET *8 1.41543e-18

*CONN
*I *40:d B *C 7.3650 1.1600 
*I *43:s B *C 7.3650 1.1600 

*CAP
0 *40:d 1.41543e-18

*RES
0 *43:s *40:d 0.001  // $mwires

*END

*D_NET *7 1.45821e-18

*CONN
*I *19:d B *C 5.4750 1.2150 
*I *20:s B *C 5.4750 1.2150 

*CAP
0 *19:d 1.45821e-18

*RES
0 *20:s *19:d 0.001  // $mwires

*END

*D_NET *6 5.94948e-18

*CONN
*I *51:d B *C 4.8075 1.0550 
*I *53:s B *C 4.8075 1.0550 

*CAP
0 *51:d 5.94948e-18

*RES
0 *53:s *51:d 0.001  // $mwires

*END

*D_NET *5 1.29793e-18

*CONN
*I *23:d B *C 2.4600 1.1550 
*I *24:s B *C 2.4600 1.1550 

*CAP
0 *23:d 1.29793e-18

*RES
0 *24:s *23:d 0.001  // $mwires

*END

*D_NET *4 8.23359e-16

*CONN
*I *77:g B *C 2.5725 0.5075 
*I *1:g B *C 0.3625 0.5300 
*I *10:g B *C 0.5675 0.5300 
*I *12:g B *C 0.7725 0.5300 
*I *14:g B *C 0.9775 0.5300 
*I *15:d B *C 1.2850 0.5025 
*I *16:d B *C 1.2850 0.5025 
*I *24:g B *C 2.5125 1.1550 
*I *28:g B *C 0.3625 1.0950 
*I *29:g B *C 0.5675 1.0950 
*I *30:g B *C 0.7725 1.0950 
*I *32:g B *C 0.9775 1.0950 
*I *33:d B *C 1.2850 1.1350 
*I *34:d B *C 1.2850 1.1350 
*N *4:14 *C 2.5125 0.7225 
*N *4:15 *C 2.4100 0.7100 
*N *4:17 *C 1.2850 0.6200 
*N *4:18 *C 1.2850 0.7700 

*CAP
0 *33:d 7.80963e-17
1 *32:g 2.345e-16
2 *24:g 1.00029e-16
3 *15:d 2.09486e-17
4 *77:g 2.89551e-17
5 *4:18 2.48061e-17
6 *4:17 1.27708e-16
7 *4:14 2.685e-17
8 *4:15 1.81467e-16

*RES
0 *4:14 *24:g 63.825516  // $poly_conn
1 *77:g *4:14 33.816692  // $poly_conn
2 *4:14 *4:15 55.223835  // $poly_conn
3 *4:15 *4:17 1.179759  // $metal1_conn
4 *4:18 *32:g 45.165039  // $metal1_conn
5 *4:18 *33:d 31.293331  // $metal1_conn
6 *4:17 *15:d 75.058533  // $metal1_conn
7 *4:17 *4:18 0.110959  // $metal1_conn

*END

*D_NET *3 8.17092e-16

*CONN
*I *79:d B *C 3.4225 0.5125 
*I *80:d B *C 3.4225 0.5125 
*I *15:g B *C 1.1825 0.5025 
*I *16:g B *C 1.3875 0.5025 
*I *26:d B *C 3.4800 1.1200 
*I *27:d B *C 3.4800 1.1200 
*I *33:g B *C 1.1825 1.1350 
*I *34:g B *C 1.3875 1.1350 
*N *3:1 *C 1.4450 0.8800 
*N *3:10 *C 3.4400 0.8750 

*CAP
0 *34:g 1.62949e-16
1 *26:d 7.13922e-17
2 *79:d 6.11602e-17
3 *3:10 3.00594e-16
4 *3:1 2.20996e-16

*RES
0 *3:1 *34:g 45.794373  // $poly_conn
1 *3:10 *3:1 2.083416  // $metal1_conn
2 *3:10 *79:d 75.163208  // $metal1_conn
3 *26:d *3:10 31.179836  // $metal1_conn

*END

*D_NET *2 2.54402e-16

*CONN
*I *76:s B *C 2.1375 0.5075 
*I *77:s B *C 2.6850 0.5075 
*I *78:d B *C 2.6850 0.5075 

*CAP
0 *77:s 1.36046e-16
1 *76:s 1.18356e-16

*RES
0 *77:s *76:s 150.846802  // $metal1_conn

*END

*D_NET *73 7.29071e-16

*CONN
*I *48:g B *C 4.7075 0.4875 
*I *76:g B *C 2.2675 0.5075 
*I *17:d B *C 1.8400 0.5325 
*I *51:g B *C 4.7075 1.0550 
*I *23:g B *C 2.4075 1.1550 
*I *35:d B *C 1.8025 1.0875 
*N *73:1 *C 2.3700 1.4100 
*N *73:3 *C 2.2675 0.8425 
*N *73:4 *C 1.9300 0.8150 
*N *73:7 *C 3.1200 1.5200 

*CAP
0 *35:d 4.36427e-17
1 *23:g 5.04791e-17
2 *51:g 1.04115e-16
3 *17:d 5.29741e-17
4 *76:g 4.18417e-17
5 *48:g 4.23196e-17
6 *73:3 4.3081e-17
7 *73:4 7.95966e-17
8 *73:1 1.01864e-16
9 *73:7 1.69157e-16

*RES
0 *73:1 *23:g 61.15522  // $poly_conn
1 *23:g *73:3 69.216026  // $poly_conn
2 *73:3 *73:4 121.873283  // $poly_conn
3 *73:3 *76:g 54.915871  // $poly_conn
4 *51:g *73:7 524.162537  // $poly_conn
5 *51:g *48:g 79.487183  // $poly_conn
6 *35:d *73:4 62.135712  // $metal1_conn
7 *73:4 *17:d 75.152412  // $metal1_conn
8 *73:7 *73:1 0.61735  // $metal1_conn

*END

*D_NET *71 1.62974e-16

*CONN
*I *76:d B *C 2.4200 0.5075 
*I *77:d B *C 2.4200 0.5075 
*I *79:s B *C 3.2300 0.5125 

*CAP
0 *79:s 8.44795e-17
1 *76:d 7.84946e-17

*RES
0 *79:s *76:d 150.536911  // $metal1_conn

*END

*D_NET *69 1.65565e-16

*CONN
*I *24:d B *C 2.6650 1.2600 
*I *25:d B *C 2.6650 1.2600 
*I *26:s B *C 3.2025 1.1200 

*CAP
0 *26:s 8.84585e-17
1 *24:d 7.71063e-17

*RES
0 *26:s *24:d 124.29689  // $metal1_conn

*END

*D_NET *68 1.5755e-15

*CONN
*I *36:d B *C 6.6650 0.5075 
*I *74:g B *C 5.8175 0.4375 
*I *75:g B *C 6.2925 0.5075 
*I *79:g B *C 3.3025 0.5125 
*I *38:d B *C 7.0150 1.2325 
*I *20:g B *C 5.5275 1.2150 
*I *22:g B *C 6.2175 1.0375 
*I *27:g B *C 3.5925 1.1200 
*N *68:2 *C 3.2200 0.7150 
*N *68:4 *C 3.6300 0.8650 
*N *68:6 *C 5.5650 0.9600 
*N *68:8 *C 6.2550 0.6850 
*N *68:12 *C 6.3075 1.2150 
*N *68:13 *C 6.2550 0.6850 
*N *68:14 *C 5.5350 1.1075 

*CAP
0 *27:g 4.30323e-17
1 *22:g 2.81391e-17
2 *20:g 6.15657e-17
3 *38:d 7.48256e-17
4 *79:g 3.57196e-17
5 *75:g 2.74399e-17
6 *74:g 5.55867e-17
7 *36:d 6.11353e-17
8 *68:14 2.99588e-16
9 *68:12 1.37418e-16
10 *68:2 1.34058e-16
11 *68:4 3.92448e-16
12 *68:6 8.37225e-17
13 *68:8 1.4082e-16

*RES
0 *79:g *68:2 67.720421  // $poly_conn
1 *27:g *68:4 61.15522  // $poly_conn
2 *20:g *68:6 61.15522  // $poly_conn
3 *75:g *68:8 17.847393  // $poly_conn
4 *68:8 *74:g 125.587227  // $poly_conn
5 *68:8 *22:g 52.114216  // $poly_conn
6 *38:d *68:12 62.495708  // $metal1_conn
7 *68:12 *68:13 0.371729  // $metal1_conn
8 *68:12 *68:14 0.790474  // $metal1_conn
9 *68:14 *68:6 0.101668  // $metal1_conn
10 *68:13 *36:d 75.379944  // $metal1_conn
11 *68:14 *68:4 1.868643  // $metal1_conn
12 *68:4 *68:2 0.859199  // $metal1_conn
13 *68:8 *68:13 45  // $metal1_conn

*END

*D_NET *67 9.30662e-16

*CONN
*I *48:d B *C 4.8175 0.4875 
*I *50:d B *C 4.8175 0.4875 
*I *70:g B *C 5.5075 0.4375 
*I *80:s B *C 3.7075 0.5125 
*I *53:d B *C 5.0100 1.0550 
*I *54:d B *C 5.0100 1.0550 
*I *19:g B *C 5.4225 1.2150 
*I *27:s B *C 3.7325 1.1200 
*N *67:2 *C 5.4225 0.9600 
*N *67:3 *C 5.3450 0.9600 
*N *67:6 *C 5.0100 0.9600 
*N *67:7 *C 3.7900 0.9475 
*N *67:9 *C 3.7900 0.5550 

*CAP
0 *27:s 3.36518e-17
1 *19:g 7.00829e-17
2 *53:d 1.92199e-16
3 *80:s 1.25301e-16
4 *70:g 9.21559e-17
5 *48:d 1.46101e-16
6 *67:7 1.4265e-16
7 *67:2 5.19042e-17
8 *67:3 7.66161e-17

*RES
0 *70:g *67:2 114.904465  // $poly_conn
1 *67:2 *67:3 47.826286  // $poly_conn
2 *67:2 *19:g 22.886339  // $poly_conn
3 *67:3 *67:6 0.280632  // $metal1_conn
4 *67:6 *67:7 0.99581  // $metal1_conn
5 *67:7 *67:9 0.329793  // $metal1_conn
6 *67:7 *27:s 62.073055  // $metal1_conn
7 *67:9 *48:d 75.790512  // $metal1_conn
8 *53:d *67:6 62  // $metal1_conn
9 *80:s *67:9 75  // $metal1_conn

*END

*D_NET *66 1.17001e-16

*CONN
*I *48:s B *C 4.6150 0.4875 
*I *50:s B *C 5.2300 0.4375 
*I *52:d B *C 5.2300 0.4375 

*CAP
0 *50:s 4.56099e-17
1 *48:s 7.13913e-17

*RES
0 *50:s *48:s 150.310059  // $metal1_conn

*END

*D_NET *65 4.41796e-16

*CONN
*I *50:g B *C 4.9275 0.4875 
*I *72:d B *C 5.7150 0.4375 
*I *74:s B *C 5.7150 0.4375 
*I *53:g B *C 4.9075 1.0550 
*I *20:d B *C 5.6700 1.2150 
*I *21:d B *C 5.6700 1.2150 
*N *65:1 *C 5.1600 0.6400 
*N *65:2 *C 4.9175 0.6675 
*N *65:5 *C 5.7350 0.6400 

*CAP
0 *20:d 9.11584e-17
1 *53:g 6.23441e-17
2 *72:d 3.4698e-17
3 *50:g 3.41887e-17
4 *65:5 9.18805e-17
5 *65:2 2.64538e-17
6 *65:1 1.01072e-16

*RES
0 *65:1 *65:2 92.353294  // $poly_conn
1 *65:2 *53:g 55.873322  // $poly_conn
2 *65:2 *50:g 17.514193  // $poly_conn
3 *65:1 *65:5 0.403255  // $metal1_conn
4 *65:5 *20:d 62.422619  // $metal1_conn
5 *65:5 *72:d 75.09037  // $metal1_conn

*END

*D_NET *64 6.48781e-16

*CONN
*I *39:d B *C 7.4100 0.4050 
*I *41:d B *C 7.4100 0.4050 
*I *74:d B *C 5.9100 0.4375 
*I *43:d B *C 7.5200 1.1600 
*I *45:d B *C 7.5200 1.1600 
*I *21:s B *C 5.9050 1.2150 
*N *64:2 *C 7.1100 0.3350 
*N *64:4 *C 5.9200 0.3950 

*CAP
0 *21:s 1.00789e-16
1 *43:d 1.28538e-16
2 *74:d 1.88459e-16
3 *39:d 4.32334e-17
4 *64:2 1.87761e-16

*RES
0 *39:d *64:2 75.186569  // $metal1_conn
1 *64:2 *64:4 0.882212  // $metal1_conn
2 *64:4 *21:s 62.587963  // $metal1_conn
3 *64:2 *43:d 62.961746  // $metal1_conn
4 *74:d *64:4 75  // $metal1_conn

*END

*D_NET *63 9.48085e-16

*CONN
*I *72:g B *C 5.6125 0.4375 
*I *75:d B *C 6.1650 0.5075 
*I *80:g B *C 3.5425 0.5125 
*I *21:g B *C 5.8125 1.2150 
*I *22:d B *C 6.1250 1.0375 
*I *26:g B *C 3.3675 1.1200 
*N *63:2 *C 3.5425 0.7325 
*N *63:4 *C 3.9800 0.7650 
*N *63:5 *C 6.0750 0.8000 
*N *63:6 *C 5.8125 0.8275 
*N *63:7 *C 5.5650 0.8000 

*CAP
0 *26:g 5.00752e-17
1 *22:d 4.0374e-17
2 *21:g 4.0129e-17
3 *80:g 2.99066e-17
4 *75:d 5.7985e-17
5 *72:g 6.65471e-17
6 *63:6 2.74928e-17
7 *63:2 5.49142e-17
8 *63:4 2.20339e-16
9 *63:7 2.5815e-16
10 *63:5 1.02173e-16

*RES
0 *80:g *63:2 25.620075  // $poly_conn
1 *63:2 *26:g 85.210358  // $poly_conn
2 *63:2 *63:4 144.838257  // $poly_conn
3 *63:5 *63:6 102.642509  // $poly_conn
4 *63:6 *63:7 49.695522  // $poly_conn
5 *63:6 *21:g 54.915871  // $poly_conn
6 *63:7 *72:g 57.180859  // $poly_conn
7 *63:7 *63:4 46.380455  // $metal1_conn
8 *63:5 *22:d 62.150444  // $metal1_conn
9 *63:5 *75:d 75.244781  // $metal1_conn

*END

*D_NET *62 6.96684e-16

*CONN
*I *39:g B *C 7.2625 0.4050 
*I *46:d B *C 8.2725 0.4975 
*I *45:g B *C 7.6225 1.1600 
*I *49:d B *C 8.2000 1.0075 
*N *62:2 *C 7.3000 0.6550 
*N *62:4 *C 7.5850 0.8650 

*CAP
0 *49:d 1.04759e-16
1 *45:g 7.13373e-17
2 *46:d 1.13475e-16
3 *39:g 6.31874e-17
4 *62:2 1.86968e-16
5 *62:4 1.56957e-16

*RES
0 *39:g *62:2 66.283424  // $poly_conn
1 *45:g *62:4 61.15522  // $poly_conn
2 *46:d *62:2 75.784706  // $metal1_conn
3 *62:2 *62:4 0.310009  // $metal1_conn
4 *62:4 *49:d 62.728535  // $metal1_conn

*END

