*SPEF "IEEE 1481-1999"
*DESIGN  "SDFFTRX2"
*DATE "Mon Sep 27 11:10:57 2010"
*VENDOR "Cadence Design Systems"
*PROGRAM "Assura RCX"
*VERSION "3.2 Red Hat Linux release 7.2 (Enigma) - (09/09/2009-10:39)"
*DESIGN_FLOW "Physical Verification"
*DIVIDER /
*DELIMITER :
*BUS_DELIMITER []
*T_UNIT 1 PS
*C_UNIT 1e15 FF
*R_UNIT 1 OHM
*L_UNIT 1 MH
// DeviceFingerDelim "@"
// MATCHED
// caps2d version: 10

*NAME_MAP
*1 QN
*2 VDD
*3 RN
*4 SE
*5 SI
*6 mn1
*7 mn30
*8 mn56
*9 mp35
*10 mn57
*11 mp36
*12 mn57\@1
*13 mp25
*14 mn55
*15 mp21
*16 mn55\@1
*17 mp12
*18 mn20
*19 mp13
*20 mn45
*21 mn35
*22 mp11
*23 mn50
*24 mn36
*25 mp10
*26 mn25
*27 mp0
*28 mn21
*29 mn12
*30 mn13
*31 mn11
*32 mn10
*33 mn0
*34 mn51
*35 mp1
*36 mn40
*37 mp56
*38 mp57
*39 mp57\@1
*40 D
*41 mp55
*42 mp55\@1
*43 mp20
*44 mp45
*45 mp50
*46 mp51
*47 net436
*48 mout
*49 n20
*50 n30
*51 Dbp
*52 SEb
*53 CKbb
*54 Q
*55 CK
*56 mp40
*57 Db
*58 mp30
*59 CKb
*60 VSS
*61 qbint
*62 net395
*63 net375
*64 net411
*65 net460
*66 net452
*67 net484
*68 net476

*GROUND_NETS VSS

*PORTS
*2 I
*60 I
*55 I
*40 I
*3 I
*4 I
*5 I
*54 O
*1 O

*D_NET *2 8.54115e-16

*CONN
*P *2 I *C 0.1000 1.7100 
*I *9:s B *C 3.4900 1.1725 
*I *15:s B *C 4.5000 1.2375 
*I *17:s B *C 4.5000 1.2375 
*I *25:s B *C 6.1150 1.0325 
*I *27:s B *C 6.1150 1.0325 
*I *35:s B *C 6.4900 1.0325 
*I *37:s B *C 0.4950 1.0950 
*I *38:s B *C 0.4950 1.0950 
*I *39:s B *C 0.9200 1.0950 
*I *41:s B *C 0.9200 1.0950 
*I *42:s B *C 1.6050 1.0075 
*I *43:s B *C 1.6050 1.0075 
*I *44:s B *C 2.4550 1.1725 
*I *45:s B *C 2.4550 1.1725 
*I *58:s B *C 3.4900 1.1725 
*N *2:2 *C 6.0300 1.7100 
*N *2:3 *C 5.5000 1.7100 
*N *2:4 *C 5.5000 1.7100 
*N *2:5 *C 4.5000 1.7100 
*N *2:6 *C 3.4050 1.7100 
*N *2:7 *C 3.3000 1.7100 
*N *2:8 *C 2.3400 1.7100 

*CAP
0 *44:s 3.77152e-17
1 *42:s 1.9649e-16
2 *35:s 3.62388e-17
3 *25:s 7.70583e-18
4 *15:s 4.19195e-17
5 *9:s 1.5287e-17
6 *2:8 2.76646e-17
7 *2:6 2.5594e-17
8 *2:5 3.67763e-17
9 *2:2 2.19615e-17
10 *2:3 4.03984e-16
11 *2 2.77813e-18

*RES
0 *42:s *2 0.192528  // $metal1_conn
1 *2:3 *2:4 6.818182  // $metal1_conn
2 *2:3 *2:7 6.818182  // $metal1_conn
3 *2:3 *42:s 6.818182  // $metal1_conn
4 *35:s *2:2 62.664036  // $metal1_conn
5 *2:2 *25:s 62.074306  // $metal1_conn
6 *2:5 *15:s 62.265896  // $metal1_conn
7 *2:6 *9:s 62.074306  // $metal1_conn
8 *2:8 *44:s 62.263344  // $metal1_conn
9 *2:2 *2:4 0.265457  // $metal1_conn
10 *2:4 *2:5 0.501036  // $metal1_conn
11 *2:5 *2:6 0.548457  // $metal1_conn
12 *2:6 *2:7 0.052433  // $metal1_conn
13 *2:7 *2:8 0.480987  // $metal1_conn
14 *2:8 *42:s 0.443198  // $metal1_conn

*END

*D_NET *60 0

*CONN
*P *60 I *C 0.1000 0.0000 
*I *21:s B *C 3.5050 0.5475 
*I *28:s B *C 4.5300 0.5375 
*I *29:s B *C 4.5300 0.5375 
*I *32:s B *C 6.0300 0.4975 
*I *33:s B *C 6.0300 0.4975 
*I *7:s B *C 3.5050 0.5475 
*I *8:s B *C 0.5300 0.5300 
*I *10:s B *C 0.5300 0.5300 
*I *12:s B *C 1.0000 0.5300 
*I *14:s B *C 1.0000 0.5300 
*I *16:s B *C 1.6350 0.5875 
*I *18:s B *C 1.6350 0.5875 
*I *20:s B *C 2.4550 0.5475 
*I *23:s B *C 2.4550 0.5475 
*N *60:2 *C 5.5000 0.0000 
*N *60:3 *C 5.5000 0.0000 
*N *60:4 *C 4.5300 0.0000 
*N *60:5 *C 3.4200 0.0000 
*N *60:6 *C 3.3000 0.0000 
*N *60:7 *C 2.4000 0.0000 


*RES
0 *16:s *60 0.172478  // $metal1_conn
1 *60:2 *60:3 5.636364  // $metal1_conn
2 *60:2 *60:6 5.636364  // $metal1_conn
3 *60:2 *16:s 5.636364  // $metal1_conn
4 *32:s *60:3 75.611481  // $metal1_conn
5 *60:4 *28:s 75.343788  // $metal1_conn
6 *60:5 *21:s 75.045792  // $metal1_conn
7 *60:7 *20:s 75.293243  // $metal1_conn
8 *60:3 *60:4 0.485999  // $metal1_conn
9 *60:4 *60:5 0.555026  // $metal1_conn
10 *60:5 *60:6 0.058991  // $metal1_conn
11 *60:6 *60:7 0.450913  // $metal1_conn
12 *60:7 *16:s 0.442249  // $metal1_conn

*END

*D_NET *55 1.86885e-16

*CONN
*P *55 I *C 1.7000 0.6650 
*I *18:g B *C 1.7175 0.5875 
*I *43:g B *C 1.7175 1.0075 
*N *55:2 *C 1.6900 0.7900 

*CAP
0 *43:g 3.11607e-17
1 *18:g 2.41735e-17
2 *55:2 1.02435e-16
3 *55 2.91153e-17

*RES
0 *43:g *55:2 19.691952  // $poly_conn
1 *55:2 *18:g 24.820156  // $poly_conn
2 *55 *55:2 45.077511  // $metal1_conn

*END

*D_NET *40 2.23083e-16

*CONN
*P *40 I *C 6.3000 0.2850 
*I *6:g B *C 6.2775 0.4975 
*I *35:g B *C 6.3975 1.0325 
*N *40:2 *C 6.3150 0.6700 

*CAP
0 *35:g 3.29438e-17
1 *6:g 3.38995e-17
2 *40:2 1.04487e-16
3 *40 5.1753e-17

*RES
0 *35:g *40:2 65.059982  // $poly_conn
1 *40:2 *6:g 16.15522  // $poly_conn
2 *40 *40:2 45.229019  // $metal1_conn

*END

*D_NET *3 2.12114e-16

*CONN
*P *3 I *C 6.1000 1.0450 
*I *33:g B *C 6.1625 0.4975 
*I *27:g B *C 6.1625 1.0325 
*N *3:2 *C 6.1350 0.7050 

*CAP
0 *27:g 4.13237e-17
1 *33:g 4.03718e-17
2 *3:2 8.28783e-17
3 *3 4.75397e-17

*RES
0 *27:g *3:2 47.897079  // $poly_conn
1 *3:2 *33:g 26.102209  // $poly_conn
2 *3:2 *3 45.204208  // $metal1_conn

*END

*D_NET *4 3.63108e-16

*CONN
*P *4 I *C 5.7000 0.8550 
*I *30:g B *C 4.8325 0.5375 
*I *32:g B *C 5.8975 0.4975 
*I *22:g B *C 5.0275 1.2375 
*I *25:g B *C 5.8975 1.0325 
*N *4:2 *C 5.8600 0.8200 
*N *4:3 *C 5.0275 0.8475 

*CAP
0 *25:g 2.42524e-17
1 *22:g 3.62391e-17
2 *32:g 2.59579e-17
3 *30:g 4.77981e-17
4 *4:3 7.7675e-17
5 *4:2 7.487e-17
6 *4 7.63152e-17

*RES
0 *25:g *4:2 17.437269  // $poly_conn
1 *4:2 *4:3 200.634445  // $poly_conn
2 *4:3 *30:g 92.003387  // $poly_conn
3 *4:2 *32:g 54.61676  // $poly_conn
4 *4:3 *22:g 67.736382  // $poly_conn
5 *4:2 *4 45.09346  // $metal1_conn

*END

*D_NET *5 2.57517e-16

*CONN
*P *5 I *C 4.3000 0.8550 
*I *29:g B *C 4.6325 0.5375 
*I *17:g B *C 4.6025 1.2375 
*N *5:2 *C 4.6025 0.8500 
*N *5:3 *C 4.5300 0.8500 

*CAP
0 *17:g 4.62548e-17
1 *29:g 3.42376e-17
2 *5:2 3.99841e-17
3 *5:3 8.13708e-17
4 *5 5.56699e-17

*RES
0 *29:g *5:2 59.407467  // $poly_conn
1 *5:2 *5:3 47.037205  // $poly_conn
2 *5:2 *17:g 68.483833  // $poly_conn
3 *5:3 *5 0.100324  // $metal1_conn

*END

*D_NET *54 1.35608e-16

*CONN
*P *54 O *C 1.3000 0.8550 
*I *14:d B *C 1.2150 0.5300 
*I *16:d B *C 1.2150 0.5300 
*I *41:d B *C 1.2000 1.0950 
*I *42:d B *C 1.2000 1.0950 
*N *54:1 *C 1.2500 0.8550 

*CAP
0 *41:d 4.50427e-17
1 *14:d 5.27097e-17
2 *54:1 3.78553e-17

*RES
0 *54 *54:1 0.009918  // $metal1_conn
1 *54:1 *14:d 75.189766  // $metal1_conn
2 *54:1 *41:d 20.839067  // $metal1_conn

*END

*D_NET *1 1.37458e-16

*CONN
*P *1 O *C 0.7000 0.6650 
*I *10:d B *C 0.6800 0.5300 
*I *12:d B *C 0.6800 0.5300 
*I *38:d B *C 0.6900 1.0950 
*I *39:d B *C 0.6900 1.0950 

*CAP
0 *38:d 7.62868e-17
1 *10:d 3.34948e-17
2 *1 2.76759e-17

*RES
0 *1 *10:d 75.035629  // $metal1_conn
1 *38:d *1 20.969612  // $metal1_conn

*END

*D_NET *68 0

*CONN
*I *33:d B *C 6.2200 0.4975 
*I *6:s B *C 6.2200 0.4975 


*RES
0 *6:s *33:d 0.001  // $mwires

*END

*D_NET *67 0

*CONN
*I *29:d B *C 4.7325 0.5375 
*I *30:s B *C 4.7325 0.5375 


*RES
0 *30:s *29:d 0.001  // $mwires

*END

*D_NET *66 0

*CONN
*I *21:d B *C 3.6050 0.5475 
*I *24:s B *C 3.6050 0.5475 


*RES
0 *24:s *21:d 0.001  // $mwires

*END

*D_NET *65 3.04253e-18

*CONN
*I *23:d B *C 2.5925 0.5475 
*I *34:s B *C 2.5925 0.5475 

*CAP
0 *23:d 3.04253e-18

*RES
0 *34:s *23:d 0.001  // $mwires

*END

*D_NET *64 0

*CONN
*I *17:d B *C 4.7125 1.2375 
*I *19:s B *C 4.7125 1.2375 


*RES
0 *19:s *17:d 0.001  // $mwires

*END

*D_NET *63 0

*CONN
*I *9:d B *C 3.5900 1.1725 
*I *11:s B *C 3.5900 1.1725 


*RES
0 *11:s *9:d 0.001  // $mwires

*END

*D_NET *62 6.4221e-18

*CONN
*I *45:d B *C 2.6750 1.1725 
*I *46:s B *C 2.6750 1.1725 

*CAP
0 *45:d 6.4221e-18

*RES
0 *46:s *45:d 0.001  // $mwires

*END

*D_NET *61 8.60818e-16

*CONN
*I *8:g B *C 0.3125 0.5875 
*I *14:g B *C 1.0475 0.5300 
*I *16:g B *C 1.3825 0.5300 
*I *20:d B *C 2.1600 0.5175 
*I *23:g B *C 2.5025 0.5475 
*I *37:g B *C 0.3525 1.0075 
*I *41:g B *C 1.0475 1.0950 
*I *42:g B *C 1.3525 1.0950 
*I *44:d B *C 2.1450 1.0550 
*I *45:g B *C 2.5025 1.1725 
*N *61:3 *C 0.2550 0.4050 
*N *61:12 *C 2.4750 0.9550 
*N *61:15 *C 2.1350 0.9600 
*N *61:17 *C 2.1350 0.4750 

*CAP
0 *45:g 2.99282e-17
1 *44:d 7.34086e-17
2 *42:g 3.47818e-16
3 *37:g 4.08249e-17
4 *23:g 5.84606e-17
5 *20:d 8.48027e-17
6 *8:g 3.24134e-17
7 *61:3 9.69324e-17
8 *61:12 9.62293e-17

*RES
0 *45:g *61:12 19.691952  // $poly_conn
1 *37:g *8:g 63.017509  // $poly_conn
2 *61:12 *23:g 77.384254  // $poly_conn
3 *8:g *61:3 65.678978  // $poly_conn
4 *61:12 *61:15 45.258472  // $metal1_conn
5 *42:g *61:3 0.546534  // $metal1_conn
6 *61:17 *42:g 0.46525  // $metal1_conn
7 *44:d *61:15 62  // $metal1_conn
8 *20:d *61:17 75  // $metal1_conn
9 *61:15 *61:17 0.338142  // $metal1_conn

*END

*D_NET *59 9.7055e-16

*CONN
*I *26:g B *C 4.0225 0.5475 
*I *28:g B *C 4.4275 0.5375 
*I *18:d B *C 1.8500 0.5875 
*I *34:g B *C 2.6825 0.5475 
*I *11:g B *C 3.6425 1.1725 
*I *15:g B *C 4.3975 1.2375 
*I *43:d B *C 1.8350 1.0075 
*I *56:g B *C 3.0525 1.1725 
*N *59:2 *C 2.6450 0.7950 
*N *59:4 *C 3.0900 1.3950 
*N *59:6 *C 4.4125 0.7125 
*N *59:7 *C 4.0225 0.7175 
*N *59:11 *C 3.6800 1.3800 
*N *59:12 *C 2.6750 1.1200 
*N *59:14 *C 1.8700 0.9600 

*CAP
0 *56:g 6.81403e-17
1 *43:d 1.02361e-16
2 *15:g 4.79702e-17
3 *11:g 9.52649e-17
4 *34:g 4.82308e-17
5 *18:d 5.71665e-17
6 *28:g 2.05717e-17
7 *26:g 1.8934e-17
8 *59:12 1.27703e-16
9 *59:7 5.19901e-17
10 *59:6 5.31475e-17
11 *59:2 8.91039e-17
12 *59:4 1.08977e-16
13 *59:11 8.09889e-17

*RES
0 *34:g *59:2 80.385986  // $poly_conn
1 *56:g *59:4 65.001373  // $poly_conn
2 *28:g *59:6 23.474121  // $poly_conn
3 *59:6 *59:7 92.546539  // $poly_conn
4 *59:7 *11:g 167.644424  // $poly_conn
5 *59:6 *15:g 106.983063  // $poly_conn
6 *59:7 *26:g 20.300484  // $poly_conn
7 *11:g *59:11 61.15522  // $poly_conn
8 *59:11 *59:4 0.404324  // $metal1_conn
9 *59:4 *59:12 0.465921  // $metal1_conn
10 *59:12 *59:14 0.680655  // $metal1_conn
11 *59:12 *59:2 0.24814  // $metal1_conn
12 *59:14 *18:d 75.261353  // $metal1_conn
13 *43:d *59:14 62  // $metal1_conn

*END

*D_NET *57 4.70532e-16

*CONN
*I *31:d B *C 5.2125 0.5375 
*I *6:d B *C 6.4175 0.4975 
*I *22:s B *C 5.1200 1.2375 
*I *27:d B *C 6.2800 1.0325 
*I *35:d B *C 6.2800 1.0325 
*N *57:3 *C 6.2950 0.9850 
*N *57:4 *C 5.3150 1.2150 

*CAP
0 *27:d 1.49853e-16
1 *22:s 3.07457e-17
2 *6:d 6.61327e-17
3 *31:d 1.04167e-16
4 *57:4 1.19633e-16

*RES
0 *6:d *57:3 75.452263  // $metal1_conn
1 *57:3 *57:4 0.898186  // $metal1_conn
2 *57:4 *22:s 62.095383  // $metal1_conn
3 *57:4 *31:d 75.513634  // $metal1_conn
4 *27:d *57:3 62  // $metal1_conn

*END

*D_NET *53 8.26116e-16

*CONN
*I *24:g B *C 3.6575 0.5475 
*I *28:d B *C 4.3350 0.5375 
*I *36:g B *C 2.9675 0.5475 
*I *13:g B *C 3.8675 1.1725 
*I *15:d B *C 4.3050 1.2375 
*I *46:g B *C 2.8475 1.1725 
*N *53:2 *C 2.9950 0.7300 
*N *53:4 *C 3.7250 0.3700 
*N *53:7 *C 3.9050 0.9100 
*N *53:9 *C 3.9650 0.3700 

*CAP
0 *46:g 5.94338e-17
1 *15:d 6.9647e-17
2 *13:g 4.46468e-17
3 *36:g 2.18211e-17
4 *28:d 5.2023e-17
5 *24:g 8.38228e-17
6 *53:9 6.12486e-17
7 *53:2 1.52948e-16
8 *53:4 1.13741e-16
9 *53:7 1.66783e-16

*RES
0 *36:g *53:2 18.648361  // $poly_conn
1 *53:2 *46:g 89.027557  // $poly_conn
2 *53:4 *24:g 68.014122  // $poly_conn
3 *13:g *53:7 75.257782  // $poly_conn
4 *28:d *53:9 75.366173  // $metal1_conn
5 *53:9 *53:4 0.17834  // $metal1_conn
6 *53:4 *53:2 45.751896  // $metal1_conn
7 *53:9 *53:7 0.419911  // $metal1_conn
8 *53:7 *15:d 62.553936  // $metal1_conn

*END

*D_NET *52 6.28015e-16

*CONN
*I *31:g B *C 5.0875 0.5375 
*I *32:d B *C 5.8050 0.4975 
*I *19:g B *C 4.8225 1.2375 
*I *25:d B *C 5.8050 1.0325 
*N *52:2 *C 4.8500 0.9050 
*N *52:4 *C 5.1250 0.7150 
*N *52:7 *C 5.7950 0.4850 

*CAP
0 *25:d 1.35324e-16
1 *19:g 4.19445e-17
2 *32:d 1.40662e-16
3 *31:g 3.80635e-17
4 *52:2 1.01965e-16
5 *52:4 1.70056e-16

*RES
0 *19:g *52:2 94.179131  // $poly_conn
1 *31:g *52:4 62.437271  // $poly_conn
2 *25:d *52:7 62.870022  // $metal1_conn
3 *52:7 *52:4 0.856882  // $metal1_conn
4 *52:4 *52:2 0.279626  // $metal1_conn
5 *32:d *52:7 75  // $metal1_conn

*END

*D_NET *51 3.9681e-16

*CONN
*I *26:d B *C 4.1150 0.5475 
*I *30:d B *C 4.9600 0.5375 
*I *31:s B *C 4.9600 0.5375 
*I *13:s B *C 4.0225 1.1725 
*I *19:d B *C 4.9250 1.2375 
*I *22:d B *C 4.9250 1.2375 
*N *51:2 *C 4.6900 1.0950 
*N *51:3 *C 4.1250 1.0800 

*CAP
0 *19:d 4.72157e-17
1 *13:s 1.1026e-16
2 *30:d 8.30422e-17
3 *26:d 6.67747e-17
4 *51:2 8.95173e-17

*RES
0 *30:d *51:2 75.545311  // $metal1_conn
1 *51:2 *51:3 0.431814  // $metal1_conn
2 *51:3 *13:s 62.042187  // $metal1_conn
3 *51:2 *19:d 62.232857  // $metal1_conn
4 *51:3 *26:d 75.409744  // $metal1_conn

*END

*D_NET *50 3.53736e-16

*CONN
*I *20:g B *C 2.2675 0.5175 
*I *34:d B *C 2.8250 0.5475 
*I *36:d B *C 2.8250 0.5475 
*I *44:g B *C 2.2375 1.0550 
*I *46:d B *C 2.9500 1.1725 
*I *56:d B *C 2.9500 1.1725 
*N *50:2 *C 2.2950 0.7300 
*N *50:5 *C 2.8350 0.6350 

*CAP
0 *46:d 7.504e-17
1 *44:g 4.82715e-17
2 *34:d 2.27544e-17
3 *20:g 3.40553e-17
4 *50:5 7.41345e-17
5 *50:2 9.94806e-17

*RES
0 *20:g *50:2 16.530041  // $poly_conn
1 *50:2 *44:g 39.297707  // $poly_conn
2 *34:d *50:5 75.063904  // $metal1_conn
3 *50:5 *50:2 45.426716  // $metal1_conn
4 *50:5 *46:d 62.418251  // $metal1_conn

*END

*D_NET *49 3.33816e-16

*CONN
*I *24:d B *C 3.8400 0.5475 
*I *26:s B *C 3.8400 0.5475 
*I *7:g B *C 3.2875 0.5475 
*I *11:d B *C 3.7550 1.1725 
*I *13:d B *C 3.7550 1.1725 
*I *58:g B *C 3.2725 1.1725 
*N *49:2 *C 3.2800 0.9150 
*N *49:4 *C 3.3450 0.9150 
*N *49:6 *C 3.7450 0.9150 

*CAP
0 *58:g 4.79171e-17
1 *11:d 3.65143e-17
2 *7:g 4.31475e-17
3 *24:d 5.50752e-17
4 *49:6 5.62783e-17
5 *49:2 4.50818e-17
6 *49:4 4.98019e-17

*RES
0 *7:g *49:2 74.660316  // $poly_conn
1 *49:2 *58:g 37.480824  // $poly_conn
2 *49:2 *49:4 48.554474  // $poly_conn
3 *11:d *49:6 62.163574  // $metal1_conn
4 *49:6 *49:4 0.268507  // $metal1_conn
5 *49:6 *24:d 75.264755  // $metal1_conn

*END

*D_NET *48 3.73004e-16

*CONN
*I *21:g B *C 3.5525 0.5475 
*I *7:d B *C 3.1275 0.5475 
*I *36:s B *C 3.1275 0.5475 
*I *9:g B *C 3.5375 1.1725 
*I *56:s B *C 3.1625 1.1725 
*I *58:d B *C 3.1625 1.1725 
*N *48:2 *C 3.5100 0.7550 
*N *48:4 *C 3.1550 0.7550 

*CAP
0 *56:s 4.12879e-17
1 *9:g 8.74366e-17
2 *7:d 3.60856e-17
3 *21:g 5.44683e-17
4 *48:4 5.12237e-17
5 *48:2 1.02502e-16

*RES
0 *21:g *48:2 25.207939  // $poly_conn
1 *48:2 *9:g 67.812088  // $poly_conn
2 *48:2 *48:4 45.244308  // $metal1_conn
3 *48:4 *56:s 62.258858  // $metal1_conn
4 *48:4 *7:d 75.144081  // $metal1_conn

*END

*D_NET *47 2.53907e-16

*CONN
*I *8:d B *C 0.2200 0.5875 
*I *10:g B *C 0.5775 0.5300 
*I *12:g B *C 0.7825 0.5300 
*I *37:d B *C 0.2600 1.0075 
*I *38:g B *C 0.5875 1.0950 
*I *39:g B *C 0.7925 1.0950 
*N *47:4 *C 0.5000 0.7600 
*N *47:8 *C 0.2500 0.7600 

*CAP
0 *39:g 1.30989e-16
1 *37:d 1.71613e-17
2 *8:d 2.68803e-17
3 *47:8 1.79432e-17
4 *47:4 6.09329e-17

*RES
0 *39:g *47:4 50.837906  // $poly_conn
1 *47:4 *47:8 0.156818  // $metal1_conn
2 *47:8 *8:d 75.102821  // $metal1_conn
3 *47:8 *37:d 62.143417  // $metal1_conn

*END

