*SPEF "IEEE 1481-1999"
*DESIGN  "SDFFSRHQX2"
*DATE "Mon Sep 27 11:06:21 2010"
*VENDOR "Cadence Design Systems"
*PROGRAM "Assura RCX"
*VERSION "3.2 Red Hat Linux release 7.2 (Enigma) - (09/09/2009-10:39)"
*DESIGN_FLOW "Physical Verification"
*DIVIDER /
*DELIMITER :
*BUS_DELIMITER []
*T_UNIT 1 PS
*C_UNIT 1e15 FF
*R_UNIT 1 OHM
*L_UNIT 1 MH
// DeviceFingerDelim "@"
// MATCHED
// caps2d version: 10

*NAME_MAP
*1 mn20
*2 RN
*3 mn11
*4 mn12
*5 mn14
*6 mp21
*7 mn13
*8 mp20
*9 mn10
*10 mp11
*11 mn31
*12 mp12
*13 mn32
*14 mp14
*15 mn30
*16 SE
*17 mp13
*18 mp10
*19 mp31
*20 mp32
*21 SI
*22 VSS
*23 SN
*24 mp30
*25 mp35
*26 mp36
*27 mp25
*28 mp55
*29 mp55\@1
*30 mp45
*31 mp22
*32 mp50
*33 mp52
*34 SEb
*35 mp51
*36 Db
*37 mp53
*38 net469
*39 mp40
*40 n20
*41 mout
*42 CKbb
*43 D
*44 CKb
*45 net486
*46 net490
*47 net394
*48 RNb
*49 n35
*50 Q
*51 qbint
*52 net437
*53 net417
*54 CK
*55 net425
*56 net445
*57 net453
*58 net514
*59 VDD
*60 net522
*61 mn35
*62 mn36
*63 mn25
*64 mn21
*65 mn55
*66 mn55\@1
*67 net534
*68 mn45
*69 mn22
*70 mn50
*71 mn52
*72 mn51
*73 mn53
*74 mn40

*GROUND_NETS VSS

*PORTS
*59 I
*22 I
*54 I
*43 I
*2 I
*16 I
*21 I
*23 I
*50 O

*D_NET *59 1.29858e-15

*CONN
*P *59 I *C 0.1000 1.7100 
*I *6:s B *C 6.1825 1.1675 
*I *8:s B *C 6.8100 1.2000 
*I *10:s B *C 6.8100 1.2000 
*I *17:s B *C 7.5150 1.2875 
*I *18:s B *C 7.5150 1.2875 
*I *19:s B *C 4.0000 1.0550 
*I *24:s B *C 4.8575 1.1550 
*I *25:s B *C 4.8575 1.1550 
*I *28:s B *C 0.2800 1.0950 
*I *29:s B *C 0.7300 1.0550 
*I *30:s B *C 0.7300 1.0550 
*I *31:s B *C 1.5250 1.1950 
*I *32:s B *C 1.5250 1.1950 
*I *35:s B *C 2.1625 1.1950 
*N *59:2 *C 7.2000 1.7100 
*N *59:3 *C 7.2000 1.7100 
*N *59:4 *C 6.6900 1.7100 
*N *59:5 *C 6.2400 1.7100 
*N *59:6 *C 5.2000 1.7100 
*N *59:7 *C 4.7700 1.7100 
*N *59:8 *C 3.7500 1.7100 
*N *59:9 *C 3.2000 1.7100 
*N *59:10 *C 2.2200 1.7100 
*N *59:11 *C 1.4300 1.7100 
*N *59:12 *C 1.1000 1.7100 

*CAP
0 *35:s 5.11628e-17
1 *31:s 6.48971e-17
2 *29:s 1.49199e-16
3 *24:s 6.96988e-17
4 *19:s 5.73429e-17
5 *17:s 4.09976e-17
6 *8:s 3.35573e-17
7 *6:s 4.81281e-17
8 *59:11 4.10495e-17
9 *59:10 3.99173e-17
10 *59:8 2.71594e-17
11 *59:7 2.64693e-17
12 *59:5 2.78731e-17
13 *59:4 1.30634e-17
14 *59:2 6.0806e-16

*RES
0 *29:s *59 0.08489  // $metal1_conn
1 *59:2 *59:3 7.5  // $metal1_conn
2 *59:2 *59:6 7.5  // $metal1_conn
3 *59:2 *59:9 7.5  // $metal1_conn
4 *59:2 *59:12 6.818182  // $metal1_conn
5 *17:s *59:3 62.411572  // $metal1_conn
6 *59:4 *8:s 62.351215  // $metal1_conn
7 *59:5 *6:s 62.328781  // $metal1_conn
8 *59:7 *24:s 62.296654  // $metal1_conn
9 *59:8 *19:s 62.222992  // $metal1_conn
10 *59:10 *35:s 62.26001  // $metal1_conn
11 *59:11 *31:s 62.276463  // $metal1_conn
12 *59:3 *59:4 0.255817  // $metal1_conn
13 *59:4 *59:5 0.225501  // $metal1_conn
14 *59:5 *59:6 0.521869  // $metal1_conn
15 *59:6 *59:7 0.215658  // $metal1_conn
16 *59:7 *59:8 0.511633  // $metal1_conn
17 *59:8 *59:9 0.275896  // $metal1_conn
18 *59:9 *59:10 0.49175  // $metal1_conn
19 *59:10 *59:11 0.396176  // $metal1_conn
20 *59:11 *59:12 0.165459  // $metal1_conn
21 *59:12 *29:s 0.210638  // $metal1_conn

*END

*D_NET *22 0

*CONN
*P *22 I *C 0.1000 0.0000 
*I *1:s B *C 6.8350 0.4600 
*I *3:s B *C 6.8350 0.4600 
*I *7:s B *C 7.7200 0.5075 
*I *9:s B *C 7.7200 0.5075 
*I *15:s B *C 4.8625 0.4075 
*I *61:s B *C 4.8625 0.4075 
*I *64:s B *C 6.1650 0.3350 
*I *65:s B *C 0.1950 0.5300 
*I *66:s B *C 0.6600 0.5025 
*I *68:s B *C 0.6600 0.5025 
*I *69:s B *C 1.5900 0.4725 
*I *70:s B *C 1.5900 0.4725 
*N *22:2 *C 7.2000 0.0000 
*N *22:3 *C 7.2000 0.0000 
*N *22:4 *C 6.7500 0.0000 
*N *22:5 *C 6.1650 0.0000 
*N *22:6 *C 5.2000 0.0000 
*N *22:7 *C 4.8300 0.0000 
*N *22:8 *C 3.2000 0.0000 
*N *22:9 *C 1.5800 0.0000 
*N *22:10 *C 1.1000 0.0000 


*RES
0 *66:s *22 0.042216  // $metal1_conn
1 *22:2 *22:3 6.2  // $metal1_conn
2 *22:2 *22:6 6.2  // $metal1_conn
3 *22:2 *22:8 6.2  // $metal1_conn
4 *22:2 *22:10 5.636364  // $metal1_conn
5 *7:s *22:3 75.549011  // $metal1_conn
6 *22:4 *1:s 75.04586  // $metal1_conn
7 *22:5 *64:s 75.04586  // $metal1_conn
8 *22:7 *15:s 75.236053  // $metal1_conn
9 *22:9 *69:s 75.290359  // $metal1_conn
10 *22:3 *22:4 0.224747  // $metal1_conn
11 *22:4 *22:5 0.291368  // $metal1_conn
12 *22:5 *22:6 0.48327  // $metal1_conn
13 *22:6 *22:7 0.185539  // $metal1_conn
14 *22:7 *22:8 0.818041  // $metal1_conn
15 *22:8 *22:9 0.813021  // $metal1_conn
16 *22:9 *22:10 0.240757  // $metal1_conn
17 *22:10 *66:s 0.253307  // $metal1_conn

*END

*D_NET *54 2.34167e-16

*CONN
*P *54 I *C 6.3000 0.8550 
*I *1:g B *C 6.5675 0.5175 
*I *8:g B *C 6.5875 1.1125 
*N *54:2 *C 6.5775 0.7950 
*N *54:3 *C 6.5300 0.7950 

*CAP
0 *8:g 2.90493e-17
1 *1:g 3.52188e-17
2 *54:3 1.07976e-16
3 *54 6.19226e-17

*RES
0 *8:g *54:2 54.940552  // $poly_conn
1 *54:2 *54:3 47.215244  // $poly_conn
2 *54:2 *1:g 53.658497  // $poly_conn
3 *54:3 *54 0.130484  // $metal1_conn

*END

*D_NET *43 3.24568e-16

*CONN
*P *43 I *C 6.7000 0.6650 
*I *3:g B *C 6.8825 0.4600 
*I *10:g B *C 6.8825 1.2000 
*N *43:2 *C 6.8825 0.7175 
*N *43:3 *C 6.7100 0.6900 

*CAP
0 *10:g 9.39644e-17
1 *3:g 4.55945e-17
2 *43:2 2.8015e-17
3 *43:3 1.06518e-16
4 *43 5.04762e-17

*RES
0 *10:g *43:2 72.565941  // $poly_conn
1 *43:2 *43:3 76.018082  // $poly_conn
2 *43:2 *3:g 31.540302  // $poly_conn
3 *43 *43:3 0.015609  // $metal1_conn

*END

*D_NET *2 1.94281e-16

*CONN
*P *2 I *C 1.3000 0.8550 
*I *69:g B *C 1.2675 0.5025 
*I *31:g B *C 1.2675 1.0075 
*N *2:2 *C 1.3050 0.7800 

*CAP
0 *31:g 3.00566e-17
1 *69:g 2.43847e-17
2 *2:2 1.03224e-16
3 *2 3.66155e-17

*RES
0 *31:g *2:2 21.283424  // $poly_conn
1 *2:2 *69:g 43.078297  // $poly_conn
2 *2 *2:2 45.029072  // $metal1_conn

*END

*D_NET *16 5.96828e-16

*CONN
*P *16 I *C 7.9000 0.8550 
*I *5:g B *C 7.3725 0.4500 
*I *9:g B *C 7.8625 0.5075 
*I *12:g B *C 6.9875 1.2000 
*I *18:g B *C 7.5675 1.2875 
*N *16:2 *C 7.0300 0.8750 
*N *16:4 *C 7.3350 0.6850 
*N *16:6 *C 7.8900 0.7150 
*N *16:8 *C 7.8900 0.7150 

*CAP
0 *18:g 6.45058e-17
1 *12:g 7.52769e-17
2 *9:g 2.36255e-17
3 *5:g 7.17186e-17
4 *16:2 1.07013e-16
5 *16:4 1.21071e-16
6 *16:6 9.66725e-17
7 *16 3.69449e-17

*RES
0 *12:g *16:2 67.526878  // $poly_conn
1 *5:g *16:4 62.437271  // $poly_conn
2 *9:g *16:6 26.102209  // $poly_conn
3 *16:6 *18:g 174.530594  // $poly_conn
4 *16:2 *16:4 0.351321  // $metal1_conn
5 *16:4 *16:8 0.409436  // $metal1_conn
6 *16:8 *16 0.002667  // $metal1_conn
7 *16:6 *16:8 45  // $metal1_conn

*END

*D_NET *21 3.1536e-16

*CONN
*P *21 I *C 7.5000 0.8550 
*I *7:g B *C 7.4775 0.4500 
*I *17:g B *C 7.3625 1.2000 
*N *21:2 *C 7.4400 0.8800 

*CAP
0 *17:g 6.75328e-17
1 *7:g 7.67311e-17
2 *21:2 8.77262e-17
3 *21 8.33699e-17

*RES
0 *7:g *21:2 67.437271  // $poly_conn
1 *21:2 *17:g 32.022385  // $poly_conn
2 *21:2 *21 45.019188  // $metal1_conn

*END

*D_NET *23 9.59543e-16

*CONN
*P *23 I *C 1.7000 0.8550 
*I *15:g B *C 4.7275 0.4075 
*I *70:g B *C 1.6825 0.4725 
*I *24:g B *C 4.6175 1.0550 
*I *32:g B *C 1.6825 1.1950 
*N *23:2 *C 1.7200 0.8450 
*N *23:6 *C 4.5800 1.3100 

*CAP
0 *32:g 4.77936e-17
1 *24:g 6.89201e-17
2 *70:g 3.83933e-17
3 *15:g 5.93134e-17
4 *23:2 4.09463e-16
5 *23:6 3.3566e-16

*RES
0 *32:g *23:2 40.514191  // $poly_conn
1 *23:2 *70:g 59.744961  // $poly_conn
2 *15:g *24:g 116.377098  // $poly_conn
3 *24:g *23:6 61.15522  // $poly_conn
4 *23:6 *23 2.636186  // $metal1_conn
5 *23 *23:2 45.004501  // $metal1_conn

*END

*D_NET *50 1.50176e-16

*CONN
*P *50 O *C 0.5000 1.2350 
*I *65:d B *C 0.3900 0.5300 
*I *66:d B *C 0.3900 0.5300 
*I *28:d B *C 0.4750 1.0950 
*I *29:d B *C 0.4750 1.0950 
*N *50:2 *C 0.4755 1.1600 

*CAP
0 *28:d 7.04801e-17
1 *65:d 4.45092e-17
2 *50 3.5187e-17

*RES
0 *50 *50:2 0.041935  // $metal1_conn
1 *50:2 *65:d 75.412003  // $metal1_conn
2 *28:d *50:2 31  // $metal1_conn

*END

*D_NET *67 0

*CONN
*I *5:s B *C 7.4250 0.4500 
*I *7:d B *C 7.4250 0.4500 


*RES
0 *7:d *5:s 0.001  // $mwires

*END

*D_NET *60 5.54178e-18

*CONN
*I *3:d B *C 6.9875 0.4600 
*I *4:s B *C 6.9875 0.4600 

*CAP
0 *3:d 5.54178e-18

*RES
0 *4:s *3:d 0.001  // $mwires

*END

*D_NET *58 0

*CONN
*I *61:d B *C 5.0700 0.4075 
*I *62:s B *C 5.0700 0.4075 


*RES
0 *62:s *61:d 0.001  // $mwires

*END

*D_NET *57 4.38101e-18

*CONN
*I *14:s B *C 7.2775 1.2000 
*I *17:d B *C 7.2775 1.2000 

*CAP
0 *14:s 4.38101e-18

*RES
0 *17:d *14:s 0.001  // $mwires

*END

*D_NET *56 2.50874e-18

*CONN
*I *10:d B *C 6.9350 1.2000 
*I *12:s B *C 6.9350 1.2000 

*CAP
0 *10:d 2.50874e-18

*RES
0 *12:s *10:d 0.001  // $mwires

*END

*D_NET *55 2.96365e-18

*CONN
*I *25:d B *C 5.1175 1.1550 
*I *26:s B *C 5.1175 1.1550 

*CAP
0 *25:d 2.96365e-18

*RES
0 *26:s *25:d 0.001  // $mwires

*END

*D_NET *53 2.10626e-18

*CONN
*I *19:d B *C 4.2950 1.0550 
*I *20:s B *C 4.2950 1.0550 

*CAP
0 *19:d 2.10626e-18

*RES
0 *20:s *19:d 0.001  // $mwires

*END

*D_NET *52 1.24016e-18

*CONN
*I *33:s B *C 1.9400 1.1950 
*I *35:d B *C 1.9400 1.1950 

*CAP
0 *33:s 1.24016e-18

*RES
0 *35:d *33:s 0.001  // $mwires

*END

*D_NET *51 7.04979e-16

*CONN
*I *65:g B *C 0.2875 0.5300 
*I *66:g B *C 0.4925 0.5300 
*I *68:d B *C 0.8625 0.5025 
*I *71:g B *C 1.8875 0.4725 
*I *28:g B *C 0.3725 1.0950 
*I *29:g B *C 0.5775 1.0950 
*I *30:d B *C 0.8900 1.0550 
*I *33:g B *C 1.8875 1.1950 
*N *51:9 *C 1.2400 1.5200 
*N *51:12 *C 0.9150 1.0550 
*N *51:13 *C 0.9150 0.9050 

*CAP
0 *33:g 1.30527e-16
1 *30:d 5.99143e-17
2 *29:g 1.94909e-16
3 *71:g 7.56796e-17
4 *68:d 6.92651e-17
5 *51:13 5.1027e-17
6 *51:9 1.23658e-16

*RES
0 *33:g *71:g 119.230766  // $poly_conn
1 *33:g *51:9 246.223648  // $poly_conn
2 *51:9 *51:12 0.576883  // $metal1_conn
3 *51:13 *29:g 45.294621  // $metal1_conn
4 *51:13 *68:d 75.299362  // $metal1_conn
5 *30:d *51:12 31  // $metal1_conn
6 *51:12 *51:13 0.112696  // $metal1_conn

*END

*D_NET *49 8.09965e-16

*CONN
*I *68:g B *C 0.7275 0.5025 
*I *73:d B *C 2.8200 0.4475 
*I *74:d B *C 2.8200 0.4475 
*I *30:g B *C 0.7825 1.0550 
*I *37:d B *C 2.9325 1.0650 
*I *39:d B *C 2.9325 1.0650 
*N *49:2 *C 0.7550 0.7150 
*N *49:5 *C 2.8600 0.8100 

*CAP
0 *37:d 7.98276e-17
1 *30:g 4.62062e-17
2 *73:d 6.05466e-17
3 *68:g 3.22875e-17
4 *49:5 3.0792e-16
5 *49:2 2.83177e-16

*RES
0 *30:g *49:2 38.922722  // $poly_conn
1 *49:2 *68:g 19.691952  // $poly_conn
2 *37:d *49:5 31.203146  // $metal1_conn
3 *49:5 *49:2 47.113041  // $metal1_conn
4 *49:5 *73:d 75.163292  // $metal1_conn

*END

*D_NET *48 7.91547e-16

*CONN
*I *11:g B *C 4.3025 0.4075 
*I *69:d B *C 1.1750 0.5025 
*I *72:g B *C 2.0925 0.4725 
*I *19:g B *C 4.2425 1.0550 
*I *31:d B *C 1.1575 1.0075 
*I *35:g B *C 1.9925 1.1950 
*N *48:3 *C 2.0300 1.4500 
*N *48:7 *C 1.1300 0.9950 

*CAP
0 *35:g 7.22938e-17
1 *31:d 1.70447e-16
2 *19:g 1.57036e-16
3 *72:g 7.05478e-17
4 *69:d 7.07187e-17
5 *11:g 4.89234e-17
6 *48:3 2.01581e-16

*RES
0 *11:g *19:g 103.556587  // $poly_conn
1 *19:g *48:3 618.30835  // $poly_conn
2 *48:3 *35:g 16.15522  // $poly_conn
3 *35:g *72:g 133.043762  // $poly_conn
4 *48:3 *48:7 45.96714  // $metal1_conn
5 *48:7 *69:d 75.455299  // $metal1_conn
6 *31:d *48:7 62  // $metal1_conn

*END

*D_NET *47 2.01791e-16

*CONN
*I *32:d B *C 1.7850 1.1950 
*I *33:d B *C 1.7850 1.1950 
*I *37:s B *C 2.6375 1.0650 

*CAP
0 *37:s 1.0805e-16
1 *32:d 9.37419e-17

*RES
0 *37:s *32:d 124.586365  // $metal1_conn

*END

*D_NET *46 1.80895e-16

*CONN
*I *71:d B *C 1.9900 0.4725 
*I *72:d B *C 1.9900 0.4725 
*I *73:s B *C 2.5375 0.4475 

*CAP
0 *73:s 9.09294e-17
1 *71:d 8.99651e-17

*RES
0 *71:d *73:s 150.39035  // $metal1_conn

*END

*D_NET *45 1.46554e-16

*CONN
*I *70:d B *C 1.7850 0.4725 
*I *71:s B *C 1.7850 0.4725 
*I *72:s B *C 2.2125 0.4725 

*CAP
0 *72:s 7.39975e-17
1 *70:d 7.25561e-17

*RES
0 *72:s *70:d 150.368515  // $metal1_conn

*END

*D_NET *44 1.65863e-15

*CONN
*I *1:d B *C 6.4750 0.5175 
*I *63:g B *C 5.3475 0.4075 
*I *64:g B *C 6.0325 0.5175 
*I *73:g B *C 2.6775 0.4475 
*I *6:g B *C 6.0425 1.1675 
*I *8:d B *C 6.4950 1.1125 
*I *26:g B *C 5.2375 1.1550 
*I *39:g B *C 3.0775 1.0650 
*N *44:2 *C 2.6400 0.6500 
*N *44:4 *C 3.0500 0.8000 
*N *44:6 *C 6.0800 0.7100 
*N *44:7 *C 5.3475 0.6825 
*N *44:12 *C 6.0800 0.7100 
*N *44:13 *C 6.0800 1.0250 

*CAP
0 *39:g 3.50713e-17
1 *26:g 5.77933e-17
2 *8:d 4.63845e-17
3 *6:g 3.53433e-17
4 *73:g 3.65464e-17
5 *64:g 2.28539e-17
6 *63:g 2.66229e-17
7 *1:d 6.83646e-17
8 *44:13 4.0067e-16
9 *44:7 6.84422e-17
10 *44:2 1.40539e-16
11 *44:4 5.95041e-16
12 *44:6 1.24956e-16

*RES
0 *73:g *44:2 61.15522  // $poly_conn
1 *39:g *44:4 64.691956  // $poly_conn
2 *6:g *44:6 80.257782  // $poly_conn
3 *44:6 *44:7 172.262466  // $poly_conn
4 *44:7 *26:g 96.252571  // $poly_conn
5 *44:6 *64:g 21.962112  // $poly_conn
6 *44:7 *63:g 42.695988  // $poly_conn
7 *1:d *44:12 75.37558  // $metal1_conn
8 *44:12 *44:13 0.251687  // $metal1_conn
9 *44:13 *44:4 3.291241  // $metal1_conn
10 *44:4 *44:2 0.864018  // $metal1_conn
11 *44:13 *8:d 62.271122  // $metal1_conn
12 *44:6 *44:12 45  // $metal1_conn

*END

*D_NET *42 1.16244e-15

*CONN
*I *62:g B *C 5.1425 0.4075 
*I *64:d B *C 5.9400 0.5175 
*I *74:g B *C 2.9625 0.4475 
*I *6:d B *C 5.9400 1.1675 
*I *27:g B *C 5.5575 1.0900 
*I *37:g B *C 2.7875 1.0650 
*N *42:2 *C 2.9625 0.6575 
*N *42:4 *C 3.4000 0.6850 
*N *42:6 *C 5.1800 0.7300 
*N *42:8 *C 5.5300 0.8250 
*N *42:9 *C 5.5300 1.2200 
*N *42:11 *C 5.9200 1.1200 

*CAP
0 *37:g 4.56286e-17
1 *27:g 3.87075e-17
2 *6:d 9.5989e-17
3 *74:g 2.77246e-17
4 *64:d 8.04424e-17
5 *62:g 4.98283e-17
6 *42:9 1.2728e-16
7 *42:2 5.26811e-17
8 *42:4 2.29299e-16
9 *42:6 3.17204e-16
10 *42:8 9.76591e-17

*RES
0 *74:g *42:2 23.055975  // $poly_conn
1 *42:2 *37:g 90.338562  // $poly_conn
2 *42:2 *42:4 147.131531  // $poly_conn
3 *62:g *42:6 91.924454  // $poly_conn
4 *27:g *42:8 64.691956  // $poly_conn
5 *42:8 *42:9 0.291583  // $metal1_conn
6 *42:9 *42:6 0.660179  // $metal1_conn
7 *42:6 *42:4 1.618047  // $metal1_conn
8 *42:9 *42:11 0.374598  // $metal1_conn
9 *42:11 *64:d 75.463257  // $metal1_conn
10 *6:d *42:11 62  // $metal1_conn

*END

*D_NET *41 8.90454e-16

*CONN
*I *11:d B *C 4.4125 0.4075 
*I *13:d B *C 4.4125 0.4075 
*I *61:g B *C 4.9975 0.4075 
*I *74:s B *C 3.1275 0.4475 
*I *20:d B *C 4.4825 1.0550 
*I *24:d B *C 4.4825 1.0550 
*I *25:g B *C 4.9975 1.1550 
*I *39:s B *C 3.1850 1.0650 
*N *41:2 *C 4.9600 0.8900 
*N *41:5 *C 3.2100 0.8650 
*N *41:7 *C 3.2100 0.4900 
*N *41:9 *C 4.4500 0.9600 

*CAP
0 *39:s 3.22673e-17
1 *25:g 4.29515e-17
2 *20:d 2.02338e-16
3 *74:s 1.38854e-16
4 *61:g 5.63317e-17
5 *11:d 1.52091e-16
6 *41:5 1.37209e-16
7 *41:2 1.28411e-16

*RES
0 *25:g *41:2 18.719322  // $poly_conn
1 *41:2 *61:g 87.950089  // $poly_conn
2 *39:s *41:5 62.087162  // $metal1_conn
3 *41:5 *41:7 0.307134  // $metal1_conn
4 *41:5 *41:9 1.009625  // $metal1_conn
5 *41:7 *11:d 75.926514  // $metal1_conn
6 *41:9 *41:2 45.407005  // $metal1_conn
7 *74:s *41:7 75  // $metal1_conn
8 *20:d *41:9 62  // $metal1_conn

*END

*D_NET *40 4.89482e-16

*CONN
*I *13:g B *C 4.5225 0.4075 
*I *62:d B *C 5.2450 0.4075 
*I *63:s B *C 5.2450 0.4075 
*I *20:g B *C 4.3475 1.0550 
*I *26:d B *C 5.4850 1.0900 
*I *27:d B *C 5.4850 1.0900 
*N *40:2 *C 4.5125 0.6100 
*N *40:4 *C 4.5800 0.6100 
*N *40:6 *C 5.2450 0.5700 

*CAP
0 *26:d 8.54894e-17
1 *20:g 9.45965e-17
2 *62:d 1.83978e-17
3 *13:g 3.32688e-17
4 *40:6 1.08766e-16
5 *40:2 6.53838e-17
6 *40:4 8.35802e-17

*RES
0 *13:g *40:2 37.785091  // $poly_conn
1 *40:2 *20:g 116.304016  // $poly_conn
2 *40:2 *40:4 46.858204  // $poly_conn
3 *26:d *40:6 62.472637  // $metal1_conn
4 *40:6 *40:4 0.530372  // $metal1_conn
5 *40:6 *62:d 75.066696  // $metal1_conn

*END

*D_NET *38 1.36399e-16

*CONN
*I *11:s B *C 4.2100 0.4075 
*I *13:s B *C 4.6250 0.4075 
*I *15:d B *C 4.6250 0.4075 

*CAP
0 *13:s 6.55153e-17
1 *11:s 7.08833e-17

*RES
0 *13:s *11:s 150.310669  // $metal1_conn

*END

*D_NET *36 5.85408e-16

*CONN
*I *4:d B *C 7.3000 0.4500 
*I *5:d B *C 7.3000 0.4500 
*I *63:d B *C 5.4800 0.4075 
*I *12:d B *C 7.0900 1.2000 
*I *14:d B *C 7.0900 1.2000 
*I *27:s B *C 5.6800 1.0900 
*N *36:2 *C 6.8700 0.3800 
*N *36:4 *C 5.5300 0.4000 

*CAP
0 *27:s 7.61058e-17
1 *12:d 1.14015e-16
2 *63:d 1.51556e-16
3 *4:d 3.88414e-17
4 *36:2 2.04889e-16

*RES
0 *12:d *36:2 21.387016  // $metal1_conn
1 *36:2 *36:4 0.971946  // $metal1_conn
2 *36:2 *4:d 75.19931  // $metal1_conn
3 *36:4 *27:s 62.531525  // $metal1_conn
4 *63:d *36:4 75  // $metal1_conn

*END

*D_NET *34 4.69011e-16

*CONN
*I *4:g B *C 7.0925 0.4600 
*I *9:d B *C 7.9550 0.5075 
*I *14:g B *C 7.1925 1.2000 
*I *18:d B *C 7.6600 1.2875 
*N *34:2 *C 7.2200 0.9050 
*N *34:5 *C 8.0700 1.1450 

*CAP
0 *18:d 2.91858e-17
1 *14:g 4.76384e-17
2 *9:d 6.59178e-17
3 *4:g 7.48871e-17
4 *34:5 9.87755e-17
5 *34:2 1.52607e-16

*RES
0 *14:g *34:2 16.15522  // $poly_conn
1 *34:2 *4:g 82.532318  // $poly_conn
2 *9:d *34:5 75.512177  // $metal1_conn
3 *34:5 *34:2 45.771965  // $metal1_conn
4 *34:5 *18:d 62.412312  // $metal1_conn

*END

