*SPEF "IEEE 1481-1999"
*DESIGN  "SDFFSRXL"
*DATE "Mon Sep 27 11:08:38 2010"
*VENDOR "Cadence Design Systems"
*PROGRAM "Assura RCX"
*VERSION "3.2 Red Hat Linux release 7.2 (Enigma) - (09/09/2009-10:39)"
*DESIGN_FLOW "Physical Verification"
*DIVIDER /
*DELIMITER :
*BUS_DELIMITER []
*T_UNIT 1 PS
*C_UNIT 1e15 FF
*R_UNIT 1 OHM
*L_UNIT 1 MH
// DeviceFingerDelim "@"
// MATCHED
// caps2d version: 10

*NAME_MAP
*1 mn50
*2 n11
*3 n35
*4 qbint
*5 RNb
*6 net573
*7 n9
*8 n5
*9 n7
*10 mn52
*11 n1
*12 mn51
*13 n3
*14 mn53
*15 mn40
*16 n6
*17 n0
*18 n2
*19 mp35
*20 mp36
*21 mp25
*22 mp21
*23 mp57
*24 mp56
*25 mp55
*26 mp22
*27 mp45
*28 mp50
*29 mp52
*30 mp51
*31 VDD
*32 mp53
*33 mp40
*34 mn20
*35 mn11
*36 mp20
*37 mn12
*38 QN
*39 mp11
*40 mn14
*41 VSS
*42 mp12
*43 mn13
*44 mp14
*45 mn10
*46 mp13
*47 mn31
*48 mp10
*49 mn32
*50 mp31
*51 mn30
*52 mp32
*53 mp30
*54 D
*55 CK
*56 RN
*57 Q
*58 SE
*59 SI
*60 SN
*61 SEb
*62 CKbb
*63 Db
*64 n20
*65 n4
*66 mout
*67 CKb
*68 mn35
*69 n10
*70 mn36
*71 n8
*72 mn25
*73 mn21
*74 mn57
*75 mn56
*76 mn55
*77 mn22
*78 mn45

*GROUND_NETS VSS

*PORTS
*31 I
*41 I
*55 I
*54 I
*56 I
*58 I
*59 I
*60 I
*57 O
*38 O

*D_NET *31 9.70828e-16

*CONN
*P *31 I *C 0.1000 1.7100 
*I *36:s B *C 6.3600 1.2575 
*I *39:s B *C 6.3600 1.2575 
*I *46:s B *C 7.1700 1.2575 
*I *48:s B *C 7.1700 1.2575 
*I *50:s B *C 3.8775 1.0975 
*I *53:s B *C 4.7000 1.1375 
*I *19:s B *C 4.7000 1.1375 
*I *22:s B *C 5.6450 1.1950 
*I *23:s B *C 0.4850 1.0075 
*I *24:s B *C 0.4850 1.0075 
*I *25:s B *C 1.1750 1.2425 
*I *26:s B *C 1.1750 1.2425 
*I *27:s B *C 2.0850 1.0925 
*I *28:s B *C 2.0850 1.0925 
*I *30:s B *C 2.6700 1.3075 
*N *31:2 *C 6.6000 1.7100 
*N *31:3 *C 6.6000 1.7100 
*N *31:4 *C 6.3300 1.7100 
*N *31:5 *C 5.6150 1.7100 
*N *31:6 *C 4.7000 1.7100 
*N *31:7 *C 4.6150 1.7100 
*N *31:8 *C 3.6700 1.7100 
*N *31:9 *C 2.9000 1.7100 
*N *31:10 *C 2.6400 1.7100 
*N *31:11 *C 2.0000 1.7100 
*N *31:12 *C 1.1750 1.7100 
*N *31:13 *C 1.0000 1.7100 
*N *31:14 *C 0.4850 1.7100 

*CAP
0 *30:s 2.06317e-17
1 *27:s 1.00664e-17
2 *25:s 2.751e-17
3 *23:s 3.37078e-17
4 *22:s 3.54612e-17
5 *53:s 1.16073e-17
6 *50:s 2.13599e-17
7 *46:s 4.8055e-17
8 *36:s 3.65394e-17
9 *31:14 9.01811e-18
10 *31:12 1.78652e-17
11 *31:11 2.90468e-17
12 *31:10 1.67183e-17
13 *31:8 3.90216e-17
14 *31:7 6.0264e-17
15 *31:5 2.79119e-17
16 *31:4 1.46548e-17
17 *31:2 5.05628e-16
18 *31 5.76099e-18

*RES
0 *46:s *31:3 62.576443  // $metal1_conn
1 *31:3 *31:4 0.135227  // $metal1_conn
2 *31:4 *31:5 0.358228  // $metal1_conn
3 *31:5 *31:6 0.458737  // $metal1_conn
4 *31:6 *31:7 0.042508  // $metal1_conn
5 *31:7 *31:8 0.472639  // $metal1_conn
6 *31:8 *31:9 0.38506  // $metal1_conn
7 *31:9 *31:10 0.130211  // $metal1_conn
8 *31:10 *31:11 0.32061  // $metal1_conn
9 *31:11 *31:12 0.4134  // $metal1_conn
10 *31:12 *31:13 0.087578  // $metal1_conn
11 *31:13 *31:14 0.258111  // $metal1_conn
12 *31:14 *31 0.192656  // $metal1_conn
13 *31:4 *36:s 62.248135  // $metal1_conn
14 *31:5 *22:s 62.201729  // $metal1_conn
15 *31:7 *53:s 62.07473  // $metal1_conn
16 *31:8 *50:s 62.045826  // $metal1_conn
17 *31:10 *30:s 62.097355  // $metal1_conn
18 *31:11 *27:s 62.07473  // $metal1_conn
19 *31:12 *25:s 62.266296  // $metal1_conn
20 *31:14 *23:s 62.418884  // $metal1_conn
21 *31:2 *31:3 7.5  // $metal1_conn
22 *31:2 *31:6 8.333333  // $metal1_conn
23 *31:2 *31:9 8.333333  // $metal1_conn
24 *31:2 *31:13 7.5  // $metal1_conn

*END

*D_NET *41 0

*CONN
*P *41 I *C 0.1000 0.0000 
*I *34:s B *C 6.4150 0.4725 
*I *35:s B *C 6.4150 0.4725 
*I *43:s B *C 7.1700 0.4725 
*I *45:s B *C 7.1700 0.4725 
*I *51:s B *C 4.6000 0.5525 
*I *68:s B *C 4.6000 0.5525 
*I *73:s B *C 5.5800 0.3450 
*I *74:s B *C 0.5350 0.4525 
*I *75:s B *C 0.5350 0.4525 
*I *76:s B *C 1.2025 0.5875 
*I *77:s B *C 1.2025 0.5875 
*I *78:s B *C 2.0850 0.4925 
*I *1:s B *C 2.0850 0.4925 
*N *41:2 *C 6.6000 0.0000 
*N *41:3 *C 6.6000 0.0000 
*N *41:4 *C 6.3600 0.0000 
*N *41:5 *C 5.5800 0.0000 
*N *41:6 *C 4.7000 0.0000 
*N *41:7 *C 4.5850 0.0000 
*N *41:8 *C 2.9000 0.0000 
*N *41:9 *C 2.0000 0.0000 
*N *41:10 *C 1.1750 0.0000 
*N *41:11 *C 1.0000 0.0000 
*N *41:12 *C 0.5150 0.0000 


*RES
0 *43:s *41:3 75.615051  // $metal1_conn
1 *41:3 *41:4 0.12018  // $metal1_conn
2 *41:4 *41:5 0.38988  // $metal1_conn
3 *41:5 *41:6 0.440233  // $metal1_conn
4 *41:6 *41:7 0.057484  // $metal1_conn
5 *41:7 *41:8 0.844944  // $metal1_conn
6 *41:8 *41:9 0.451017  // $metal1_conn
7 *41:9 *41:10 0.412451  // $metal1_conn
8 *41:10 *41:11 0.087578  // $metal1_conn
9 *41:11 *41:12 0.243064  // $metal1_conn
10 *41:12 *41 0.207703  // $metal1_conn
11 *41:4 *34:s 75.221405  // $metal1_conn
12 *41:5 *73:s 75.045822  // $metal1_conn
13 *41:7 *51:s 75.356514  // $metal1_conn
14 *41:9 *78:s 75.045822  // $metal1_conn
15 *41:10 *76:s 75.392151  // $metal1_conn
16 *41:12 *74:s 75.07473  // $metal1_conn
17 *41:2 *41:3 6.2  // $metal1_conn
18 *41:2 *41:6 6.888889  // $metal1_conn
19 *41:2 *41:8 6.888889  // $metal1_conn
20 *41:2 *41:11 6.2  // $metal1_conn

*END

*D_NET *55 2.23365e-16

*CONN
*P *55 I *C 5.9000 1.0450 
*I *34:g B *C 6.1875 0.5675 
*I *36:g B *C 6.2575 1.2575 
*N *55:2 *C 6.2150 1.0350 

*CAP
0 *36:g 2.44952e-17
1 *34:g 4.63245e-17
2 *55:2 8.40123e-17
3 *55 6.85332e-17

*RES
0 *36:g *55:2 20.079733  // $poly_conn
1 *55:2 *34:g 89.606964  // $poly_conn
2 *55:2 *55 45.18885  // $metal1_conn

*END

*D_NET *54 2.35078e-16

*CONN
*P *54 I *C 6.3000 0.8550 
*I *35:g B *C 6.4625 0.4725 
*I *39:g B *C 6.4625 1.2575 
*N *54:2 *C 6.4250 0.8750 

*CAP
0 *39:g 4.43059e-17
1 *35:g 3.99947e-17
2 *54:2 1.23264e-16
3 *54 2.75132e-17

*RES
0 *39:g *54:2 61.027016  // $poly_conn
1 *54:2 *35:g 75.129578  // $poly_conn
2 *54 *54:2 45.062714  // $metal1_conn

*END

*D_NET *56 2.36375e-16

*CONN
*P *56 I *C 1.3000 1.0450 
*I *77:g B *C 1.3325 0.5875 
*I *26:g B *C 1.2775 1.2425 
*N *56:2 *C 1.3050 1.0250 
*N *56:4 *C 1.3050 1.0250 

*CAP
0 *26:g 2.72727e-17
1 *77:g 4.35805e-17
2 *56:2 3.2683e-17
3 *56 1.32839e-16

*RES
0 *77:g *56:2 85.076569  // $poly_conn
1 *56:2 *26:g 19.691952  // $poly_conn
2 *56:4 *56 0.003663  // $metal1_conn
3 *56:2 *56:4 45  // $metal1_conn

*END

*D_NET *58 4.99494e-16

*CONN
*P *58 I *C 7.3000 0.6650 
*I *40:g B *C 6.9625 0.4725 
*I *45:g B *C 7.2725 0.4725 
*I *42:g B *C 6.7175 1.2575 
*I *48:g B *C 7.2725 1.2575 
*N *58:2 *C 6.7450 0.9400 
*N *58:4 *C 6.9250 0.6550 
*N *58:6 *C 7.3050 0.6550 

*CAP
0 *48:g 4.74395e-17
1 *42:g 4.28246e-17
2 *45:g 2.43336e-17
3 *40:g 6.31953e-17
4 *58:2 9.29628e-17
5 *58:4 1.22729e-16
6 *58:6 1.06009e-16

*RES
0 *42:g *58:2 90.332977  // $poly_conn
1 *40:g *58:4 62.398674  // $poly_conn
2 *48:g *58:6 117.437271  // $poly_conn
3 *58:6 *45:g 18.719322  // $poly_conn
4 *58:4 *58:2 0.309868  // $metal1_conn
5 *58:4 *58 0.268382  // $metal1_conn
6 *58 *58:6 45.002407  // $metal1_conn

*END

*D_NET *59 2.79738e-16

*CONN
*P *59 I *C 7.1000 0.8550 
*I *43:g B *C 7.0675 0.4725 
*I *46:g B *C 7.0675 1.2575 
*N *59:2 *C 7.0950 0.8450 
*N *59:4 *C 7.0950 0.8450 

*CAP
0 *46:g 5.97174e-17
1 *43:g 6.87271e-17
2 *59:2 6.36962e-17
3 *59 8.75977e-17

*RES
0 *46:g *59:2 69.691948  // $poly_conn
1 *59:2 *43:g 68.409897  // $poly_conn
2 *59:4 *59 0.001898  // $metal1_conn
3 *59:2 *59:4 45  // $metal1_conn

*END

*D_NET *60 8.5869e-16

*CONN
*P *60 I *C 2.3000 0.8550 
*I *51:g B *C 4.4825 0.5525 
*I *1:g B *C 2.1325 0.4925 
*I *53:g B *C 4.4825 1.0975 
*I *28:g B *C 2.1325 1.0925 
*N *60:2 *C 2.1600 0.8650 
*N *60:5 *C 4.4250 1.3700 

*CAP
0 *28:g 4.20792e-17
1 *53:g 5.32753e-17
2 *1:g 5.82938e-17
3 *51:g 6.79188e-17
4 *60:2 6.56601e-17
5 *60:5 2.83105e-16
6 *60 2.88358e-16

*RES
0 *28:g *60:2 22.256054  // $poly_conn
1 *60:2 *1:g 68.409897  // $poly_conn
2 *53:g *60:5 79.78154  // $poly_conn
3 *53:g *51:g 93.589745  // $poly_conn
4 *60:5 *60 1.974967  // $metal1_conn
5 *60 *60:2 45.103245  // $metal1_conn

*END

*D_NET *57 1.42498e-16

*CONN
*P *57 O *C 0.9000 0.6650 
*I *76:d B *C 0.9775 0.5875 
*I *25:d B *C 0.9500 1.2425 
*N *57:3 *C 0.9650 0.5750 

*CAP
0 *25:d 5.79897e-17
1 *76:d 3.76051e-17
2 *57 4.69034e-17

*RES
0 *25:d *57 62.401569  // $metal1_conn
1 *57 *57:3 0.046685  // $metal1_conn
2 *76:d *57:3 75  // $metal1_conn

*END

*D_NET *38 9.93495e-17

*CONN
*P *38 O *C 0.1000 0.6650 
*I *74:d B *C 0.2900 0.4525 
*I *23:d B *C 0.2900 1.0075 
*N *38:2 *C 0.2350 0.6650 

*CAP
0 *23:d 2.62324e-17
1 *74:d 2.04992e-17
2 *38:2 3.47314e-17
3 *38 1.78866e-17

*RES
0 *23:d *38:2 62.195438  // $metal1_conn
1 *38:2 *38 0.028787  // $metal1_conn
2 *38:2 *74:d 75.123917  // $metal1_conn

*END

*D_NET *18 0

*CONN
*I *40:s B *C 7.0150 0.4725 
*I *43:d B *C 7.0150 0.4725 


*RES
0 *43:d *40:s 0.001  // $mwires

*END

*D_NET *17 5.49257e-18

*CONN
*I *35:d B *C 6.6100 0.4725 
*I *37:s B *C 6.6100 0.4725 

*CAP
0 *35:d 5.49257e-18

*RES
0 *37:s *35:d 0.001  // $mwires

*END

*D_NET *16 0

*CONN
*I *68:d B *C 4.7700 0.5525 
*I *70:s B *C 4.7700 0.5525 


*RES
0 *70:s *68:d 0.001  // $mwires

*END

*D_NET *13 0

*CONN
*I *44:s B *C 7.0000 1.2575 
*I *46:d B *C 7.0000 1.2575 


*RES
0 *46:d *44:s 0.001  // $mwires

*END

*D_NET *11 5.4715e-18

*CONN
*I *39:d B *C 6.5900 1.2575 
*I *42:s B *C 6.5900 1.2575 

*CAP
0 *39:d 5.4715e-18

*RES
0 *42:s *39:d 0.001  // $mwires

*END

*D_NET *9 0

*CONN
*I *19:d B *C 4.8000 1.1375 
*I *20:s B *C 4.8000 1.1375 


*RES
0 *20:s *19:d 0.001  // $mwires

*END

*D_NET *8 2.84778e-18

*CONN
*I *50:d B *C 4.1625 1.0975 
*I *52:s B *C 4.1625 1.0975 

*CAP
0 *50:d 2.84778e-18

*RES
0 *52:s *50:d 0.001  // $mwires

*END

*D_NET *7 1.57439e-18

*CONN
*I *29:s B *C 2.3900 1.0925 
*I *30:d B *C 2.3900 1.0925 

*CAP
0 *29:s 1.57439e-18

*RES
0 *30:d *29:s 0.001  // $mwires

*END

*D_NET *6 2.19418e-16

*CONN
*I *74:g B *C 0.3825 0.4525 
*I *75:d B *C 0.6800 0.4525 
*I *23:g B *C 0.3825 1.0075 
*I *24:d B *C 0.6800 1.0075 
*N *6:2 *C 0.4200 0.7700 
*N *6:5 *C 0.6800 0.7600 

*CAP
0 *24:d 2.92521e-17
1 *23:g 2.76023e-17
2 *75:d 3.18262e-17
3 *74:g 3.73679e-17
4 *6:5 3.61455e-17
5 *6:2 5.72236e-17

*RES
0 *23:g *6:2 23.847527  // $poly_conn
1 *6:2 *74:g 53.334705  // $poly_conn
2 *24:d *6:5 62.123802  // $metal1_conn
3 *6:5 *6:2 45.137566  // $metal1_conn
4 *6:5 *75:d 75.195862  // $metal1_conn

*END

*D_NET *5 8.75771e-16

*CONN
*I *47:g B *C 4.0475 0.5525 
*I *77:d B *C 1.4675 0.5875 
*I *12:g B *C 2.7575 0.4925 
*I *50:g B *C 4.0475 1.0975 
*I *26:d B *C 1.3700 1.2425 
*I *30:g B *C 2.4425 1.0925 
*N *5:3 *C 2.4800 1.3500 
*N *5:5 *C 3.8400 1.3700 
*N *5:7 *C 1.5200 1.2900 

*CAP
0 *30:g 8.64441e-17
1 *26:d 3.08302e-17
2 *50:g 6.4867e-17
3 *12:g 4.81796e-17
4 *77:d 8.71813e-17
5 *47:g 4.73565e-17
6 *5:7 1.07349e-16
7 *5:3 2.43324e-16
8 *5:5 1.6024e-16

*RES
0 *12:g *30:g 176.633514  // $poly_conn
1 *30:g *5:3 73.975731  // $poly_conn
2 *50:g *5:5 119.034348  // $poly_conn
3 *50:g *47:g 93.589745  // $poly_conn
4 *5:5 *5:3 1.064522  // $metal1_conn
5 *5:3 *5:7 0.679053  // $metal1_conn
6 *5:7 *26:d 62.072876  // $metal1_conn
7 *5:7 *77:d 75.498215  // $metal1_conn

*END

*D_NET *4 7.30355e-16

*CONN
*I *75:g B *C 0.5875 0.4525 
*I *76:g B *C 1.0725 0.5875 
*I *78:d B *C 1.7750 0.4925 
*I *10:g B *C 2.3375 0.4925 
*I *24:g B *C 0.5875 1.0075 
*I *25:g B *C 1.0725 1.2425 
*I *27:d B *C 1.7750 1.0925 
*I *29:g B *C 2.3375 1.0925 
*N *4:2 *C 1.1000 0.7700 
*N *4:3 *C 0.5875 0.7375 
*N *4:9 *C 2.2750 0.3200 
*N *4:10 *C 1.7650 0.3200 
*N *4:12 *C 1.7650 0.4800 

*CAP
0 *29:g 9.34341e-17
1 *27:d 5.46159e-17
2 *25:g 4.18671e-17
3 *24:g 2.3961e-17
4 *10:g 4.5846e-17
5 *78:d 5.01021e-17
6 *76:g 1.48795e-17
7 *75:g 3.42224e-17
8 *4:10 9.79797e-17
9 *4:3 2.98508e-17
10 *4:2 1.57984e-16
11 *4:9 8.56128e-17

*RES
0 *25:g *4:2 81.91465  // $poly_conn
1 *4:2 *4:3 117.416321  // $poly_conn
2 *4:3 *75:g 52.9524  // $poly_conn
3 *4:2 *76:g 16.322462  // $poly_conn
4 *4:3 *24:g 40.131889  // $poly_conn
5 *29:g *10:g 107.692307  // $poly_conn
6 *10:g *4:9 70.713776  // $poly_conn
7 *4:9 *4:10 0.367953  // $metal1_conn
8 *4:10 *4:2 45.815273  // $metal1_conn
9 *4:10 *4:12 0.086625  // $metal1_conn
10 *4:12 *27:d 62.443691  // $metal1_conn
11 *78:d *4:12 75  // $metal1_conn

*END

*D_NET *3 5.01302e-16

*CONN
*I *78:g B *C 1.8675 0.4925 
*I *14:d B *C 3.2800 0.5875 
*I *15:d B *C 3.2800 0.5875 
*I *27:g B *C 1.8675 1.0925 
*I *32:d B *C 3.3275 1.0925 
*I *33:d B *C 3.3275 1.0925 
*N *3:2 *C 1.8950 0.6850 
*N *3:5 *C 3.2800 0.8200 

*CAP
0 *32:d 4.45129e-17
1 *27:g 4.17156e-17
2 *14:d 3.80769e-17
3 *78:g 3.15486e-17
4 *3:5 1.7072e-16
5 *3:2 1.74728e-16

*RES
0 *27:g *3:2 68.409897  // $poly_conn
1 *3:2 *78:g 22.256054  // $poly_conn
2 *14:d *3:5 75.180283  // $metal1_conn
3 *3:5 *3:2 46.131954  // $metal1_conn
4 *3:5 *32:d 62.168789  // $metal1_conn

*END

*D_NET *2 2.24335e-16

*CONN
*I *28:d B *C 2.2350 1.0925 
*I *29:d B *C 2.2350 1.0925 
*I *32:s B *C 3.0325 1.0925 

*CAP
0 *32:s 1.14605e-16
1 *28:d 1.0973e-16

*RES
0 *32:s *28:d 124.417336  // $metal1_conn

*END

*D_NET *71 1.6778e-16

*CONN
*I *1:d B *C 2.2350 0.4925 
*I *10:s B *C 2.2350 0.4925 
*I *12:s B *C 2.8575 0.4925 

*CAP
0 *12:s 7.74806e-17
1 *1:d 9.02991e-17

*RES
0 *1:d *12:s 150.609146  // $metal1_conn

*END

*D_NET *69 1.4791e-16

*CONN
*I *10:d B *C 2.5475 0.4925 
*I *12:d B *C 2.5475 0.4925 
*I *14:s B *C 3.0850 0.5875 

*CAP
0 *14:s 7.03726e-17
1 *10:d 7.75377e-17

*RES
0 *14:s *10:d 150.307434  // $metal1_conn

*END

*D_NET *67 1.18394e-15

*CONN
*I *34:d B *C 6.0275 0.5675 
*I *72:g B *C 5.0425 0.5525 
*I *73:g B *C 5.4475 0.5375 
*I *14:g B *C 3.1775 0.5875 
*I *36:d B *C 6.1650 1.2575 
*I *20:g B *C 4.8525 1.1375 
*I *22:g B *C 5.5125 1.0625 
*I *33:g B *C 3.4375 1.0925 
*N *67:2 *C 3.2150 0.2600 
*N *67:3 *C 3.9050 0.8900 
*N *67:4 *C 3.5250 0.8600 
*N *67:7 *C 4.8900 1.4550 
*N *67:9 *C 5.4850 0.7600 
*N *67:13 *C 5.6450 0.7300 
*N *67:14 *C 5.6450 1.2150 
*N *67:15 *C 4.8900 1.3800 

*CAP
0 *33:g 3.24216e-17
1 *22:g 2.13376e-17
2 *20:g 7.38854e-17
3 *36:d 6.87033e-17
4 *14:g 4.24126e-17
5 *73:g 2.11174e-17
6 *72:g 5.11711e-17
7 *34:d 4.69767e-17
8 *67:15 1.48459e-16
9 *67:14 1.15167e-16
10 *67:13 4.14033e-17
11 *67:2 9.31348e-17
12 *67:4 1.464e-16
13 *67:3 1.75609e-16
14 *67:7 4.39322e-17
15 *67:9 6.18138e-17

*RES
0 *14:g *67:2 100.898804  // $poly_conn
1 *67:3 *67:4 123.652924  // $poly_conn
2 *67:4 *33:g 33.008705  // $poly_conn
3 *20:g *67:7 89.360352  // $poly_conn
4 *22:g *67:9 38.324913  // $poly_conn
5 *67:9 *72:g 123.061714  // $poly_conn
6 *67:9 *73:g 28.197086  // $poly_conn
7 *67:4 *67:2 45.669395  // $metal1_conn
8 *34:d *67:13 75.332527  // $metal1_conn
9 *67:13 *67:14 0.339296  // $metal1_conn
10 *67:14 *67:15 0.644361  // $metal1_conn
11 *67:15 *67:3 1.017672  // $metal1_conn
12 *67:13 *67:9 45.083195  // $metal1_conn
13 *67:14 *36:d 62.373592  // $metal1_conn
14 *67:15 *67:7 0.022608  // $metal1_conn

*END

*D_NET *66 5.60229e-16

*CONN
*I *47:d B *C 4.1625 0.5525 
*I *49:d B *C 4.1625 0.5525 
*I *68:g B *C 4.7175 0.5525 
*I *15:s B *C 3.5325 0.5875 
*I *52:d B *C 4.3800 1.0975 
*I *53:d B *C 4.3800 1.0975 
*I *19:g B *C 4.7475 1.1375 
*I *33:s B *C 3.5300 1.0925 
*N *66:2 *C 4.6800 0.8900 
*N *66:4 *C 4.3500 0.8900 
*N *66:5 *C 4.1500 0.7000 
*N *66:6 *C 3.7150 0.7000 

*CAP
0 *33:s 6.96691e-17
1 *19:g 6.75033e-17
2 *52:d 3.42461e-17
3 *15:s 4.06846e-17
4 *68:g 6.59282e-17
5 *47:d 2.55315e-17
6 *66:6 5.15919e-17
7 *66:5 5.53464e-17
8 *66:4 4.81705e-17
9 *66:2 1.01557e-16

*RES
0 *19:g *66:2 37.074333  // $poly_conn
1 *66:2 *68:g 59.932522  // $poly_conn
2 *66:2 *66:4 45.259174  // $metal1_conn
3 *66:4 *66:5 0.287644  // $metal1_conn
4 *66:5 *66:6 0.307945  // $metal1_conn
5 *66:6 *33:s 62.362228  // $metal1_conn
6 *66:4 *52:d 62.083195  // $metal1_conn
7 *66:5 *47:d 75.095161  // $metal1_conn
8 *66:6 *15:s 75.156921  // $metal1_conn

*END

*D_NET *65 1.34908e-16

*CONN
*I *47:s B *C 3.9550 0.5525 
*I *49:s B *C 4.3800 0.5525 
*I *51:d B *C 4.3800 0.5525 

*CAP
0 *49:s 6.53186e-17
1 *47:s 6.95894e-17

*RES
0 *49:s *47:s 150.487305  // $metal1_conn

*END

*D_NET *64 3.3887e-16

*CONN
*I *49:g B *C 4.2775 0.5525 
*I *70:d B *C 4.9325 0.5525 
*I *72:s B *C 4.9325 0.5525 
*I *52:g B *C 4.2775 1.0975 
*I *20:d B *C 4.9550 1.1375 
*I *21:d B *C 4.9550 1.1375 
*N *64:1 *C 4.3400 0.7300 
*N *64:2 *C 4.2775 0.7300 
*N *64:6 *C 4.9250 0.7300 

*CAP
0 *20:d 4.38783e-17
1 *52:g 5.11536e-17
2 *70:d 2.56564e-17
3 *49:g 3.84718e-17
4 *64:6 5.39003e-17
5 *64:2 4.3655e-17
6 *64:1 8.21545e-17

*RES
0 *64:1 *64:2 46.294373  // $poly_conn
1 *64:2 *49:g 21.845535  // $poly_conn
2 *64:2 *52:g 61.589127  // $poly_conn
3 *70:d *64:6 75.122375  // $metal1_conn
4 *64:6 *64:1 0.417796  // $metal1_conn
5 *64:6 *20:d 62.269974  // $metal1_conn

*END

*D_NET *63 5.86528e-16

*CONN
*I *37:d B *C 6.8600 0.4725 
*I *40:d B *C 6.8600 0.4725 
*I *72:d B *C 5.1350 0.5525 
*I *42:d B *C 6.8250 1.2575 
*I *44:d B *C 6.8250 1.2575 
*I *21:s B *C 5.1500 1.1375 
*N *63:2 *C 6.5850 0.5250 
*N *63:4 *C 5.1450 0.5400 

*CAP
0 *21:s 7.59322e-17
1 *42:d 8.34135e-17
2 *72:d 1.72504e-16
3 *37:d 4.87399e-17
4 *63:2 2.05938e-16

*RES
0 *37:d *63:2 75.235466  // $metal1_conn
1 *63:2 *63:4 1.204654  // $metal1_conn
2 *63:2 *42:d 62.663437  // $metal1_conn
3 *63:4 *21:s 62.432755  // $metal1_conn
4 *72:d *63:4 75  // $metal1_conn

*END

*D_NET *62 5.8196e-16

*CONN
*I *70:g B *C 4.8225 0.5525 
*I *73:d B *C 5.3550 0.5375 
*I *15:g B *C 3.3825 0.5875 
*I *21:g B *C 5.0575 1.1375 
*I *22:d B *C 5.4200 1.0625 
*I *32:g B *C 3.2175 1.0925 
*N *62:1 *C 5.3050 0.8550 
*N *62:2 *C 5.0575 0.8825 

*CAP
0 *32:g 6.91925e-17
1 *22:d 4.85866e-17
2 *21:g 3.55843e-17
3 *15:g 9.67206e-17
4 *73:d 5.51524e-17
5 *70:g 1.54504e-16
6 *62:2 3.91188e-17
7 *62:1 8.31006e-17

*RES
0 *62:1 *62:2 95.440231  // $poly_conn
1 *62:2 *70:g 113.227036  // $poly_conn
2 *70:g *15:g 470.223236  // $poly_conn
3 *15:g *32:g 101.98497  // $poly_conn
4 *62:2 *21:g 36.285732  // $poly_conn
5 *22:d *62:1 62.121555  // $metal1_conn
6 *62:1 *73:d 75.181648  // $metal1_conn

*END

*D_NET *61 3.96679e-16

*CONN
*I *37:g B *C 6.7575 0.4725 
*I *45:d B *C 7.3650 0.4725 
*I *44:g B *C 6.9325 1.2575 
*I *48:d B *C 7.3650 1.2575 
*N *61:2 *C 6.9050 1.0400 
*N *61:5 *C 7.3750 1.1150 

*CAP
0 *48:d 1.19695e-17
1 *44:g 4.33005e-17
2 *45:d 6.46556e-17
3 *37:g 7.07891e-17
4 *61:5 7.86741e-17
5 *61:2 1.2729e-16

*RES
0 *44:g *61:2 19.691952  // $poly_conn
1 *61:2 *37:g 151.453674  // $poly_conn
2 *45:d *61:5 75.60862  // $metal1_conn
3 *61:5 *61:2 45.395638  // $metal1_conn
4 *61:5 *48:d 62.049511  // $metal1_conn

*END

