*SPEF "IEEE 1481-1999"
*DESIGN  "SDFFNSRXL"
*DATE "Mon Sep 27 10:59:28 2010"
*VENDOR "Cadence Design Systems"
*PROGRAM "Assura RCX"
*VERSION "3.2 Red Hat Linux release 7.2 (Enigma) - (09/09/2009-10:39)"
*DESIGN_FLOW "Physical Verification"
*DIVIDER /
*DELIMITER :
*BUS_DELIMITER []
*T_UNIT 1 PS
*C_UNIT 1e15 FF
*R_UNIT 1 OHM
*L_UNIT 1 MH
// DeviceFingerDelim "@"
// MATCHED
// caps2d version: 10

*NAME_MAP
*1 mn50
*2 net566
*3 n35
*4 RNb
*5 qbint
*6 qint
*7 net414
*8 net478
*9 net486
*10 mn52
*11 net461
*12 mn51
*13 net453
*14 mn53
*15 mn40
*16 CKN
*17 net582
*18 net546
*19 net538
*20 mp35
*21 mp36
*22 mp25
*23 mp21
*24 mp57
*25 mp56
*26 mp55
*27 mp22
*28 mp45
*29 mp50
*30 mp52
*31 mp51
*32 VDD
*33 mp53
*34 mp40
*35 mn20
*36 mn11
*37 mp20
*38 mn12
*39 QN
*40 mp11
*41 mn14
*42 VSS
*43 mp12
*44 mn13
*45 mp14
*46 mn10
*47 mp13
*48 mn31
*49 mp10
*50 mn32
*51 mp31
*52 mn30
*53 mp32
*54 mp30
*55 D
*56 RN
*57 Q
*58 SE
*59 SI
*60 SN
*61 SEb
*62 CKNb
*63 Db
*64 net521
*65 n20
*66 CKNbb
*67 mout
*68 mn35
*69 net0363
*70 mn36
*71 net498
*72 mn25
*73 mn21
*74 mn57
*75 mn56
*76 mn55
*77 mn22
*78 mn45

*GROUND_NETS VSS

*PORTS
*32 I
*42 I
*16 I
*55 I
*56 I
*58 I
*59 I
*60 I
*57 O
*39 O

*D_NET *32 9.92863e-16

*CONN
*P *32 I *C 0.1000 1.7100 
*I *37:s B *C 6.6400 1.1975 
*I *40:s B *C 6.6400 1.1975 
*I *47:s B *C 7.6650 1.1975 
*I *49:s B *C 7.6650 1.1975 
*I *51:s B *C 4.2100 1.0625 
*I *54:s B *C 4.9900 1.1525 
*I *20:s B *C 4.9900 1.1525 
*I *23:s B *C 6.1100 1.2700 
*I *24:s B *C 0.5250 1.0075 
*I *25:s B *C 0.5250 1.0075 
*I *26:s B *C 1.3575 1.2325 
*I *27:s B *C 1.3575 1.2325 
*I *28:s B *C 2.3650 1.0925 
*I *29:s B *C 2.3650 1.0925 
*I *31:s B *C 3.0000 1.3075 
*N *32:2 *C 7.0000 1.7100 
*N *32:3 *C 7.0000 1.7100 
*N *32:4 *C 6.6400 1.7100 
*N *32:5 *C 6.0750 1.7100 
*N *32:6 *C 5.0000 1.7100 
*N *32:7 *C 4.9050 1.7100 
*N *32:8 *C 4.0200 1.7100 
*N *32:9 *C 3.0000 1.7100 
*N *32:10 *C 2.2800 1.7100 
*N *32:11 *C 1.3500 1.7100 
*N *32:12 *C 1.0000 1.7100 
*N *32:13 *C 0.5250 1.7100 

*CAP
0 *31:s 2.39705e-17
1 *28:s 2.2788e-17
2 *26:s 3.73347e-17
3 *24:s 3.3678e-17
4 *23:s 9.1516e-18
5 *54:s 1.06923e-17
6 *51:s 1.8952e-17
7 *47:s 4.09205e-17
8 *37:s 3.78084e-17
9 *32:13 7.55628e-18
10 *32:11 2.49176e-17
11 *32:10 4.0171e-17
12 *32:8 4.51183e-17
13 *32:7 4.32218e-17
14 *32:5 2.71459e-17
15 *32:4 1.27289e-17
16 *32:2 5.50434e-16
17 *32 6.27373e-18

*RES
0 *47:s *32:3 62.51437  // $metal1_conn
1 *32:3 *32:4 0.180368  // $metal1_conn
2 *32:4 *32:5 0.282993  // $metal1_conn
3 *32:5 *32:6 0.538988  // $metal1_conn
4 *32:6 *32:7 0.046581  // $metal1_conn
5 *32:7 *32:8 0.441595  // $metal1_conn
6 *32:8 *32:9 0.511066  // $metal1_conn
7 *32:9 *32:10 0.360596  // $metal1_conn
8 *32:10 *32:11 0.465115  // $metal1_conn
9 *32:11 *32:12 0.175352  // $metal1_conn
10 *32:12 *32:13 0.238048  // $metal1_conn
11 *32:13 *32 0.212719  // $metal1_conn
12 *32:4 *37:s 62.291912  // $metal1_conn
13 *32:5 *23:s 62.07473  // $metal1_conn
14 *32:7 *54:s 62.045826  // $metal1_conn
15 *32:8 *51:s 62.045826  // $metal1_conn
16 *32:9 *31:s 62.071472  // $metal1_conn
17 *32:10 *28:s 62.045826  // $metal1_conn
18 *32:11 *26:s 62.282261  // $metal1_conn
19 *32:13 *24:s 62.418884  // $metal1_conn
20 *32:2 *32:3 7.5  // $metal1_conn
21 *32:2 *32:6 7.5  // $metal1_conn
22 *32:2 *32:9 7.5  // $metal1_conn
23 *32:2 *32:12 7.5  // $metal1_conn

*END

*D_NET *42 0

*CONN
*P *42 I *C 0.1000 0.0000 
*I *35:s B *C 6.5675 0.5075 
*I *36:s B *C 6.5675 0.5075 
*I *44:s B *C 7.5300 0.5075 
*I *46:s B *C 7.5300 0.5075 
*I *52:s B *C 4.9350 0.5025 
*I *68:s B *C 4.9350 0.5025 
*I *73:s B *C 6.0900 0.3300 
*I *74:s B *C 0.5250 0.5875 
*I *75:s B *C 0.5250 0.5875 
*I *76:s B *C 1.3575 0.4425 
*I *77:s B *C 1.3575 0.4425 
*I *78:s B *C 2.3050 0.5425 
*I *1:s B *C 2.3050 0.5425 
*N *42:2 *C 7.0000 0.0000 
*N *42:3 *C 7.0000 0.0000 
*N *42:4 *C 6.6400 0.0000 
*N *42:5 *C 6.0900 0.0000 
*N *42:6 *C 5.0000 0.0000 
*N *42:7 *C 4.9350 0.0000 
*N *42:8 *C 3.0000 0.0000 
*N *42:9 *C 2.2200 0.0000 
*N *42:10 *C 1.3500 0.0000 
*N *42:11 *C 1.0000 0.0000 
*N *42:12 *C 0.5250 0.0000 


*RES
0 *44:s *42:3 75.617332  // $metal1_conn
1 *42:3 *42:4 0.180368  // $metal1_conn
2 *42:4 *42:5 0.27452  // $metal1_conn
3 *42:5 *42:6 0.545562  // $metal1_conn
4 *42:6 *42:7 0.03246  // $metal1_conn
5 *42:7 *42:8 0.970336  // $metal1_conn
6 *42:8 *42:9 0.390076  // $metal1_conn
7 *42:9 *42:10 0.435021  // $metal1_conn
8 *42:10 *42:11 0.175352  // $metal1_conn
9 *42:11 *42:12 0.238048  // $metal1_conn
10 *42:12 *42 0.212719  // $metal1_conn
11 *42:4 *35:s 75.324211  // $metal1_conn
12 *42:5 *73:s 75.045822  // $metal1_conn
13 *42:7 *52:s 75.323097  // $metal1_conn
14 *42:9 *78:s 75.045822  // $metal1_conn
15 *42:10 *76:s 75.288574  // $metal1_conn
16 *42:12 *74:s 75.370209  // $metal1_conn
17 *42:2 *42:3 6.2  // $metal1_conn
18 *42:2 *42:6 6.2  // $metal1_conn
19 *42:2 *42:8 6.2  // $metal1_conn
20 *42:2 *42:11 6.2  // $metal1_conn

*END

*D_NET *16 2.09667e-16

*CONN
*P *16 I *C 6.3000 1.0450 
*I *35:g B *C 6.3925 0.5075 
*I *37:g B *C 6.5375 1.1975 
*N *16:2 *C 6.3550 0.8550 

*CAP
0 *37:g 4.85264e-17
1 *35:g 2.93578e-17
2 *16:2 7.65361e-17
3 *16 5.52464e-17

*RES
0 *37:g *16:2 76.122055  // $poly_conn
1 *16:2 *35:g 61.027016  // $poly_conn
2 *16:2 *16 45.166481  // $metal1_conn

*END

*D_NET *55 2.03751e-16

*CONN
*P *55 I *C 6.7000 1.0450 
*I *36:g B *C 6.7425 0.5075 
*I *40:g B *C 6.7425 1.1975 
*N *55:2 *C 6.7050 0.8450 

*CAP
0 *40:g 4.57645e-17
1 *36:g 2.43769e-17
2 *55:2 7.04426e-17
3 *55 6.31671e-17

*RES
0 *40:g *55:2 53.334705  // $poly_conn
1 *55:2 *36:g 58.462914  // $poly_conn
2 *55:2 *55 45.088345  // $metal1_conn

*END

*D_NET *56 2.08047e-16

*CONN
*P *56 I *C 1.5000 0.7900 
*I *77:g B *C 1.4675 0.4425 
*I *27:g B *C 1.4675 1.2325 
*N *56:2 *C 1.4950 0.7800 
*N *56:4 *C 1.4950 0.7800 

*CAP
0 *27:g 3.63823e-17
1 *77:g 4.08858e-17
2 *56:2 3.93446e-17
3 *56 9.14344e-17

*RES
0 *27:g *56:2 79.948364  // $poly_conn
1 *56:2 *77:g 59.435539  // $poly_conn
2 *56:4 *56 0.004838  // $metal1_conn
3 *56:2 *56:4 45  // $metal1_conn

*END

*D_NET *58 5.20589e-16

*CONN
*P *58 I *C 7.7000 0.6655 
*I *41:g B *C 7.3175 0.5075 
*I *46:g B *C 7.6375 0.5075 
*I *43:g B *C 6.9125 1.1975 
*I *49:g B *C 7.7125 1.1975 
*N *58:1 *C 7.1150 0.9900 
*N *58:4 *C 7.2800 0.7250 
*N *58:6 *C 7.6750 0.6850 
*N *58:8 *C 7.6750 0.6850 

*CAP
0 *49:g 4.93312e-17
1 *43:g 4.91929e-17
2 *46:g 2.40373e-17
3 *41:g 6.55443e-17
4 *58:1 9.42761e-17
5 *58:4 1.25057e-16
6 *58:6 1.1315e-16

*RES
0 *58:1 *43:g 87.14975  // $poly_conn
1 *41:g *58:4 72.69368  // $poly_conn
2 *49:g *58:6 96.630661  // $poly_conn
3 *58:6 *46:g 19.707582  // $poly_conn
4 *58:1 *58:4 0.273888  // $metal1_conn
5 *58:4 *58:8 0.279113  // $metal1_conn
6 *58:8 *58 0.013632  // $metal1_conn
7 *58:6 *58:8 45  // $metal1_conn

*END

*D_NET *59 2.81606e-16

*CONN
*P *59 I *C 7.7000 1.0450 
*I *44:g B *C 7.4225 0.5075 
*I *47:g B *C 7.4475 1.1975 
*N *59:2 *C 7.4750 0.8850 

*CAP
0 *47:g 4.66112e-17
1 *44:g 7.61546e-17
2 *59:2 8.52907e-17
3 *59 7.35499e-17

*RES
0 *47:g *59:2 44.050922  // $poly_conn
1 *59:2 *44:g 73.293503  // $poly_conn
2 *59 *59:2 45.182972  // $metal1_conn

*END

*D_NET *60 8.3583e-16

*CONN
*P *60 I *C 2.3000 1.0450 
*I *52:g B *C 4.8325 0.5025 
*I *1:g B *C 2.3525 0.5425 
*I *54:g B *C 4.8325 1.0625 
*I *29:g B *C 2.4125 1.0925 
*N *60:2 *C 2.3525 0.8850 
*N *60:3 *C 2.2900 0.8850 
*N *60:6 *C 4.7450 1.3350 

*CAP
0 *29:g 3.14069e-17
1 *54:g 5.69221e-17
2 *1:g 4.93122e-17
3 *52:g 6.39804e-17
4 *60:2 2.29216e-17
5 *60:3 5.2887e-17
6 *60:6 2.95369e-16
7 *60 2.6303e-16

*RES
0 *29:g *60:2 24.368849  // $poly_conn
1 *60:2 *60:3 48.663094  // $poly_conn
2 *60:2 *1:g 59.728333  // $poly_conn
3 *54:g *60:6 84.728386  // $poly_conn
4 *54:g *52:g 97.435898  // $poly_conn
5 *60:6 *60 2.0743  // $metal1_conn
6 *60 *60:3 0.105247  // $metal1_conn

*END

*D_NET *57 1.64137e-16

*CONN
*P *57 O *C 0.9000 1.2350 
*I *76:d B *C 1.1550 0.4425 
*I *26:d B *C 1.1550 1.2325 
*N *57:2 *C 1.0650 1.2350 

*CAP
0 *76:d 7.77405e-17
1 *57:2 6.0739e-17
2 *57 2.56573e-17

*RES
0 *26:d *57:2 62.038643  // $metal1_conn
1 *57:2 *57 0.078877  // $metal1_conn
2 *57:2 *76:d 75.497757  // $metal1_conn

*END

*D_NET *39 8.1385e-17

*CONN
*P *39 O *C 0.1000 0.6650 
*I *74:d B *C 0.3175 0.5875 
*I *24:d B *C 0.3175 1.0075 
*N *39:3 *C 0.2950 0.6000 

*CAP
0 *24:d 1.84563e-17
1 *74:d 3.99628e-17
2 *39 2.29659e-17

*RES
0 *24:d *39:3 62.224846  // $metal1_conn
1 *39:3 *39 0.092795  // $metal1_conn
2 *74:d *39:3 75  // $metal1_conn

*END

*D_NET *19 0

*CONN
*I *41:s B *C 7.3700 0.5075 
*I *44:d B *C 7.3700 0.5075 


*RES
0 *44:d *41:s 0.001  // $mwires

*END

*D_NET *18 5.49412e-18

*CONN
*I *36:d B *C 6.9275 0.5075 
*I *38:s B *C 6.9275 0.5075 

*CAP
0 *36:d 5.49412e-18

*RES
0 *38:s *36:d 0.001  // $mwires

*END

*D_NET *17 0

*CONN
*I *68:d B *C 5.0900 0.5025 
*I *70:s B *C 5.0900 0.5025 


*RES
0 *70:s *68:d 0.001  // $mwires

*END

*D_NET *13 4.74546e-18

*CONN
*I *45:s B *C 7.3525 1.1975 
*I *47:d B *C 7.3525 1.1975 

*CAP
0 *45:s 4.74546e-18

*RES
0 *47:d *45:s 0.001  // $mwires

*END

*D_NET *11 0

*CONN
*I *40:d B *C 6.8275 1.1975 
*I *43:s B *C 6.8275 1.1975 


*RES
0 *43:s *40:d 0.001  // $mwires

*END

*D_NET *9 1.12332e-18

*CONN
*I *20:d B *C 5.1100 1.1525 
*I *21:s B *C 5.1100 1.1525 

*CAP
0 *20:d 1.12332e-18

*RES
0 *21:s *20:d 0.001  // $mwires

*END

*D_NET *8 3.32629e-18

*CONN
*I *51:d B *C 4.4875 1.0625 
*I *53:s B *C 4.4875 1.0625 

*CAP
0 *51:d 3.32629e-18

*RES
0 *53:s *51:d 0.001  // $mwires

*END

*D_NET *7 3.52398e-18

*CONN
*I *30:s B *C 2.7575 1.0925 
*I *31:d B *C 2.7575 1.0925 

*CAP
0 *30:s 3.52398e-18

*RES
0 *31:d *30:s 0.001  // $mwires

*END

*D_NET *6 1.88048e-16

*CONN
*I *74:g B *C 0.4225 0.5875 
*I *75:d B *C 0.7200 0.5875 
*I *24:g B *C 0.4225 1.0075 
*I *25:d B *C 0.7200 1.0075 
*N *6:1 *C 0.4850 0.7650 
*N *6:2 *C 0.4225 0.7650 
*N *6:6 *C 0.7200 0.7750 

*CAP
0 *25:d 2.41582e-17
1 *24:g 2.78611e-17
2 *75:d 2.77986e-17
3 *74:g 2.46075e-17
4 *6:6 2.09443e-17
5 *6:2 3.12886e-17
6 *6:1 3.13899e-17

*RES
0 *6:1 *6:2 46.294373  // $poly_conn
1 *6:2 *74:g 21.845535  // $poly_conn
2 *6:2 *24:g 29.537844  // $poly_conn
3 *75:d *6:6 75.113022  // $metal1_conn
4 *6:6 *6:1 0.122552  // $metal1_conn
5 *6:6 *25:d 62.119656  // $metal1_conn

*END

*D_NET *5 7.08109e-16

*CONN
*I *75:g B *C 0.6275 0.5875 
*I *76:g B *C 1.2475 0.4425 
*I *78:d B *C 1.9825 0.5425 
*I *10:g B *C 2.7425 0.5425 
*I *25:g B *C 0.6275 1.0075 
*I *26:g B *C 1.2475 1.2325 
*I *28:d B *C 2.0550 1.0925 
*I *30:g B *C 2.6675 1.0925 
*N *5:2 *C 1.2475 0.7375 
*N *5:3 *C 0.6275 0.7375 
*N *5:5 *C 1.2750 0.6250 
*N *5:10 *C 2.4950 0.3450 
*N *5:11 *C 1.9600 0.3450 
*N *5:13 *C 1.9600 0.5300 

*CAP
0 *30:g 5.86295e-17
1 *28:d 6.79635e-17
2 *26:g 3.67545e-17
3 *25:g 2.46127e-17
4 *10:g 5.46139e-17
5 *78:d 4.37565e-17
6 *76:g 2.16335e-17
7 *75:g 1.82846e-17
8 *5:11 1.1185e-16
9 *5:3 3.49114e-17
10 *5:2 3.00807e-17
11 *5:5 1.31408e-16
12 *5:10 7.36097e-17

*RES
0 *26:g *5:2 98.20697  // $poly_conn
1 *5:2 *5:3 149.766708  // $poly_conn
2 *5:3 *75:g 18.337015  // $poly_conn
3 *5:2 *5:5 19.180971  // $poly_conn
4 *5:5 *76:g 19.691952  // $poly_conn
5 *5:3 *25:g 40.131889  // $poly_conn
6 *30:g *10:g 102.274536  // $poly_conn
7 *10:g *5:10 119.034348  // $poly_conn
8 *5:10 *5:11 0.377235  // $metal1_conn
9 *5:11 *5:5 45.810242  // $metal1_conn
10 *5:11 *5:13 0.10305  // $metal1_conn
11 *5:13 *28:d 62.405712  // $metal1_conn
12 *78:d *5:13 75  // $metal1_conn

*END

*D_NET *4 8.90677e-16

*CONN
*I *48:g B *C 4.3625 0.5025 
*I *77:d B *C 1.6100 0.4425 
*I *12:g B *C 2.9475 0.5425 
*I *51:g B *C 4.3625 1.0625 
*I *27:d B *C 1.5600 1.2325 
*I *31:g B *C 2.8475 1.0925 
*N *4:3 *C 2.8100 1.4400 
*N *4:5 *C 4.1900 1.3650 
*N *4:8 *C 1.5700 1.2800 

*CAP
0 *31:g 4.5965e-17
1 *27:d 1.46985e-16
2 *51:g 5.46631e-17
3 *12:g 5.59791e-17
4 *77:d 1.06359e-16
5 *48:g 5.10982e-17
6 *4:3 2.51809e-16
7 *4:5 1.77818e-16

*RES
0 *12:g *31:g 108.684784  // $poly_conn
1 *31:g *4:3 97.052658  // $poly_conn
2 *51:g *4:5 117.752296  // $poly_conn
3 *51:g *48:g 97.435898  // $poly_conn
4 *4:5 *4:3 1.097183  // $metal1_conn
5 *4:3 *4:8 0.991247  // $metal1_conn
6 *4:8 *77:d 75.665855  // $metal1_conn
7 *27:d *4:8 62  // $metal1_conn

*END

*D_NET *3 5.47079e-16

*CONN
*I *78:g B *C 2.0875 0.5425 
*I *14:d B *C 3.7575 0.4575 
*I *15:s B *C 3.7575 0.4575 
*I *28:g B *C 2.1475 1.0925 
*I *33:d B *C 3.5550 1.0075 
*I *34:d B *C 3.5550 1.0075 
*N *3:2 *C 2.1200 0.7250 
*N *3:5 *C 3.4000 0.8500 

*CAP
0 *33:d 3.9739e-17
1 *28:g 3.72833e-17
2 *14:d 8.67281e-17
3 *78:g 3.53374e-17
4 *3:5 1.86791e-16
5 *3:2 1.61201e-16

*RES
0 *28:g *3:2 55.860214  // $poly_conn
1 *3:2 *78:g 17.398676  // $poly_conn
2 *14:d *3:5 75.492378  // $metal1_conn
3 *3:5 *3:2 46.039265  // $metal1_conn
4 *3:5 *33:d 62.171803  // $metal1_conn

*END

*D_NET *2 2.01012e-16

*CONN
*I *29:d B *C 2.5400 1.0925 
*I *30:d B *C 2.5400 1.0925 
*I *33:s B *C 3.2675 1.0075 

*CAP
0 *33:s 1.00031e-16
1 *29:d 1.00981e-16

*RES
0 *33:s *29:d 124.387306  // $metal1_conn

*END

*D_NET *71 1.22677e-16

*CONN
*I *1:d B *C 2.5475 0.5425 
*I *10:s B *C 2.5475 0.5425 
*I *12:s B *C 3.0400 0.5425 
*N *71:3 *C 2.6400 0.5300 

*CAP
0 *12:s 7.03074e-17
1 *1:d 5.237e-17

*RES
0 *12:s *71:3 75.425285  // $metal1_conn
1 *1:d *71:3 75  // $metal1_conn

*END

*D_NET *69 2.05093e-16

*CONN
*I *10:d B *C 2.8450 0.5425 
*I *12:d B *C 2.8450 0.5425 
*I *14:s B *C 3.4950 0.4575 

*CAP
0 *14:s 1.05505e-16
1 *10:d 9.95882e-17

*RES
0 *14:s *10:d 150.726944  // $metal1_conn

*END

*D_NET *67 5.65021e-16

*CONN
*I *48:d B *C 4.4875 0.5025 
*I *50:d B *C 4.4875 0.5025 
*I *68:g B *C 5.0375 0.5025 
*I *15:d B *C 4.0200 0.4575 
*I *53:d B *C 4.7225 1.0625 
*I *54:d B *C 4.7225 1.0625 
*I *20:g B *C 5.0375 1.1525 
*I *34:s B *C 3.7950 1.0075 
*N *67:2 *C 5.0050 0.8450 
*N *67:4 *C 4.7000 0.8450 
*N *67:5 *C 4.4500 0.6500 
*N *67:6 *C 4.0300 0.6500 

*CAP
0 *34:s 6.0944e-17
1 *20:g 5.53908e-17
2 *53:d 3.39261e-17
3 *15:d 3.83516e-17
4 *68:g 6.82316e-17
5 *48:d 2.41097e-17
6 *67:6 6.50534e-17
7 *67:5 5.92701e-17
8 *67:4 5.44833e-17
9 *67:2 1.0526e-16

*RES
0 *20:g *67:2 40.475597  // $poly_conn
1 *67:2 *68:g 58.424316  // $poly_conn
2 *67:2 *67:4 45.240612  // $metal1_conn
3 *67:4 *67:5 0.332195  // $metal1_conn
4 *67:5 *67:6 0.273307  // $metal1_conn
5 *67:6 *34:s 62.39122  // $metal1_conn
6 *67:4 *53:d 62.089718  // $metal1_conn
7 *67:5 *48:d 75.104828  // $metal1_conn
8 *67:6 *15:d 75.144318  // $metal1_conn

*END

*D_NET *66 9.11009e-16

*CONN
*I *72:g B *C 5.3475 0.5025 
*I *73:d B *C 5.8200 0.5075 
*I *14:g B *C 3.5875 0.4575 
*I *21:g B *C 5.1825 1.1525 
*I *23:d B *C 5.9200 1.0175 
*I *34:g B *C 3.7025 1.0075 
*N *66:2 *C 3.7025 0.8225 
*N *66:4 *C 4.2200 0.8500 
*N *66:6 *C 5.3850 0.6800 
*N *66:7 *C 5.3850 0.9450 
*N *66:11 *C 5.9100 0.9700 
*N *66:12 *C 5.4750 1.2650 

*CAP
0 *34:g 2.7538e-17
1 *23:d 1.03077e-16
2 *21:g 5.43927e-17
3 *14:g 4.46636e-17
4 *73:d 7.01348e-17
5 *72:g 4.25091e-17
6 *66:12 1.43714e-16
7 *66:2 4.1478e-17
8 *66:4 2.01827e-16
9 *66:6 8.34103e-17
10 *66:7 9.82661e-17

*RES
0 *34:g *66:2 18.71979  // $poly_conn
1 *66:2 *14:g 91.507141  // $poly_conn
2 *66:2 *66:4 164.479614  // $poly_conn
3 *72:g *66:6 62.437271  // $poly_conn
4 *66:7 *21:g 87.14975  // $poly_conn
5 *73:d *66:11 75.376694  // $metal1_conn
6 *66:11 *66:12 0.530032  // $metal1_conn
7 *66:12 *66:4 1.147564  // $metal1_conn
8 *66:12 *66:7 0.284727  // $metal1_conn
9 *66:7 *66:6 0.133222  // $metal1_conn
10 *23:d *66:11 62  // $metal1_conn

*END

*D_NET *65 3.82666e-16

*CONN
*I *50:g B *C 4.6125 0.5025 
*I *70:d B *C 5.2450 0.5025 
*I *72:s B *C 5.2450 0.5025 
*I *53:g B *C 4.6125 1.0625 
*I *21:d B *C 5.3550 1.1525 
*I *22:d B *C 5.3550 1.1525 
*N *65:2 *C 4.6400 0.6850 
*N *65:5 *C 5.1950 0.6850 
*N *65:7 *C 5.2450 0.4900 

*CAP
0 *21:d 6.16949e-17
1 *53:g 5.2225e-17
2 *70:d 3.37354e-17
3 *50:g 3.72096e-17
4 *65:5 8.49258e-17
5 *65:2 1.12875e-16

*RES
0 *53:g *65:2 60.71759  // $poly_conn
1 *65:2 *50:g 19.691952  // $poly_conn
2 *21:d *65:5 62.384624  // $metal1_conn
3 *65:5 *65:7 0.132825  // $metal1_conn
4 *65:5 *65:2 45.399605  // $metal1_conn
5 *70:d *65:7 75  // $metal1_conn

*END

*D_NET *64 1.41402e-16

*CONN
*I *48:s B *C 4.2700 0.5025 
*I *50:s B *C 4.7225 0.5025 
*I *52:d B *C 4.7225 0.5025 

*CAP
0 *50:s 6.73583e-17
1 *48:s 7.40434e-17

*RES
0 *50:s *48:s 150.510193  // $metal1_conn

*END

*D_NET *63 6.06921e-16

*CONN
*I *38:d B *C 7.2150 0.5075 
*I *41:d B *C 7.2150 0.5075 
*I *72:d B *C 5.4400 0.5025 
*I *43:d B *C 7.0850 1.1975 
*I *45:d B *C 7.0850 1.1975 
*I *22:s B *C 5.6375 1.1525 
*N *63:2 *C 6.9550 0.6850 
*N *63:4 *C 5.4500 0.4900 

*CAP
0 *22:s 9.92128e-17
1 *43:d 6.65166e-17
2 *72:d 1.92139e-16
3 *38:d 4.08141e-17
4 *63:2 2.08238e-16

*RES
0 *38:d *63:2 75.301712  // $metal1_conn
1 *63:2 *63:4 1.365315  // $metal1_conn
2 *63:2 *43:d 62.447243  // $metal1_conn
3 *63:4 *22:s 62.554981  // $metal1_conn
4 *72:d *63:4 75  // $metal1_conn

*END

*D_NET *62 9.27294e-16

*CONN
*I *35:d B *C 6.3000 0.5075 
*I *70:g B *C 5.1425 0.5025 
*I *73:g B *C 5.9575 0.5075 
*I *15:g B *C 3.9275 0.4575 
*I *37:d B *C 6.4450 1.1975 
*I *22:g B *C 5.5275 1.1525 
*I *23:g B *C 6.0125 1.0175 
*I *33:g B *C 3.4075 1.0075 
*N *62:1 *C 3.5600 0.7950 
*N *62:4 *C 5.9850 0.8125 
*N *62:5 *C 5.5275 0.8125 
*N *62:7 *C 3.9650 0.2600 
*N *62:9 *C 5.9850 0.7150 
*N *62:13 *C 6.0850 0.7050 

*CAP
0 *33:g 4.65823e-17
1 *23:g 1.45727e-17
2 *22:g 3.23381e-17
3 *37:d 8.60403e-17
4 *15:g 2.58863e-17
5 *73:g 2.72264e-17
6 *70:g 1.46461e-16
7 *35:d 4.90896e-17
8 *62:13 9.23193e-17
9 *62:5 6.40133e-17
10 *62:4 1.47918e-17
11 *62:1 1.37783e-16
12 *62:7 1.55366e-16
13 *62:9 3.4825e-17

*RES
0 *62:1 *33:g 81.758347  // $poly_conn
1 *23:g *62:4 25.350365  // $poly_conn
2 *62:4 *62:5 106.341431  // $poly_conn
3 *62:5 *70:g 152.549362  // $poly_conn
4 *70:g *62:7 337.316498  // $poly_conn
5 *62:7 *15:g 21.344986  // $poly_conn
6 *62:4 *62:9 7.560308  // $poly_conn
7 *62:9 *73:g 26.102209  // $poly_conn
8 *62:5 *22:g 54.915871  // $poly_conn
9 *62:7 *62:1 45.511948  // $metal1_conn
10 *37:d *62:13 62.652424  // $metal1_conn
11 *62:13 *62:9 45.042034  // $metal1_conn
12 *62:13 *35:d 75.284882  // $metal1_conn

*END

*D_NET *61 4.06018e-16

*CONN
*I *38:g B *C 7.1125 0.5075 
*I *46:d B *C 7.7300 0.5075 
*I *45:g B *C 7.2575 1.1975 
*I *49:d B *C 7.8450 1.1975 
*N *61:2 *C 7.2850 0.9800 
*N *61:6 *C 7.8950 1.2450 

*CAP
0 *49:d 1.06672e-16
1 *45:g 2.69053e-17
2 *46:d 7.34888e-17
3 *38:g 5.38561e-17
4 *61:2 1.45095e-16

*RES
0 *45:g *61:2 19.691952  // $poly_conn
1 *61:2 *38:g 119.402382  // $poly_conn
2 *46:d *61:6 75.62986  // $metal1_conn
3 *61:6 *61:2 45.572346  // $metal1_conn
4 *49:d *61:6 62  // $metal1_conn

*END

