*SPEF "IEEE 1481-1999"
*DESIGN  "SDFFQXL"
*DATE "Mon Sep 27 11:01:00 2010"
*VENDOR "Cadence Design Systems"
*PROGRAM "Assura RCX"
*VERSION "3.2 Red Hat Linux release 7.2 (Enigma) - (09/09/2009-10:39)"
*DESIGN_FLOW "Physical Verification"
*DIVIDER /
*DELIMITER :
*BUS_DELIMITER []
*T_UNIT 1 PS
*C_UNIT 1e15 FF
*R_UNIT 1 OHM
*L_UNIT 1 MH
// DeviceFingerDelim "@"
// MATCHED
// caps2d version: 10

*NAME_MAP
*1 mp55
*2 mp20
*3 mp45
*4 mp50
*5 mp51
*6 mp40
*7 mp30
*8 VDD
*9 mn35
*10 mn25
*11 mn21
*12 mn11
*13 mn12
*14 VSS
*15 mn14
*16 mp36
*17 mn13
*18 mp25
*19 mn10
*20 mp21
*21 mn36
*22 mp11
*23 mp12
*24 mp14
*25 n30
*26 mp13
*27 SEb
*28 mp10
*29 qbint
*30 mp35
*31 Db
*32 CKbb
*33 CKb
*34 n8
*35 n6
*36 n2
*37 CK
*38 n4
*39 n7
*40 n5
*41 n1
*42 n3
*43 D
*44 SE
*45 mn55
*46 SI
*47 mn20
*48 mn45
*49 mn50
*50 mn51
*51 mn40
*52 mn30
*53 mout
*54 n20
*55 Q

*GROUND_NETS VSS

*PORTS
*8 I
*14 I
*37 I
*43 I
*44 I
*46 I
*55 O

*D_NET *8 6.28052e-16

*CONN
*P *8 I *C 0.1000 1.7100 
*I *20:s B *C 3.4075 1.2775 
*I *22:s B *C 3.4075 1.2775 
*I *26:s B *C 4.2400 1.2775 
*I *28:s B *C 4.2400 1.2775 
*I *30:s B *C 2.2100 1.1125 
*I *1:s B *C 0.3150 1.3375 
*I *2:s B *C 0.3150 1.3375 
*I *3:s B *C 1.1950 1.1125 
*I *4:s B *C 1.1950 1.1125 
*I *7:s B *C 2.2100 1.1125 
*N *8:2 *C 0.3150 1.7100 
*N *8:3 *C 1.0800 1.7100 
*N *8:5 *C 1.2000 1.7100 
*N *8:6 *C 1.2000 1.7100 
*N *8:7 *C 2.0950 1.7100 
*N *8:9 *C 3.3850 1.7100 
*N *8:11 *C 3.5000 1.7100 

*CAP
0 *3:s 2.57515e-17
1 *1:s 2.86643e-17
2 *30:s 2.5731e-17
3 *26:s 4.16132e-17
4 *20:s 2.9261e-17
5 *8:9 2.50567e-17
6 *8:7 4.52557e-17
7 *8:3 1.50768e-17
8 *8:2 1.57084e-17
9 *8:5 3.67509e-16
10 *8 8.42438e-18

*RES
0 *1:s *8:2 62.197731  // $metal1_conn
1 *8:2 *8 0.10711  // $metal1_conn
2 *8:2 *8:3 0.382703  // $metal1_conn
3 *8:3 *3:s 62.130634  // $metal1_conn
4 *8:3 *8:6 0.059962  // $metal1_conn
5 *8:6 *8:7 0.448481  // $metal1_conn
6 *8:7 *30:s 62.130634  // $metal1_conn
7 *8:7 *8:9 0.646305  // $metal1_conn
8 *8:9 *20:s 62.233772  // $metal1_conn
9 *8:9 *8:11 0.057455  // $metal1_conn
10 *8:11 *26:s 62.62915  // $metal1_conn
11 *8:5 *8:6 6.25  // $metal1_conn
12 *8:5 *8:11 6.818182  // $metal1_conn

*END

*D_NET *14 0

*CONN
*P *14 I *C 0.1000 0.0000 
*I *11:s B *C 3.3850 0.4775 
*I *12:s B *C 3.3850 0.4775 
*I *17:s B *C 4.2400 0.4775 
*I *19:s B *C 4.2400 0.4775 
*I *21:s B *C 2.1750 0.5875 
*I *45:s B *C 0.3725 0.4825 
*I *47:s B *C 0.3725 0.4825 
*I *48:s B *C 1.1250 0.5875 
*I *49:s B *C 1.1250 0.5875 
*I *52:s B *C 2.1750 0.5875 
*N *14:2 *C 3.5000 0.0000 
*N *14:3 *C 3.5000 0.0000 
*N *14:4 *C 3.3550 0.0000 
*N *14:5 *C 2.0550 0.0000 
*N *14:6 *C 1.2000 0.0000 
*N *14:7 *C 1.1100 0.0000 
*N *14:8 *C 0.2750 0.0000 


*RES
0 *17:s *14:3 75.700165  // $metal1_conn
1 *14:3 *14:4 0.072495  // $metal1_conn
2 *14:4 *14:5 0.650369  // $metal1_conn
3 *14:5 *14:6 0.427479  // $metal1_conn
4 *14:6 *14:7 0.044058  // $metal1_conn
5 *14:7 *14:8 0.417257  // $metal1_conn
6 *14:8 *14 0.087284  // $metal1_conn
7 *14:4 *11:s 75.294823  // $metal1_conn
8 *14:5 *21:s 75.045799  // $metal1_conn
9 *14:7 *48:s 75.045799  // $metal1_conn
10 *14:8 *45:s 75.074409  // $metal1_conn
11 *14:2 *14:3 5.636364  // $metal1_conn
12 *14:2 *14:6 5.166667  // $metal1_conn

*END

*D_NET *37 2.34119e-16

*CONN
*P *37 I *C 0.3000 1.0450 
*I *47:g B *C 0.4325 0.4825 
*I *2:g B *C 0.4175 1.3375 
*N *37:2 *C 0.4250 0.8550 
*N *37:3 *C 0.3800 0.8550 

*CAP
0 *2:g 3.55835e-17
1 *47:g 4.33618e-17
2 *37:3 8.37841e-17
3 *37 7.13896e-17

*RES
0 *47:g *37:2 75.94236  // $poly_conn
1 *37:2 *37:3 46.822018  // $poly_conn
2 *37:2 *2:g 95.173126  // $poly_conn
3 *37:3 *37 0.128325  // $metal1_conn

*END

*D_NET *43 2.3652e-16

*CONN
*P *43 I *C 3.1000 0.8550 
*I *12:g B *C 3.5175 0.4775 
*I *22:g B *C 3.5175 1.2775 
*N *43:2 *C 3.5175 0.8075 
*N *43:3 *C 3.3850 0.8450 

*CAP
0 *22:g 5.22836e-17
1 *12:g 3.17592e-17
2 *43:2 3.29487e-17
3 *43:3 6.52761e-17
4 *43 5.42521e-17

*RES
0 *22:g *43:2 91.796715  // $poly_conn
1 *43:2 *43:3 64.78904  // $poly_conn
2 *43:2 *12:g 64.873634  // $poly_conn
3 *43:3 *43 0.170509  // $metal1_conn

*END

*D_NET *44 4.9336e-16

*CONN
*P *44 I *C 4.3000 0.6650 
*I *15:g B *C 4.0325 0.4775 
*I *19:g B *C 4.3425 0.4775 
*I *23:g B *C 3.7275 1.2775 
*I *28:g B *C 4.3425 1.2775 
*N *44:2 *C 3.7650 0.9350 
*N *44:4 *C 3.9950 0.6550 
*N *44:6 *C 4.3050 0.6550 

*CAP
0 *28:g 4.75028e-17
1 *23:g 4.16946e-17
2 *19:g 2.46641e-17
3 *15:g 6.45309e-17
4 *44:2 1.02137e-16
5 *44:4 1.09707e-16
6 *44:6 5.36739e-17
7 *44 4.94493e-17

*RES
0 *23:g *44:2 95.770599  // $poly_conn
1 *15:g *44:4 62.437271  // $poly_conn
2 *28:g *44:6 122.565475  // $poly_conn
3 *44:6 *19:g 17.437269  // $poly_conn
4 *44:2 *44:4 0.343207  // $metal1_conn
5 *44:4 *44 0.224955  // $metal1_conn
6 *44 *44:6 45.002995  // $metal1_conn

*END

*D_NET *46 3.2043e-16

*CONN
*P *46 I *C 4.1000 0.8550 
*I *17:g B *C 4.1375 0.4775 
*I *26:g B *C 4.1375 1.2775 
*N *46:2 *C 4.1750 0.8900 

*CAP
0 *26:g 5.10903e-17
1 *17:g 7.58844e-17
2 *46:2 1.57132e-16
3 *46 3.63231e-17

*RES
0 *26:g *46:2 62.309063  // $poly_conn
1 *46:2 *17:g 77.69368  // $poly_conn
2 *46 *46:2 45.007999  // $metal1_conn

*END

*D_NET *55 1.20797e-16

*CONN
*P *55 O *C 0.1000 0.4750 
*I *45:d B *C 0.1200 0.4825 
*I *1:d B *C 0.1200 1.3375 
*N *55:2 *C 0.1100 0.4700 

*CAP
0 *1:d 6.78145e-17
1 *55 5.29828e-17

*RES
0 *55:2 *55 0.003109  // $metal1_conn
1 *55 *1:d 62.488453  // $metal1_conn
2 *45:d *55:2 75  // $metal1_conn

*END

*D_NET *42 0

*CONN
*I *15:s B *C 4.0850 0.4775 
*I *17:d B *C 4.0850 0.4775 


*RES
0 *17:d *15:s 0.001  // $mwires

*END

*D_NET *41 5.74498e-18

*CONN
*I *12:d B *C 3.6725 0.4775 
*I *13:s B *C 3.6725 0.4775 

*CAP
0 *12:d 5.74498e-18

*RES
0 *13:s *12:d 0.001  // $mwires

*END

*D_NET *40 0

*CONN
*I *9:s B *C 2.3100 0.5875 
*I *21:d B *C 2.3100 0.5875 


*RES
0 *21:d *9:s 0.001  // $mwires

*END

*D_NET *39 0

*CONN
*I *49:d B *C 1.2375 0.5875 
*I *50:s B *C 1.2375 0.5875 


*RES
0 *50:s *49:d 0.001  // $mwires

*END

*D_NET *38 0

*CONN
*I *24:s B *C 4.0425 1.2775 
*I *26:d B *C 4.0425 1.2775 


*RES
0 *26:d *24:s 0.001  // $mwires

*END

*D_NET *36 8.46068e-20

*CONN
*I *22:d B *C 3.6225 1.2775 
*I *23:s B *C 3.6225 1.2775 

*CAP
0 *22:d 8.46068e-20

*RES
0 *23:s *22:d 0.001  // $mwires

*END

*D_NET *35 0

*CONN
*I *16:s B *C 2.3250 1.1125 
*I *30:d B *C 2.3250 1.1125 


*RES
0 *30:d *16:s 0.001  // $mwires

*END

*D_NET *34 2.80538e-18

*CONN
*I *4:d B *C 1.3775 1.1125 
*I *5:s B *C 1.3775 1.1125 

*CAP
0 *4:d 2.80538e-18

*RES
0 *5:s *4:d 0.001  // $mwires

*END

*D_NET *33 9.34373e-16

*CONN
*I *10:g B *C 2.5675 0.5875 
*I *11:g B *C 3.2525 0.4775 
*I *47:d B *C 0.5425 0.4825 
*I *50:g B *C 1.3025 0.5875 
*I *16:g B *C 2.3925 1.1125 
*I *20:g B *C 3.2975 1.2775 
*I *2:d B *C 0.5200 1.3375 
*I *6:g B *C 1.7175 1.1125 
*N *33:2 *C 1.3400 0.7750 
*N *33:4 *C 1.6800 1.4150 
*N *33:6 *C 3.2525 0.7575 
*N *33:7 *C 2.5675 0.7575 
*N *33:11 *C 2.4300 1.3200 
*N *33:12 *C 1.6800 1.3200 
*N *33:13 *C 1.3100 1.3200 
*N *33:15 *C 0.5400 1.2900 

*CAP
0 *6:g 5.15295e-17
1 *2:d 1.04946e-16
2 *20:g 4.92676e-17
3 *16:g 4.49665e-17
4 *50:g 5.09907e-17
5 *47:d 9.4381e-17
6 *11:g 2.28297e-17
7 *10:g 2.64926e-17
8 *33:13 8.29583e-17
9 *33:12 6.83741e-17
10 *33:7 7.02812e-17
11 *33:6 6.06435e-17
12 *33:2 8.0199e-17
13 *33:4 3.27409e-17
14 *33:11 9.37721e-17

*RES
0 *50:g *33:2 65.001373  // $poly_conn
1 *6:g *33:4 85.514191  // $poly_conn
2 *20:g *33:6 104.32766  // $poly_conn
3 *33:6 *33:7 169.78952  // $poly_conn
4 *33:7 *16:g 89.439278  // $poly_conn
5 *33:6 *11:g 52.053123  // $poly_conn
6 *33:7 *10:g 20.300484  // $poly_conn
7 *16:g *33:11 61.15522  // $poly_conn
8 *33:11 *33:12 0.528353  // $metal1_conn
9 *33:12 *33:13 0.279548  // $metal1_conn
10 *33:13 *33:15 0.530187  // $metal1_conn
11 *33:12 *33:4 0.032586  // $metal1_conn
12 *33:13 *33:2 0.358009  // $metal1_conn
13 *33:15 *47:d 75.525337  // $metal1_conn
14 *2:d *33:15 62  // $metal1_conn

*END

*D_NET *32 8.31663e-16

*CONN
*I *9:g B *C 2.3625 0.5875 
*I *11:d B *C 3.1600 0.4775 
*I *51:g B *C 1.6525 0.5875 
*I *18:g B *C 2.6175 1.1125 
*I *20:d B *C 3.2050 1.2775 
*I *5:g B *C 1.5125 1.1125 
*N *32:2 *C 1.6900 0.7600 
*N *32:5 *C 2.4000 0.2800 
*N *32:7 *C 2.6550 0.8900 
*N *32:9 *C 2.6550 0.4150 
*N *32:10 *C 2.4000 0.4150 

*CAP
0 *5:g 4.26736e-17
1 *20:d 8.94189e-17
2 *18:g 4.35926e-17
3 *51:g 1.68947e-17
4 *11:d 5.50886e-17
5 *9:g 7.33212e-17
6 *32:10 8.58358e-17
7 *32:9 6.1846e-17
8 *32:2 1.65569e-16
9 *32:5 4.05192e-17
10 *32:7 1.56903e-16

*RES
0 *51:g *32:2 16.346052  // $poly_conn
1 *32:2 *5:g 73.724556  // $poly_conn
2 *9:g *32:5 95.770599  // $poly_conn
3 *18:g *32:7 65.001373  // $poly_conn
4 *20:d *32:7 62.647141  // $metal1_conn
5 *32:7 *32:9 0.327091  // $metal1_conn
6 *32:9 *32:10 0.203121  // $metal1_conn
7 *32:10 *32:2 45.783268  // $metal1_conn
8 *32:9 *11:d 75.361732  // $metal1_conn
9 *32:10 *32:5 0.052638  // $metal1_conn

*END

*D_NET *31 4.38627e-16

*CONN
*I *10:d B *C 2.7475 0.5875 
*I *13:d B *C 3.9300 0.4775 
*I *15:d B *C 3.9300 0.4775 
*I *18:s B *C 2.7575 1.1125 
*I *23:d B *C 3.8375 1.2775 
*I *24:d B *C 3.8375 1.2775 
*N *31:2 *C 3.5750 1.0950 
*N *31:4 *C 3.8300 1.2600 
*N *31:6 *C 2.8150 1.0650 

*CAP
0 *23:d 4.8815e-17
1 *18:s 1.17646e-16
2 *13:d 7.68051e-17
3 *10:d 6.03528e-17
4 *31:2 1.35008e-16

*RES
0 *13:d *31:2 75.641609  // $metal1_conn
1 *31:2 *31:4 0.267489  // $metal1_conn
2 *31:2 *31:6 0.578017  // $metal1_conn
3 *31:6 *10:d 75.305748  // $metal1_conn
4 *23:d *31:4 62  // $metal1_conn
5 *18:s *31:6 62  // $metal1_conn

*END

*D_NET *29 5.44302e-16

*CONN
*I *45:g B *C 0.2125 0.4825 
*I *48:d B *C 0.8700 0.5875 
*I *49:g B *C 1.1725 0.5875 
*I *1:g B *C 0.2125 1.3375 
*I *3:d B *C 0.8850 1.1125 
*I *4:g B *C 1.2425 1.1125 
*N *29:1 *C 0.3000 0.6650 
*N *29:2 *C 0.2125 0.6650 
*N *29:6 *C 1.1725 0.7600 
*N *29:7 *C 1.1200 0.7600 
*N *29:9 *C 0.8450 0.7600 
*N *29:11 *C 0.8450 0.5950 

*CAP
0 *4:g 4.41393e-17
1 *3:d 3.42303e-17
2 *1:g 5.17421e-17
3 *49:g 4.83131e-17
4 *48:d 9.20422e-17
5 *45:g 2.40224e-17
6 *29:9 3.00107e-17
7 *29:2 3.1294e-17
8 *29:1 1.10986e-16
9 *29:7 7.7522e-17

*RES
0 *29:1 *29:2 48.300362  // $poly_conn
1 *29:2 *45:g 21.534737  // $poly_conn
2 *29:2 *1:g 138.201401  // $poly_conn
3 *4:g *29:6 66.186516  // $poly_conn
4 *29:6 *29:7 45.294373  // $poly_conn
5 *29:6 *49:g 22.886339  // $poly_conn
6 *29:7 *29:9 0.170349  // $metal1_conn
7 *29:9 *29:11 0.110496  // $metal1_conn
8 *29:11 *29:1 0.764592  // $metal1_conn
9 *29:9 *3:d 62.2075  // $metal1_conn
10 *48:d *29:11 75  // $metal1_conn

*END

*D_NET *27 3.6272e-16

*CONN
*I *13:g B *C 3.8275 0.4775 
*I *19:d B *C 4.4625 0.4775 
*I *24:g B *C 3.9475 1.2775 
*I *28:d B *C 4.4350 1.2775 
*N *27:2 *C 3.9850 1.0700 
*N *27:5 *C 4.4725 1.0700 

*CAP
0 *28:d 2.20116e-17
1 *24:g 3.42775e-17
2 *19:d 3.87338e-17
3 *13:g 6.97925e-17
4 *27:5 7.5314e-17
5 *27:2 1.22591e-16

*RES
0 *24:g *27:2 16.15522  // $poly_conn
1 *27:2 *13:g 142.788727  // $poly_conn
2 *19:d *27:5 75.397247  // $metal1_conn
3 *27:5 *27:2 45.331104  // $metal1_conn
4 *27:5 *28:d 62.084923  // $metal1_conn

*END

*D_NET *25 3.32748e-16

*CONN
*I *48:g B *C 0.9775 0.5875 
*I *50:d B *C 1.4775 0.5875 
*I *51:s B *C 1.4775 0.5875 
*I *3:g B *C 0.9775 1.1125 
*I *5:d B *C 1.6150 1.1125 
*I *6:d B *C 1.6150 1.1125 
*N *25:3 *C 0.9500 0.4050 
*N *25:6 *C 1.5300 0.5750 

*CAP
0 *5:d 6.84839e-17
1 *3:g 4.52338e-17
2 *50:d 9.52518e-17
3 *48:g 4.13999e-17
4 *25:3 8.23787e-17

*RES
0 *3:g *48:g 88.46154  // $poly_conn
1 *48:g *25:3 64.691956  // $poly_conn
2 *5:d *25:6 62.408363  // $metal1_conn
3 *25:6 *25:3 0.506665  // $metal1_conn
4 *50:d *25:6 75  // $metal1_conn

*END

*D_NET *54 3.03446e-16

*CONN
*I *9:d B *C 2.4650 0.5875 
*I *10:s B *C 2.4650 0.5875 
*I *52:g B *C 1.9925 0.5875 
*I *16:d B *C 2.5050 1.1125 
*I *18:d B *C 2.5050 1.1125 
*I *7:g B *C 1.9925 1.1125 
*N *54:2 *C 2.0400 0.8950 
*N *54:5 *C 2.4350 0.9600 

*CAP
0 *7:g 3.80001e-17
1 *16:d 2.86455e-17
2 *52:g 3.96651e-17
3 *9:d 5.26881e-17
4 *54:5 4.97831e-17
5 *54:2 9.46644e-17

*RES
0 *7:g *54:2 17.398676  // $poly_conn
1 *54:2 *52:g 49.449955  // $poly_conn
2 *16:d *54:5 62.123352  // $metal1_conn
3 *54:5 *54:2 45.301464  // $metal1_conn
4 *54:5 *9:d 75.244148  // $metal1_conn

*END

*D_NET *53 3.44971e-16

*CONN
*I *21:g B *C 2.2575 0.5875 
*I *51:d B *C 1.8225 0.5875 
*I *52:d B *C 1.8225 0.5875 
*I *30:g B *C 2.2575 1.1125 
*I *6:s B *C 1.8550 1.1125 
*I *7:d B *C 1.8550 1.1125 
*N *53:2 *C 2.2300 0.7700 
*N *53:5 *C 1.8500 0.7350 

*CAP
0 *6:s 4.49024e-17
1 *30:g 6.47686e-17
2 *51:d 3.87005e-17
3 *21:g 5.27792e-17
4 *53:5 4.77412e-17
5 *53:2 9.60791e-17

*RES
0 *30:g *53:2 51.743229  // $poly_conn
1 *53:2 *21:g 19.691952  // $poly_conn
2 *6:s *53:5 62.23999  // $metal1_conn
3 *53:5 *51:d 75.113037  // $metal1_conn
4 *53:5 *53:2 45.254314  // $metal1_conn

*END

