*SPEF "IEEE 1481-1999"
*DESIGN  "SDFFSRX1"
*DATE "Mon Sep 27 11:07:29 2010"
*VENDOR "Cadence Design Systems"
*PROGRAM "Assura RCX"
*VERSION "3.2 Red Hat Linux release 7.2 (Enigma) - (09/09/2009-10:39)"
*DESIGN_FLOW "Physical Verification"
*DIVIDER /
*DELIMITER :
*BUS_DELIMITER []
*T_UNIT 1 PS
*C_UNIT 1e15 FF
*R_UNIT 1 OHM
*L_UNIT 1 MH
// DeviceFingerDelim "@"
// MATCHED
// caps2d version: 10

*NAME_MAP
*1 mn50
*2 n11
*3 n35
*4 qbint
*5 RNb
*6 net573
*7 n9
*8 n5
*9 n7
*10 mn52
*11 n1
*12 mn51
*13 n3
*14 mn53
*15 mn40
*16 n6
*17 n0
*18 n2
*19 mp35
*20 mp36
*21 mp25
*22 mp21
*23 mp57
*24 mp56
*25 mp55
*26 mp22
*27 mp45
*28 mp50
*29 mp52
*30 mp51
*31 VDD
*32 mp53
*33 mp40
*34 mn20
*35 mn11
*36 mp20
*37 mn12
*38 QN
*39 mp11
*40 mn14
*41 VSS
*42 mp12
*43 mn13
*44 mp14
*45 mn10
*46 mp13
*47 mn31
*48 mp10
*49 mn32
*50 mp31
*51 mn30
*52 mp32
*53 mp30
*54 D
*55 CK
*56 RN
*57 Q
*58 SE
*59 SI
*60 SN
*61 SEb
*62 CKbb
*63 Db
*64 n20
*65 n4
*66 CKb
*67 mout
*68 mn35
*69 n10
*70 mn36
*71 n8
*72 mn25
*73 mn21
*74 mn57
*75 mn56
*76 mn55
*77 mn22
*78 mn45

*GROUND_NETS VSS

*PORTS
*31 I
*41 I
*55 I
*54 I
*56 I
*58 I
*59 I
*60 I
*57 O
*38 O

*D_NET *31 9.2694e-16

*CONN
*P *31 I *C 0.1000 1.7100 
*I *36:s B *C 5.9950 1.2675 
*I *39:s B *C 5.9950 1.2675 
*I *46:s B *C 6.9225 1.2675 
*I *48:s B *C 6.9225 1.2675 
*I *50:s B *C 3.8700 1.0725 
*I *53:s B *C 4.5400 1.5700 
*I *19:s B *C 4.5400 1.5700 
*I *22:s B *C 5.4350 1.5700 
*I *23:s B *C 0.5575 1.0075 
*I *24:s B *C 0.5575 1.0075 
*I *25:s B *C 1.1950 1.3225 
*I *26:s B *C 1.1950 1.3225 
*I *27:s B *C 1.9800 1.0675 
*I *28:s B *C 1.9800 1.0675 
*I *30:s B *C 2.5650 1.2375 
*N *31:2 *C 6.5000 1.7100 
*N *31:3 *C 6.5000 1.7100 
*N *31:4 *C 5.9650 1.7100 
*N *31:5 *C 5.4100 1.7100 
*N *31:6 *C 4.7000 1.7100 
*N *31:7 *C 4.5300 1.7100 
*N *31:8 *C 3.5550 1.7100 
*N *31:9 *C 2.9000 1.7100 
*N *31:10 *C 2.5350 1.7100 
*N *31:11 *C 1.8950 1.7100 
*N *31:12 *C 1.1300 1.7100 
*N *31:13 *C 1.0000 1.7100 
*N *31:14 *C 0.4950 1.7100 

*CAP
0 *30:s 3.29826e-17
1 *27:s 9.68033e-18
2 *25:s 3.03064e-17
3 *23:s 4.93544e-17
4 *22:s 1.29655e-17
5 *53:s 8.9909e-18
6 *50:s 1.7056e-17
7 *46:s 2.46287e-17
8 *36:s 3.07822e-17
9 *31:14 1.54754e-17
10 *31:12 1.76491e-17
11 *31:11 3.19216e-17
12 *31:10 1.77945e-17
13 *31:8 3.41542e-17
14 *31:7 2.21676e-17
15 *31:5 1.95207e-17
16 *31:4 1.34446e-17
17 *31:2 5.31008e-16
18 *31 7.05776e-18

*RES
0 *46:s *31:3 62.471485  // $metal1_conn
1 *31:3 *31:4 0.268187  // $metal1_conn
2 *31:4 *31:5 0.277074  // $metal1_conn
3 *31:5 *31:6 0.355026  // $metal1_conn
4 *31:6 *31:7 0.085084  // $metal1_conn
5 *31:7 *31:8 0.487767  // $metal1_conn
6 *31:8 *31:9 0.327435  // $metal1_conn
7 *31:9 *31:10 0.182906  // $metal1_conn
8 *31:10 *31:11 0.320664  // $metal1_conn
9 *31:11 *31:12 0.38337  // $metal1_conn
10 *31:12 *31:13 0.065018  // $metal1_conn
11 *31:13 *31:14 0.253137  // $metal1_conn
12 *31:14 *31 0.197705  // $metal1_conn
13 *31:4 *36:s 62.241798  // $metal1_conn
14 *31:5 *22:s 62.045834  // $metal1_conn
15 *31:7 *53:s 62.074837  // $metal1_conn
16 *31:8 *50:s 62.045834  // $metal1_conn
17 *31:10 *30:s 62.148109  // $metal1_conn
18 *31:11 *27:s 62.074837  // $metal1_conn
19 *31:12 *25:s 62.216045  // $metal1_conn
20 *31:14 *23:s 62.436954  // $metal1_conn
21 *31:2 *31:3 8.333333  // $metal1_conn
22 *31:2 *31:6 8.333333  // $metal1_conn
23 *31:2 *31:9 8.333333  // $metal1_conn
24 *31:2 *31:13 7.5  // $metal1_conn

*END

*D_NET *41 0

*CONN
*P *41 I *C 0.1000 0.0000 
*I *34:s B *C 6.2550 0.4475 
*I *35:s B *C 6.2550 0.4475 
*I *43:s B *C 6.9975 0.4475 
*I *45:s B *C 6.9975 0.4475 
*I *51:s B *C 4.4600 0.5275 
*I *68:s B *C 4.4600 0.5275 
*I *73:s B *C 5.4100 0.3425 
*I *74:s B *C 0.5575 0.5875 
*I *75:s B *C 0.5575 0.5875 
*I *76:s B *C 1.1950 0.4025 
*I *77:s B *C 1.1950 0.4025 
*I *78:s B *C 1.9800 0.4675 
*I *1:s B *C 1.9800 0.4675 
*N *41:2 *C 6.5000 0.0000 
*N *41:3 *C 6.5000 0.0000 
*N *41:4 *C 6.2000 0.0000 
*N *41:5 *C 5.4100 0.0000 
*N *41:6 *C 4.7000 0.0000 
*N *41:7 *C 4.4600 0.0000 
*N *41:8 *C 2.9000 0.0000 
*N *41:9 *C 1.8950 0.0000 
*N *41:10 *C 1.1300 0.0000 
*N *41:11 *C 1.0000 0.0000 
*N *41:12 *C 0.4950 0.0000 


*RES
0 *43:s *41:3 75.534256  // $metal1_conn
1 *41:3 *41:4 0.150299  // $metal1_conn
2 *41:4 *41:5 0.394962  // $metal1_conn
3 *41:5 *41:6 0.355026  // $metal1_conn
4 *41:6 *41:7 0.1202  // $metal1_conn
5 *41:7 *41:8 0.782379  // $metal1_conn
6 *41:8 *41:9 0.503013  // $metal1_conn
7 *41:9 *41:10 0.38242  // $metal1_conn
8 *41:10 *41:11 0.065018  // $metal1_conn
9 *41:11 *41:12 0.253137  // $metal1_conn
10 *41:12 *41 0.197705  // $metal1_conn
11 *41:4 *34:s 75.221718  // $metal1_conn
12 *41:5 *73:s 75.04583  // $metal1_conn
13 *41:7 *51:s 75.340286  // $metal1_conn
14 *41:9 *78:s 75.04583  // $metal1_conn
15 *41:10 *76:s 75.258965  // $metal1_conn
16 *41:12 *74:s 75.371796  // $metal1_conn
17 *41:2 *41:3 6.888889  // $metal1_conn
18 *41:2 *41:6 6.888889  // $metal1_conn
19 *41:2 *41:8 6.888889  // $metal1_conn
20 *41:2 *41:11 6.2  // $metal1_conn

*END

*D_NET *55 2.46773e-16

*CONN
*P *55 I *C 5.7000 1.0450 
*I *34:g B *C 5.8925 0.5425 
*I *36:g B *C 5.8925 1.2675 
*N *55:2 *C 5.8650 1.0250 

*CAP
0 *36:g 3.0258e-17
1 *34:g 3.7253e-17
2 *55:2 1.23476e-16
3 *55 5.57859e-17

*RES
0 *36:g *55:2 26.102209  // $poly_conn
1 *55:2 *34:g 96.615036  // $poly_conn
2 *55:2 *55 45.096203  // $metal1_conn

*END

*D_NET *54 2.76761e-16

*CONN
*P *54 I *C 5.9000 0.8550 
*I *35:g B *C 6.3025 0.4475 
*I *39:g B *C 6.0975 1.2675 
*N *54:2 *C 6.0975 0.8350 
*N *54:3 *C 6.0350 0.8450 

*CAP
0 *39:g 4.52856e-17
1 *35:g 4.17845e-17
2 *54:2 4.31392e-17
3 *54:3 5.39433e-17
4 *54 9.26081e-17

*RES
0 *35:g *54:2 119.076065  // $poly_conn
1 *54:2 *54:3 48.657974  // $poly_conn
2 *54:2 *39:g 71.196297  // $poly_conn
3 *54:3 *54 0.080816  // $metal1_conn

*END

*D_NET *56 2.50243e-16

*CONN
*P *56 I *C 1.3000 1.0450 
*I *77:g B *C 1.2625 0.4025 
*I *26:g B *C 1.2625 1.3225 
*N *56:2 *C 1.2900 1.0400 
*N *56:4 *C 1.2900 1.0400 

*CAP
0 *26:g 3.25877e-17
1 *77:g 6.09126e-17
2 *56:2 4.69385e-17
3 *56 1.09804e-16

*RES
0 *26:g *56:2 36.35862  // $poly_conn
1 *56:2 *77:g 136.358612  // $poly_conn
2 *56:4 *56 0.003116  // $metal1_conn
3 *56:2 *56:4 45  // $metal1_conn

*END

*D_NET *58 5.09871e-16

*CONN
*P *58 I *C 6.9000 0.6650 
*I *40:g B *C 6.7425 0.4475 
*I *45:g B *C 7.1475 0.4475 
*I *42:g B *C 6.3575 1.2675 
*I *48:g B *C 7.0725 1.2675 
*N *58:2 *C 6.3850 0.9400 
*N *58:4 *C 6.7050 0.6550 
*N *58:6 *C 7.1100 0.6850 

*CAP
0 *48:g 3.84624e-17
1 *42:g 3.99656e-17
2 *45:g 2.23279e-17
3 *40:g 6.32946e-17
4 *58:2 1.12676e-16
5 *58:4 1.17511e-16
6 *58:6 7.45161e-17
7 *58 4.11175e-17

*RES
0 *42:g *58:2 92.897079  // $poly_conn
1 *40:g *58:4 68.808929  // $poly_conn
2 *45:g *58:6 35.092197  // $poly_conn
3 *58:6 *48:g 114.579376  // $poly_conn
4 *58:4 *58:2 0.436252  // $metal1_conn
5 *58:4 *58 0.128537  // $metal1_conn
6 *58 *58:6 45.116268  // $metal1_conn

*END

*D_NET *59 3.04214e-16

*CONN
*P *59 I *C 6.7000 0.8550 
*I *43:g B *C 6.8475 0.4475 
*I *46:g B *C 6.7725 1.2675 
*N *59:2 *C 6.8100 0.8450 

*CAP
0 *46:g 4.67471e-17
1 *43:g 6.61199e-17
2 *59:2 1.26762e-16
3 *59 6.45849e-17

*RES
0 *43:g *59:2 76.117836  // $poly_conn
1 *59:2 *46:g 73.553734  // $poly_conn
2 *59:2 *59 45.057854  // $metal1_conn

*END

*D_NET *60 8.8506e-16

*CONN
*P *60 I *C 2.1000 0.8550 
*I *51:g B *C 4.3575 0.5275 
*I *1:g B *C 2.0275 0.4675 
*I *53:g B *C 4.3675 1.0725 
*I *28:g B *C 2.0275 1.0675 
*N *60:2 *C 2.0550 0.8450 
*N *60:6 *C 4.3400 1.3450 

*CAP
0 *28:g 4.14547e-17
1 *53:g 6.53694e-17
2 *1:g 5.85013e-17
3 *51:g 7.00912e-17
4 *60:2 3.5148e-16
5 *60:6 2.98163e-16

*RES
0 *28:g *60:2 20.974003  // $poly_conn
1 *60:2 *1:g 69.691956  // $poly_conn
2 *51:g *53:g 92.324593  // $poly_conn
3 *53:g *60:6 76.501236  // $poly_conn
4 *60:6 *60 2.023441  // $metal1_conn
5 *60 *60:2 45.003792  // $metal1_conn

*END

*D_NET *57 1.81108e-16

*CONN
*P *57 O *C 0.9000 0.6650 
*I *76:d B *C 0.9350 0.4600 
*I *25:d B *C 0.9350 1.2350 
*N *57:3 *C 0.9250 0.4250 

*CAP
0 *25:d 6.51067e-17
1 *76:d 2.72728e-17
2 *57 8.87287e-17

*RES
0 *25:d *57 21.070839  // $metal1_conn
1 *57 *57:3 0.155506  // $metal1_conn
2 *76:d *57:3 75  // $metal1_conn

*END

*D_NET *38 1.01854e-16

*CONN
*P *38 O *C 0.1000 0.6650 
*I *74:d B *C 0.3000 0.5300 
*I *23:d B *C 0.3000 1.0950 
*N *38:3 *C 0.2900 0.6000 

*CAP
0 *23:d 4.40919e-17
1 *74:d 3.50175e-17
2 *38 2.27442e-17

*RES
0 *23:d *38:3 20.972775  // $metal1_conn
1 *38:3 *38 0.090376  // $metal1_conn
2 *74:d *38:3 75  // $metal1_conn

*END

*D_NET *18 0

*CONN
*I *40:s B *C 6.7950 0.4475 
*I *43:d B *C 6.7950 0.4475 


*RES
0 *43:d *40:s 0.001  // $mwires

*END

*D_NET *17 3.56815e-18

*CONN
*I *35:d B *C 6.4200 0.4475 
*I *37:s B *C 6.4200 0.4475 

*CAP
0 *35:d 3.56815e-18

*RES
0 *37:s *35:d 0.001  // $mwires

*END

*D_NET *16 0

*CONN
*I *68:d B *C 4.6150 0.5275 
*I *70:s B *C 4.6150 0.5275 


*RES
0 *70:s *68:d 0.001  // $mwires

*END

*D_NET *13 0

*CONN
*I *44:s B *C 6.6675 1.2675 
*I *46:d B *C 6.6675 1.2675 


*RES
0 *46:d *44:s 0.001  // $mwires

*END

*D_NET *11 4.40036e-18

*CONN
*I *39:d B *C 6.2275 1.2675 
*I *42:s B *C 6.2275 1.2675 

*CAP
0 *39:d 4.40036e-18

*RES
0 *42:s *39:d 0.001  // $mwires

*END

*D_NET *9 5.909e-19

*CONN
*I *19:d B *C 4.6150 1.1125 
*I *20:s B *C 4.6150 1.1125 

*CAP
0 *19:d 5.909e-19

*RES
0 *20:s *19:d 0.001  // $mwires

*END

*D_NET *8 2.88093e-18

*CONN
*I *50:d B *C 4.0525 1.0725 
*I *52:s B *C 4.0525 1.0725 

*CAP
0 *50:d 2.88093e-18

*RES
0 *52:s *50:d 0.001  // $mwires

*END

*D_NET *7 1.57959e-18

*CONN
*I *29:s B *C 2.2850 1.0675 
*I *30:d B *C 2.2850 1.0675 

*CAP
0 *29:s 1.57959e-18

*RES
0 *30:d *29:s 0.001  // $mwires

*END

*D_NET *6 2.23198e-16

*CONN
*I *74:g B *C 0.3925 0.5300 
*I *75:d B *C 0.7150 0.5875 
*I *23:g B *C 0.3925 1.0950 
*I *24:d B *C 0.7150 1.0075 
*N *6:1 *C 0.4800 0.7650 
*N *6:2 *C 0.3925 0.7650 
*N *6:6 *C 0.7150 0.7750 

*CAP
0 *24:d 2.78525e-17
1 *23:g 4.16519e-17
2 *75:d 3.49353e-17
3 *74:g 3.30371e-17
4 *6:6 2.79019e-17
5 *6:2 7.40617e-18
6 *6:1 5.04131e-17

*RES
0 *6:1 *6:2 48.890118  // $poly_conn
1 *6:2 *74:g 21.845535  // $poly_conn
2 *6:2 *23:g 29.537844  // $poly_conn
3 *24:d *6:6 62.119686  // $metal1_conn
4 *6:6 *6:1 0.122631  // $metal1_conn
5 *6:6 *75:d 75.113068  // $metal1_conn

*END

*D_NET *5 9.52399e-16

*CONN
*I *47:g B *C 3.9225 0.5275 
*I *77:d B *C 1.3975 0.4025 
*I *12:g B *C 2.6525 0.4675 
*I *50:g B *C 3.9425 1.0725 
*I *26:d B *C 1.3550 1.3225 
*I *30:g B *C 2.3375 1.0675 
*N *5:3 *C 2.3750 1.3250 
*N *5:6 *C 3.7250 1.3450 
*N *5:7 *C 1.4600 1.3700 

*CAP
0 *30:g 8.81192e-17
1 *26:d 2.4629e-17
2 *50:g 6.7258e-17
3 *12:g 4.88748e-17
4 *77:d 1.39954e-16
5 *47:g 5.51393e-17
6 *5:7 1.32925e-16
7 *5:3 2.39326e-16
8 *5:6 1.56173e-16

*RES
0 *12:g *30:g 176.633514  // $poly_conn
1 *30:g *5:3 73.975731  // $poly_conn
2 *47:g *50:g 91.271011  // $poly_conn
3 *50:g *5:6 121.59845  // $poly_conn
4 *5:6 *5:3 1.056757  // $metal1_conn
5 *5:3 *5:7 0.702728  // $metal1_conn
6 *5:7 *26:d 62.047661  // $metal1_conn
7 *5:7 *77:d 75.741264  // $metal1_conn

*END

*D_NET *4 7.82198e-16

*CONN
*I *75:g B *C 0.6225 0.5875 
*I *76:g B *C 1.0275 0.4600 
*I *78:d B *C 1.6700 0.4675 
*I *10:g B *C 2.2325 0.4675 
*I *24:g B *C 0.6225 1.0075 
*I *25:g B *C 1.0275 1.2350 
*I *27:d B *C 1.6700 1.0675 
*I *29:g B *C 2.2325 1.0675 
*N *4:2 *C 1.0275 0.7000 
*N *4:3 *C 0.6225 0.7375 
*N *4:6 *C 1.1000 0.7000 
*N *4:10 *C 2.1700 0.2950 
*N *4:11 *C 1.6600 0.2975 
*N *4:13 *C 1.6600 0.4550 

*CAP
0 *29:g 9.59219e-17
1 *27:d 6.51387e-17
2 *25:g 5.25857e-17
3 *24:g 2.87191e-17
4 *10:g 4.66002e-17
5 *78:d 6.23433e-17
6 *76:g 2.97382e-17
7 *75:g 2.03939e-17
8 *4:11 1.12953e-16
9 *4:3 2.87508e-17
10 *4:2 1.77893e-17
11 *4:6 1.34414e-16
12 *4:10 8.68505e-17

*RES
0 *25:g *4:2 83.23098  // $poly_conn
1 *4:2 *4:3 100.32399  // $poly_conn
2 *4:3 *75:g 18.337015  // $poly_conn
3 *4:2 *76:g 24.256618  // $poly_conn
4 *4:2 *4:6 49.171638  // $poly_conn
5 *4:3 *24:g 40.131889  // $poly_conn
6 *29:g *10:g 107.692307  // $poly_conn
7 *10:g *4:10 70.713776  // $poly_conn
8 *4:6 *4:11 0.774026  // $metal1_conn
9 *4:11 *4:13 0.116247  // $metal1_conn
10 *4:11 *4:10 0.345804  // $metal1_conn
11 *4:13 *27:d 62.426369  // $metal1_conn
12 *78:d *4:13 75  // $metal1_conn

*END

*D_NET *3 4.85437e-16

*CONN
*I *78:g B *C 1.7625 0.4675 
*I *14:d B *C 3.1750 0.5875 
*I *15:d B *C 3.1750 0.5875 
*I *27:g B *C 1.7625 1.0675 
*I *32:d B *C 3.2125 1.0675 
*I *33:d B *C 3.2125 1.0675 
*N *3:1 *C 1.8200 0.6850 
*N *3:2 *C 1.7625 0.6850 
*N *3:6 *C 3.1750 0.7950 

*CAP
0 *32:d 4.39016e-17
1 *27:g 4.28118e-17
2 *14:d 3.61419e-17
3 *78:g 3.79458e-17
4 *3:6 1.60199e-16
5 *3:2 3.01457e-17
6 *3:1 1.34291e-16

*RES
0 *3:1 *3:2 45.778431  // $poly_conn
1 *3:2 *78:g 30.509096  // $poly_conn
2 *3:2 *27:g 63.84243  // $poly_conn
3 *14:d *3:6 75.15963  // $metal1_conn
4 *3:6 *3:1 1.083972  // $metal1_conn
5 *3:6 *32:d 62.169975  // $metal1_conn

*END

*D_NET *2 2.33062e-16

*CONN
*I *28:d B *C 2.1300 1.0675 
*I *29:d B *C 2.1300 1.0675 
*I *32:s B *C 2.9225 1.0675 

*CAP
0 *32:s 1.14704e-16
1 *28:d 1.18357e-16

*RES
0 *32:s *28:d 124.417603  // $metal1_conn

*END

*D_NET *71 1.64983e-16

*CONN
*I *1:d B *C 2.1300 0.4675 
*I *10:s B *C 2.1300 0.4675 
*I *12:s B *C 2.7525 0.4675 

*CAP
0 *12:s 7.89706e-17
1 *1:d 8.60124e-17

*RES
0 *1:d *12:s 150.610611  // $metal1_conn

*END

*D_NET *69 1.43815e-16

*CONN
*I *10:d B *C 2.4425 0.4675 
*I *12:d B *C 2.4425 0.4675 
*I *14:s B *C 2.9800 0.5875 

*CAP
0 *14:s 6.74643e-17
1 *10:d 7.63505e-17

*RES
0 *14:s *10:d 150.309845  // $metal1_conn

*END

*D_NET *67 5.68644e-16

*CONN
*I *47:d B *C 4.0375 0.5275 
*I *49:d B *C 4.0375 0.5275 
*I *68:g B *C 4.5625 0.5275 
*I *15:s B *C 3.4275 0.5875 
*I *52:d B *C 4.2650 1.0725 
*I *53:d B *C 4.2650 1.0725 
*I *19:g B *C 4.5625 1.1125 
*I *33:s B *C 3.4150 1.0675 
*N *67:2 *C 4.5250 0.8650 
*N *67:4 *C 4.2350 0.8650 
*N *67:5 *C 4.0250 0.6900 
*N *67:6 *C 3.6100 0.6750 

*CAP
0 *33:s 7.16739e-17
1 *19:g 7.183e-17
2 *52:d 3.47458e-17
3 *15:s 3.82902e-17
4 *68:g 7.07771e-17
5 *47:d 2.63617e-17
6 *67:6 5.40883e-17
7 *67:5 5.4689e-17
8 *67:4 4.70519e-17
9 *67:2 9.91363e-17

*RES
0 *19:g *67:2 26.411629  // $poly_conn
1 *67:2 *68:g 58.462914  // $poly_conn
2 *67:2 *67:4 45.229801  // $metal1_conn
3 *67:4 *67:5 0.28756  // $metal1_conn
4 *67:5 *67:6 0.341381  // $metal1_conn
5 *67:6 *33:s 62.364899  // $metal1_conn
6 *67:4 *52:d 62.083237  // $metal1_conn
7 *67:5 *47:d 75.108391  // $metal1_conn
8 *67:6 *15:s 75.134293  // $metal1_conn

*END

*D_NET *66 1.16582e-15

*CONN
*I *34:d B *C 5.8000 0.5425 
*I *72:g B *C 4.8725 0.5275 
*I *73:g B *C 5.2775 0.5325 
*I *14:g B *C 3.0725 0.5875 
*I *36:d B *C 5.8200 1.2675 
*I *20:g B *C 4.6675 1.1125 
*I *22:g B *C 5.2775 1.0825 
*I *33:g B *C 3.3225 1.0675 
*N *66:2 *C 3.1100 0.2350 
*N *66:3 *C 3.8000 0.8650 
*N *66:4 *C 3.4200 0.8350 
*N *66:6 *C 4.7200 1.4150 
*N *66:9 *C 5.3050 0.7350 
*N *66:13 *C 5.3650 1.2750 
*N *66:14 *C 4.7200 1.2750 
*N *66:15 *C 5.3650 0.7350 

*CAP
0 *33:g 3.27112e-17
1 *22:g 2.57951e-17
2 *20:g 6.73783e-17
3 *36:d 6.05789e-17
4 *14:g 4.05607e-17
5 *73:g 2.35908e-17
6 *72:g 5.57139e-17
7 *34:d 6.10797e-17
8 *66:14 1.36682e-16
9 *66:13 6.32987e-17
10 *66:2 9.89995e-17
11 *66:4 1.44554e-16
12 *66:3 1.7148e-16
13 *66:6 5.00471e-17
14 *66:9 1.33349e-16

*RES
0 *14:g *66:2 107.309067  // $poly_conn
1 *66:3 *66:4 123.652924  // $poly_conn
2 *66:4 *33:g 35.572807  // $poly_conn
3 *66:6 *20:g 89.591042  // $poly_conn
4 *22:g *66:9 49.863373  // $poly_conn
5 *66:9 *72:g 120.497612  // $poly_conn
6 *66:9 *73:g 22.283424  // $poly_conn
7 *66:4 *66:2 45.673447  // $metal1_conn
8 *36:d *66:13 62.303074  // $metal1_conn
9 *66:13 *66:14 0.474334  // $metal1_conn
10 *66:14 *66:3 0.937142  // $metal1_conn
11 *66:13 *66:15 0.339997  // $metal1_conn
12 *66:15 *66:9 45.032085  // $metal1_conn
13 *66:14 *66:6 0.055182  // $metal1_conn
14 *66:15 *34:d 75.416039  // $metal1_conn

*END

*D_NET *65 1.37193e-16

*CONN
*I *47:s B *C 3.8300 0.5275 
*I *49:s B *C 4.2550 0.5275 
*I *51:d B *C 4.2550 0.5275 

*CAP
0 *49:s 6.76474e-17
1 *47:s 6.95458e-17

*RES
0 *49:s *47:s 150.499725  // $metal1_conn

*END

*D_NET *64 3.51335e-16

*CONN
*I *49:g B *C 4.1525 0.5275 
*I *70:d B *C 4.7700 0.5275 
*I *72:s B *C 4.7700 0.5275 
*I *52:g B *C 4.1625 1.0725 
*I *20:d B *C 4.7700 1.1125 
*I *21:d B *C 4.7700 1.1125 
*N *64:2 *C 4.1575 0.7050 
*N *64:4 *C 4.2150 0.7050 
*N *64:6 *C 4.7550 0.7050 

*CAP
0 *20:d 5.124e-17
1 *52:g 5.28969e-17
2 *70:d 2.66368e-17
3 *49:g 3.84091e-17
4 *64:6 6.38209e-17
5 *64:2 4.93522e-17
6 *64:4 6.89789e-17

*RES
0 *52:g *64:2 64.81958  // $poly_conn
1 *64:2 *49:g 25.075996  // $poly_conn
2 *64:2 *64:4 48.171188  // $poly_conn
3 *70:d *64:6 75.115456  // $metal1_conn
4 *64:6 *64:4 0.382441  // $metal1_conn
5 *64:6 *20:d 62.206356  // $metal1_conn

*END

*D_NET *63 5.85985e-16

*CONN
*I *37:d B *C 6.6400 0.4475 
*I *40:d B *C 6.6400 0.4475 
*I *72:d B *C 4.9650 0.5275 
*I *42:d B *C 6.4600 1.2675 
*I *44:d B *C 6.4600 1.2675 
*I *21:s B *C 4.9650 1.1125 
*N *63:2 *C 6.2250 0.5250 
*N *63:4 *C 4.9750 0.5150 

*CAP
0 *21:s 8.24153e-17
1 *42:d 8.05749e-17
2 *72:d 1.61212e-16
3 *37:d 6.51143e-17
4 *63:2 1.96668e-16

*RES
0 *37:d *63:2 75.333984  // $metal1_conn
1 *63:2 *63:4 1.068333  // $metal1_conn
2 *63:2 *42:d 62.627575  // $metal1_conn
3 *63:4 *21:s 62.408962  // $metal1_conn
4 *72:d *63:4 75  // $metal1_conn

*END

*D_NET *62 5.91369e-16

*CONN
*I *70:g B *C 4.6675 0.5275 
*I *73:d B *C 5.1850 0.5325 
*I *15:g B *C 3.2775 0.5875 
*I *21:g B *C 4.8725 1.1125 
*I *22:d B *C 5.1850 1.0825 
*I *32:g B *C 3.1025 1.0675 
*N *62:2 *C 4.8725 0.8025 
*N *62:6 *C 5.1350 0.8300 

*CAP
0 *32:g 6.0808e-17
1 *22:d 4.08809e-17
2 *21:g 4.23426e-17
3 *15:g 1.03763e-16
4 *73:d 5.1901e-17
5 *70:g 1.43306e-16
6 *62:2 5.26524e-17
7 *62:6 9.57151e-17

*RES
0 *21:g *62:2 47.414948  // $poly_conn
1 *62:2 *70:g 97.038391  // $poly_conn
2 *70:g *15:g 463.812988  // $poly_conn
3 *15:g *32:g 98.138809  // $poly_conn
4 *62:2 *62:6 102.259735  // $poly_conn
5 *22:d *62:6 62.156544  // $metal1_conn
6 *62:6 *73:d 75.218399  // $metal1_conn

*END

*D_NET *61 3.63176e-16

*CONN
*I *37:g B *C 6.5375 0.4475 
*I *45:d B *C 7.2650 0.4475 
*I *44:g B *C 6.5625 1.2675 
*I *48:d B *C 7.1650 1.2675 
*N *61:2 *C 6.5750 1.0600 
*N *61:5 *C 7.1750 1.0600 

*CAP
0 *48:d 1.06486e-17
1 *44:g 3.59377e-17
2 *45:d 4.80549e-17
3 *37:g 6.53037e-17
4 *61:5 7.63697e-17
5 *61:2 1.26862e-16

*RES
0 *44:g *61:2 16.15522  // $poly_conn
1 *61:2 *37:g 139.007751  // $poly_conn
2 *48:d *61:5 62.08786  // $metal1_conn
3 *61:5 *61:2 45.444553  // $metal1_conn
4 *61:5 *45:d 75.466911  // $metal1_conn

*END

