*SPEF "IEEE 1481-1999"
*DESIGN  "SDFFRX2"
*DATE "Mon Sep 27 11:03:17 2010"
*VENDOR "Cadence Design Systems"
*PROGRAM "Assura RCX"
*VERSION "3.2 Red Hat Linux release 7.2 (Enigma) - (09/09/2009-10:39)"
*DESIGN_FLOW "Physical Verification"
*DIVIDER /
*DELIMITER :
*BUS_DELIMITER []
*T_UNIT 1 PS
*C_UNIT 1e15 FF
*R_UNIT 1 OHM
*L_UNIT 1 MH
// DeviceFingerDelim "@"
// MATCHED
// caps2d version: 10

*NAME_MAP
*1 VSS
*2 mp30
*3 mp35
*4 mp36
*5 mp37
*6 mp25
*7 mp21
*8 mp13
*9 mp14
*10 mp12
*11 CK
*12 mp11
*13 mn30
*14 mp10
*15 mn35
*16 mp40
*17 mn36
*18 mp56
*19 mn37
*20 mp57
*21 mn25
*22 mp57\@1
*23 mn21
*24 qint
*25 mp55
*26 mn13
*27 n6
*28 mp55\@1
*29 mn14
*30 mout
*31 mp20
*32 mn12
*33 n30
*34 QN
*35 mp46
*36 n20
*37 SEb
*38 Db
*39 Ckbb
*40 D
*41 qbint
*42 CKb
*43 mp45
*44 mp50
*45 mp51
*46 VDD
*47 n8
*48 n4
*49 n2
*50 n9
*51 Q
*52 RN
*53 n11
*54 n7
*55 n5
*56 n3
*57 n1
*58 mn11
*59 mn10
*60 mn40
*61 SE
*62 mn56
*63 mn57
*64 mn57\@1
*65 mn55
*66 SI
*67 mn55\@1
*68 mn20
*69 mn46
*70 mn45
*71 mn50
*72 mn51

*GROUND_NETS VSS

*PORTS
*46 I
*1 I
*11 I
*40 I
*52 I
*61 I
*66 I
*51 O
*34 O

*D_NET *46 7.1738e-16

*CONN
*P *46 I *C 0.1000 1.7100 
*I *2:s B *C 3.6350 1.0775 
*I *3:s B *C 3.6350 1.0775 
*I *4:s B *C 4.0200 1.2200 
*I *7:s B *C 5.1825 1.5700 
*I *8:s B *C 5.1825 1.5700 
*I *12:s B *C 6.0050 1.0275 
*I *14:s B *C 6.0050 1.0275 
*I *18:s B *C 0.4450 1.0950 
*I *20:s B *C 0.4450 1.0950 
*I *22:s B *C 0.9400 1.0950 
*I *25:s B *C 0.9400 1.0950 
*I *28:s B *C 1.3750 1.3450 
*I *31:s B *C 1.3750 1.3450 
*I *35:s B *C 2.1500 1.1250 
*I *43:s B *C 2.5625 1.0775 
*I *44:s B *C 2.5625 1.0775 
*N *46:2 *C 5.3000 1.7100 
*N *46:3 *C 5.3000 1.7100 
*N *46:4 *C 5.1650 1.7100 
*N *46:5 *C 3.9900 1.7100 
*N *46:6 *C 3.5500 1.7100 
*N *46:7 *C 3.2000 1.7100 
*N *46:8 *C 2.4650 1.7100 
*N *46:9 *C 2.0650 1.7100 

*CAP
0 *43:s 1.01019e-17
1 *35:s 2.99132e-17
2 *28:s 1.2092e-16
3 *12:s 2.3639e-17
4 *7:s 9.6746e-18
5 *4:s 3.54623e-17
6 *2:s 2.23568e-17
7 *46:9 1.26138e-17
8 *46:8 2.15218e-17
9 *46:6 1.65828e-17
10 *46:5 2.80413e-17
11 *46:4 2.39149e-17
12 *46:2 3.59119e-16
13 *46 3.51844e-18

*RES
0 *28:s *46 0.114856  // $metal1_conn
1 *46:2 *46:3 6.818182  // $metal1_conn
2 *46:2 *46:7 7.5  // $metal1_conn
3 *46:2 *28:s 6.818182  // $metal1_conn
4 *12:s *46:3 62.422344  // $metal1_conn
5 *46:4 *7:s 62.074413  // $metal1_conn
6 *46:5 *4:s 62.177212  // $metal1_conn
7 *46:6 *2:s 62.045803  // $metal1_conn
8 *46:8 *43:s 62.074413  // $metal1_conn
9 *46:9 *35:s 62.247421  // $metal1_conn
10 *46:3 *46:4 0.067482  // $metal1_conn
11 *46:4 *46:5 0.588654  // $metal1_conn
12 *46:5 *46:6 0.219237  // $metal1_conn
13 *46:6 *46:7 0.174315  // $metal1_conn
14 *46:7 *46:8 0.368271  // $metal1_conn
15 *46:8 *46:9 0.200134  // $metal1_conn
16 *46:9 *28:s 0.358049  // $metal1_conn

*END

*D_NET *1 0

*CONN
*P *1 I *C 0.1000 0.0000 
*I *13:s B *C 3.7050 0.5675 
*I *15:s B *C 3.7050 0.5675 
*I *23:s B *C 5.1075 0.4525 
*I *26:s B *C 5.1075 0.4525 
*I *58:s B *C 6.0650 0.4525 
*I *59:s B *C 6.0650 0.4525 
*I *62:s B *C 0.4850 0.4800 
*I *63:s B *C 0.4850 0.4800 
*I *64:s B *C 0.8850 0.4800 
*I *65:s B *C 0.8850 0.4800 
*I *67:s B *C 1.4400 0.4925 
*I *68:s B *C 1.4400 0.4925 
*I *70:s B *C 2.5750 0.5675 
*I *71:s B *C 2.5750 0.5675 
*N *1:2 *C 5.3000 0.0000 
*N *1:3 *C 5.3000 0.0000 
*N *1:4 *C 5.1050 0.0000 
*N *1:5 *C 3.6200 0.0000 
*N *1:6 *C 3.2000 0.0000 
*N *1:7 *C 2.5200 0.0000 


*RES
0 *67:s *1 0.187547  // $metal1_conn
1 *1:2 *1:3 5.636364  // $metal1_conn
2 *1:2 *1:6 6.2  // $metal1_conn
3 *1:2 *67:s 5.636364  // $metal1_conn
4 *58:s *1:3 75.405655  // $metal1_conn
5 *1:4 *23:s 75.280807  // $metal1_conn
6 *1:5 *13:s 75.045799  // $metal1_conn
7 *1:7 *70:s 75.13063  // $metal1_conn
8 *1:3 *1:4 0.097561  // $metal1_conn
9 *1:4 *1:5 0.743112  // $metal1_conn
10 *1:5 *1:6 0.209407  // $metal1_conn
11 *1:6 *1:7 0.340699  // $metal1_conn
12 *1:7 *67:s 0.601187  // $metal1_conn

*END

*D_NET *11 1.9358e-16

*CONN
*P *11 I *C 1.5000 0.6650 
*I *68:g B *C 1.5225 0.4925 
*I *31:g B *C 1.4675 1.0075 
*N *11:2 *C 1.4950 0.6750 

*CAP
0 *31:g 4.00881e-17
1 *68:g 2.34422e-17
2 *11:2 2.59038e-17
3 *11 1.04146e-16

*RES
0 *68:g *11:2 19.691952  // $poly_conn
1 *11:2 *31:g 49.179131  // $poly_conn
2 *11:2 *11 45.002518  // $metal1_conn

*END

*D_NET *40 2.50551e-16

*CONN
*P *40 I *C 5.7000 1.0450 
*I *58:g B *C 5.8475 0.4525 
*I *12:g B *C 5.8475 1.0275 
*N *40:2 *C 5.8750 0.8100 

*CAP
0 *12:g 3.58944e-17
1 *58:g 6.93493e-17
2 *40:2 9.22934e-17
3 *40 5.30144e-17

*RES
0 *12:g *40:2 19.691952  // $poly_conn
1 *40:2 *58:g 64.563744  // $poly_conn
2 *40 *40:2 45.213474  // $metal1_conn

*END

*D_NET *52 6.72141e-16

*CONN
*P *52 I *C 2.5000 1.0450 
*I *15:g B *C 3.7525 0.5675 
*I *70:g B *C 2.3575 0.5375 
*I *3:g B *C 3.6825 1.0775 
*I *43:g B *C 2.4025 1.1250 
*N *52:2 *C 2.4450 0.8700 
*N *52:6 *C 3.7100 1.4100 

*CAP
0 *43:g 4.43501e-17
1 *3:g 6.53326e-17
2 *70:g 6.86415e-17
3 *15:g 8.39389e-17
4 *52:2 8.20706e-17
5 *52:6 1.87976e-16
6 *52 1.39832e-16

*RES
0 *43:g *52:2 16.15522  // $poly_conn
1 *52:2 *70:g 56.612999  // $poly_conn
2 *15:g *3:g 90.736076  // $poly_conn
3 *3:g *52:6 94.179131  // $poly_conn
4 *52:6 *52 1.100671  // $metal1_conn
5 *52 *52:2 45.10347  // $metal1_conn

*END

*D_NET *61 3.58933e-16

*CONN
*P *61 I *C 6.1000 0.6650 
*I *29:g B *C 5.5375 0.4525 
*I *59:g B *C 6.1125 0.4525 
*I *10:g B *C 5.6275 1.0275 
*I *14:g B *C 6.0625 1.0275 
*N *61:2 *C 5.6650 0.8200 
*N *61:5 *C 6.0900 0.6600 
*N *61:7 *C 6.0900 0.6600 

*CAP
0 *14:g 3.8455e-17
1 *10:g 2.94836e-17
2 *59:g 2.69452e-17
3 *29:g 4.89348e-17
4 *61:2 1.17991e-16
5 *61:5 9.71242e-17

*RES
0 *10:g *61:2 16.15522  // $poly_conn
1 *61:2 *29:g 77.404114  // $poly_conn
2 *59:g *61:5 23.808931  // $poly_conn
3 *61:5 *14:g 55.860214  // $poly_conn
4 *61:2 *61:7 45.34341  // $metal1_conn
5 *61:7 *61 0.004841  // $metal1_conn
6 *61:5 *61:7 45  // $metal1_conn

*END

*D_NET *66 2.54952e-16

*CONN
*P *66 I *C 5.1000 0.8550 
*I *26:g B *C 5.2125 0.4525 
*I *8:g B *C 5.2125 1.0275 
*N *66:2 *C 5.1750 0.6600 

*CAP
0 *8:g 7.66174e-17
1 *26:g 2.55225e-17
2 *66:2 7.91422e-17
3 *66 7.36697e-17

*RES
0 *8:g *66:2 57.180859  // $poly_conn
1 *66:2 *26:g 25.129578  // $poly_conn
2 *66:2 *66 45.13203  // $metal1_conn

*END

*D_NET *51 1.14037e-16

*CONN
*P *51 O *C 1.1000 0.6650 
*I *65:d B *C 1.1025 0.4800 
*I *67:d B *C 1.1025 0.4800 
*I *25:d B *C 1.1025 1.0950 
*I *28:d B *C 1.1025 1.0950 

*CAP
0 *25:d 6.15675e-17
1 *65:d 1.4286e-17
2 *51 3.81838e-17

*RES
0 *51 *25:d 62.169441  // $metal1_conn
1 *65:d *51 75.06707  // $metal1_conn

*END

*D_NET *34 1.06167e-16

*CONN
*P *34 O *C 0.7000 0.6650 
*I *63:d B *C 0.6800 0.4800 
*I *64:d B *C 0.6800 0.4800 
*I *20:d B *C 0.6075 1.0950 
*I *22:d B *C 0.6075 1.0950 

*CAP
0 *20:d 5.02644e-17
1 *63:d 1.39068e-17
2 *34 4.19958e-17

*RES
0 *34 *20:d 62.194759  // $metal1_conn
1 *63:d *34 75.065384  // $metal1_conn

*END

*D_NET *57 0

*CONN
*I *32:s B *C 5.7950 0.4525 
*I *58:d B *C 5.7950 0.4525 


*RES
0 *58:d *32:s 0.001  // $mwires

*END

*D_NET *56 2.8757e-18

*CONN
*I *26:d B *C 5.3750 0.4525 
*I *29:s B *C 5.3750 0.4525 

*CAP
0 *26:d 2.8757e-18

*RES
0 *29:s *26:d 0.001  // $mwires

*END

*D_NET *55 2.73728e-19

*CONN
*I *17:d B *C 3.9725 0.5675 
*I *19:s B *C 3.9725 0.5675 

*CAP
0 *17:d 2.73728e-19

*RES
0 *19:s *17:d 0.001  // $mwires

*END

*D_NET *54 0

*CONN
*I *15:d B *C 3.8050 0.5675 
*I *17:s B *C 3.8050 0.5675 


*RES
0 *17:s *15:d 0.001  // $mwires

*END

*D_NET *53 0

*CONN
*I *71:d B *C 2.6750 0.5675 
*I *72:s B *C 2.6750 0.5675 


*RES
0 *72:s *71:d 0.001  // $mwires

*END

*D_NET *50 0

*CONN
*I *69:s B *C 2.3050 0.5375 
*I *70:d B *C 2.3050 0.5375 


*RES
0 *70:d *69:s 0.001  // $mwires

*END

*D_NET *49 5.81625e-18

*CONN
*I *10:s B *C 5.7375 1.0275 
*I *12:d B *C 5.7375 1.0275 

*CAP
0 *10:s 5.81625e-18

*RES
0 *12:d *10:s 0.001  // $mwires

*END

*D_NET *48 2.29068e-18

*CONN
*I *8:d B *C 5.2650 1.0275 
*I *9:s B *C 5.2650 1.0275 

*CAP
0 *8:d 2.29068e-18

*RES
0 *9:s *8:d 0.001  // $mwires

*END

*D_NET *47 3.96716e-18

*CONN
*I *44:d B *C 2.7450 1.0775 
*I *45:s B *C 2.7450 1.0775 

*CAP
0 *44:d 3.96716e-18

*RES
0 *45:s *44:d 0.001  // $mwires

*END

*D_NET *42 1.18952e-15

*CONN
*I *21:g B *C 4.3075 0.5675 
*I *23:g B *C 5.0025 0.4525 
*I *68:d B *C 1.6875 0.4925 
*I *72:g B *C 2.7275 0.5675 
*I *5:g B *C 4.3225 1.0225 
*I *7:g B *C 5.0025 1.0275 
*I *16:g B *C 3.1675 1.0775 
*I *31:d B *C 1.6950 0.9600 
*N *42:2 *C 2.7650 0.2450 
*N *42:4 *C 3.1300 0.8700 
*N *42:7 *C 4.2950 1.2800 
*N *42:9 *C 4.9750 1.3150 
*N *42:12 *C 1.7700 0.4800 

*CAP
0 *31:d 5.9096e-17
1 *16:g 3.48538e-17
2 *7:g 4.22918e-17
3 *5:g 4.11205e-17
4 *72:g 5.68932e-17
5 *68:d 1.17943e-16
6 *23:g 5.04473e-17
7 *21:g 4.49348e-17
8 *42:2 1.64861e-16
9 *42:4 2.52511e-16
10 *42:7 2.28432e-16
11 *42:9 9.61335e-17

*RES
0 *72:g *42:2 99.61676  // $poly_conn
1 *16:g *42:4 61.15522  // $poly_conn
2 *21:g *5:g 68.490128  // $poly_conn
3 *5:g *42:7 72.65509  // $poly_conn
4 *7:g *42:9 82.640671  // $poly_conn
5 *7:g *23:g 101.282051  // $poly_conn
6 *42:9 *42:7 0.512082  // $metal1_conn
7 *42:7 *42:4 1.143737  // $metal1_conn
8 *42:4 *42:2 0.71378  // $metal1_conn
9 *42:2 *42:12 0.832031  // $metal1_conn
10 *42:12 *31:d 62.315731  // $metal1_conn
11 *68:d *42:12 75  // $metal1_conn

*END

*D_NET *41 1.00523e-15

*CONN
*I *62:g B *C 0.3125 0.5375 
*I *65:g B *C 0.9875 0.4800 
*I *67:g B *C 1.2175 0.4800 
*I *69:d B *C 2.1325 0.5375 
*I *71:g B *C 2.6225 0.5675 
*I *18:g B *C 0.2275 1.0075 
*I *25:g B *C 0.9875 1.0950 
*I *28:g B *C 1.2175 1.0950 
*I *35:d B *C 2.3000 1.1250 
*I *43:d B *C 2.3000 1.1250 
*I *44:g B *C 2.6225 1.0775 
*N *41:2 *C 0.2850 0.7900 
*N *41:14 *C 2.6500 1.2950 
*N *41:16 *C 2.0350 1.0250 
*N *41:20 *C 2.3000 1.1375 

*CAP
0 *44:g 4.27804e-17
1 *35:d 5.34949e-17
2 *28:g 4.32685e-16
3 *18:g 1.6275e-17
4 *71:g 8.03636e-17
5 *69:d 6.86505e-17
6 *62:g 2.976e-17
7 *41:16 7.70907e-17
8 *41:2 1.21993e-16
9 *41:14 8.21386e-17

*RES
0 *44:g *71:g 84.615387  // $poly_conn
1 *44:g *41:14 64.691956  // $poly_conn
2 *41:2 *18:g 21.323034  // $poly_conn
3 *62:g *41:2 35.347393  // $poly_conn
4 *41:20 *41:14 0.311499  // $metal1_conn
5 *28:g *41:2 45.68119  // $metal1_conn
6 *35:d *41:20 31  // $metal1_conn
7 *69:d *41:16 75.329292  // $metal1_conn
8 *41:16 *28:g 0.585857  // $metal1_conn
9 *41:16 *41:20 0.238601  // $metal1_conn

*END

*D_NET *39 6.44746e-16

*CONN
*I *19:g B *C 4.0875 0.5675 
*I *23:d B *C 4.9100 0.4525 
*I *60:g B *C 3.2125 0.5675 
*I *6:g B *C 4.5275 1.0225 
*I *7:d B *C 4.9100 1.0275 
*I *45:g B *C 2.8675 1.0775 
*N *39:3 *C 3.2500 0.3750 
*N *39:5 *C 4.1250 0.3750 
*N *39:6 *C 4.7300 0.6800 
*N *39:9 *C 4.9000 0.6500 

*CAP
0 *45:g 7.14206e-17
1 *7:d 5.00155e-17
2 *6:g 5.08544e-17
3 *60:g 4.38736e-17
4 *23:d 2.12024e-17
5 *19:g 5.78033e-17
6 *39:9 2.60388e-17
7 *39:3 1.00138e-16
8 *39:5 1.34906e-16
9 *39:6 8.84937e-17

*RES
0 *45:g *60:g 149.420868  // $poly_conn
1 *60:g *39:3 66.283424  // $poly_conn
2 *19:g *39:5 66.283424  // $poly_conn
3 *39:6 *6:g 135.701019  // $poly_conn
4 *23:d *39:9 75.14856  // $metal1_conn
5 *39:9 *39:6 0.08963  // $metal1_conn
6 *39:6 *39:5 0.637442  // $metal1_conn
7 *39:5 *39:3 0.595757  // $metal1_conn
8 *39:9 *7:d 62.242622  // $metal1_conn

*END

*D_NET *38 4.41756e-16

*CONN
*I *21:d B *C 4.4000 0.5675 
*I *29:d B *C 5.6400 0.4525 
*I *32:d B *C 5.6400 0.4525 
*I *6:s B *C 4.6200 1.0225 
*I *9:d B *C 5.4725 1.0275 
*I *10:d B *C 5.4725 1.0275 
*N *38:3 *C 5.5050 1.0750 
*N *38:5 *C 4.6300 0.9750 

*CAP
0 *9:d 1.20218e-16
1 *6:s 1.50915e-16
2 *29:d 1.04459e-16
3 *21:d 6.61647e-17

*RES
0 *29:d *38:3 75.555649  // $metal1_conn
1 *38:3 *38:5 0.764784  // $metal1_conn
2 *38:5 *21:d 75.388626  // $metal1_conn
3 *9:d *38:3 62  // $metal1_conn
4 *6:s *38:5 62  // $metal1_conn

*END

*D_NET *37 5.55699e-16

*CONN
*I *32:g B *C 5.7425 0.4525 
*I *59:d B *C 6.2050 0.4525 
*I *9:g B *C 5.3175 1.0275 
*I *14:d B *C 6.1550 1.0275 
*N *37:2 *C 5.3450 0.7650 
*N *37:4 *C 5.6800 0.1900 
*N *37:7 *C 6.2150 0.4400 
*N *37:8 *C 5.6800 0.3050 

*CAP
0 *14:d 4.06894e-17
1 *9:g 6.41572e-17
2 *59:d 8.32975e-17
3 *32:g 7.42761e-17
4 *37:8 1.06902e-16
5 *37:2 1.30737e-16
6 *37:4 5.564e-17

*RES
0 *9:g *37:2 76.230415  // $poly_conn
1 *32:g *37:4 88.733513  // $poly_conn
2 *14:d *37:7 62.454433  // $metal1_conn
3 *37:7 *37:8 0.472373  // $metal1_conn
4 *37:8 *37:2 0.586155  // $metal1_conn
5 *37:8 *37:4 0.042612  // $metal1_conn
6 *59:d *37:7 75  // $metal1_conn

*END

*D_NET *36 3.92157e-16

*CONN
*I *13:g B *C 3.4875 0.5675 
*I *19:d B *C 4.1975 0.5675 
*I *21:s B *C 4.1975 0.5675 
*I *2:g B *C 3.4875 1.0775 
*I *5:d B *C 4.4250 1.0225 
*I *6:d B *C 4.4250 1.0225 
*N *36:1 *C 3.5400 0.8700 
*N *36:2 *C 3.4875 0.8700 
*N *36:6 *C 4.3000 0.9200 
*N *36:8 *C 4.4255 1.0600 

*CAP
0 *5:d 3.22567e-17
1 *2:g 4.21311e-17
2 *19:d 3.77685e-17
3 *13:g 4.32235e-17
4 *36:6 1.0462e-16
5 *36:1 1.32157e-16

*RES
0 *36:1 *36:2 45.294373  // $poly_conn
1 *36:2 *13:g 53.896816  // $poly_conn
2 *36:2 *2:g 20.563484  // $poly_conn
3 *19:d *36:6 75.218628  // $metal1_conn
4 *36:6 *36:8 0.129652  // $metal1_conn
5 *36:6 *36:1 0.537113  // $metal1_conn
6 *5:d *36:8 62  // $metal1_conn

*END

*D_NET *33 3.47307e-16

*CONN
*I *60:s B *C 2.9700 0.5675 
*I *69:g B *C 2.2525 0.5375 
*I *72:d B *C 2.9700 0.5675 
*I *16:d B *C 3.0175 1.0775 
*I *35:g B *C 2.1975 1.1250 
*I *45:d B *C 3.0175 1.0775 
*N *33:2 *C 2.2250 0.7700 
*N *33:5 *C 2.8400 0.7100 

*CAP
0 *35:g 3.68108e-17
1 *16:d 6.71074e-17
2 *69:g 5.20921e-17
3 *60:s 3.15555e-17
4 *33:5 4.57418e-17
5 *33:2 1.13999e-16

*RES
0 *69:g *33:2 24.820158  // $poly_conn
1 *33:2 *35:g 42.768875  // $poly_conn
2 *16:d *33:5 62.314316  // $metal1_conn
3 *33:5 *33:2 45.418846  // $metal1_conn
4 *33:5 *60:s 75.093613  // $metal1_conn

*END

*D_NET *30 3.27738e-16

*CONN
*I *13:d B *C 3.3500 0.5675 
*I *17:g B *C 3.8575 0.5675 
*I *60:d B *C 3.3500 0.5675 
*I *2:d B *C 3.3275 1.0775 
*I *4:g B *C 3.8875 1.0775 
*I *16:s B *C 3.3275 1.0775 
*N *30:2 *C 3.8850 0.7500 
*N *30:5 *C 3.3500 0.7000 

*CAP
0 *4:g 4.81541e-17
1 *2:d 4.57822e-17
2 *17:g 4.79399e-17
3 *13:d 2.35969e-17
4 *30:5 5.55527e-17
5 *30:2 1.06712e-16

*RES
0 *4:g *30:2 46.140461  // $poly_conn
1 *30:2 *17:g 19.691952  // $poly_conn
2 *2:d *30:5 62.256386  // $metal1_conn
3 *30:5 *13:d 75.0793  // $metal1_conn
4 *30:5 *30:2 45.4006  // $metal1_conn

*END

*D_NET *27 1.6719e-16

*CONN
*I *3:d B *C 3.7850 1.0775 
*I *4:d B *C 3.7850 1.0775 
*I *5:s B *C 4.2300 1.0225 

*CAP
0 *5:s 8.15253e-17
1 *3:d 8.5665e-17

*RES
0 *5:s *3:d 124.260712  // $metal1_conn

*END

*D_NET *24 2.93687e-16

*CONN
*I *62:d B *C 0.2200 0.5375 
*I *63:g B *C 0.5775 0.4800 
*I *64:g B *C 0.7825 0.4800 
*I *18:d B *C 0.1350 1.0075 
*I *20:g B *C 0.4925 1.0950 
*I *22:g B *C 0.7225 1.0950 
*N *24:9 *C 0.2100 0.5500 

*CAP
0 *22:g 2.07305e-16
1 *18:d 3.80043e-17
2 *62:d 4.83772e-17

*RES
0 *22:g *24:9 45.30497  // $metal1_conn
1 *24:9 *18:d 62.307156  // $metal1_conn
2 *62:d *24:9 75  // $metal1_conn

*END

