*SPEF "IEEE 1481-1999"
*DESIGN  "SDFFSHQX1"
*DATE "Mon Sep 27 11:04:25 2010"
*VENDOR "Cadence Design Systems"
*PROGRAM "Assura RCX"
*VERSION "3.2 Red Hat Linux release 7.2 (Enigma) - (09/09/2009-10:39)"
*DESIGN_FLOW "Physical Verification"
*DIVIDER /
*DELIMITER :
*BUS_DELIMITER []
*T_UNIT 1 PS
*C_UNIT 1e15 FF
*R_UNIT 1 OHM
*L_UNIT 1 MH
// DeviceFingerDelim "@"
// MATCHED
// caps2d version: 10

*NAME_MAP
*1 mn40
*2 mn30
*3 mn31
*4 mn35
*5 mn36
*6 mp45
*7 mp50
*8 SE
*9 mp51
*10 mp52
*11 mp40
*12 mp30
*13 SI
*14 mp31
*15 mp35
*16 mp36
*17 n20
*18 mp25
*19 CKb
*20 SN
*21 mp21
*22 n30
*23 mp20
*24 SEb
*25 mp11
*26 mout
*27 mp12
*28 qbint
*29 mp14
*30 Db
*31 mp13
*32 CKbb
*33 mp10
*34 net378
*35 mp55
*36 net390
*37 net398
*38 CK
*39 net459
*40 net467
*41 net435
*42 net427
*43 net443
*44 net455
*45 VSS
*46 D
*47 mn25
*48 mn21
*49 mn20
*50 mn11
*51 Q
*52 mn12
*53 VDD
*54 mn14
*55 mn13
*56 mn10
*57 mn55
*58 net355
*59 mn45
*60 mn50
*61 mn51
*62 mn52

*GROUND_NETS VSS

*PORTS
*53 I
*45 I
*38 I
*46 I
*8 I
*13 I
*20 I
*51 O

*D_NET *53 7.80459e-16

*CONN
*P *53 I *C 0.1000 1.7100 
*I *21:s B *C 4.0925 1.0075 
*I *23:s B *C 4.7800 1.2100 
*I *25:s B *C 4.7800 1.2100 
*I *31:s B *C 5.6900 1.3450 
*I *33:s B *C 6.3250 1.2350 
*I *35:s B *C 0.2800 1.0950 
*I *6:s B *C 1.1950 1.2000 
*I *7:s B *C 1.1950 1.2000 
*I *9:s B *C 1.6050 1.5700 
*I *12:s B *C 2.4550 1.2250 
*I *14:s B *C 2.9600 1.2250 
*I *15:s B *C 2.9600 1.2250 
*N *53:2 *C 5.6500 1.7100 
*N *53:3 *C 5.3000 1.7100 
*N *53:4 *C 5.3000 1.7100 
*N *53:5 *C 4.7700 1.7100 
*N *53:6 *C 4.0950 1.7100 
*N *53:7 *C 3.2000 1.7100 
*N *53:8 *C 2.8750 1.7100 
*N *53:9 *C 2.3700 1.7100 
*N *53:10 *C 1.5800 1.7100 
*N *53:11 *C 1.1000 1.7100 
*N *53:12 *C 0.2700 1.7100 

*CAP
0 *14:s 2.47004e-17
1 *12:s 2.15023e-17
2 *9:s 1.24339e-17
3 *6:s 1.03931e-17
4 *35:s 2.9243e-17
5 *33:s 1.13321e-17
6 *31:s 2.83752e-17
7 *23:s 3.83942e-17
8 *21:s 6.84199e-17
9 *53:12 8.1833e-18
10 *53:10 2.36341e-17
11 *53:9 2.95204e-17
12 *53:8 1.60805e-17
13 *53:6 3.84254e-17
14 *53:5 1.61023e-17
15 *53:2 2.06027e-17
16 *53:3 3.83117e-16

*RES
0 *33:s *53:2 62.646908  // $metal1_conn
1 *53:2 *53:4 0.175382  // $metal1_conn
2 *53:4 *53:5 0.265679  // $metal1_conn
3 *53:5 *53:6 0.338222  // $metal1_conn
4 *53:6 *53:7 0.448781  // $metal1_conn
5 *53:7 *53:8 0.16189  // $metal1_conn
6 *53:8 *53:9 0.251041  // $metal1_conn
7 *53:9 *53:10 0.394012  // $metal1_conn
8 *53:10 *53:11 0.240363  // $metal1_conn
9 *53:11 *53:12 0.416686  // $metal1_conn
10 *53:12 *53 0.084834  // $metal1_conn
11 *53:2 *31:s 62.22541  // $metal1_conn
12 *53:5 *23:s 31.283964  // $metal1_conn
13 *53:6 *21:s 62.453735  // $metal1_conn
14 *53:8 *14:s 62.045834  // $metal1_conn
15 *53:9 *12:s 62.045834  // $metal1_conn
16 *53:10 *9:s 62.045834  // $metal1_conn
17 *53:11 *6:s 62.071484  // $metal1_conn
18 *53:12 *35:s 21.052687  // $metal1_conn
19 *53:3 *53:4 6.818182  // $metal1_conn
20 *53:3 *53:7 7.5  // $metal1_conn
21 *53:3 *53:11 6.818182  // $metal1_conn

*END

*D_NET *45 0

*CONN
*P *45 I *C 0.1000 0.0000 
*I *48:s B *C 4.0500 0.3475 
*I *49:s B *C 4.7800 0.3850 
*I *50:s B *C 4.7800 0.3850 
*I *55:s B *C 5.5450 0.3850 
*I *56:s B *C 6.2600 0.4825 
*I *57:s B *C 0.2325 0.5300 
*I *59:s B *C 1.1400 0.4675 
*I *60:s B *C 1.1400 0.4675 
*I *2:s B *C 2.4350 0.5575 
*I *4:s B *C 3.0200 0.4625 
*N *45:2 *C 5.5550 0.0000 
*N *45:3 *C 5.3000 0.0000 
*N *45:4 *C 5.3000 0.0000 
*N *45:5 *C 4.8000 0.0000 
*N *45:6 *C 3.9950 0.0000 
*N *45:7 *C 3.2000 0.0000 
*N *45:8 *C 3.0100 0.0000 
*N *45:9 *C 2.3500 0.0000 
*N *45:10 *C 1.1000 0.0000 
*N *45:11 *C 0.1300 0.0000 


*RES
0 *56:s *45:2 75.680016  // $metal1_conn
1 *45:2 *45:4 0.127725  // $metal1_conn
2 *45:4 *45:5 0.250629  // $metal1_conn
3 *45:5 *45:6 0.402486  // $metal1_conn
4 *45:6 *45:7 0.397666  // $metal1_conn
5 *45:7 *45:8 0.095117  // $metal1_conn
6 *45:8 *45:9 0.330697  // $metal1_conn
7 *45:9 *45:10 0.627276  // $metal1_conn
8 *45:10 *45:11 0.48661  // $metal1_conn
9 *45:11 *45 0.015102  // $metal1_conn
10 *45:2 *55:s 75.191948  // $metal1_conn
11 *45:5 *49:s 75.189751  // $metal1_conn
12 *45:6 *48:s 75.04583  // $metal1_conn
13 *45:8 *4:s 75.27597  // $metal1_conn
14 *45:9 *2:s 75.120674  // $metal1_conn
15 *45:10 *59:s 75.278099  // $metal1_conn
16 *45:11 *57:s 75.286781  // $metal1_conn
17 *45:3 *45:4 5.636364  // $metal1_conn
18 *45:3 *45:7 6.2  // $metal1_conn
19 *45:3 *45:10 5.636364  // $metal1_conn

*END

*D_NET *38 2.56681e-16

*CONN
*P *38 I *C 4.4650 0.9150 
*I *49:g B *C 4.6275 0.4425 
*I *23:g B *C 4.6375 1.1225 
*N *38:2 *C 4.6000 0.9050 

*CAP
0 *23:g 3.35787e-17
1 *49:g 5.53959e-17
2 *38:2 1.20943e-16
3 *38 4.6763e-17

*RES
0 *23:g *38:2 17.940676  // $poly_conn
1 *38:2 *49:g 88.324913  // $poly_conn
2 *38 *38:2 45.061378  // $metal1_conn

*END

*D_NET *46 2.54267e-16

*CONN
*P *46 I *C 4.7000 0.6650 
*I *50:g B *C 4.8725 0.3850 
*I *25:g B *C 4.8725 1.2100 
*N *46:2 *C 4.8725 0.6550 
*N *46:3 *C 4.7700 0.6550 

*CAP
0 *25:g 5.44582e-17
1 *50:g 4.49539e-17
2 *46:2 2.61289e-17
3 *46:3 6.94104e-17
4 *46 5.93152e-17

*RES
0 *25:g *46:2 89.553009  // $poly_conn
1 *46:2 *46:3 50.485863  // $poly_conn
2 *46:2 *50:g 33.14275  // $poly_conn
3 *46 *46:3 0.026939  // $metal1_conn

*END

*D_NET *8 4.38831e-16

*CONN
*P *8 I *C 6.1000 0.6650 
*I *54:g B *C 5.2875 0.3850 
*I *56:g B *C 6.1675 0.4825 
*I *27:g B *C 5.2375 1.2100 
*I *33:g B *C 6.1675 1.0075 
*N *8:2 *C 5.3100 0.6650 
*N *8:5 *C 6.1300 0.6700 

*CAP
0 *33:g 2.52074e-17
1 *27:g 5.4391e-17
2 *56:g 1.80853e-17
3 *54:g 4.65358e-17
4 *8:2 1.7957e-16
5 *8:5 2.1684e-17
6 *8 9.33575e-17

*RES
0 *54:g *8:2 28.975733  // $poly_conn
1 *8:2 *27:g 83.859344  // $poly_conn
2 *33:g *8:5 49.488552  // $poly_conn
3 *8:5 *56:g 20.001371  // $poly_conn
4 *8:2 *8 45.472763  // $metal1_conn
5 *8 *8:5 45.013634  // $metal1_conn

*END

*D_NET *13 2.91611e-16

*CONN
*P *13 I *C 5.7000 0.8550 
*I *55:g B *C 5.4525 0.3850 
*I *31:g B *C 5.5475 1.2100 
*N *13:2 *C 5.5750 0.8750 

*CAP
0 *31:g 7.0403e-17
1 *55:g 5.82954e-17
2 *13:2 9.27076e-17
3 *13 7.02046e-17

*RES
0 *31:g *13:2 27.384262  // $poly_conn
1 *13:2 *55:g 96.325462  // $poly_conn
2 *13 *13:2 45.062958  // $metal1_conn

*END

*D_NET *20 6.50704e-16

*CONN
*P *20 I *C 1.1000 1.0450 
*I *60:g B *C 1.2425 0.4675 
*I *2:g B *C 2.4825 0.5575 
*I *7:g B *C 1.2425 1.2000 
*I *12:g B *C 2.5025 1.2250 
*N *20:2 *C 1.2425 0.9350 
*N *20:3 *C 1.1100 0.9350 
*N *20:6 *C 2.4925 0.9450 
*N *20:7 *C 2.4450 0.9450 

*CAP
0 *12:g 3.75153e-17
1 *7:g 3.98938e-17
2 *2:g 6.68373e-17
3 *60:g 6.36353e-17
4 *20:2 3.20989e-17
5 *20:3 5.05102e-17
6 *20:7 2.13711e-16
7 *20 1.46502e-16

*RES
0 *7:g *20:2 24.894089  // $poly_conn
1 *20:2 *20:3 52.24773  // $poly_conn
2 *20:2 *60:g 90.278702  // $poly_conn
3 *12:g *20:6 33.145679  // $poly_conn
4 *20:6 *20:7 47.215244  // $poly_conn
5 *20:6 *2:g 74.171326  // $poly_conn
6 *20:3 *20 0.076411  // $metal1_conn
7 *20 *20:7 1.292793  // $metal1_conn

*END

*D_NET *51 1.27738e-16

*CONN
*P *51 O *C 0.7000 0.8550 
*I *57:d B *C 0.5050 0.5300 
*I *35:d B *C 0.5325 0.9600 
*N *51:2 *C 0.5200 0.8300 

*CAP
0 *35:d 1.97742e-17
1 *57:d 4.90402e-17
2 *51:2 1.96236e-17
3 *51 3.93001e-17

*RES
0 *35:d *51:2 62.081821  // $metal1_conn
1 *51:2 *57:d 75.136391  // $metal1_conn
2 *51:2 *51 0.087387  // $metal1_conn

*END

*D_NET *44 2.6916e-18

*CONN
*I *54:s B *C 5.3700 0.3850 
*I *55:d B *C 5.3700 0.3850 

*CAP
0 *54:s 2.6916e-18

*RES
0 *55:d *54:s 0.001  // $mwires

*END

*D_NET *43 4.75241e-18

*CONN
*I *50:d B *C 4.9775 0.3850 
*I *52:s B *C 4.9775 0.3850 

*CAP
0 *50:d 4.75241e-18

*RES
0 *52:s *50:d 0.001  // $mwires

*END

*D_NET *42 1.9247e-18

*CONN
*I *4:d B *C 3.1700 0.4625 
*I *5:s B *C 3.1700 0.4625 

*CAP
0 *4:d 1.9247e-18

*RES
0 *5:s *4:d 0.001  // $mwires

*END

*D_NET *41 0

*CONN
*I *2:d B *C 2.5350 0.5575 
*I *3:s B *C 2.5350 0.5575 


*RES
0 *3:s *2:d 0.001  // $mwires

*END

*D_NET *40 1.76019e-18

*CONN
*I *61:d B *C 1.4825 0.4675 
*I *62:s B *C 1.4825 0.4675 

*CAP
0 *61:d 1.76019e-18

*RES
0 *62:s *61:d 0.001  // $mwires

*END

*D_NET *39 2.23493e-18

*CONN
*I *60:d B *C 1.3175 0.4675 
*I *61:s B *C 1.3175 0.4675 

*CAP
0 *60:d 2.23493e-18

*RES
0 *61:s *60:d 0.001  // $mwires

*END

*D_NET *37 1.64387e-18

*CONN
*I *29:s B *C 5.4950 1.2100 
*I *31:d B *C 5.4950 1.2100 

*CAP
0 *29:s 1.64387e-18

*RES
0 *31:d *29:s 0.001  // $mwires

*END

*D_NET *36 7.41841e-18

*CONN
*I *25:d B *C 5.0550 1.2100 
*I *27:s B *C 5.0550 1.2100 

*CAP
0 *25:d 7.41841e-18

*RES
0 *27:s *25:d 0.001  // $mwires

*END

*D_NET *34 1.79091e-18

*CONN
*I *15:d B *C 3.0700 1.2250 
*I *16:s B *C 3.0700 1.2250 

*CAP
0 *15:d 1.79091e-18

*RES
0 *16:s *15:d 0.001  // $mwires

*END

*D_NET *32 8.30133e-16

*CONN
*I *48:d B *C 3.8600 0.5425 
*I *1:g B *C 1.8825 0.4675 
*I *5:g B *C 3.2275 0.4625 
*I *18:g B *C 3.4325 1.2250 
*I *21:d B *C 3.9200 1.0075 
*I *10:g B *C 1.8825 1.0550 
*N *32:3 *C 1.9100 1.4100 
*N *32:5 *C 3.4325 0.9700 
*N *32:7 *C 3.4900 0.9700 
*N *32:8 *C 3.4900 1.4100 
*N *32:10 *C 3.8700 0.9600 

*CAP
0 *10:g 4.92655e-17
1 *21:d 9.89427e-17
2 *18:g 2.1716e-17
3 *5:g 9.05022e-17
4 *1:g 4.31137e-17
5 *48:d 4.74803e-17
6 *32:8 1.86546e-16
7 *32:5 3.47336e-17
8 *32:3 1.70956e-16
9 *32:7 8.68777e-17

*RES
0 *10:g *1:g 84.615387  // $poly_conn
1 *10:g *32:3 87.768875  // $poly_conn
2 *18:g *32:5 15.869391  // $poly_conn
3 *32:5 *5:g 131.88205  // $poly_conn
4 *32:5 *32:7 48.315495  // $poly_conn
5 *32:7 *32:8 0.325239  // $metal1_conn
6 *32:8 *32:10 0.632804  // $metal1_conn
7 *32:8 *32:3 1.093869  // $metal1_conn
8 *32:10 *48:d 75.309158  // $metal1_conn
9 *21:d *32:10 62  // $metal1_conn

*END

*D_NET *30 7.27339e-16

*CONN
*I *47:s B *C 3.5925 0.4625 
*I *52:d B *C 5.1850 0.3850 
*I *54:d B *C 5.1850 0.3850 
*I *18:s B *C 3.6475 1.2850 
*I *27:d B *C 5.3400 1.2100 
*I *29:d B *C 5.3400 1.2100 
*N *30:2 *C 4.9600 0.4750 
*N *30:4 *C 3.6500 0.4200 

*CAP
0 *27:d 1.08641e-16
1 *18:s 1.17528e-16
2 *52:d 4.36363e-17
3 *47:s 2.09678e-16
4 *30:2 2.47855e-16

*RES
0 *52:d *30:2 75.252693  // $metal1_conn
1 *30:2 *30:4 1.123948  // $metal1_conn
2 *30:2 *27:d 62.863247  // $metal1_conn
3 *30:4 *18:s 62.603436  // $metal1_conn
4 *47:s *30:4 75  // $metal1_conn

*END

*D_NET *28 5.54159e-16

*CONN
*I *57:g B *C 0.3875 0.5300 
*I *59:d B *C 0.9450 0.4675 
*I *61:g B *C 1.3925 0.4675 
*I *35:g B *C 0.3725 1.0950 
*I *6:d B *C 0.8850 1.2000 
*I *9:g B *C 1.4475 1.2000 
*N *28:2 *C 0.3500 0.7600 
*N *28:5 *C 1.4300 0.6700 
*N *28:7 *C 0.9100 0.5850 
*N *28:9 *C 0.9350 0.4700 

*CAP
0 *9:g 5.70495e-17
1 *6:d 5.81423e-17
2 *35:g 3.21272e-17
3 *61:g 4.2852e-17
4 *59:d 6.23008e-17
5 *57:g 1.94807e-17
6 *28:7 7.53686e-17
7 *28:2 8.5075e-17
8 *28:5 1.21763e-16

*RES
0 *57:g *28:2 16.15522  // $poly_conn
1 *28:2 *35:g 26.411629  // $poly_conn
2 *9:g *28:5 86.668037  // $poly_conn
3 *28:5 *61:g 16.15522  // $poly_conn
4 *28:5 *28:7 45.417969  // $metal1_conn
5 *28:7 *28:9 0.062404  // $metal1_conn
6 *28:9 *28:2 45.634865  // $metal1_conn
7 *28:7 *6:d 62.39846  // $metal1_conn
8 *59:d *28:9 75  // $metal1_conn

*END

*D_NET *26 5.2494e-16

*CONN
*I *1:s B *C 1.9825 0.4675 
*I *3:d B *C 2.6800 0.5575 
*I *4:g B *C 3.1125 0.4625 
*I *11:s B *C 2.2300 0.9600 
*I *12:d B *C 2.6225 1.2250 
*I *14:d B *C 2.6225 1.2250 
*I *15:g B *C 3.0075 1.2250 
*N *26:2 *C 2.9800 0.7700 
*N *26:4 *C 2.6900 0.7700 
*N *26:5 *C 2.6325 0.7700 
*N *26:6 *C 2.1900 0.7700 

*CAP
0 *15:g 7.7815e-17
1 *12:d 5.50757e-17
2 *11:s 3.31402e-17
3 *4:g 4.98243e-17
4 *3:d 3.2039e-17
5 *1:s 5.53385e-17
6 *26:6 5.76006e-17
7 *26:4 6.86956e-17
8 *26:2 9.54114e-17

*RES
0 *4:g *26:2 61.523254  // $poly_conn
1 *26:2 *15:g 65.247986  // $poly_conn
2 *26:2 *26:4 45.221344  // $metal1_conn
3 *26:4 *26:5 0.061571  // $metal1_conn
4 *26:5 *26:6 0.32814  // $metal1_conn
5 *26:6 *1:s 75.309608  // $metal1_conn
6 *26:4 *3:d 75.09597  // $metal1_conn
7 *26:5 *12:d 62.256001  // $metal1_conn
8 *26:6 *11:s 62.121109  // $metal1_conn

*END

*D_NET *24 6.40048e-16

*CONN
*I *52:g B *C 5.0825 0.3850 
*I *56:d B *C 6.0425 0.4825 
*I *29:g B *C 5.4425 1.2100 
*I *33:d B *C 6.0750 1.0075 
*N *24:2 *C 5.1200 0.6800 
*N *24:4 *C 5.4050 0.9150 

*CAP
0 *33:d 7.90325e-17
1 *29:g 6.98998e-17
2 *56:d 1.10823e-16
3 *52:g 3.99888e-17
4 *24:2 1.79984e-16
5 *24:4 1.6032e-16

*RES
0 *52:g *24:2 77.821884  // $poly_conn
1 *29:g *24:4 61.15522  // $poly_conn
2 *56:d *24:2 75.83773  // $metal1_conn
3 *24:2 *24:4 0.377785  // $metal1_conn
4 *24:4 *33:d 62.662971  // $metal1_conn

*END

*D_NET *22 4.23241e-16

*CONN
*I *59:g B *C 1.0375 0.4675 
*I *62:d B *C 1.7275 0.4675 
*I *1:d B *C 1.7275 0.4675 
*I *6:g B *C 0.9775 1.2000 
*I *10:d B *C 1.9850 1.0550 
*I *11:d B *C 1.9850 1.0550 
*N *22:2 *C 1.0750 0.7450 
*N *22:5 *C 1.8100 0.8700 

*CAP
0 *10:d 3.55799e-17
1 *6:g 5.89983e-17
2 *62:d 6.32236e-17
3 *59:g 3.46727e-17
4 *22:5 9.04169e-17
5 *22:2 1.4035e-16

*RES
0 *59:g *22:2 35.385986  // $poly_conn
1 *22:2 *6:g 77.907867  // $poly_conn
2 *62:d *22:5 75.279167  // $metal1_conn
3 *22:5 *22:2 45.640903  // $metal1_conn
4 *22:5 *10:d 62.156315  // $metal1_conn

*END

*D_NET *19 1.21667e-15

*CONN
*I *47:g B *C 3.4525 0.4625 
*I *48:g B *C 3.9525 0.5425 
*I *49:d B *C 4.4675 0.4425 
*I *62:g B *C 1.5725 0.4675 
*I *21:g B *C 3.9925 1.0075 
*I *23:d B *C 4.5450 1.1225 
*I *11:g B *C 2.0875 1.0550 
*I *16:g B *C 3.1325 1.2250 
*N *19:2 *C 1.6000 0.6800 
*N *19:3 *C 2.1900 0.5800 
*N *19:6 *C 3.1700 0.9100 
*N *19:8 *C 4.0300 0.7200 
*N *19:9 *C 3.9500 0.6925 
*N *19:10 *C 3.4900 0.6650 
*N *19:13 *C 3.1700 0.6100 
*N *19:14 *C 2.1900 0.4100 
*N *19:16 *C 4.2550 0.7200 

*CAP
0 *16:g 5.32381e-17
1 *11:g 5.85202e-17
2 *23:d 7.88e-17
3 *21:g 1.85519e-17
4 *62:g 4.10248e-17
5 *49:d 5.50476e-17
6 *48:g 1.12412e-17
7 *47:g 2.43213e-17
8 *19:16 6.23723e-17
9 *19:14 1.42076e-16
10 *19:13 1.84051e-16
11 *19:9 2.39052e-17
12 *19:2 1.3481e-16
13 *19:3 6.87408e-17
14 *19:6 9.12055e-17
15 *19:10 1.46744e-16
16 *19:8 2.20213e-17

*RES
0 *62:g *19:2 64.691956  // $poly_conn
1 *19:3 *11:g 126.984718  // $poly_conn
2 *16:g *19:6 76.539833  // $poly_conn
3 *21:g *19:8 36.668037  // $poly_conn
4 *19:8 *19:9 8.456451  // $poly_conn
5 *19:9 *19:10 105.267174  // $poly_conn
6 *19:10 *47:g 16.15522  // $poly_conn
7 *19:9 *48:g 15.610852  // $poly_conn
8 *19:10 *19:13 45.720516  // $metal1_conn
9 *19:13 *19:14 0.794246  // $metal1_conn
10 *19:14 *19:2 0.731805  // $metal1_conn
11 *19:13 *19:6 0.237239  // $metal1_conn
12 *19:14 *19:3 0.11398  // $metal1_conn
13 *49:d *19:16 75.283554  // $metal1_conn
14 *19:16 *19:8 45.136581  // $metal1_conn
15 *19:16 *23:d 62.519199  // $metal1_conn

*END

*D_NET *17 4.32804e-16

*CONN
*I *47:d B *C 3.3400 0.4625 
*I *3:g B *C 2.5875 0.5575 
*I *5:d B *C 3.3400 0.4625 
*I *18:d B *C 3.2825 1.2250 
*I *14:g B *C 2.7425 1.2250 
*I *16:d B *C 3.2825 1.2250 
*N *17:1 *C 2.7950 0.9600 
*N *17:2 *C 2.7425 0.9600 
*N *17:7 *C 3.3300 1.1300 

*CAP
0 *14:g 4.25405e-17
1 *18:d 1.03486e-16
2 *3:g 6.7017e-17
3 *47:d 9.06937e-17
4 *17:1 1.29067e-16

*RES
0 *17:1 *17:2 45.361767  // $poly_conn
1 *17:2 *3:g 98.168243  // $poly_conn
2 *17:2 *14:g 21.534737  // $poly_conn
3 *47:d *17:7 75.48629  // $metal1_conn
4 *17:7 *17:1 0.457908  // $metal1_conn
5 *18:d *17:7 62  // $metal1_conn

*END

*D_NET *58 1.26321e-16

*CONN
*I *7:d B *C 1.3450 1.2000 
*I *9:d B *C 1.3450 1.2000 
*I *10:s B *C 1.8100 1.0550 
*N *58:3 *C 1.3450 1.1050 

*CAP
0 *10:s 6.0245e-17
1 *7:d 6.60758e-17

*RES
0 *10:s *58:3 62.211342  // $metal1_conn
1 *7:d *58:3 62  // $metal1_conn

*END

