*SPEF "IEEE 1481-1999"
*DESIGN  "SDFFNSRX1"
*DATE "Mon Sep 27 10:58:19 2010"
*VENDOR "Cadence Design Systems"
*PROGRAM "Assura RCX"
*VERSION "3.2 Red Hat Linux release 7.2 (Enigma) - (09/09/2009-10:39)"
*DESIGN_FLOW "Physical Verification"
*DIVIDER /
*DELIMITER :
*BUS_DELIMITER []
*T_UNIT 1 PS
*C_UNIT 1e15 FF
*R_UNIT 1 OHM
*L_UNIT 1 MH
// DeviceFingerDelim "@"
// MATCHED
// caps2d version: 10

*NAME_MAP
*1 mn50
*2 net566
*3 n35
*4 RNb
*5 qbint
*6 qint
*7 net414
*8 net478
*9 net486
*10 mn52
*11 net461
*12 mn51
*13 net453
*14 mn53
*15 mn40
*16 CKN
*17 net582
*18 net546
*19 net538
*20 mp30
*21 mp35
*22 mp36
*23 mp25
*24 mp57
*25 mp56
*26 mp55
*27 mp22
*28 mp45
*29 mp50
*30 mp52
*31 mp51
*32 VDD
*33 mp53
*34 mp40
*35 mn20
*36 mn11
*37 mp20
*38 mn12
*39 QN
*40 mp11
*41 mn14
*42 VSS
*43 mp12
*44 mn13
*45 mp14
*46 mn10
*47 mp13
*48 mn21
*49 mp10
*50 mn31
*51 mp21
*52 mn32
*53 mp31
*54 mp32
*55 D
*56 RN
*57 Q
*58 SE
*59 SI
*60 SN
*61 SEb
*62 CKNb
*63 Db
*64 n20
*65 net521
*66 mout
*67 CKNbb
*68 mn30
*69 net0363
*70 mn35
*71 net498
*72 mn36
*73 mn25
*74 mn57
*75 mn56
*76 mn55
*77 mn22
*78 mn45

*GROUND_NETS VSS

*PORTS
*32 I
*42 I
*16 I
*55 I
*56 I
*58 I
*59 I
*60 I
*57 O
*39 O

*D_NET *32 1.15633e-15

*CONN
*P *32 I *C 0.1000 1.7100 
*I *37:s B *C 6.4725 1.2625 
*I *40:s B *C 6.4725 1.2625 
*I *47:s B *C 7.3800 1.3275 
*I *49:s B *C 7.3800 1.3275 
*I *51:s B *C 5.8450 1.0075 
*I *53:s B *C 3.9275 1.1025 
*I *20:s B *C 4.7600 1.1625 
*I *21:s B *C 4.7600 1.1625 
*I *24:s B *C 0.5625 1.0075 
*I *25:s B *C 0.5625 1.0075 
*I *26:s B *C 1.2500 1.3175 
*I *27:s B *C 1.2500 1.3175 
*I *28:s B *C 2.0375 1.1675 
*I *29:s B *C 2.0375 1.1675 
*I *31:s B *C 2.8000 1.2875 
*N *32:2 *C 6.4700 1.7100 
*N *32:3 *C 5.8550 1.7100 
*N *32:4 *C 4.9000 1.7100 
*N *32:5 *C 4.9000 1.7100 
*N *32:6 *C 4.6450 1.7100 
*N *32:7 *C 3.7300 1.7100 
*N *32:8 *C 3.0000 1.7100 
*N *32:9 *C 2.7700 1.7100 
*N *32:10 *C 2.0150 1.7100 
*N *32:11 *C 1.1700 1.7100 
*N *32:12 *C 1.0000 1.7100 
*N *32:13 *C 0.5000 1.7100 
*N *32:14 *C 6.8000 1.7100 

*CAP
0 *31:s 3.5181e-17
1 *28:s 5.98543e-17
2 *26:s 3.41479e-17
3 *24:s 4.8411e-17
4 *20:s 1.30716e-17
5 *53:s 2.08354e-17
6 *51:s 6.87158e-17
7 *47:s 5.36416e-17
8 *37:s 4.58957e-17
9 *32:13 1.49691e-17
10 *32:11 1.56869e-17
11 *32:10 3.42041e-17
12 *32:9 2.13063e-17
13 *32:7 5.82875e-17
14 *32:6 2.31385e-17
15 *32:3 2.91227e-17
16 *32:2 1.6142e-17
17 *32:4 5.56674e-16
18 *32 7.04685e-18

*RES
0 *37:s *32:2 62.26244  // $metal1_conn
1 *32:2 *32:3 0.307814  // $metal1_conn
2 *32:3 *32:5 0.47904  // $metal1_conn
3 *32:5 *32:6 0.127767  // $metal1_conn
4 *32:6 *32:7 0.457821  // $metal1_conn
5 *32:7 *32:8 0.365181  // $metal1_conn
6 *32:8 *32:9 0.115222  // $metal1_conn
7 *32:9 *32:10 0.37848  // $metal1_conn
8 *32:10 *32:11 0.423644  // $metal1_conn
9 *32:11 *32:12 0.085113  // $metal1_conn
10 *32:12 *32:13 0.250713  // $metal1_conn
11 *32:13 *32 0.20028  // $metal1_conn
12 *32:2 *32:14 0.164992  // $metal1_conn
13 *32:14 *47:s 62.501858  // $metal1_conn
14 *32:3 *51:s 62.465328  // $metal1_conn
15 *32:6 *20:s 62.0975  // $metal1_conn
16 *32:7 *53:s 62.045849  // $metal1_conn
17 *32:9 *31:s 62.148533  // $metal1_conn
18 *32:10 *28:s 62.336136  // $metal1_conn
19 *32:11 *26:s 62.217106  // $metal1_conn
20 *32:13 *24:s 62.438202  // $metal1_conn
21 *32:4 *32:5 8.333333  // $metal1_conn
22 *32:4 *32:8 7.5  // $metal1_conn
23 *32:4 *32:12 7.5  // $metal1_conn
24 *32:4 *32:14 7.5  // $metal1_conn

*END

*D_NET *42 0

*CONN
*P *42 I *C 0.1000 0.0000 
*I *35:s B *C 6.4850 0.3925 
*I *36:s B *C 6.4850 0.3925 
*I *44:s B *C 7.3300 0.3925 
*I *46:s B *C 7.3300 0.3925 
*I *48:s B *C 5.8800 0.3700 
*I *68:s B *C 4.6750 0.5125 
*I *70:s B *C 4.6750 0.5125 
*I *74:s B *C 0.5625 0.5875 
*I *75:s B *C 0.5625 0.5875 
*I *76:s B *C 1.2525 0.5875 
*I *77:s B *C 1.2525 0.5875 
*I *78:s B *C 2.0925 0.4675 
*I *1:s B *C 2.0925 0.4675 
*N *42:2 *C 6.8000 0.0000 
*N *42:3 *C 6.8000 0.0000 
*N *42:4 *C 6.5050 0.0000 
*N *42:5 *C 5.7150 0.0000 
*N *42:6 *C 4.9000 0.0000 
*N *42:7 *C 4.6450 0.0000 
*N *42:8 *C 3.0000 0.0000 
*N *42:9 *C 1.9850 0.0000 
*N *42:10 *C 1.1750 0.0000 
*N *42:11 *C 1.0000 0.0000 
*N *42:12 *C 0.5000 0.0000 


*RES
0 *44:s *42:3 75.545578  // $metal1_conn
1 *42:3 *42:4 0.14784  // $metal1_conn
2 *42:4 *42:5 0.395094  // $metal1_conn
3 *42:5 *42:6 0.407835  // $metal1_conn
4 *42:6 *42:7 0.127767  // $metal1_conn
5 *42:7 *42:8 0.825295  // $metal1_conn
6 *42:8 *42:9 0.509149  // $metal1_conn
7 *42:9 *42:10 0.40608  // $metal1_conn
8 *42:10 *42:11 0.087622  // $metal1_conn
9 *42:11 *42:12 0.250713  // $metal1_conn
10 *42:12 *42 0.20028  // $metal1_conn
11 *42:4 *35:s 75.235405  // $metal1_conn
12 *42:5 *48:s 75.045845  // $metal1_conn
13 *42:7 *68:s 75.318893  // $metal1_conn
14 *42:9 *78:s 75.07505  // $metal1_conn
15 *42:10 *76:s 75.388618  // $metal1_conn
16 *42:12 *74:s 75.372864  // $metal1_conn
17 *42:2 *42:3 6.2  // $metal1_conn
18 *42:2 *42:6 6.888889  // $metal1_conn
19 *42:2 *42:8 6.2  // $metal1_conn
20 *42:2 *42:11 6.2  // $metal1_conn

*END

*D_NET *16 2.38364e-16

*CONN
*P *16 I *C 6.3000 0.8550 
*I *35:g B *C 6.2925 0.4875 
*I *37:g B *C 6.3675 1.2625 
*N *16:2 *C 6.3300 0.7300 
*N *16:4 *C 6.3150 0.7300 
*N *16:5 *C 6.3300 0.7300 
*N *16:6 *C 6.3150 0.8550 

*CAP
0 *37:g 5.22876e-17
1 *35:g 3.8308e-17
2 *16:6 7.42021e-17
3 *16:4 3.57194e-17
4 *16:2 3.78472e-17

*RES
0 *37:g *16:2 101.758873  // $poly_conn
1 *16:2 *35:g 36.374249  // $poly_conn
2 *16:4 *16:5 0.002026  // $metal1_conn
3 *16 *16:6 0.001959  // $metal1_conn
4 *16:4 *16:6 0.068663  // $metal1_conn
5 *16:2 *16:5 45  // $metal1_conn

*END

*D_NET *55 3.14293e-16

*CONN
*P *55 I *C 6.5000 1.0450 
*I *36:g B *C 6.5775 0.3925 
*I *40:g B *C 6.5775 1.2625 
*N *55:2 *C 6.5300 1.0550 

*CAP
0 *40:g 3.36972e-17
1 *36:g 8.9834e-17
2 *55:2 5.88304e-17
3 *55 1.31931e-16

*RES
0 *40:g *55:2 16.15522  // $poly_conn
1 *55:2 *36:g 141.796249  // $poly_conn
2 *55:2 *55 45.003986  // $metal1_conn

*END

*D_NET *56 2.40057e-16

*CONN
*P *56 I *C 1.3000 1.0450 
*I *77:g B *C 1.3325 0.5875 
*I *27:g B *C 1.3325 1.3175 
*N *56:2 *C 1.3050 0.9250 

*CAP
0 *27:g 3.73963e-17
1 *77:g 4.53951e-17
2 *56:2 7.55894e-17
3 *56 8.16759e-17

*RES
0 *27:g *56:2 64.563744  // $poly_conn
1 *56:2 *77:g 59.435539  // $poly_conn
2 *56:2 *56 45.063988  // $metal1_conn

*END

*D_NET *58 4.28953e-16

*CONN
*P *58 I *C 7.3000 0.6650 
*I *41:g B *C 7.0625 0.3925 
*I *46:g B *C 7.4325 0.3925 
*I *43:g B *C 6.7775 1.2625 
*I *49:g B *C 7.4475 1.3275 
*N *58:2 *C 7.1000 0.6950 
*N *58:5 *C 7.4600 0.6750 

*CAP
0 *49:g 5.99959e-17
1 *43:g 7.11606e-17
2 *46:g 3.13554e-17
3 *41:g 3.6656e-17
4 *58:2 9.95908e-17
5 *58:5 8.97333e-17
6 *58 4.04606e-17

*RES
0 *41:g *58:2 49.488552  // $poly_conn
1 *58:2 *43:g 169.711807  // $poly_conn
2 *49:g *58:5 129.207718  // $poly_conn
3 *58:5 *46:g 45.332973  // $poly_conn
4 *58:5 *58 45.093777  // $metal1_conn
5 *58 *58:2 45.122887  // $metal1_conn

*END

*D_NET *59 3.51121e-16

*CONN
*P *59 I *C 7.3000 1.0450 
*I *44:g B *C 7.2275 0.3925 
*I *47:g B *C 7.2125 1.2625 
*N *59:2 *C 7.2600 0.8650 
*N *59:4 *C 7.2600 0.8650 
*N *59:5 *C 7.2800 0.8650 
*N *59:6 *C 7.2800 1.0450 

*CAP
0 *47:g 7.96248e-17
1 *44:g 6.37779e-17
2 *59:5 6.87856e-17
3 *59:2 6.89355e-17
4 *59 6.99968e-17

*RES
0 *44:g *59:2 94.445602  // $poly_conn
1 *59:2 *47:g 66.187889  // $poly_conn
2 *59:4 *59:5 0.004909  // $metal1_conn
3 *59:6 *59 0.005031  // $metal1_conn
4 *59:5 *59:6 0.036051  // $metal1_conn
5 *59:2 *59:4 45  // $metal1_conn

*END

*D_NET *60 8.64369e-16

*CONN
*P *60 I *C 2.3000 0.8550 
*I *68:g B *C 4.5425 0.5125 
*I *1:g B *C 2.1625 0.4675 
*I *20:g B *C 4.5425 1.1025 
*I *29:g B *C 2.1625 1.1675 
*N *60:2 *C 2.1900 0.8650 
*N *60:5 *C 4.4550 1.3750 

*CAP
0 *29:g 3.37092e-17
1 *20:g 5.955e-17
2 *1:g 5.80002e-17
3 *68:g 6.12833e-17
4 *60:2 7.85474e-17
5 *60:5 2.90226e-16
6 *60 2.83053e-16

*RES
0 *29:g *60:2 41.486824  // $poly_conn
1 *60:2 *1:g 74.820152  // $poly_conn
2 *20:g *60:5 84.728386  // $poly_conn
3 *20:g *68:g 105.128204  // $poly_conn
4 *60:5 *60 2.021565  // $metal1_conn
5 *60 *60:2 45.082714  // $metal1_conn

*END

*D_NET *57 1.67335e-16

*CONN
*P *57 O *C 0.9000 1.0450 
*I *76:d B *C 0.9800 0.5300 
*I *26:d B *C 0.9750 1.2300 

*CAP
0 *26:d 4.00132e-17
1 *76:d 6.72829e-17
2 *57 6.00384e-17

*RES
0 *26:d *57 20.823069  // $metal1_conn
1 *57 *76:d 75.370819  // $metal1_conn

*END

*D_NET *39 1.02612e-16

*CONN
*P *39 O *C 0.1000 0.6650 
*I *74:d B *C 0.3050 0.5300 
*I *24:d B *C 0.3050 1.0950 
*N *39:3 *C 0.2950 0.6000 

*CAP
0 *24:d 4.44801e-17
1 *74:d 3.51669e-17
2 *39 2.29651e-17

*RES
0 *24:d *39:3 20.973166  // $metal1_conn
1 *39:3 *39 0.092795  // $metal1_conn
2 *74:d *39:3 75  // $metal1_conn

*END

*D_NET *19 0

*CONN
*I *41:s B *C 7.1450 0.3925 
*I *44:d B *C 7.1450 0.3925 


*RES
0 *44:d *41:s 0.001  // $mwires

*END

*D_NET *18 0

*CONN
*I *36:d B *C 6.6300 0.3925 
*I *38:s B *C 6.6300 0.3925 


*RES
0 *38:s *36:d 0.001  // $mwires

*END

*D_NET *17 0

*CONN
*I *70:d B *C 4.8850 0.5125 
*I *72:s B *C 4.8850 0.5125 


*RES
0 *72:s *70:d 0.001  // $mwires

*END

*D_NET *13 1.96165e-18

*CONN
*I *45:s B *C 7.1600 1.2625 
*I *47:d B *C 7.1600 1.2625 

*CAP
0 *45:s 1.96165e-18

*RES
0 *47:d *45:s 0.001  // $mwires

*END

*D_NET *11 1.98533e-18

*CONN
*I *40:d B *C 6.6775 1.2625 
*I *43:s B *C 6.6775 1.2625 

*CAP
0 *40:d 1.98533e-18

*RES
0 *43:s *40:d 0.001  // $mwires

*END

*D_NET *9 6.56472e-19

*CONN
*I *21:d B *C 4.8600 1.1625 
*I *22:s B *C 4.8600 1.1625 

*CAP
0 *21:d 6.56472e-19

*RES
0 *22:s *21:d 0.001  // $mwires

*END

*D_NET *8 3.62426e-18

*CONN
*I *53:d B *C 4.2050 1.1025 
*I *54:s B *C 4.2050 1.1025 

*CAP
0 *53:d 3.62426e-18

*RES
0 *54:s *53:d 0.001  // $mwires

*END

*D_NET *7 1.07971e-18

*CONN
*I *30:s B *C 2.4900 1.1675 
*I *31:d B *C 2.4900 1.1675 

*CAP
0 *30:s 1.07971e-18

*RES
0 *31:d *30:s 0.001  // $mwires

*END

*D_NET *6 2.16642e-16

*CONN
*I *74:g B *C 0.3975 0.5300 
*I *75:d B *C 0.7200 0.5875 
*I *24:g B *C 0.3975 1.0950 
*I *25:d B *C 0.7200 1.0075 
*N *6:1 *C 0.4850 0.7650 
*N *6:2 *C 0.3975 0.7650 
*N *6:6 *C 0.7200 0.7750 

*CAP
0 *25:d 3.17673e-17
1 *24:g 4.18052e-17
2 *75:d 2.90266e-17
3 *74:g 3.28096e-17
4 *6:6 2.67909e-17
5 *6:2 7.37416e-18
6 *6:1 4.7068e-17

*RES
0 *6:1 *6:2 48.890118  // $poly_conn
1 *6:2 *74:g 21.845535  // $poly_conn
2 *6:2 *24:g 29.537844  // $poly_conn
3 *25:d *6:6 62.119747  // $metal1_conn
4 *6:6 *6:1 0.122788  // $metal1_conn
5 *6:6 *75:d 75.113159  // $metal1_conn

*END

*D_NET *5 7.83142e-16

*CONN
*I *75:g B *C 0.6275 0.5875 
*I *76:g B *C 1.0725 0.5300 
*I *78:d B *C 1.8200 0.5075 
*I *10:g B *C 2.4375 0.4675 
*I *25:g B *C 0.6275 1.0075 
*I *26:g B *C 1.0675 1.2300 
*I *28:d B *C 1.7625 1.1675 
*I *30:g B *C 2.4375 1.1675 
*N *5:2 *C 1.1100 0.7650 
*N *5:3 *C 0.6275 0.7925 
*N *5:9 *C 2.3050 0.2950 
*N *5:11 *C 1.8100 0.4950 

*CAP
0 *30:g 9.53435e-17
1 *28:d 8.04284e-17
2 *26:g 4.6623e-17
3 *25:g 2.7315e-17
4 *10:g 5.73821e-17
5 *78:d 1.50406e-16
6 *76:g 2.54787e-17
7 *75:g 2.53077e-17
8 *5:3 2.6603e-17
9 *5:2 1.53812e-16
10 *5:9 9.44425e-17

*RES
0 *76:g *5:2 17.437269  // $poly_conn
1 *5:2 *5:3 108.159912  // $poly_conn
2 *5:3 *75:g 32.439579  // $poly_conn
3 *5:2 *26:g 59.935795  // $poly_conn
4 *5:3 *25:g 26.029324  // $poly_conn
5 *30:g *10:g 133.333328  // $poly_conn
6 *10:g *5:9 75.827087  // $poly_conn
7 *5:9 *5:11 0.490532  // $metal1_conn
8 *5:11 *5:2 45.837959  // $metal1_conn
9 *5:11 *28:d 62.510155  // $metal1_conn
10 *78:d *5:11 75  // $metal1_conn

*END

*D_NET *4 1.00959e-15

*CONN
*I *50:g B *C 4.0875 0.5125 
*I *77:d B *C 1.4550 0.5875 
*I *12:g B *C 2.7575 0.4675 
*I *53:g B *C 4.0875 1.1025 
*I *27:d B *C 1.4550 1.3175 
*I *31:g B *C 2.5425 1.1675 
*N *4:3 *C 2.5800 1.3750 
*N *4:5 *C 3.9000 1.3650 
*N *4:8 *C 1.4950 1.2700 

*CAP
0 *31:g 7.74036e-17
1 *27:d 1.89028e-16
2 *53:g 6.09818e-17
3 *12:g 6.85063e-17
4 *77:d 9.20497e-17
5 *50:g 5.02499e-17
6 *4:3 3.1918e-16
7 *4:5 1.5219e-16

*RES
0 *12:g *31:g 176.633514  // $poly_conn
1 *31:g *4:3 61.15522  // $poly_conn
2 *53:g *4:5 111.342041  // $poly_conn
3 *53:g *50:g 105.128204  // $poly_conn
4 *4:5 *4:3 1.100278  // $metal1_conn
5 *4:3 *4:8 1.194767  // $metal1_conn
6 *4:8 *77:d 75.449654  // $metal1_conn
7 *27:d *4:8 62  // $metal1_conn

*END

*D_NET *3 4.86853e-16

*CONN
*I *78:g B *C 1.9125 0.5075 
*I *14:d B *C 3.3500 0.5875 
*I *15:s B *C 3.3500 0.5875 
*I *28:g B *C 1.9125 1.1675 
*I *33:d B *C 3.3875 1.0675 
*I *34:d B *C 3.3875 1.0675 
*N *3:2 *C 1.9400 0.7150 
*N *3:5 *C 3.3500 0.7950 

*CAP
0 *33:d 3.82315e-17
1 *28:g 3.84707e-17
2 *14:d 3.53359e-17
3 *78:g 2.59671e-17
4 *3:5 1.6723e-16
5 *3:2 1.81617e-16

*RES
0 *28:g *3:2 79.948364  // $poly_conn
1 *3:2 *78:g 26.102209  // $poly_conn
2 *14:d *3:5 75.160088  // $metal1_conn
3 *3:5 *3:2 46.144291  // $metal1_conn
4 *3:5 *33:d 62.171478  // $metal1_conn

*END

*D_NET *2 2.23436e-16

*CONN
*I *29:d B *C 2.3000 1.1675 
*I *30:d B *C 2.3000 1.1675 
*I *33:s B *C 3.0975 1.0675 

*CAP
0 *33:s 1.09903e-16
1 *29:d 1.13533e-16

*RES
0 *33:s *29:d 124.394562  // $metal1_conn

*END

*D_NET *71 1.61716e-16

*CONN
*I *1:d B *C 2.3000 0.4675 
*I *10:s B *C 2.3000 0.4675 
*I *12:s B *C 2.8525 0.4675 

*CAP
0 *12:s 7.54818e-17
1 *1:d 8.62342e-17

*RES
0 *1:d *12:s 150.561279  // $metal1_conn

*END

*D_NET *69 1.57691e-16

*CONN
*I *10:d B *C 2.5975 0.4675 
*I *12:d B *C 2.5975 0.4675 
*I *14:s B *C 3.1550 0.5875 

*CAP
0 *14:s 7.24863e-17
1 *10:d 8.52045e-17

*RES
0 *14:s *10:d 150.360275  // $metal1_conn

*END

*D_NET *67 1.15849e-15

*CONN
*I *48:d B *C 5.6900 0.5875 
*I *73:g B *C 5.1675 0.5125 
*I *14:g B *C 3.2475 0.5875 
*I *51:d B *C 5.6600 1.0075 
*I *22:g B *C 4.9125 1.1625 
*I *34:g B *C 3.4975 1.0675 
*N *67:2 *C 3.2850 0.2350 
*N *67:3 *C 3.5950 0.8350 
*N *67:5 *C 3.9150 0.8900 
*N *67:7 *C 4.9500 0.9550 
*N *67:9 *C 5.3000 0.6900 
*N *67:10 *C 4.8900 1.2150 
*N *67:11 *C 5.2700 1.3050 
*N *67:13 *C 5.6500 0.9600 

*CAP
0 *34:g 3.27738e-17
1 *22:g 5.82051e-17
2 *51:d 8.4205e-17
3 *14:g 4.54741e-17
4 *73:g 4.92316e-17
5 *48:d 5.38805e-17
6 *67:11 9.46874e-17
7 *67:10 1.23077e-16
8 *67:2 9.62665e-17
9 *67:3 1.39818e-16
10 *67:5 1.71305e-16
11 *67:7 8.65294e-17
12 *67:9 1.23033e-16

*RES
0 *14:g *67:2 107.309067  // $poly_conn
1 *67:3 *34:g 35.572807  // $poly_conn
2 *67:3 *67:5 110.024925  // $poly_conn
3 *22:g *67:7 61.15522  // $poly_conn
4 *73:g *67:9 78.034622  // $poly_conn
5 *67:2 *67:3 45.645939  // $metal1_conn
6 *67:7 *67:10 0.216306  // $metal1_conn
7 *67:10 *67:5 0.913877  // $metal1_conn
8 *67:10 *67:11 0.343314  // $metal1_conn
9 *67:11 *67:9 0.465293  // $metal1_conn
10 *67:11 *67:13 0.519269  // $metal1_conn
11 *67:13 *48:d 75.271461  // $metal1_conn
12 *51:d *67:13 62  // $metal1_conn

*END

*D_NET *66 5.59667e-16

*CONN
*I *50:d B *C 4.2050 0.5125 
*I *52:d B *C 4.2050 0.5125 
*I *70:g B *C 4.8075 0.5125 
*I *15:d B *C 3.6025 0.5875 
*I *54:d B *C 4.4325 1.1025 
*I *20:d B *C 4.4325 1.1025 
*I *21:g B *C 4.8075 1.1625 
*I *34:s B *C 3.5900 1.0675 
*N *66:2 *C 4.8075 0.8850 
*N *66:3 *C 4.7000 0.8850 
*N *66:5 *C 4.4100 0.8850 
*N *66:6 *C 4.1900 0.6450 
*N *66:7 *C 3.7550 0.6300 

*CAP
0 *34:s 7.46982e-17
1 *21:g 6.64796e-17
2 *54:d 3.64711e-17
3 *15:d 2.8291e-17
4 *70:g 5.16968e-17
5 *50:d 3.16005e-17
6 *66:7 5.56005e-17
7 *66:6 4.64968e-17
8 *66:5 6.20798e-17
9 *66:2 3.72083e-17
10 *66:3 6.90446e-17

*RES
0 *21:g *66:2 40.278706  // $poly_conn
1 *66:2 *66:3 50.054749  // $poly_conn
2 *66:2 *70:g 73.612038  // $poly_conn
3 *66:3 *66:5 0.23046  // $metal1_conn
4 *66:5 *66:6 0.345055  // $metal1_conn
5 *66:6 *66:7 0.346831  // $metal1_conn
6 *66:7 *34:s 62.383972  // $metal1_conn
7 *66:5 *54:d 62.090504  // $metal1_conn
8 *66:6 *50:d 75.080254  // $metal1_conn
9 *66:7 *15:d 75.059921  // $metal1_conn

*END

*D_NET *65 1.37146e-16

*CONN
*I *50:s B *C 3.9950 0.5125 
*I *52:s B *C 4.4325 0.5125 
*I *68:d B *C 4.4325 0.5125 

*CAP
0 *52:s 7.09345e-17
1 *50:s 6.62116e-17

*RES
0 *52:s *50:s 150.492645  // $metal1_conn

*END

*D_NET *64 4.11545e-16

*CONN
*I *52:g B *C 4.3225 0.5125 
*I *72:d B *C 5.0650 0.5125 
*I *73:s B *C 5.0650 0.5125 
*I *54:g B *C 4.3225 1.1025 
*I *22:d B *C 5.2550 1.0975 
*I *23:d B *C 5.2550 1.0975 
*N *64:2 *C 4.3500 0.6950 
*N *64:5 *C 5.1100 0.7250 
*N *64:7 *C 5.0650 0.5250 

*CAP
0 *22:d 7.45216e-17
1 *54:g 5.32441e-17
2 *72:d 2.86354e-17
3 *52:g 3.81906e-17
4 *64:5 8.3635e-17
5 *64:2 1.33318e-16

*RES
0 *54:g *64:2 68.409897  // $poly_conn
1 *64:2 *52:g 19.691952  // $poly_conn
2 *22:d *64:5 62.33638  // $metal1_conn
3 *64:5 *64:7 0.138704  // $metal1_conn
4 *64:5 *64:2 45.546722  // $metal1_conn
5 *72:d *64:7 75  // $metal1_conn

*END

*D_NET *63 6.0085e-16

*CONN
*I *38:d B *C 6.8725 0.3925 
*I *41:d B *C 6.8725 0.3925 
*I *73:d B *C 5.2600 0.5125 
*I *43:d B *C 6.9425 1.2625 
*I *45:d B *C 6.9425 1.2625 
*I *23:s B *C 5.4200 1.0975 
*N *63:2 *C 6.7850 0.5400 
*N *63:4 *C 5.2700 0.5000 

*CAP
0 *23:s 9.71256e-17
1 *43:d 1.13172e-16
2 *73:d 1.61114e-16
3 *38:d 1.97921e-17
4 *63:2 2.09646e-16

*RES
0 *43:d *63:2 62.533737  // $metal1_conn
1 *63:2 *63:4 1.462005  // $metal1_conn
2 *63:2 *38:d 75.070465  // $metal1_conn
3 *63:4 *23:s 62.606735  // $metal1_conn
4 *73:d *63:4 75  // $metal1_conn

*END

*D_NET *62 6.69511e-16

*CONN
*I *35:d B *C 6.1525 0.4875 
*I *48:g B *C 5.7825 0.5875 
*I *72:g B *C 4.9625 0.5125 
*I *15:g B *C 3.4525 0.5875 
*I *37:d B *C 6.2750 1.2625 
*I *51:g B *C 5.7525 1.0075 
*I *23:g B *C 5.3275 1.0975 
*I *33:g B *C 3.2775 1.0675 
*N *62:2 *C 5.8100 0.7850 
*N *62:3 *C 5.7450 0.8225 
*N *62:4 *C 5.3275 0.8225 
*N *62:11 *C 6.0650 0.7550 

*CAP
0 *33:g 5.66076e-17
1 *23:g 2.49875e-17
2 *51:g 1.23621e-17
3 *37:d 7.1784e-17
4 *15:g 1.11034e-16
5 *72:g 1.56966e-16
6 *48:g 2.39828e-17
7 *35:d 4.12163e-17
8 *62:11 6.10273e-17
9 *62:4 5.5582e-17
10 *62:3 2.23466e-17
11 *62:2 3.16153e-17

*RES
0 *48:g *62:2 20.376194  // $poly_conn
1 *62:2 *62:3 6.459598  // $poly_conn
2 *62:3 *62:4 105.178009  // $poly_conn
3 *62:4 *72:g 147.421158  // $poly_conn
4 *72:g *15:g 498.428345  // $poly_conn
5 *15:g *33:g 98.138809  // $poly_conn
6 *62:3 *51:g 17.388056  // $poly_conn
7 *62:4 *23:g 38.249203  // $poly_conn
8 *37:d *62:11 62.527874  // $metal1_conn
9 *62:11 *62:2 45.153404  // $metal1_conn
10 *62:11 *35:d 75.184708  // $metal1_conn

*END

*D_NET *61 6.87531e-16

*CONN
*I *38:g B *C 6.6825 0.3925 
*I *46:d B *C 7.5250 0.3925 
*I *45:g B *C 7.1075 1.2625 
*I *49:d B *C 7.5400 1.3275 
*N *61:2 *C 6.7200 0.7050 
*N *61:4 *C 7.0700 1.0550 
*N *61:6 *C 7.5500 1.2150 
*N *61:7 *C 7.0700 1.2150 

*CAP
0 *49:d 7.17905e-18
1 *45:g 5.83633e-17
2 *46:d 7.28375e-17
3 *38:g 6.03817e-17
4 *61:7 1.16477e-16
5 *61:6 1.08755e-16
6 *61:2 1.81727e-16
7 *61:4 8.181e-17

*RES
0 *38:g *61:2 97.052658  // $poly_conn
1 *45:g *61:4 61.15522  // $poly_conn
2 *49:d *61:6 62.030876  // $metal1_conn
3 *61:6 *61:7 0.352724  // $metal1_conn
4 *61:7 *61:2 0.858087  // $metal1_conn
5 *61:6 *46:d 75.692169  // $metal1_conn
6 *61:7 *61:4 0.128155  // $metal1_conn

*END

