*SPEF "IEEE 1481-1999"
*DESIGN  "SDFFSX4"
*DATE "Mon Sep 27 11:09:49 2010"
*VENDOR "Cadence Design Systems"
*PROGRAM "Assura RCX"
*VERSION "3.2 Red Hat Linux release 7.2 (Enigma) - (09/09/2009-10:39)"
*DESIGN_FLOW "Physical Verification"
*DIVIDER /
*DELIMITER :
*BUS_DELIMITER []
*T_UNIT 1 PS
*C_UNIT 1e15 FF
*R_UNIT 1 OHM
*L_UNIT 1 MH
// DeviceFingerDelim "@"
// MATCHED
// caps2d version: 10

*NAME_MAP
*1 mn20
*2 mn36
*3 mn11
*4 mn25
*5 mn12
*6 mn21
*7 mn14
*8 mn55
*9 mn13
*10 mn45
*11 mn10
*12 mn45\@1
*13 mn30
*14 mn50
*15 mn31
*16 mn51
*17 mn35
*18 mn52
*19 mn40
*20 mn57
*21 mn57\@1
*22 mn57\@2
*23 mn57\@3
*24 mn56
*25 mp35
*26 mn55\@1
*27 mp36
*28 mn55\@2
*29 mp25
*30 mn55\@3
*31 mp21
*32 mp55
*33 mp45
*34 mp45\@1
*35 mp50
*36 mp51
*37 VSS
*38 mp52
*39 VDD
*40 mp57
*41 mp57\@1
*42 mp57\@2
*43 mp57\@3
*44 mp56
*45 mp55\@1
*46 mp55\@2
*47 mp55\@3
*48 D
*49 Q
*50 QN
*51 net492
*52 n20
*53 net405
*54 SEb
*55 qbint
*56 mout
*57 n35
*58 Db
*59 CKbb
*60 CKb
*61 SE
*62 mp20
*63 mp11
*64 mp12
*65 mp14
*66 net417
*67 SI
*68 mp13
*69 net433
*70 mp10
*71 net441
*72 mp40
*73 net521
*74 mp30
*75 net518
*76 CK
*77 mp31
*78 net442
*79 SN
*80 net478
*81 net494
*82 net506

*GROUND_NETS VSS

*PORTS
*39 I
*37 I
*76 I
*48 I
*61 I
*67 I
*79 I
*49 O
*50 O

*D_NET *39 1.17444e-15

*CONN
*P *39 I *C 0.1000 1.7100 
*I *62:s B *C 6.5075 1.3275 
*I *63:s B *C 6.5075 1.3275 
*I *68:s B *C 7.4050 1.3275 
*I *70:s B *C 7.4050 1.3275 
*I *74:s B *C 4.4150 1.0075 
*I *77:s B *C 4.8450 1.0075 
*I *25:s B *C 4.8450 1.0075 
*I *31:s B *C 5.9950 1.5700 
*I *32:s B *C 2.2000 1.2500 
*I *33:s B *C 2.2000 1.2500 
*I *34:s B *C 2.6450 1.2975 
*I *35:s B *C 2.6450 1.2975 
*I *36:s B *C 3.0875 1.3450 
*I *40:s B *C 0.1100 1.0950 
*I *41:s B *C 0.5100 1.0950 
*I *42:s B *C 0.5100 1.0950 
*I *43:s B *C 0.9600 1.2300 
*I *44:s B *C 1.3300 1.2100 
*I *45:s B *C 1.3300 1.2100 
*I *46:s B *C 1.7400 1.2100 
*I *47:s B *C 1.7400 1.2100 
*N *39:2 *C 7.0000 1.7100 
*N *39:3 *C 7.0000 1.7100 
*N *39:4 *C 6.5000 1.7100 
*N *39:5 *C 5.9700 1.7100 
*N *39:6 *C 5.0000 1.7100 
*N *39:7 *C 4.7600 1.7100 
*N *39:8 *C 4.0250 1.7100 
*N *39:9 *C 3.0000 1.7100 
*N *39:14 *C 1.0000 1.7100 

*CAP
0 *36:s 2.8315e-17
1 *34:s 2.88773e-16
2 *31:s 1.21639e-17
3 *77:s 1.44311e-17
4 *74:s 2.76652e-17
5 *68:s 4.93402e-17
6 *62:s 1.63855e-17
7 *39:8 3.01728e-17
8 *39:7 1.52804e-17
9 *39:5 2.75311e-17
10 *39:4 1.90972e-17
11 *39:2 4.82713e-16
12 *39 1.62568e-16

*RES
0 *39:2 *39:3 7.5  // $metal1_conn
1 *39:2 *39:6 7.5  // $metal1_conn
2 *39:2 *39:9 7.5  // $metal1_conn
3 *39:2 *39:14 7.5  // $metal1_conn
4 *68:s *39:3 62.449051  // $metal1_conn
5 *39:4 *62:s 62.204456  // $metal1_conn
6 *39:5 *31:s 62.074516  // $metal1_conn
7 *39:7 *77:s 62.045811  // $metal1_conn
8 *39:8 *74:s 62.157475  // $metal1_conn
9 *39:9 *36:s 62.233307  // $metal1_conn
10 *39:3 *39:4 0.250504  // $metal1_conn
11 *39:4 *39:5 0.26535  // $metal1_conn
12 *39:5 *39:6 0.486161  // $metal1_conn
13 *39:6 *39:7 0.11919  // $metal1_conn
14 *39:7 *39:8 0.367187  // $metal1_conn
15 *39:8 *39:9 0.514301  // $metal1_conn
16 *39:9 *34:s 0.220471  // $metal1_conn
17 *34:s *39:14 0.165266  // $metal1_conn
18 *39:14 *39 0.039989  // $metal1_conn

*END

*D_NET *37 0

*CONN
*P *37 I *C 0.1000 0.0000 
*I *1:s B *C 6.6250 0.5075 
*I *3:s B *C 6.6250 0.5075 
*I *9:s B *C 7.4200 0.5075 
*I *11:s B *C 7.4200 0.5075 
*I *13:s B *C 4.3850 0.4275 
*I *17:s B *C 4.8700 0.4525 
*I *6:s B *C 6.0850 0.1400 
*I *8:s B *C 2.2000 0.5025 
*I *10:s B *C 2.2000 0.5025 
*I *12:s B *C 2.6450 0.4725 
*I *14:s B *C 2.6450 0.4725 
*I *20:s B *C 0.1100 0.5300 
*I *21:s B *C 0.5100 0.5300 
*I *22:s B *C 0.5100 0.5300 
*I *23:s B *C 0.9750 0.1400 
*I *24:s B *C 1.3300 0.5300 
*I *26:s B *C 1.3300 0.5300 
*I *28:s B *C 1.7400 0.5300 
*I *30:s B *C 1.7400 0.5300 
*N *37:2 *C 7.0000 0.0000 
*N *37:3 *C 7.0000 0.0000 
*N *37:4 *C 6.5400 0.0000 
*N *37:5 *C 6.0600 0.0000 
*N *37:6 *C 5.0000 0.0000 
*N *37:7 *C 4.8600 0.0000 
*N *37:8 *C 4.3000 0.0000 
*N *37:9 *C 3.0000 0.0000 


*RES
0 *37:2 *37:3 6.2  // $metal1_conn
1 *37:2 *37:6 6.2  // $metal1_conn
2 *37:2 *37:9 6.2  // $metal1_conn
3 *37:2 *37 6.2  // $metal1_conn
4 *9:s *37:3 75.564407  // $metal1_conn
5 *37:4 *1:s 75.264061  // $metal1_conn
6 *37:5 *6:s 75.045807  // $metal1_conn
7 *37:7 *17:s 75.27887  // $metal1_conn
8 *37:8 *13:s 75.045807  // $metal1_conn
9 *37:3 *37:4 0.230448  // $metal1_conn
10 *37:4 *37:5 0.23933  // $metal1_conn
11 *37:5 *37:6 0.530338  // $metal1_conn
12 *37:6 *37:7 0.07  // $metal1_conn
13 *37:7 *37:8 0.279442  // $metal1_conn
14 *37:8 *37:9 0.650673  // $metal1_conn
15 *37:9 *12:s 0.205378  // $metal1_conn
16 *12:s *37 0.165266  // $metal1_conn

*END

*D_NET *76 2.23737e-16

*CONN
*P *76 I *C 6.3000 1.0450 
*I *1:g B *C 6.3975 0.5075 
*I *62:g B *C 6.3975 1.3275 
*N *76:2 *C 6.3700 1.0250 
*N *76:4 *C 6.3700 1.0250 

*CAP
0 *62:g 3.01848e-17
1 *1:g 4.77004e-17
2 *76:2 4.0494e-17
3 *76 1.05358e-16

*RES
0 *62:g *76:2 41.486824  // $poly_conn
1 *76:2 *1:g 105.589386  // $poly_conn
2 *76:4 *76 0.00264  // $metal1_conn
3 *76:2 *76:4 45  // $metal1_conn

*END

*D_NET *48 2.40842e-16

*CONN
*P *48 I *C 6.5000 0.8550 
*I *3:g B *C 6.6725 0.5075 
*I *63:g B *C 6.6175 1.3275 
*N *48:2 *C 6.5800 0.8750 

*CAP
0 *63:g 4.60014e-17
1 *3:g 3.83607e-17
2 *48:2 1.15614e-16
3 *48 4.08662e-17

*RES
0 *3:g *48:2 75.343765  // $poly_conn
1 *48:2 *63:g 78.975731  // $poly_conn
2 *48 *48:2 45.037712  // $metal1_conn

*END

*D_NET *61 5.31714e-16

*CONN
*P *61 I *C 7.7000 0.8550 
*I *7:g B *C 7.2125 0.5075 
*I *11:g B *C 7.5225 0.5075 
*I *64:g B *C 6.8425 1.3275 
*I *70:g B *C 7.5075 1.3275 
*N *61:1 *C 6.9000 1.0300 
*N *61:4 *C 7.1750 0.6850 
*N *61:6 *C 7.5350 0.7150 
*N *61:8 *C 7.5350 0.7150 

*CAP
0 *70:g 5.13454e-17
1 *64:g 3.87077e-17
2 *11:g 2.62424e-17
3 *7:g 6.57923e-17
4 *61:1 9.78013e-17
5 *61:4 1.2029e-16
6 *61:6 9.13088e-17
7 *61 4.02266e-17

*RES
0 *61:1 *64:g 86.835861  // $poly_conn
1 *7:g *61:4 62.437271  // $poly_conn
2 *11:g *61:6 23.808931  // $poly_conn
3 *61:6 *70:g 118.680725  // $poly_conn
4 *61 *61:8 0.192072  // $metal1_conn
5 *61:8 *61:4 0.257196  // $metal1_conn
6 *61:4 *61:1 0.404919  // $metal1_conn
7 *61:6 *61:8 45  // $metal1_conn

*END

*D_NET *67 2.60636e-16

*CONN
*P *67 I *C 7.3000 0.8550 
*I *9:g B *C 7.3175 0.5075 
*I *68:g B *C 7.3025 1.3275 
*N *67:2 *C 7.3450 0.8450 
*N *67:4 *C 7.3450 0.8450 

*CAP
0 *68:g 5.71639e-17
1 *9:g 6.53635e-17
2 *67:2 1.03258e-16
3 *67 3.48504e-17

*RES
0 *9:g *67:2 56.273628  // $poly_conn
1 *67:2 *68:g 86.746399  // $poly_conn
2 *67 *67:4 0.011763  // $metal1_conn
3 *67:2 *67:4 45  // $metal1_conn

*END

*D_NET *79 7.26911e-16

*CONN
*P *79 I *C 3.1000 0.6650 
*I *13:g B *C 4.4325 0.4275 
*I *14:g B *C 2.7325 0.4725 
*I *74:g B *C 4.4675 1.0075 
*I *35:g B *C 2.7325 1.2975 
*N *79:2 *C 2.7050 0.8450 
*N *79:5 *C 4.4050 0.6100 

*CAP
0 *35:g 5.2597e-17
1 *74:g 4.47922e-17
2 *14:g 4.40365e-17
3 *13:g 4.08578e-17
4 *79:2 1.39057e-16
5 *79:5 2.18686e-16
6 *79 1.86885e-16

*RES
0 *35:g *79:2 79.948364  // $poly_conn
1 *79:2 *14:g 68.409897  // $poly_conn
2 *74:g *79:5 66.234917  // $poly_conn
3 *79:5 *13:g 19.691952  // $poly_conn
4 *79:5 *79 46.328178  // $metal1_conn
5 *79 *79:2 45.42807  // $metal1_conn

*END

*D_NET *49 2.67003e-16

*CONN
*P *49 O *C 1.5000 0.6650 
*I *8:d B *C 1.9450 0.5300 
*I *26:d B *C 1.5350 0.5300 
*I *28:d B *C 1.5350 0.5300 
*I *30:d B *C 1.9450 0.5300 
*I *32:d B *C 1.9450 1.2100 
*I *45:d B *C 1.5350 1.2100 
*I *46:d B *C 1.5350 1.2100 
*I *47:d B *C 1.9450 1.2100 

*CAP
0 *49 2.67003e-16


*END

*D_NET *50 1.98356e-16

*CONN
*P *50 O *C 0.3000 0.8550 
*I *20:d B *C 0.3050 0.5300 
*I *21:d B *C 0.3050 0.5300 
*I *22:d B *C 0.7150 0.5300 
*I *23:d B *C 0.7150 0.5300 
*I *40:d B *C 0.3050 1.0950 
*I *41:d B *C 0.3050 1.0950 
*I *42:d B *C 0.7150 1.0950 
*I *43:d B *C 0.7150 1.0950 

*CAP
0 *50 1.98356e-16


*END

*D_NET *82 0

*CONN
*I *7:s B *C 7.2650 0.5075 
*I *9:d B *C 7.2650 0.5075 


*RES
0 *9:d *7:s 0.001  // $mwires

*END

*D_NET *81 8.81395e-18

*CONN
*I *3:d B *C 6.8400 0.5075 
*I *5:s B *C 6.8400 0.5075 

*CAP
0 *3:d 8.81395e-18

*RES
0 *5:s *3:d 0.001  // $mwires

*END

*D_NET *80 0

*CONN
*I *17:d B *C 5.0675 0.4525 
*I *2:s B *C 5.0675 0.4525 


*RES
0 *2:s *17:d 0.001  // $mwires

*END

*D_NET *78 0

*CONN
*I *13:d B *C 4.4850 0.4275 
*I *15:s B *C 4.4850 0.4275 


*RES
0 *15:s *13:d 0.001  // $mwires

*END

*D_NET *75 3.47074e-18

*CONN
*I *16:d B *C 3.2100 0.4725 
*I *18:s B *C 3.2100 0.4725 

*CAP
0 *16:d 3.47074e-18

*RES
0 *18:s *16:d 0.001  // $mwires

*END

*D_NET *73 0

*CONN
*I *14:d B *C 2.8350 0.4725 
*I *16:s B *C 2.8350 0.4725 


*RES
0 *16:s *14:d 0.001  // $mwires

*END

*D_NET *71 0

*CONN
*I *65:s B *C 7.1850 1.3275 
*I *68:d B *C 7.1850 1.3275 


*RES
0 *68:d *65:s 0.001  // $mwires

*END

*D_NET *69 3.34754e-18

*CONN
*I *63:d B *C 6.7300 1.3275 
*I *64:s B *C 6.7300 1.3275 

*CAP
0 *63:d 3.34754e-18

*RES
0 *64:s *63:d 0.001  // $mwires

*END

*D_NET *66 1.10836e-18

*CONN
*I *25:d B *C 4.9450 1.0075 
*I *27:s B *C 4.9450 1.0075 

*CAP
0 *25:d 1.10836e-18

*RES
0 *27:s *25:d 0.001  // $mwires

*END

*D_NET *60 1.0401e-15

*CONN
*I *1:d B *C 6.2525 0.5075 
*I *4:g B *C 5.3775 0.4525 
*I *6:g B *C 5.8475 0.4975 
*I *18:g B *C 3.4825 0.4725 
*I *62:d B *C 6.3250 1.3275 
*I *72:g B *C 4.1025 1.0075 
*I *27:g B *C 4.9975 1.0075 
*I *31:g B *C 5.7525 1.0075 
*N *60:2 *C 3.5200 0.8350 
*N *60:4 *C 3.8950 1.2800 
*N *60:6 *C 5.0250 1.3100 
*N *60:8 *C 5.8000 0.6475 
*N *60:10 *C 5.8100 0.7000 
*N *60:13 *C 5.8100 1.2650 
*N *60:14 *C 5.8100 0.7000 

*CAP
0 *31:g 2.10774e-17
1 *27:g 6.8609e-17
2 *72:g 4.75641e-17
3 *62:d 5.13692e-17
4 *18:g 3.06548e-17
5 *6:g 2.19277e-17
6 *4:g 4.34476e-17
7 *1:d 5.59911e-17
8 *60:13 1.24917e-16
9 *60:8 2.69708e-17
10 *60:2 1.10075e-16
11 *60:4 1.76142e-16
12 *60:6 1.67566e-16
13 *60:10 9.37897e-17

*RES
0 *18:g *60:2 109.873169  // $poly_conn
1 *72:g *60:4 115.497612  // $poly_conn
2 *27:g *60:6 86.486824  // $poly_conn
3 *6:g *60:8 16.089069  // $poly_conn
4 *60:8 *4:g 119.768814  // $poly_conn
5 *60:8 *60:10 2.237892  // $poly_conn
6 *60:10 *31:g 43.39389  // $poly_conn
7 *62:d *60:13 62.349148  // $metal1_conn
8 *60:13 *60:6 0.617045  // $metal1_conn
9 *60:6 *60:4 0.893431  // $metal1_conn
10 *60:4 *60:2 0.526684  // $metal1_conn
11 *60:13 *60:14 0.400637  // $metal1_conn
12 *60:14 *1:d 75.375809  // $metal1_conn
13 *60:10 *60:14 45  // $metal1_conn

*END

*D_NET *59 8.4823e-16

*CONN
*I *2:g B *C 5.1725 0.4525 
*I *6:d B *C 5.7225 0.4975 
*I *19:g B *C 3.7525 0.4725 
*I *29:g B *C 5.2475 1.0075 
*I *31:d B *C 5.6600 1.0075 
*I *38:g B *C 3.7525 1.0075 
*N *59:2 *C 3.7525 0.7025 
*N *59:4 *C 3.9700 0.7400 
*N *59:6 *C 5.2750 0.7900 
*N *59:10 *C 5.6500 0.9600 
*N *59:11 *C 5.2900 1.1050 

*CAP
0 *38:g 3.29695e-17
1 *31:d 9.91463e-17
2 *29:g 2.93826e-17
3 *19:g 2.61279e-17
4 *6:d 7.7016e-17
5 *2:g 3.8846e-17
6 *59:11 2.02412e-16
7 *59:2 2.14134e-17
8 *59:4 2.24136e-16
9 *59:6 9.67801e-17

*RES
0 *38:g *59:2 49.489017  // $poly_conn
1 *59:2 *19:g 39.232613  // $poly_conn
2 *59:2 *59:4 86.583908  // $poly_conn
3 *29:g *59:6 19.691952  // $poly_conn
4 *59:6 *2:g 66.83828  // $poly_conn
5 *6:d *59:10 75.366158  // $metal1_conn
6 *59:10 *59:11 0.43916  // $metal1_conn
7 *59:11 *59:4 1.24875  // $metal1_conn
8 *59:11 *59:6 45.248741  // $metal1_conn
9 *31:d *59:10 62  // $metal1_conn

*END

*D_NET *58 5.94869e-16

*CONN
*I *5:d B *C 7.1100 0.5075 
*I *7:d B *C 7.1100 0.5075 
*I *4:d B *C 5.4700 0.4525 
*I *64:d B *C 6.9550 1.3275 
*I *65:d B *C 6.9550 1.3275 
*I *29:s B *C 5.3900 1.0075 
*N *58:2 *C 6.7275 0.6050 
*N *58:4 *C 5.4800 0.4400 

*CAP
0 *29:s 9.34879e-17
1 *64:d 8.22475e-17
2 *4:d 1.64103e-16
3 *5:d 4.80189e-17
4 *58:2 2.07012e-16

*RES
0 *5:d *58:2 75.306358  // $metal1_conn
1 *58:2 *58:4 1.150537  // $metal1_conn
2 *58:4 *29:s 62.398693  // $metal1_conn
3 *58:2 *64:d 62.602589  // $metal1_conn
4 *4:d *58:4 75  // $metal1_conn

*END

*D_NET *57 6.42175e-16

*CONN
*I *10:g B *C 2.2525 0.5025 
*I *12:g B *C 2.4575 0.5025 
*I *18:d B *C 3.6175 0.4725 
*I *19:d B *C 3.6175 0.4725 
*I *72:d B *C 3.9275 1.0075 
*I *33:g B *C 2.2525 1.2500 
*I *34:g B *C 2.4575 1.2500 
*I *38:d B *C 3.9275 1.0075 
*N *57:6 *C 2.5150 0.9750 
*N *57:8 *C 3.5550 0.6450 
*N *57:10 *C 3.8550 0.9600 

*CAP
0 *34:g 1.98701e-16
1 *72:d 7.80491e-17
2 *18:d 3.38467e-17
3 *57:8 1.61688e-16
4 *57:6 1.69891e-16

*RES
0 *34:g *57:6 48.256718  // $poly_conn
1 *57:6 *57:8 1.016541  // $metal1_conn
2 *57:8 *18:d 75.083115  // $metal1_conn
3 *72:d *57:10 62  // $metal1_conn
4 *57:8 *57:10 0.400722  // $metal1_conn

*END

*D_NET *56 5.22591e-16

*CONN
*I *15:d B *C 4.6300 0.4275 
*I *17:g B *C 4.9625 0.4525 
*I *19:s B *C 3.8450 0.4725 
*I *72:s B *C 4.2450 0.9600 
*I *74:d B *C 4.5825 1.0075 
*I *77:d B *C 4.5825 1.0075 
*I *25:g B *C 4.8925 1.0075 
*N *56:2 *C 4.9250 0.6300 
*N *56:4 *C 4.6400 0.6300 
*N *56:5 *C 4.5650 0.8000 
*N *56:6 *C 4.1750 0.8000 

*CAP
0 *25:g 8.59653e-17
1 *74:d 2.98802e-17
2 *72:s 3.27743e-17
3 *19:s 9.27719e-17
4 *17:g 2.44892e-17
5 *15:d 2.89551e-17
6 *56:6 6.18795e-17
7 *56:5 3.46037e-17
8 *56:4 3.7369e-17
9 *56:2 9.39027e-17

*RES
0 *17:g *56:2 19.707582  // $poly_conn
1 *56:2 *25:g 60.089958  // $poly_conn
2 *56:2 *56:4 45.22327  // $metal1_conn
3 *56:4 *56:5 0.183542  // $metal1_conn
4 *56:5 *56:6 0.242174  // $metal1_conn
5 *56:6 *19:s 75.456657  // $metal1_conn
6 *56:4 *15:d 75.123886  // $metal1_conn
7 *56:5 *74:d 62.106182  // $metal1_conn
8 *56:6 *72:s 62.110714  // $metal1_conn

*END

*D_NET *55 6.62021e-16

*CONN
*I *8:g B *C 2.0475 0.5300 
*I *10:d B *C 2.3550 0.5025 
*I *12:d B *C 2.3550 0.5025 
*I *16:g B *C 2.9375 0.4725 
*I *24:g B *C 1.2275 0.5300 
*I *26:g B *C 1.4325 0.5300 
*I *28:g B *C 1.6375 0.5300 
*I *30:g B *C 1.8425 0.5300 
*I *32:g B *C 2.0475 1.2100 
*I *33:d B *C 2.3550 1.2500 
*I *34:d B *C 2.3550 1.2500 
*I *36:g B *C 2.9375 1.2975 
*I *44:g B *C 1.2275 1.2100 
*I *45:g B *C 1.4325 1.2100 
*I *46:g B *C 1.6375 1.2100 
*I *47:g B *C 1.8425 1.2100 
*N *55:6 *C 1.2275 0.7375 
*N *55:9 *C 2.1050 0.7600 
*N *55:18 *C 2.9100 0.6550 
*N *55:20 *C 2.3550 0.6775 
*N *55:21 *C 2.3550 0.7300 

*CAP
0 *44:g 3.05222e-17
1 *36:g 4.76107e-17
2 *33:d 7.89659e-17
3 *32:g 2.08469e-16
4 *24:g 2.26786e-17
5 *16:g 2.14618e-17
6 *10:d 2.2284e-17
7 *55:21 5.50054e-17
8 *55:6 1.2612e-17
9 *55:9 5.33157e-17
10 *55:18 1.09096e-16

*RES
0 *36:g *55:18 128.666306  // $poly_conn
1 *55:6 *44:g 69.619072  // $poly_conn
2 *55:18 *16:g 19.691952  // $poly_conn
3 *55:6 *24:g 18.337015  // $poly_conn
4 *32:g *55:9 48.256718  // $poly_conn
5 *32:g *55:6 45.889923  // $poly_conn
6 *55:18 *55:20 45.382641  // $metal1_conn
7 *55:21 *55:9 0.148797  // $metal1_conn
8 *55:20 *10:d 75.091362  // $metal1_conn
9 *55:21 *33:d 31.380196  // $metal1_conn
10 *55:20 *55:21 0.061535  // $metal1_conn

*END

*D_NET *54 4.04109e-16

*CONN
*I *5:g B *C 7.0075 0.5075 
*I *11:d B *C 7.6150 0.5075 
*I *65:g B *C 7.0675 1.3275 
*I *70:d B *C 7.6000 1.3275 
*N *54:2 *C 7.1050 1.1200 
*N *54:5 *C 7.6100 1.1850 

*CAP
0 *70:d 1.37817e-17
1 *65:g 3.24417e-17
2 *11:d 7.33485e-17
3 *5:g 7.33702e-17
4 *54:5 9.44291e-17
5 *54:2 1.16738e-16

*RES
0 *65:g *54:2 16.15522  // $poly_conn
1 *54:2 *5:g 149.645142  // $poly_conn
2 *11:d *54:5 75.794205  // $metal1_conn
3 *54:5 *54:2 45.405434  // $metal1_conn
4 *54:5 *70:d 62.04937  // $metal1_conn

*END

*D_NET *53 1.84214e-16

*CONN
*I *35:d B *C 2.8350 1.2975 
*I *36:d B *C 2.8350 1.2975 
*I *38:s B *C 3.6800 1.0075 

*CAP
0 *38:s 8.62984e-17
1 *35:d 9.79157e-17

*RES
0 *38:s *35:d 124.445442  // $metal1_conn

*END

*D_NET *52 3.54678e-16

*CONN
*I *15:g B *C 4.5375 0.4275 
*I *2:d B *C 5.2750 0.4525 
*I *4:s B *C 5.2750 0.4525 
*I *77:g B *C 4.6975 1.0075 
*I *27:d B *C 5.1225 1.0075 
*I *29:d B *C 5.1225 1.0075 
*N *52:1 *C 4.7550 0.7900 
*N *52:2 *C 4.6975 0.7900 
*N *52:6 *C 5.0925 0.7900 

*CAP
0 *27:d 4.19441e-17
1 *77:g 4.34717e-17
2 *2:d 4.98856e-17
3 *15:g 6.20365e-17
4 *52:6 5.85516e-17
5 *52:2 5.48964e-17
6 *52:1 4.38924e-17

*RES
0 *52:1 *52:2 45.778431  // $poly_conn
1 *52:2 *15:g 96.886192  // $poly_conn
2 *52:2 *77:g 21.534737  // $poly_conn
3 *2:d *52:6 75.330734  // $metal1_conn
4 *52:6 *52:1 0.221968  // $metal1_conn
5 *52:6 *27:d 62.093781  // $metal1_conn

*END

*D_NET *51 2.56957e-16

*CONN
*I *20:g B *C 0.2025 0.5300 
*I *21:g B *C 0.4075 0.5300 
*I *22:g B *C 0.6125 0.5300 
*I *23:g B *C 0.8175 0.5300 
*I *24:d B *C 1.1550 0.5300 
*I *40:g B *C 0.2025 1.0950 
*I *41:g B *C 0.4075 1.0950 
*I *42:g B *C 0.6125 1.0950 
*I *43:g B *C 0.8175 1.0950 
*I *44:d B *C 1.1550 1.2100 
*N *51:8 *C 0.9050 0.7600 
*N *51:15 *C 1.1250 0.7600 

*CAP
0 *44:d 3.01717e-17
1 *43:g 1.65531e-16
2 *24:d 1.47579e-17
3 *51:15 1.97354e-17
4 *51:8 2.67613e-17

*RES
0 *43:g *51:8 51.352463  // $poly_conn
1 *51:15 *51:8 0.132666  // $metal1_conn
2 *51:15 *24:d 75.109612  // $metal1_conn
3 *44:d *51:15 62.225121  // $metal1_conn

*END

