*SPEF "IEEE 1481-1999"
*DESIGN  "SDFFSRHQX8"
*DATE "Mon Sep 27 11:07:07 2010"
*VENDOR "Cadence Design Systems"
*PROGRAM "Assura RCX"
*VERSION "3.2 Red Hat Linux release 7.2 (Enigma) - (09/09/2009-10:39)"
*DESIGN_FLOW "Physical Verification"
*DIVIDER /
*DELIMITER :
*BUS_DELIMITER []
*T_UNIT 1 PS
*C_UNIT 1e15 FF
*R_UNIT 1 OHM
*L_UNIT 1 MH
// DeviceFingerDelim "@"
// MATCHED
// caps2d version: 10

*NAME_MAP
*1 VDD
*2 CK
*3 mn20
*4 mn11
*5 mn12
*6 mn14
*7 mn13
*8 mn10
*9 mn31
*10 mn32
*11 mn30
*12 mn35
*13 mn36
*14 mn25
*15 mn21
*16 mn22
*17 mn50
*18 mn52
*19 mn51
*20 mn53
*21 mn40
*22 mp30
*23 mp35
*24 mn55
*25 mp36
*26 mp21
*27 mn55\@1
*28 mp25
*29 mp20
*30 mn55\@2
*31 mp22
*32 mp11
*33 mn55\@3
*34 SEb
*35 mp50
*36 mp12
*37 mn55\@4
*38 Db
*39 mp52
*40 mp14
*41 mn55\@5
*42 n20
*43 mp51
*44 mp13
*45 mn55\@6
*46 net469
*47 mp53
*48 mp10
*49 mn45
*50 mout
*51 D
*52 mp40
*53 mp31
*54 mn45\@1
*55 CKbb
*56 mp32
*57 mn45\@2
*58 net490
*59 CKb
*60 net486
*61 net394
*62 mp55
*63 mp55\@1
*64 mp55\@2
*65 mp55\@3
*66 mp55\@4
*67 RNb
*68 Q
*69 mp55\@5
*70 n35
*71 mp55\@6
*72 qbint
*73 mp45
*74 net437
*75 mp45\@1
*76 net417
*77 mp45\@2
*78 net425
*79 net445
*80 net453
*81 net514
*82 net522
*83 net534
*84 VSS
*85 RN
*86 SE
*87 SI
*88 SN

*GROUND_NETS VSS

*PORTS
*1 I
*84 I
*2 I
*51 I
*85 I
*86 I
*87 I
*88 I
*68 O

*D_NET *1 1.63338e-15

*CONN
*P *1 I *C 0.1000 1.7100 
*I *26:s B *C 7.5425 1.1525 
*I *29:s B *C 8.2100 1.1450 
*I *32:s B *C 8.2100 1.1450 
*I *44:s B *C 8.9150 1.2325 
*I *48:s B *C 8.9150 1.2325 
*I *53:s B *C 5.3600 1.0550 
*I *22:s B *C 6.2175 1.1550 
*I *23:s B *C 6.2175 1.1550 
*I *31:s B *C 3.0175 1.1350 
*I *35:s B *C 3.0175 1.1350 
*I *43:s B *C 3.7300 1.1725 
*I *62:s B *C 0.3150 1.1225 
*I *63:s B *C 0.3150 1.1225 
*I *64:s B *C 0.7250 1.1225 
*I *65:s B *C 0.7250 1.1225 
*I *66:s B *C 1.1350 1.1225 
*I *69:s B *C 1.1350 1.1225 
*I *71:s B *C 1.5950 1.1500 
*I *73:s B *C 1.5950 1.1500 
*I *75:s B *C 1.9550 1.1500 
*I *77:s B *C 1.9550 1.1500 
*N *1:2 *C 8.4000 1.7100 
*N *1:3 *C 8.4000 1.7100 
*N *1:4 *C 8.0900 1.7100 
*N *1:5 *C 7.6000 1.7100 
*N *1:6 *C 6.1300 1.7100 
*N *1:7 *C 6.0000 1.7100 
*N *1:8 *C 5.1100 1.7100 
*N *1:9 *C 3.7000 1.7100 
*N *1:10 *C 3.6000 1.7100 
*N *1:11 *C 2.8850 1.7100 

*CAP
0 *75:s 5.02503e-16
1 *43:s 5.50984e-17
2 *31:s 5.30845e-17
3 *22:s 7.01823e-17
4 *53:s 6.37707e-17
5 *44:s 6.70048e-17
6 *29:s 3.53443e-17
7 *26:s 4.96864e-17
8 *1:11 4.43558e-17
9 *1:9 2.88726e-17
10 *1:8 4.44351e-17
11 *1:6 3.49323e-17
12 *1:5 3.97623e-17
13 *1:4 8.07664e-18
14 *1:2 5.29296e-16
15 *1 6.97179e-18

*RES
0 *75:s *1 0.107591  // $metal1_conn
1 *1:2 *1:3 6.25  // $metal1_conn
2 *1:2 *1:7 6.25  // $metal1_conn
3 *1:2 *1:10 6.25  // $metal1_conn
4 *1:2 *75:s 6.25  // $metal1_conn
5 *44:s *1:3 62.555477  // $metal1_conn
6 *1:4 *29:s 62.38768  // $metal1_conn
7 *1:5 *26:s 62.339512  // $metal1_conn
8 *1:6 *22:s 62.29623  // $metal1_conn
9 *1:8 *53:s 62.236862  // $metal1_conn
10 *1:9 *43:s 62.249557  // $metal1_conn
11 *1:11 *31:s 62.243958  // $metal1_conn
12 *1:3 *1:4 0.155393  // $metal1_conn
13 *1:4 *1:5 0.24554  // $metal1_conn
14 *1:5 *1:6 0.737404  // $metal1_conn
15 *1:6 *1:7 0.065051  // $metal1_conn
16 *1:7 *1:8 0.446497  // $metal1_conn
17 *1:8 *1:9 0.707289  // $metal1_conn
18 *1:9 *1:10 0.049994  // $metal1_conn
19 *1:10 *1:11 0.358664  // $metal1_conn
20 *1:11 *75:s 0.466376  // $metal1_conn

*END

*D_NET *84 0

*CONN
*P *84 I *C 0.1000 0.0000 
*I *3:s B *C 8.2350 0.4200 
*I *4:s B *C 8.2350 0.4200 
*I *7:s B *C 9.1200 0.4525 
*I *8:s B *C 9.1200 0.4525 
*I *11:s B *C 6.2200 0.4075 
*I *12:s B *C 6.2200 0.4075 
*I *15:s B *C 7.4850 0.3075 
*I *16:s B *C 3.0100 0.4975 
*I *17:s B *C 3.0100 0.4975 
*I *24:s B *C 0.3150 0.5125 
*I *27:s B *C 0.3150 0.5125 
*I *30:s B *C 0.7250 0.5125 
*I *33:s B *C 0.7250 0.5125 
*I *37:s B *C 1.1350 0.5125 
*I *41:s B *C 1.1350 0.5125 
*I *45:s B *C 1.5950 0.4950 
*I *49:s B *C 1.5950 0.4950 
*I *54:s B *C 1.9650 0.4950 
*I *57:s B *C 1.9650 0.4950 
*N *84:2 *C 8.4000 0.0000 
*N *84:3 *C 8.4000 0.0000 
*N *84:4 *C 8.1500 0.0000 
*N *84:5 *C 7.4850 0.0000 
*N *84:6 *C 6.1850 0.0000 
*N *84:7 *C 6.0000 0.0000 
*N *84:8 *C 3.6000 0.0000 
*N *84:9 *C 3.0100 0.0000 


*RES
0 *54:s *84 0.107591  // $metal1_conn
1 *84:2 *84:3 5.166667  // $metal1_conn
2 *84:2 *84:7 5.166667  // $metal1_conn
3 *84:2 *84:8 5.166667  // $metal1_conn
4 *84:2 *54:s 5.166667  // $metal1_conn
5 *7:s *84:3 75.61879  // $metal1_conn
6 *84:4 *3:s 75.045853  // $metal1_conn
7 *84:5 *15:s 75.045853  // $metal1_conn
8 *84:6 *11:s 75.23571  // $metal1_conn
9 *84:9 *16:s 75.325729  // $metal1_conn
10 *84:3 *84:4 0.124662  // $metal1_conn
11 *84:4 *84:5 0.331472  // $metal1_conn
12 *84:5 *84:6 0.65113  // $metal1_conn
13 *84:6 *84:7 0.092656  // $metal1_conn
14 *84:7 *84:8 1.204565  // $metal1_conn
15 *84:8 *84:9 0.295926  // $metal1_conn
16 *84:9 *54:s 0.529114  // $metal1_conn

*END

*D_NET *2 2.17663e-16

*CONN
*P *2 I *C 7.7000 0.6650 
*I *3:g B *C 7.9575 0.4775 
*I *29:g B *C 7.9875 1.0575 
*N *2:2 *C 7.9300 0.6850 

*CAP
0 *29:g 2.90984e-17
1 *3:g 2.92452e-17
2 *2:2 1.17019e-16
3 *2 4.23013e-17

*RES
0 *29:g *2:2 60.615582  // $poly_conn
1 *2:2 *3:g 26.102209  // $poly_conn
2 *2 *2:2 45.129559  // $metal1_conn

*END

*D_NET *51 3.24693e-16

*CONN
*P *51 I *C 8.1000 0.8550 
*I *4:g B *C 8.2825 0.4200 
*I *32:g B *C 8.2825 1.1450 
*N *51:2 *C 8.2825 0.6775 
*N *51:3 *C 8.1100 0.6500 

*CAP
0 *32:g 9.15338e-17
1 *4:g 4.72124e-17
2 *51:2 2.77191e-17
3 *51:3 1.03717e-16
4 *51 5.45105e-17

*RES
0 *32:g *51:2 68.719788  // $poly_conn
1 *51:2 *51:3 76.018082  // $poly_conn
2 *51:2 *4:g 31.540302  // $poly_conn
3 *51 *51:3 0.123414  // $metal1_conn

*END

*D_NET *85 2.20222e-16

*CONN
*P *85 I *C 2.7000 0.8550 
*I *16:g B *C 2.7825 0.5125 
*I *31:g B *C 2.7825 1.0875 
*N *85:2 *C 2.8200 0.8200 

*CAP
0 *31:g 3.76127e-17
1 *16:g 4.11056e-17
2 *85:2 7.59206e-17
3 *85 6.55835e-17

*RES
0 *31:g *85:2 31.539833  // $poly_conn
1 *85:2 *16:g 50.770603  // $poly_conn
2 *85:2 *85 45.073528  // $metal1_conn

*END

*D_NET *86 5.76986e-16

*CONN
*P *86 I *C 9.3000 0.6650 
*I *6:g B *C 8.7725 0.3950 
*I *8:g B *C 9.2625 0.4525 
*I *36:g B *C 8.3875 1.1450 
*I *48:g B *C 8.9675 1.2325 
*N *86:2 *C 8.4300 0.8200 
*N *86:4 *C 8.7250 0.6300 
*N *86:6 *C 9.2900 0.6600 
*N *86:8 *C 9.2900 0.6600 

*CAP
0 *48:g 6.46021e-17
1 *36:g 7.52109e-17
2 *8:g 2.38439e-17
3 *6:g 6.73809e-17
4 *86:2 1.06947e-16
5 *86:4 1.23893e-16
6 *86:6 1.15108e-16

*RES
0 *36:g *86:2 67.526878  // $poly_conn
1 *6:g *86:4 65.920502  // $poly_conn
2 *8:g *86:6 26.102209  // $poly_conn
3 *86:6 *48:g 174.530594  // $poly_conn
4 *86 *86:8 0.00508  // $metal1_conn
5 *86:8 *86:4 0.421152  // $metal1_conn
6 *86:4 *86:2 0.344097  // $metal1_conn
7 *86:6 *86:8 45  // $metal1_conn

*END

*D_NET *87 3.16086e-16

*CONN
*P *87 I *C 8.9000 0.8550 
*I *7:g B *C 8.8775 0.3950 
*I *44:g B *C 8.7625 1.1450 
*N *87:2 *C 8.8400 0.8500 

*CAP
0 *44:g 6.62153e-17
1 *7:g 7.9004e-17
2 *87:2 9.08765e-17
3 *87 7.99902e-17

*RES
0 *7:g *87:2 73.847527  // $poly_conn
1 *87:2 *44:g 23.90007  // $poly_conn
2 *87:2 *87 45.019176  // $metal1_conn

*END

*D_NET *88 9.41954e-16

*CONN
*P *88 I *C 3.1000 0.8550 
*I *11:g B *C 6.0825 0.4075 
*I *17:g B *C 3.0825 0.4975 
*I *22:g B *C 5.9775 1.0550 
*I *35:g B *C 3.0825 1.1350 
*N *88:2 *C 3.1200 0.8800 
*N *88:6 *C 5.9400 1.3100 
*N *88:7 *C 3.1200 0.8800 

*CAP
0 *35:g 5.16332e-17
1 *22:g 6.31247e-17
2 *17:g 3.68076e-17
3 *11:g 6.13945e-17
4 *88:2 3.43538e-17
5 *88:6 3.34942e-16
6 *88 3.59698e-16

*RES
0 *35:g *88:2 16.15522  // $poly_conn
1 *88:2 *17:g 62.309063  // $poly_conn
2 *11:g *22:g 115.095047  // $poly_conn
3 *22:g *88:6 61.15522  // $poly_conn
4 *88:6 *88:7 2.616878  // $metal1_conn
5 *88:7 *88 0.013442  // $metal1_conn
6 *88:2 *88:7 45  // $metal1_conn

*END

*D_NET *68 4.81351e-16

*CONN
*P *68 O *C 0.1000 0.6650 
*I *24:d B *C 0.1200 0.5125 
*I *27:d B *C 0.5200 0.5125 
*I *30:d B *C 0.5200 0.5125 
*I *33:d B *C 0.9300 0.5125 
*I *37:d B *C 0.9300 0.5125 
*I *41:d B *C 1.3400 0.5125 
*I *45:d B *C 1.3400 0.5125 
*I *62:d B *C 0.1200 1.1225 
*I *63:d B *C 0.5200 1.1225 
*I *64:d B *C 0.5200 1.1225 
*I *65:d B *C 0.9300 1.1225 
*I *66:d B *C 0.9300 1.1225 
*I *69:d B *C 1.3400 1.1225 
*I *71:d B *C 1.3400 1.1225 

*CAP
0 *68 4.81351e-16


*END

*D_NET *83 0

*CONN
*I *6:s B *C 8.8250 0.3950 
*I *7:d B *C 8.8250 0.3950 


*RES
0 *7:d *6:s 0.001  // $mwires

*END

*D_NET *82 2.75682e-18

*CONN
*I *4:d B *C 8.3825 0.4200 
*I *5:s B *C 8.3825 0.4200 

*CAP
0 *4:d 2.75682e-18

*RES
0 *5:s *4:d 0.001  // $mwires

*END

*D_NET *81 0

*CONN
*I *12:d B *C 6.4300 0.4075 
*I *13:s B *C 6.4300 0.4075 


*RES
0 *13:s *12:d 0.001  // $mwires

*END

*D_NET *80 4.56248e-18

*CONN
*I *40:s B *C 8.6775 1.1450 
*I *44:d B *C 8.6775 1.1450 

*CAP
0 *40:s 4.56248e-18

*RES
0 *44:d *40:s 0.001  // $mwires

*END

*D_NET *79 2.58747e-18

*CONN
*I *32:d B *C 8.3350 1.1450 
*I *36:s B *C 8.3350 1.1450 

*CAP
0 *32:d 2.58747e-18

*RES
0 *36:s *32:d 0.001  // $mwires

*END

*D_NET *78 2.97137e-18

*CONN
*I *23:d B *C 6.4775 1.1550 
*I *25:s B *C 6.4775 1.1550 

*CAP
0 *23:d 2.97137e-18

*RES
0 *25:s *23:d 0.001  // $mwires

*END

*D_NET *76 2.59981e-18

*CONN
*I *53:d B *C 5.6550 1.0550 
*I *56:s B *C 5.6550 1.0550 

*CAP
0 *53:d 2.59981e-18

*RES
0 *56:s *53:d 0.001  // $mwires

*END

*D_NET *74 1.85781e-18

*CONN
*I *39:s B *C 3.4200 1.1350 
*I *43:d B *C 3.4200 1.1350 

*CAP
0 *39:s 1.85781e-18

*RES
0 *43:d *39:s 0.001  // $mwires

*END

*D_NET *72 9.79554e-16

*CONN
*I *18:g B *C 3.3675 0.4975 
*I *24:g B *C 0.2125 0.5125 
*I *27:g B *C 0.4175 0.5125 
*I *30:g B *C 0.6225 0.5125 
*I *33:g B *C 0.8275 0.5125 
*I *37:g B *C 1.0325 0.5125 
*I *41:g B *C 1.2375 0.5125 
*I *45:g B *C 1.4425 0.5125 
*I *49:d B *C 1.7500 0.4950 
*I *54:d B *C 1.7500 0.4950 
*I *57:d B *C 2.2175 0.4950 
*I *39:g B *C 3.3675 1.1350 
*I *62:g B *C 0.2125 1.1225 
*I *63:g B *C 0.4175 1.1225 
*I *64:g B *C 0.6225 1.1225 
*I *65:g B *C 0.8275 1.1225 
*I *66:g B *C 1.0325 1.1225 
*I *69:g B *C 1.2375 1.1225 
*I *71:g B *C 1.4425 1.1225 
*I *73:d B *C 1.7500 1.1500 
*I *75:d B *C 1.7500 1.1500 
*I *77:d B *C 2.1500 1.1500 
*N *72:23 *C 2.6950 1.4650 

*CAP
0 *77:d 3.45579e-16
1 *71:g 3.57024e-16
2 *39:g 1.17098e-16
3 *18:g 5.80639e-17
4 *72:23 1.01789e-16

*RES
0 *39:g *18:g 97.435898  // $poly_conn
1 *39:g *72:23 254.931778  // $poly_conn
2 *72:23 *77:d 0.593889  // $metal1_conn
3 *77:d *71:g 45.16853  // $metal1_conn

*END

*D_NET *70 8.99809e-16

*CONN
*I *20:d B *C 4.2350 0.4525 
*I *21:d B *C 4.2350 0.4525 
*I *49:g B *C 1.6475 0.4950 
*I *54:g B *C 1.8525 0.4950 
*I *57:g B *C 2.0775 0.4950 
*I *47:d B *C 4.2650 1.0800 
*I *52:d B *C 4.2650 1.0800 
*I *73:g B *C 1.6475 1.1500 
*I *75:g B *C 1.8525 1.1500 
*I *77:g B *C 2.0575 1.1500 
*N *70:11 *C 4.2500 0.8250 

*CAP
0 *77:g 4.51757e-16
1 *47:d 7.36422e-17
2 *20:d 6.09233e-17
3 *70:11 3.13487e-16

*RES
0 *70:11 *77:g 47.210964  // $metal1_conn
1 *70:11 *20:d 75.264984  // $metal1_conn
2 *47:d *70:11 31.19812  // $metal1_conn

*END

*D_NET *67 7.9951e-16

*CONN
*I *9:g B *C 5.6025 0.4075 
*I *16:d B *C 2.6650 0.5125 
*I *19:g B *C 3.5725 0.4975 
*I *53:g B *C 5.6025 1.0550 
*I *31:d B *C 2.6900 1.0875 
*I *43:g B *C 3.4725 1.1350 
*N *67:2 *C 3.5100 1.4300 
*N *67:7 *C 2.6800 1.1350 

*CAP
0 *43:g 7.10394e-17
1 *31:d 1.76985e-16
2 *53:g 1.53615e-16
3 *19:g 6.14433e-17
4 *16:d 1.0631e-16
5 *9:g 5.17019e-17
6 *67:2 1.78415e-16

*RES
0 *53:g *67:2 582.410889  // $poly_conn
1 *67:2 *43:g 26.411629  // $poly_conn
2 *53:g *9:g 100  // $poly_conn
3 *43:g *19:g 111.248894  // $poly_conn
4 *67:2 *67:7 45.7672  // $metal1_conn
5 *67:7 *16:d 75.731094  // $metal1_conn
6 *31:d *67:7 62  // $metal1_conn

*END

*D_NET *61 1.9057e-16

*CONN
*I *35:d B *C 3.2250 1.1350 
*I *39:d B *C 3.2250 1.1350 
*I *47:s B *C 3.9975 1.0800 

*CAP
0 *47:s 1.00423e-16
1 *35:d 9.01463e-17

*RES
0 *47:s *35:d 124.495911  // $metal1_conn

*END

*D_NET *60 1.26383e-16

*CONN
*I *17:d B *C 3.2250 0.4975 
*I *18:s B *C 3.2250 0.4975 
*I *19:s B *C 3.6650 0.4975 

*CAP
0 *19:s 6.9659e-17
1 *17:d 5.67238e-17

*RES
0 *19:s *17:d 150.344208  // $metal1_conn

*END

*D_NET *59 1.66167e-15

*CONN
*I *3:d B *C 7.8650 0.4775 
*I *14:g B *C 6.7875 0.4075 
*I *15:g B *C 7.3525 0.4625 
*I *20:g B *C 4.0875 0.4525 
*I *26:g B *C 7.4025 1.1525 
*I *29:d B *C 7.8950 1.0575 
*I *25:g B *C 6.5975 1.1550 
*I *52:g B *C 4.3825 1.0800 
*N *59:2 *C 4.0600 0.6650 
*N *59:4 *C 4.4100 0.8000 
*N *59:6 *C 7.4400 0.6600 
*N *59:7 *C 7.3525 0.6325 
*N *59:8 *C 6.7875 0.6325 
*N *59:13 *C 7.4400 1.0100 
*N *59:14 *C 7.4400 0.6600 

*CAP
0 *52:g 4.13099e-17
1 *25:g 6.73171e-17
2 *29:d 4.17187e-17
3 *26:g 3.65492e-17
4 *20:g 3.73764e-17
5 *15:g 2.64543e-17
6 *14:g 2.00761e-17
7 *3:d 7.37432e-17
8 *59:13 4.03314e-16
9 *59:8 5.2082e-17
10 *59:7 1.8841e-17
11 *59:2 1.4644e-16
12 *59:4 6.04817e-16
13 *59:6 9.16325e-17

*RES
0 *20:g *59:2 64.691956  // $poly_conn
1 *52:g *59:4 68.538101  // $poly_conn
2 *26:g *59:6 89.23214  // $poly_conn
3 *59:6 *59:7 10.233983  // $poly_conn
4 *59:7 *59:8 139.211655  // $poly_conn
5 *59:8 *25:g 129.585907  // $poly_conn
6 *59:7 *15:g 20.300484  // $poly_conn
7 *59:8 *14:g 29.875479  // $poly_conn
8 *29:d *59:13 62.291164  // $metal1_conn
9 *59:13 *59:4 3.347616  // $metal1_conn
10 *59:4 *59:2 0.88533  // $metal1_conn
11 *59:13 *59:14 0.270928  // $metal1_conn
12 *59:14 *3:d 75.452866  // $metal1_conn
13 *59:6 *59:14 45  // $metal1_conn

*END

*D_NET *58 1.73e-16

*CONN
*I *18:d B *C 3.4700 0.4975 
*I *19:d B *C 3.4700 0.4975 
*I *20:s B *C 3.9525 0.4525 

*CAP
0 *20:s 9.97995e-17
1 *18:d 7.32002e-17

*RES
0 *18:d *20:s 150.35788  // $metal1_conn

*END

*D_NET *55 1.18403e-15

*CONN
*I *13:g B *C 6.5025 0.4075 
*I *15:d B *C 7.2600 0.4625 
*I *21:g B *C 4.3825 0.4525 
*I *26:d B *C 7.3000 1.1525 
*I *28:g B *C 6.9475 1.1300 
*I *47:g B *C 4.1475 1.0800 
*N *55:2 *C 4.3825 0.6575 
*N *55:4 *C 4.8200 0.6850 
*N *55:6 *C 6.5400 0.7300 
*N *55:8 *C 6.9200 0.8650 
*N *55:11 *C 7.2800 1.1050 
*N *55:12 *C 6.8900 1.2200 

*CAP
0 *47:g 5.19139e-17
1 *28:g 3.51236e-17
2 *26:d 1.09202e-16
3 *21:g 2.70197e-17
4 *15:d 9.02578e-17
5 *13:g 4.5425e-17
6 *55:12 1.30961e-16
7 *55:2 5.96119e-17
8 *55:4 2.36268e-16
9 *55:6 3.06914e-16
10 *55:8 9.13352e-17

*RES
0 *21:g *55:2 21.773924  // $poly_conn
1 *55:2 *47:g 109.569336  // $poly_conn
2 *55:2 *55:4 147.131531  // $poly_conn
3 *13:g *55:6 91.924454  // $poly_conn
4 *28:g *55:8 64.691956  // $poly_conn
5 *15:d *55:11 75.500923  // $metal1_conn
6 *55:11 *55:12 0.389691  // $metal1_conn
7 *55:12 *55:6 0.661806  // $metal1_conn
8 *55:6 *55:4 1.565323  // $metal1_conn
9 *55:12 *55:8 0.251265  // $metal1_conn
10 *26:d *55:11 62  // $metal1_conn

*END

*D_NET *50 8.90191e-16

*CONN
*I *9:d B *C 5.7375 0.4075 
*I *10:d B *C 5.7375 0.4075 
*I *12:g B *C 6.3575 0.4075 
*I *21:s B *C 4.5475 0.4525 
*I *56:d B *C 5.8425 1.0550 
*I *22:d B *C 5.8425 1.0550 
*I *23:g B *C 6.3575 1.1550 
*I *52:s B *C 4.5175 1.0800 
*N *50:2 *C 6.3200 0.8900 
*N *50:5 *C 4.6300 0.4950 
*N *50:6 *C 4.6300 0.8450 
*N *50:10 *C 5.8100 0.9600 

*CAP
0 *52:s 4.02494e-17
1 *23:g 4.29354e-17
2 *56:d 2.06776e-16
3 *21:s 1.24967e-16
4 *12:g 5.67157e-17
5 *9:d 1.37847e-16
6 *50:6 1.53179e-16
7 *50:2 1.27522e-16

*RES
0 *23:g *50:2 18.719322  // $poly_conn
1 *50:2 *12:g 87.950089  // $poly_conn
2 *50:5 *50:6 0.257295  // $metal1_conn
3 *50:6 *52:s 62.149086  // $metal1_conn
4 *50:5 *9:d 75.83625  // $metal1_conn
5 *50:6 *50:10 0.998044  // $metal1_conn
6 *50:10 *50:2 45.406422  // $metal1_conn
7 *21:s *50:5 75  // $metal1_conn
8 *56:d *50:10 62  // $metal1_conn

*END

*D_NET *46 1.37227e-16

*CONN
*I *9:s B *C 5.5100 0.4075 
*I *10:s B *C 5.9775 0.4075 
*I *11:d B *C 5.9775 0.4075 

*CAP
0 *10:s 5.99526e-17
1 *9:s 7.72742e-17

*RES
0 *10:s *9:s 150.337555  // $metal1_conn

*END

*D_NET *42 4.84784e-16

*CONN
*I *10:g B *C 5.8725 0.4075 
*I *13:d B *C 6.6450 0.4075 
*I *14:s B *C 6.6450 0.4075 
*I *56:g B *C 5.7075 1.0550 
*I *25:d B *C 6.8750 1.1300 
*I *28:d B *C 6.8750 1.1300 
*N *42:2 *C 5.8725 0.6100 
*N *42:4 *C 5.9400 0.6100 
*N *42:6 *C 6.6050 0.5700 

*CAP
0 *25:d 8.59807e-17
1 *56:g 1.00509e-16
2 *13:d 1.76853e-17
3 *10:g 3.06408e-17
4 *42:6 9.90917e-17
5 *42:2 3.53126e-17
6 *42:4 1.15564e-16

*RES
0 *10:g *42:2 15.869391  // $poly_conn
1 *42:2 *56:g 103.966499  // $poly_conn
2 *42:2 *42:4 49.315495  // $poly_conn
3 *25:d *42:6 62.471306  // $metal1_conn
4 *42:6 *42:4 0.528212  // $metal1_conn
5 *42:6 *13:d 75.066597  // $metal1_conn

*END

*D_NET *38 6.33561e-16

*CONN
*I *5:d B *C 8.7000 0.3950 
*I *6:d B *C 8.7000 0.3950 
*I *14:d B *C 6.8800 0.4075 
*I *36:d B *C 8.4900 1.1450 
*I *40:d B *C 8.4900 1.1450 
*I *28:s B *C 7.0550 1.1300 
*N *38:2 *C 8.2700 0.3325 
*N *38:4 *C 6.8900 0.3650 

*CAP
0 *28:s 9.47292e-17
1 *36:d 1.09991e-16
2 *14:d 1.75909e-16
3 *5:d 4.44943e-17
4 *38:2 2.08437e-16

*RES
0 *36:d *38:2 21.378525  // $metal1_conn
1 *38:2 *38:4 1.009065  // $metal1_conn
2 *38:2 *5:d 75.178574  // $metal1_conn
3 *38:4 *28:s 62.629417  // $metal1_conn
4 *14:d *38:4 75  // $metal1_conn

*END

*D_NET *34 4.64848e-16

*CONN
*I *5:g B *C 8.4825 0.4200 
*I *8:d B *C 9.3550 0.4525 
*I *40:g B *C 8.5925 1.1450 
*I *48:d B *C 9.0600 1.2325 
*N *34:2 *C 8.6200 0.8500 
*N *34:5 *C 9.4700 1.0900 

*CAP
0 *48:d 2.76716e-17
1 *40:g 4.75379e-17
2 *8:d 6.18321e-17
3 *5:g 7.80513e-17
4 *34:5 8.88503e-17
5 *34:2 1.60905e-16

*RES
0 *40:g *34:2 16.15522  // $poly_conn
1 *34:2 *5:g 81.250267  // $poly_conn
2 *8:d *34:5 75.501366  // $metal1_conn
3 *34:5 *34:2 45.774212  // $metal1_conn
4 *34:5 *48:d 62.41172  // $metal1_conn

*END

