*SPEF "IEEE 1481-1999"
*DESIGN  "SDFFX4"
*DATE "Mon Sep 27 11:12:49 2010"
*VENDOR "Cadence Design Systems"
*PROGRAM "Assura RCX"
*VERSION "3.2 Red Hat Linux release 7.2 (Enigma) - (09/09/2009-10:39)"
*DESIGN_FLOW "Physical Verification"
*DIVIDER /
*DELIMITER :
*BUS_DELIMITER []
*T_UNIT 1 PS
*C_UNIT 1e15 FF
*R_UNIT 1 OHM
*L_UNIT 1 MH
// DeviceFingerDelim "@"
// MATCHED
// caps2d version: 10

*NAME_MAP
*1 mn13
*2 net356
*3 net376
*4 net449
*5 net461
*6 net429
*7 net436
*8 mn20
*9 mn21
*10 mn25
*11 mn36
*12 mn35
*13 mn30
*14 mp50
*15 mp45
*16 mp45\@1
*17 mp55\@2
*18 mp55\@3
*19 mp10
*20 mp11
*21 mp12
*22 mp14
*23 mp13
*24 mp20
*25 mp21
*26 VDD
*27 mp25
*28 mp36
*29 mp35
*30 mp30
*31 n20
*32 mn55
*33 mn55\@1
*34 mp55
*35 mn57
*36 QN
*37 mp55\@1
*38 mn57\@1
*39 VSS
*40 mp57
*41 mn57\@2
*42 mp57\@1
*43 mn57\@3
*44 mp57\@2
*45 mn56
*46 mp57\@3
*47 mn40
*48 mp56
*49 mn51
*50 mp40
*51 mp51
*52 D
*53 CK
*54 Q
*55 SE
*56 SI
*57 mout
*58 n30
*59 net367
*60 CKb
*61 SEb
*62 CKbb
*63 Db
*64 qbint
*65 mn50
*66 net384
*67 mn45
*68 net392
*69 mn45\@1
*70 mn55\@2
*71 mn55\@3
*72 mn10
*73 mn11
*74 mn12
*75 mn14

*GROUND_NETS VSS

*PORTS
*26 I
*39 I
*53 I
*52 I
*55 I
*56 I
*54 O
*36 O

*D_NET *26 9.75793e-16

*CONN
*P *26 I *C 0.1000 1.7100 
*I *34:s B *C 5.0950 1.0950 
*I *37:s B *C 5.5050 1.0950 
*I *40:s B *C 5.5050 1.0950 
*I *42:s B *C 5.9150 1.0950 
*I *44:s B *C 5.9150 1.0950 
*I *46:s B *C 6.3500 1.0950 
*I *48:s B *C 6.3500 1.0950 
*I *14:s B *C 4.2550 1.1350 
*I *15:s B *C 4.2550 1.1350 
*I *16:s B *C 4.6950 1.0950 
*I *17:s B *C 4.6950 1.0950 
*I *18:s B *C 5.0950 1.0950 
*I *19:s B *C 0.5550 1.2825 
*I *20:s B *C 0.5550 1.2825 
*I *23:s B *C 1.4500 1.2825 
*I *24:s B *C 1.4500 1.2825 
*I *25:s B *C 2.2825 1.5700 
*I *29:s B *C 3.1200 1.0875 
*I *30:s B *C 3.1200 1.0875 
*N *26:3 *C 5.8000 1.7100 
*N *26:9 *C 3.5000 1.7100 
*N *26:10 *C 3.0900 1.7100 
*N *26:11 *C 2.3050 1.7100 
*N *26:12 *C 1.4000 1.7100 
*N *26:13 *C 1.2000 1.7100 
*N *26:14 *C 0.5550 1.7100 

*CAP
0 *29:s 3.63207e-17
1 *25:s 1.66083e-17
2 *23:s 3.50438e-17
3 *19:s 2.87221e-17
4 *46:s 4.36693e-16
5 *26:14 1.62086e-17
6 *26:12 1.92966e-17
7 *26:11 3.46816e-17
8 *26:10 1.69441e-17
9 *26:3 3.28344e-16
10 *26 6.93056e-18

*RES
0 *26:14 *26 0.22769  // $metal1_conn
1 *26:3 *46:s 6.25  // $metal1_conn
2 *26:3 *26:9 6.818182  // $metal1_conn
3 *26:3 *26:13 6.25  // $metal1_conn
4 *26:10 *29:s 62.364384  // $metal1_conn
5 *26:11 *25:s 62.045811  // $metal1_conn
6 *26:12 *23:s 62.230774  // $metal1_conn
7 *26:14 *19:s 62.234444  // $metal1_conn
8 *46:s *26:9 0.373346  // $metal1_conn
9 *26:9 *26:10 0.205378  // $metal1_conn
10 *26:10 *26:11 0.392257  // $metal1_conn
11 *26:11 *26:12 0.452425  // $metal1_conn
12 *26:12 *26:13 0.100084  // $metal1_conn
13 *26:13 *26:14 0.323206  // $metal1_conn

*END

*D_NET *39 0

*CONN
*P *39 I *C 0.1000 0.0000 
*I *32:s B *C 5.1100 0.4500 
*I *33:s B *C 5.5800 0.4500 
*I *35:s B *C 5.5800 0.4500 
*I *38:s B *C 6.0500 0.4500 
*I *41:s B *C 6.0500 0.4500 
*I *43:s B *C 6.5000 0.4500 
*I *45:s B *C 6.5000 0.4500 
*I *65:s B *C 4.1450 0.4775 
*I *67:s B *C 4.1450 0.4775 
*I *69:s B *C 4.6400 0.4500 
*I *70:s B *C 4.6400 0.4500 
*I *71:s B *C 5.1100 0.4500 
*I *72:s B *C 0.5775 0.4475 
*I *73:s B *C 0.5775 0.4475 
*I *1:s B *C 1.4700 0.4475 
*I *8:s B *C 1.4700 0.4475 
*I *9:s B *C 1.9200 0.3325 
*I *12:s B *C 3.2050 0.5025 
*I *13:s B *C 3.2050 0.5025 
*N *39:3 *C 5.8000 0.0000 
*N *39:9 *C 3.5000 0.0000 
*N *39:10 *C 3.0900 0.0000 
*N *39:11 *C 1.9100 0.0000 
*N *39:12 *C 1.3850 0.0000 
*N *39:13 *C 1.2000 0.0000 
*N *39:14 *C 0.5300 0.0000 


*RES
0 *39:14 *39 0.215155  // $metal1_conn
1 *39:3 *43:s 5.166667  // $metal1_conn
2 *39:3 *39:9 5.636364  // $metal1_conn
3 *39:3 *39:13 5.166667  // $metal1_conn
4 *39:10 *12:s 75.117203  // $metal1_conn
5 *39:11 *9:s 75.194466  // $metal1_conn
6 *39:12 *1:s 75.120674  // $metal1_conn
7 *39:14 *72:s 75.074516  // $metal1_conn
8 *43:s *39:9 0.308164  // $metal1_conn
9 *39:9 *39:10 0.205378  // $metal1_conn
10 *39:10 *39:11 0.591259  // $metal1_conn
11 *39:11 *39:12 0.262843  // $metal1_conn
12 *39:12 *39:13 0.092563  // $metal1_conn
13 *39:13 *39:14 0.335741  // $metal1_conn

*END

*D_NET *53 2.14624e-16

*CONN
*P *53 I *C 1.7000 0.8550 
*I *8:g B *C 1.5175 0.4475 
*I *24:g B *C 1.5725 1.2825 
*N *53:2 *C 1.5450 0.6700 

*CAP
0 *24:g 4.54699e-17
1 *8:g 2.45391e-17
2 *53:2 1.05525e-16
3 *53 3.90908e-17

*RES
0 *24:g *53:2 120.973999  // $poly_conn
1 *53:2 *8:g 29.94836  // $poly_conn
2 *53 *53:2 45.15229  // $metal1_conn

*END

*D_NET *52 2.96461e-16

*CONN
*P *52 I *C 0.5000 1.0450 
*I *73:g B *C 0.6575 0.4475 
*I *20:g B *C 0.6575 1.2825 
*N *52:2 *C 0.6300 1.0400 

*CAP
0 *20:g 3.76628e-17
1 *73:g 8.93837e-17
2 *52:2 1.23419e-16
3 *52 4.59949e-17

*RES
0 *20:g *52:2 26.102209  // $poly_conn
1 *52:2 *73:g 124.82016  // $poly_conn
2 *52:2 *52 45.047974  // $metal1_conn

*END

*D_NET *55 4.57659e-16

*CONN
*P *55 I *C 0.3000 0.6650 
*I *72:g B *C 0.3975 0.4475 
*I *75:g B *C 0.9675 0.4475 
*I *19:g B *C 0.4525 1.2825 
*I *21:g B *C 0.8375 1.2825 
*N *55:2 *C 0.4250 0.6300 
*N *55:5 *C 0.8100 0.9000 
*N *55:7 *C 0.4250 0.6300 

*CAP
0 *21:g 4.43662e-17
1 *19:g 5.40165e-17
2 *75:g 4.88392e-17
3 *72:g 2.79344e-17
4 *55:2 9.11332e-17
5 *55:5 1.46017e-16
6 *55 4.53531e-17

*RES
0 *19:g *55:2 131.230423  // $poly_conn
1 *55:2 *72:g 19.691952  // $poly_conn
2 *75:g *55:5 112.805313  // $poly_conn
3 *55:5 *21:g 58.837734  // $poly_conn
4 *55:5 *55:7 45.338966  // $metal1_conn
5 *55:7 *55 0.06471  // $metal1_conn
6 *55:2 *55:7 45  // $metal1_conn

*END

*D_NET *56 2.47963e-16

*CONN
*P *56 I *C 1.3000 0.6650 
*I *1:g B *C 1.2525 0.4475 
*I *23:g B *C 1.3275 1.2825 
*N *56:2 *C 1.2900 0.6600 
*N *56:4 *C 1.2900 0.6600 

*CAP
0 *23:g 6.53273e-17
1 *1:g 2.77941e-17
2 *56:2 1.54841e-16

*RES
0 *23:g *56:2 124.835785  // $poly_conn
1 *56:2 *1:g 28.681942  // $poly_conn
2 *56:4 *56 0.003111  // $metal1_conn
3 *56:2 *56:4 45  // $metal1_conn

*END

*D_NET *54 2.81685e-16

*CONN
*P *54 O *C 4.9000 0.8550 
*I *32:d B *C 5.2600 0.4500 
*I *33:d B *C 5.2600 0.4500 
*I *70:d B *C 4.7900 0.4500 
*I *71:d B *C 4.7900 0.4500 
*I *34:d B *C 5.3000 1.0950 
*I *37:d B *C 5.3000 1.0950 
*I *17:d B *C 4.8900 1.0950 
*I *18:d B *C 4.8900 1.0950 

*CAP
0 *34:d 1.43752e-16
1 *32:d 1.17554e-16
2 *54 2.03798e-17

*RES
0 *34:d *54 0.048494  // $metal1_conn
1 *54 *32:d 0.216368  // $metal1_conn

*END

*D_NET *36 2.87807e-16

*CONN
*P *36 O *C 5.7000 0.8550 
*I *35:d B *C 5.7300 0.4500 
*I *38:d B *C 5.7300 0.4500 
*I *41:d B *C 6.2225 0.4500 
*I *43:d B *C 6.2225 0.4500 
*I *40:d B *C 5.7100 1.0950 
*I *42:d B *C 5.7100 1.0950 
*I *44:d B *C 6.1325 1.0950 
*I *46:d B *C 6.1325 1.0950 

*CAP
0 *44:d 1.55305e-16
1 *35:d 1.15269e-16
2 *36 1.72335e-17

*RES
0 *35:d *36 0.21416  // $metal1_conn
1 *36 *44:d 0.047976  // $metal1_conn

*END

*D_NET *7 0

*CONN
*I *49:s B *C 3.9525 0.5025 
*I *65:d B *C 3.9525 0.5025 


*RES
0 *65:d *49:s 0.001  // $mwires

*END

*D_NET *6 0

*CONN
*I *11:s B *C 2.9150 0.5025 
*I *12:d B *C 2.9150 0.5025 


*RES
0 *12:d *11:s 0.001  // $mwires

*END

*D_NET *5 2.43748e-18

*CONN
*I *75:s B *C 1.1100 0.4475 
*I *1:d B *C 1.1100 0.4475 

*CAP
0 *75:s 2.43748e-18

*RES
0 *1:d *75:s 0.001  // $mwires

*END

*D_NET *4 1.10487e-19

*CONN
*I *73:d B *C 0.7100 0.4475 
*I *74:s B *C 0.7100 0.4475 

*CAP
0 *73:d 1.10487e-19

*RES
0 *74:s *73:d 0.001  // $mwires

*END

*D_NET *3 5.5421e-18

*CONN
*I *51:s B *C 4.0175 1.0875 
*I *14:d B *C 4.0175 1.0875 

*CAP
0 *51:s 5.5421e-18

*RES
0 *14:d *51:s 0.001  // $mwires

*END

*D_NET *2 0

*CONN
*I *28:s B *C 2.9350 1.0875 
*I *29:d B *C 2.9350 1.0875 


*RES
0 *29:d *28:s 0.001  // $mwires

*END

*D_NET *68 3.45998e-18

*CONN
*I *22:s B *C 1.2250 1.2825 
*I *23:d B *C 1.2250 1.2825 

*CAP
0 *22:s 3.45998e-18

*RES
0 *23:d *22:s 0.001  // $mwires

*END

*D_NET *66 8.29479e-21

*CONN
*I *20:d B *C 0.7475 1.2825 
*I *21:s B *C 0.7475 1.2825 

*CAP
0 *20:d 8.29479e-21

*RES
0 *21:s *20:d 0.001  // $mwires

*END

*D_NET *64 1.15058e-15

*CONN
*I *32:g B *C 5.1575 0.4500 
*I *33:g B *C 5.3625 0.4500 
*I *45:g B *C 6.6525 0.4500 
*I *65:g B *C 4.0125 0.5025 
*I *67:d B *C 4.3200 0.4775 
*I *69:d B *C 4.3200 0.4775 
*I *70:g B *C 4.6875 0.4500 
*I *71:g B *C 4.8925 0.4500 
*I *34:g B *C 5.1975 1.0950 
*I *37:g B *C 5.4025 1.0950 
*I *48:g B *C 6.4525 1.0950 
*I *14:g B *C 4.1125 1.0875 
*I *15:d B *C 4.4500 1.1350 
*I *16:d B *C 4.4500 1.1350 
*I *17:g B *C 4.7875 1.0950 
*I *18:g B *C 4.9925 1.0950 
*N *64:1 *C 4.2150 0.8700 
*N *64:2 *C 4.1125 0.8700 
*N *64:21 *C 6.5000 0.7050 
*N *64:24 *C 4.3200 0.4350 
*N *64:25 *C 4.5750 0.8200 
*N *64:26 *C 4.4500 0.8400 

*CAP
0 *15:d 5.60345e-17
1 *14:g 3.86195e-17
2 *48:g 4.67182e-17
3 *37:g 2.79863e-16
4 *67:d 2.10465e-16
5 *65:g 6.07741e-17
6 *45:g 3.02803e-17
7 *64:26 2.18982e-17
8 *64:25 2.8692e-17
9 *64:2 3.37556e-17
10 *64:1 7.26457e-17
11 *64:21 2.70829e-16

*RES
0 *64:21 *48:g 40.514191  // $poly_conn
1 *64:2 *14:g 21.534737  // $poly_conn
2 *45:g *64:21 46.513458  // $poly_conn
3 *64:2 *65:g 82.78363  // $poly_conn
4 *64:1 *64:2 49.61615  // $poly_conn
5 *64:21 *64:24 46.879421  // $metal1_conn
6 *64:26 *64:1 0.179433  // $metal1_conn
7 *67:d *64:24 75  // $metal1_conn
8 *64:26 *15:d 31.20013  // $metal1_conn
9 *64:25 *37:g 45.068359  // $metal1_conn
10 *64:24 *64:25 0.429632  // $metal1_conn
11 *64:25 *64:26 0.102422  // $metal1_conn

*END

*D_NET *63 6.39433e-16

*CONN
*I *74:d B *C 0.8650 0.4475 
*I *75:d B *C 0.8650 0.4475 
*I *10:s B *C 2.4000 0.5025 
*I *21:d B *C 0.9800 1.2825 
*I *22:d B *C 0.9800 1.2825 
*I *27:s B *C 2.5850 1.0875 
*N *63:3 *C 2.5750 1.0400 
*N *63:4 *C 0.9700 1.1700 

*CAP
0 *27:s 2.17491e-16
1 *21:d 1.20276e-17
2 *10:s 8.91191e-17
3 *74:d 1.11347e-16
4 *63:4 2.09449e-16

*RES
0 *10:s *63:3 75.534157  // $metal1_conn
1 *63:3 *63:4 1.487429  // $metal1_conn
2 *63:4 *74:d 75.594833  // $metal1_conn
3 *63:4 *21:d 62.05154  // $metal1_conn
4 *27:s *63:3 62  // $metal1_conn

*END

*D_NET *62 9.48178e-16

*CONN
*I *47:g B *C 3.6025 0.5025 
*I *9:d B *C 2.1375 0.3325 
*I *11:g B *C 2.8425 0.5025 
*I *51:g B *C 3.9225 1.0875 
*I *25:d B *C 2.3650 1.0775 
*I *27:g B *C 2.6775 1.0875 
*N *62:2 *C 2.5800 0.8050 
*N *62:4 *C 2.7650 0.1900 
*N *62:6 *C 3.6300 0.6850 
*N *62:8 *C 3.8950 0.8700 
*N *62:9 *C 2.7650 0.3150 
*N *62:10 *C 2.5500 0.3150 
*N *62:12 *C 2.1800 0.3450 

*CAP
0 *27:g 3.20962e-17
1 *25:d 1.01644e-16
2 *51:g 5.13905e-17
3 *11:g 4.65306e-17
4 *9:d 9.57286e-17
5 *47:g 3.01404e-17
6 *62:10 5.86147e-17
7 *62:9 1.06991e-16
8 *62:2 1.2232e-16
9 *62:4 4.60154e-17
10 *62:6 1.61978e-16
11 *62:8 9.47285e-17

*RES
0 *27:g *62:2 83.942574  // $poly_conn
1 *11:g *62:4 103.085938  // $poly_conn
2 *47:g *62:6 64.691956  // $poly_conn
3 *51:g *62:8 64.691956  // $poly_conn
4 *62:4 *62:9 0.047633  // $metal1_conn
5 *62:9 *62:10 0.163933  // $metal1_conn
6 *62:10 *62:12 0.263711  // $metal1_conn
7 *62:9 *62:6 0.95094  // $metal1_conn
8 *62:6 *62:8 0.302509  // $metal1_conn
9 *62:10 *62:2 0.362775  // $metal1_conn
10 *62:12 *25:d 62.696003  // $metal1_conn
11 *9:d *62:12 75  // $metal1_conn

*END

*D_NET *61 6.41161e-16

*CONN
*I *72:d B *C 0.3025 0.4475 
*I *74:g B *C 0.7625 0.4475 
*I *19:d B *C 0.3500 1.2825 
*I *22:g B *C 1.1225 1.2825 
*N *61:2 *C 0.7900 0.2250 
*N *61:4 *C 1.1600 1.0100 
*N *61:5 *C 0.7900 0.2950 
*N *61:7 *C 0.2900 0.4350 

*CAP
0 *22:g 4.21996e-17
1 *19:d 8.30266e-17
2 *74:g 7.83896e-17
3 *72:d 1.00563e-16
4 *61:5 1.49911e-16
5 *61:2 2.75556e-17
6 *61:4 1.59516e-16

*RES
0 *74:g *61:2 74.948364  // $poly_conn
1 *22:g *61:4 77.821884  // $poly_conn
2 *61:2 *61:5 0.020093  // $metal1_conn
3 *61:5 *61:7 0.437553  // $metal1_conn
4 *61:5 *61:4 0.80643  // $metal1_conn
5 *61:7 *19:d 62.776043  // $metal1_conn
6 *72:d *61:7 75  // $metal1_conn

*END

*D_NET *60 6.9202e-16

*CONN
*I *49:g B *C 3.8925 0.5025 
*I *8:d B *C 1.6100 0.4475 
*I *9:g B *C 2.0125 0.3325 
*I *10:g B *C 2.4925 0.5025 
*I *50:g B *C 3.7175 1.0875 
*I *24:d B *C 1.7900 1.2825 
*I *25:g B *C 2.2725 1.0775 
*I *28:g B *C 2.8825 1.0875 
*N *60:4 *C 2.4925 0.6725 
*N *60:5 *C 2.2725 0.6725 
*N *60:6 *C 2.0400 0.7100 
*N *60:10 *C 1.8950 0.7100 

*CAP
0 *28:g 1.37146e-16
1 *25:g 4.0503e-17
2 *24:d 6.75433e-17
3 *50:g 9.94277e-17
4 *10:g 2.29453e-17
5 *9:g 2.11705e-17
6 *8:d 4.65425e-17
7 *49:g 7.57472e-17
8 *60:10 7.08101e-17
9 *60:5 1.68606e-17
10 *60:4 5.66982e-17
11 *60:6 3.6626e-17

*RES
0 *49:g *50:g 125.061882  // $poly_conn
1 *50:g *28:g 294.292664  // $poly_conn
2 *28:g *60:4 159.952103  // $poly_conn
3 *60:4 *60:5 54.106243  // $poly_conn
4 *60:5 *60:6 48.977573  // $poly_conn
5 *60:6 *9:g 67.15522  // $poly_conn
6 *60:4 *10:g 20.300484  // $poly_conn
7 *60:5 *25:g 71.582535  // $poly_conn
8 *60:6 *60:10 45.076817  // $metal1_conn
9 *60:10 *8:d 75.331902  // $metal1_conn
10 *60:10 *24:d 62.354393  // $metal1_conn

*END

*D_NET *59 4.1122e-16

*CONN
*I *35:g B *C 5.6275 0.4500 
*I *38:g B *C 5.8325 0.4500 
*I *41:g B *C 6.0975 0.4500 
*I *43:g B *C 6.3475 0.4500 
*I *45:d B *C 6.7450 0.4500 
*I *40:g B *C 5.6075 1.0950 
*I *42:g B *C 5.8125 1.0950 
*I *44:g B *C 6.0175 1.0950 
*I *46:g B *C 6.2475 1.0950 
*I *48:d B *C 6.5450 1.0950 
*N *59:17 *C 6.5550 0.8950 

*CAP
0 *48:d 3.32569e-17
1 *46:g 3.03058e-16
2 *45:d 4.167e-17
3 *59:17 3.32349e-17

*RES
0 *59:17 *46:g 45.2164  // $metal1_conn
1 *59:17 *48:d 20.791187  // $metal1_conn
2 *45:d *59:17 75.349106  // $metal1_conn

*END

*D_NET *58 4.52982e-16

*CONN
*I *47:d B *C 3.7475 0.5025 
*I *49:d B *C 3.7475 0.5025 
*I *67:g B *C 4.2175 0.4775 
*I *69:g B *C 4.4225 0.4775 
*I *50:d B *C 3.8200 1.0875 
*I *51:d B *C 3.8200 1.0875 
*I *15:g B *C 4.3475 1.1350 
*I *16:g B *C 4.5525 1.1350 
*N *58:6 *C 4.0550 0.6800 

*CAP
0 *16:g 2.57597e-16
1 *50:d 5.06964e-17
2 *47:d 6.35467e-17
3 *58:6 8.11415e-17

*RES
0 *16:g *58:6 45.258717  // $metal1_conn
1 *58:6 *47:d 75.312332  // $metal1_conn
2 *58:6 *50:d 62.420891  // $metal1_conn

*END

*D_NET *57 3.33122e-16

*CONN
*I *47:s B *C 3.4275 0.5025 
*I *12:g B *C 2.9875 0.5025 
*I *13:d B *C 3.4275 0.5025 
*I *50:s B *C 3.4850 1.0875 
*I *29:g B *C 2.9875 1.0875 
*I *30:d B *C 3.4850 1.0875 
*N *57:2 *C 3.0250 0.8550 
*N *57:5 *C 3.4700 0.8550 

*CAP
0 *29:g 5.94356e-17
1 *50:s 1.27591e-17
2 *12:g 5.42238e-17
3 *47:s 4.79966e-17
4 *57:5 5.0972e-17
5 *57:2 1.07735e-16

*RES
0 *29:g *57:2 22.565475  // $poly_conn
1 *57:2 *12:g 62.309063  // $poly_conn
2 *50:s *57:5 62.126316  // $metal1_conn
3 *57:5 *57:2 45.301846  // $metal1_conn
4 *57:5 *47:s 75.265846  // $metal1_conn

*END

*D_NET *31 2.9834e-16

*CONN
*I *10:d B *C 2.6675 0.5025 
*I *11:d B *C 2.6675 0.5025 
*I *13:g B *C 3.2525 0.5025 
*I *27:d B *C 2.7800 1.0875 
*I *28:d B *C 2.7800 1.0875 
*I *30:g B *C 3.2525 1.0875 
*N *31:2 *C 3.2250 0.6850 
*N *31:4 *C 2.7700 0.6850 

*CAP
0 *30:g 4.88827e-17
1 *27:d 3.835e-17
2 *13:g 2.79447e-17
3 *10:d 3.79397e-17
4 *31:4 5.70502e-17
5 *31:2 8.81727e-17

*RES
0 *30:g *31:2 67.127846  // $poly_conn
1 *31:2 *13:g 19.691952  // $poly_conn
2 *31:2 *31:4 45.310528  // $metal1_conn
3 *31:4 *10:d 75.118057  // $metal1_conn
4 *31:4 *27:d 62.257957  // $metal1_conn

*END

