*SPEF "IEEE 1481-1999"
*DESIGN  "SEDFFHQX1"
*DATE "Mon Sep 27 11:13:34 2010"
*VENDOR "Cadence Design Systems"
*PROGRAM "Assura RCX"
*VERSION "3.2 Red Hat Linux release 7.2 (Enigma) - (09/09/2009-10:39)"
*DESIGN_FLOW "Physical Verification"
*DIVIDER /
*DELIMITER :
*BUS_DELIMITER []
*T_UNIT 1 PS
*C_UNIT 1e15 FF
*R_UNIT 1 OHM
*L_UNIT 1 MH
// DeviceFingerDelim "@"
// MATCHED
// caps2d version: 10

*NAME_MAP
*1 VSS
*2 mp55
*3 mp45
*4 mp50
*5 mp51
*6 mp40
*7 mp30
*8 mp35
*9 mp36
*10 mp25
*11 CK
*12 mp21
*13 mn55
*14 mp20
*15 mn45
*16 mp0
*17 mn50
*18 mp3
*19 mn51
*20 mp4
*21 mn40
*22 mp2
*23 mn30
*24 n20
*25 mp1
*26 mn35
*27 n30
*28 mp10
*29 mn36
*30 qbint
*31 mp11
*32 mn25
*33 SEb
*34 mp13
*35 Db
*36 Eb
*37 Ckbb
*38 qint
*39 D
*40 CKb
*41 E
*42 Dbp
*43 mp12
*44 mp56
*45 VDD
*46 mout
*47 net449
*48 net405
*49 net441
*50 net426
*51 Q
*52 net417
*53 net526
*54 net494
*55 net518
*56 net509
*57 mn21
*58 net501
*59 mn20
*60 mn0
*61 SE
*62 mn3
*63 mn4
*64 mn2
*65 mn1
*66 SI
*67 mn10
*68 mn11
*69 mn13
*70 mn12
*71 mn56

*GROUND_NETS VSS

*PORTS
*45 I
*1 I
*11 I
*39 I
*41 I
*61 I
*66 I
*51 O

*D_NET *45 9.64816e-16

*CONN
*P *45 I *C 0.1000 1.7100 
*I *2:s B *C 3.3400 1.0950 
*I *3:s B *C 4.0350 1.1650 
*I *4:s B *C 4.0350 1.1650 
*I *7:s B *C 5.1200 1.1650 
*I *8:s B *C 5.1200 1.1650 
*I *12:s B *C 6.2225 1.3525 
*I *14:s B *C 6.2225 1.3525 
*I *16:s B *C 0.6650 1.1700 
*I *18:s B *C 0.6650 1.1700 
*I *25:s B *C 1.6300 1.0825 
*I *28:s B *C 1.6300 1.0825 
*I *43:s B *C 2.8925 1.3100 
*I *44:s B *C 3.3400 1.0950 
*N *45:2 *C 5.5000 1.7100 
*N *45:3 *C 5.5000 1.7100 
*N *45:4 *C 5.0350 1.7100 
*N *45:5 *C 4.0350 1.7100 
*N *45:6 *C 3.3000 1.7100 
*N *45:7 *C 2.8950 1.7100 
*N *45:8 *C 1.4750 1.7100 
*N *45:9 *C 1.1000 1.7100 
*N *45:10 *C 0.6550 1.7100 

*CAP
0 *43:s 4.16064e-17
1 *25:s 5.65784e-17
2 *16:s 3.1125e-17
3 *12:s 7.43743e-17
4 *7:s 2.66959e-17
5 *3:s 4.1803e-17
6 *2:s 6.79301e-17
7 *45:10 1.05552e-17
8 *45:8 3.92629e-17
9 *45:7 3.91751e-17
10 *45:5 3.29865e-17
11 *45:4 3.86447e-17
12 *45:2 4.52977e-16
13 *45 1.11023e-17

*RES
0 *12:s *45:3 62.533562  // $metal1_conn
1 *45:3 *45:4 0.23216  // $metal1_conn
2 *45:4 *45:5 0.500392  // $metal1_conn
3 *45:5 *45:6 0.368988  // $metal1_conn
4 *45:6 *45:7 0.203211  // $metal1_conn
5 *45:7 *45:8 0.71207  // $metal1_conn
6 *45:8 *45:9 0.187954  // $metal1_conn
7 *45:9 *45:10 0.223076  // $metal1_conn
8 *45:10 *45 0.278016  // $metal1_conn
9 *45:4 *7:s 62.045841  // $metal1_conn
10 *45:5 *3:s 62.316204  // $metal1_conn
11 *45:6 *2:s 31.462669  // $metal1_conn
12 *45:7 *43:s 62.257378  // $metal1_conn
13 *45:8 *25:s 62.28344  // $metal1_conn
14 *45:10 *16:s 62.252537  // $metal1_conn
15 *45:2 *45:3 6.818182  // $metal1_conn
16 *45:2 *45:6 6.818182  // $metal1_conn
17 *45:2 *45:9 6.818182  // $metal1_conn

*END

*D_NET *1 0

*CONN
*P *1 I *C 0.1000 0.0000 
*I *13:s B *C 3.4250 0.5300 
*I *15:s B *C 4.2450 0.5575 
*I *17:s B *C 4.2450 0.5575 
*I *23:s B *C 5.2650 0.5575 
*I *26:s B *C 5.2650 0.5575 
*I *57:s B *C 6.1700 0.3025 
*I *59:s B *C 6.1700 0.3025 
*I *60:s B *C 0.6650 0.4050 
*I *62:s B *C 0.6650 0.4050 
*I *65:s B *C 1.6825 0.4625 
*I *67:s B *C 1.6825 0.4625 
*I *70:s B *C 2.7150 0.4300 
*I *71:s B *C 3.4250 0.5300 
*N *1:2 *C 5.5000 0.0000 
*N *1:3 *C 5.5000 0.0000 
*N *1:4 *C 5.1500 0.0000 
*N *1:5 *C 4.1300 0.0000 
*N *1:6 *C 3.3000 0.0000 
*N *1:7 *C 2.7250 0.0000 
*N *1:8 *C 1.4950 0.0000 
*N *1:9 *C 1.1000 0.0000 
*N *1:10 *C 0.6550 0.0000 


*RES
0 *57:s *1:3 75.561333  // $metal1_conn
1 *1:3 *1:4 0.175411  // $metal1_conn
2 *1:4 *1:5 0.511377  // $metal1_conn
3 *1:5 *1:6 0.417267  // $metal1_conn
4 *1:6 *1:7 0.288506  // $metal1_conn
5 *1:7 *1:8 0.616741  // $metal1_conn
6 *1:8 *1:9 0.197989  // $metal1_conn
7 *1:9 *1:10 0.223076  // $metal1_conn
8 *1:10 *1 0.278016  // $metal1_conn
9 *1:4 *23:s 75.165077  // $metal1_conn
10 *1:5 *15:s 75.165077  // $metal1_conn
11 *1:6 *13:s 75.062271  // $metal1_conn
12 *1:7 *70:s 75.222382  // $metal1_conn
13 *1:8 *65:s 75.203423  // $metal1_conn
14 *1:10 *60:s 75.205627  // $metal1_conn
15 *1:2 *1:3 5.636364  // $metal1_conn
16 *1:2 *1:6 5.636364  // $metal1_conn
17 *1:2 *1:9 5.636364  // $metal1_conn

*END

*D_NET *11 2.21064e-16

*CONN
*P *11 I *C 6.3000 0.8550 
*I *59:g B *C 6.2725 0.3025 
*I *14:g B *C 6.3775 1.3525 
*N *11:2 *C 6.3100 0.6700 

*CAP
0 *14:g 4.24813e-17
1 *59:g 3.58849e-17
2 *11:2 8.74601e-17
3 *11 5.52377e-17

*RES
0 *14:g *11:2 142.951462  // $poly_conn
1 *11:2 *59:g 66.15522  // $poly_conn
2 *11 *11:2 45.111233  // $metal1_conn

*END

*D_NET *39 2.52223e-16

*CONN
*P *39 I *C 0.7000 0.8550 
*I *62:g B *C 0.7575 0.4050 
*I *18:g B *C 0.7575 1.1700 
*N *39:2 *C 0.7100 0.8500 
*N *39:4 *C 0.7100 0.8500 

*CAP
0 *18:g 4.88044e-17
1 *62:g 5.22899e-17
2 *39:2 1.51129e-16

*RES
0 *18:g *39:2 22.565475  // $poly_conn
1 *39:2 *62:g 71.283424  // $poly_conn
2 *39 *39:4 0.003229  // $metal1_conn
3 *39:2 *39:4 45  // $metal1_conn

*END

*D_NET *41 3.92015e-16

*CONN
*P *41 I *C 0.3000 0.6650 
*I *60:g B *C 0.2875 0.4625 
*I *63:g B *C 0.9675 0.4050 
*I *16:g B *C 0.3425 1.0825 
*I *22:g B *C 1.1925 1.1700 
*N *41:2 *C 0.3150 0.6550 
*N *41:5 *C 0.9300 0.6350 
*N *41:7 *C 0.3150 0.6550 

*CAP
0 *22:g 6.72774e-17
1 *16:g 3.69005e-17
2 *63:g 3.38084e-17
3 *60:g 1.98852e-17
4 *41:2 2.23316e-17
5 *41:5 1.28358e-16
6 *41 8.34534e-17

*RES
0 *16:g *41:2 73.538101  // $poly_conn
1 *41:2 *60:g 22.256054  // $poly_conn
2 *22:g *41:5 118.643944  // $poly_conn
3 *41:5 *63:g 16.15522  // $poly_conn
4 *41:5 *41:7 45.571865  // $metal1_conn
5 *41:7 *41 0.00459  // $metal1_conn
6 *41:2 *41:7 45  // $metal1_conn

*END

*D_NET *61 3.60983e-16

*CONN
*P *61 I *C 1.7000 0.6650 
*I *67:g B *C 1.8025 0.4625 
*I *69:g B *C 2.5175 0.4300 
*I *28:g B *C 1.7475 1.0825 
*I *31:g B *C 2.1975 1.1750 
*N *61:2 *C 2.1975 0.8775 
*N *61:3 *C 1.7750 0.8400 

*CAP
0 *31:g 2.27688e-17
1 *28:g 2.13727e-17
2 *69:g 9.9841e-17
3 *67:g 2.97053e-17
4 *61:2 4.98425e-17
5 *61:3 6.94188e-17
6 *61 6.80337e-17

*RES
0 *69:g *61:2 144.56749  // $poly_conn
1 *61:2 *61:3 97.695518  // $poly_conn
2 *61:3 *28:g 23.565474  // $poly_conn
3 *61:2 *31:g 21.582537  // $poly_conn
4 *61:3 *67:g 66.530045  // $poly_conn
5 *61:3 *61 45.129494  // $metal1_conn

*END

*D_NET *66 3.05439e-16

*CONN
*P *66 I *C 2.9000 0.8550 
*I *70:g B *C 2.6225 0.4300 
*I *43:g B *C 2.7075 1.1750 
*N *66:2 *C 2.7075 0.7025 
*N *66:4 *C 2.7650 0.7100 

*CAP
0 *43:g 8.61663e-17
1 *70:g 5.99147e-17
2 *66:2 3.61791e-17
3 *66:4 4.31592e-17
4 *66 8.002e-17

*RES
0 *43:g *66:2 57.518734  // $poly_conn
1 *66:2 *70:g 42.553936  // $poly_conn
2 *66:2 *66:4 47.968029  // $poly_conn
3 *66:4 *66 0.127497  // $metal1_conn

*END

*D_NET *51 1.74039e-16

*CONN
*P *51 O *C 3.3000 0.6650 
*I *13:d B *C 3.5650 0.5300 
*I *2:d B *C 3.5050 1.0950 
*N *51:2 *C 3.5150 0.7000 

*CAP
0 *2:d 7.45477e-17
1 *13:d 2.79012e-17
2 *51:2 3.54822e-17
3 *51 3.61078e-17

*RES
0 *13:d *51:2 75.120514  // $metal1_conn
1 *51:2 *51 0.169915  // $metal1_conn
2 *51:2 *2:d 20.954872  // $metal1_conn

*END

*D_NET *58 3.07124e-18

*CONN
*I *26:d B *C 5.3850 0.5575 
*I *29:s B *C 5.3850 0.5575 

*CAP
0 *26:d 3.07124e-18

*RES
0 *29:s *26:d 0.001  // $mwires

*END

*D_NET *56 1.50893e-18

*CONN
*I *17:d B *C 4.3850 0.5575 
*I *19:s B *C 4.3850 0.5575 

*CAP
0 *17:d 1.50893e-18

*RES
0 *19:s *17:d 0.001  // $mwires

*END

*D_NET *55 1.38086e-18

*CONN
*I *69:s B *C 2.5700 0.4300 
*I *70:d B *C 2.5700 0.4300 

*CAP
0 *69:s 1.38086e-18

*RES
0 *70:d *69:s 0.001  // $mwires

*END

*D_NET *54 4.38502e-18

*CONN
*I *64:s B *C 1.3325 0.4050 
*I *65:d B *C 1.3325 0.4050 

*CAP
0 *64:s 4.38502e-18

*RES
0 *65:d *64:s 0.001  // $mwires

*END

*D_NET *53 3.75855e-18

*CONN
*I *62:d B *C 0.8625 0.4050 
*I *63:s B *C 0.8625 0.4050 

*CAP
0 *62:d 3.75855e-18

*RES
0 *63:s *62:d 0.001  // $mwires

*END

*D_NET *52 1.17958e-18

*CONN
*I *8:d B *C 5.2200 1.1650 
*I *9:s B *C 5.2200 1.1650 

*CAP
0 *8:d 1.17958e-18

*RES
0 *9:s *8:d 0.001  // $mwires

*END

*D_NET *50 3.31549e-18

*CONN
*I *4:d B *C 4.2300 1.1650 
*I *5:s B *C 4.2300 1.1650 

*CAP
0 *4:d 3.31549e-18

*RES
0 *5:s *4:d 0.001  // $mwires

*END

*D_NET *49 2.55923e-19

*CONN
*I *34:s B *C 2.6550 1.1750 
*I *43:d B *C 2.6550 1.1750 

*CAP
0 *34:s 2.55923e-19

*RES
0 *43:d *34:s 0.001  // $mwires

*END

*D_NET *48 4.42658e-18

*CONN
*I *22:s B *C 1.2825 1.1700 
*I *25:d B *C 1.2825 1.1700 

*CAP
0 *22:s 4.42658e-18

*RES
0 *25:d *22:s 0.001  // $mwires

*END

*D_NET *47 5.38041e-18

*CONN
*I *18:d B *C 0.8475 1.1700 
*I *20:s B *C 0.8475 1.1700 

*CAP
0 *18:d 5.38041e-18

*RES
0 *20:s *18:d 0.001  // $mwires

*END

*D_NET *42 8.3868e-16

*CONN
*I *32:s B *C 5.7550 0.5575 
*I *68:s B *C 2.4000 0.4300 
*I *69:d B *C 2.4000 0.4300 
*I *10:s B *C 5.6425 1.1650 
*I *31:s B *C 2.4000 1.1750 
*I *34:d B *C 2.4000 1.1750 
*N *42:3 *C 5.7650 0.5150 
*N *42:5 *C 2.4150 0.5000 

*CAP
0 *31:s 9.62541e-17
1 *10:s 9.50195e-17
2 *68:s 3.11157e-16
3 *32:s 3.36249e-16

*RES
0 *10:s *42:3 62.423855  // $metal1_conn
1 *42:3 *42:5 2.575738  // $metal1_conn
2 *42:5 *31:s 62.389069  // $metal1_conn
3 *32:s *42:3 75  // $metal1_conn
4 *68:s *42:5 75  // $metal1_conn

*END

*D_NET *40 9.88567e-16

*CONN
*I *19:g B *C 4.4775 0.5575 
*I *32:g B *C 5.6625 0.5575 
*I *57:g B *C 6.0675 0.3025 
*I *59:d B *C 6.3650 0.3025 
*I *6:g B *C 4.5275 1.1650 
*I *9:g B *C 5.2725 1.1650 
*I *12:g B *C 6.0675 1.3525 
*I *14:d B *C 6.4775 1.3525 
*N *40:3 *C 4.5650 1.4200 
*N *40:5 *C 5.3100 1.4950 
*N *40:7 *C 6.0675 0.7575 
*N *40:9 *C 6.0950 0.5100 
*N *40:12 *C 6.0850 1.2400 
*N *40:13 *C 6.0950 0.5100 
*N *40:15 *C 6.3755 0.3150 

*CAP
0 *14:d 4.25304e-17
1 *12:g 3.42724e-17
2 *9:g 7.9096e-17
3 *6:g 4.75884e-17
4 *59:d 4.30692e-17
5 *57:g 2.48872e-17
6 *32:g 4.12159e-17
7 *19:g 7.30654e-17
8 *40:12 1.60928e-16
9 *40:7 3.42545e-17
10 *40:3 9.48611e-17
11 *40:5 1.97801e-16
12 *40:9 1.14997e-16

*RES
0 *19:g *6:g 90.736076  // $poly_conn
1 *6:g *40:3 61.15522  // $poly_conn
2 *9:g *40:5 80.385986  // $poly_conn
3 *12:g *40:7 123.847992  // $poly_conn
4 *40:7 *32:g 118.23262  // $poly_conn
5 *40:7 *40:9 53.796356  // $poly_conn
6 *40:9 *57:g 26.102209  // $poly_conn
7 *14:d *40:12 62.295815  // $metal1_conn
8 *40:12 *40:13 0.599663  // $metal1_conn
9 *40:13 *40:15 0.26691  // $metal1_conn
10 *40:12 *40:5 0.806313  // $metal1_conn
11 *40:5 *40:3 0.600511  // $metal1_conn
12 *40:9 *40:13 45  // $metal1_conn
13 *59:d *40:15 75  // $metal1_conn

*END

*D_NET *38 6.6791e-16

*CONN
*I *65:g B *C 1.4225 0.4050 
*I *71:d B *C 3.1150 0.5575 
*I *25:g B *C 1.3725 1.1700 
*I *44:d B *C 3.1350 1.0550 
*N *38:2 *C 1.4100 0.8500 
*N *38:5 *C 3.1050 0.9600 

*CAP
0 *44:d 2.51089e-16
1 *25:g 4.14716e-17
2 *71:d 4.96648e-17
3 *65:g 5.83988e-17
4 *38:2 2.67286e-16

*RES
0 *65:g *38:2 71.283424  // $poly_conn
1 *38:2 *25:g 22.565475  // $poly_conn
2 *38:5 *38:2 46.917393  // $metal1_conn
3 *38:5 *71:d 75.267319  // $metal1_conn
4 *44:d *38:5 62  // $metal1_conn

*END

*D_NET *37 9.33528e-16

*CONN
*I *21:g B *C 4.6825 0.5575 
*I *29:g B *C 5.4575 0.5575 
*I *57:d B *C 5.9750 0.3025 
*I *5:g B *C 4.3225 1.1650 
*I *10:g B *C 5.4775 1.1650 
*I *12:d B *C 5.9550 1.3525 
*N *37:1 *C 4.3950 0.9000 
*N *37:4 *C 4.6700 0.8400 
*N *37:6 *C 5.4650 0.9100 
*N *37:8 *C 5.5100 0.9100 
*N *37:9 *C 5.5650 1.2300 
*N *37:11 *C 5.9250 1.3050 
*N *37:12 *C 4.6100 0.8700 

*CAP
0 *12:d 1.37283e-16
1 *10:g 3.33876e-17
2 *5:g 4.34067e-17
3 *57:d 1.28011e-16
4 *29:g 5.06292e-17
5 *21:g 4.05194e-17
6 *37:12 1.43942e-16
7 *37:9 1.47825e-16
8 *37:6 2.8522e-17
9 *37:1 8.97495e-17
10 *37:4 3.64797e-17
11 *37:8 5.3772e-17

*RES
0 *37:1 *5:g 66.579163  // $poly_conn
1 *21:g *37:4 81.668037  // $poly_conn
2 *10:g *37:6 25.904049  // $poly_conn
3 *37:6 *29:g 64.031204  // $poly_conn
4 *37:6 *37:8 46.980618  // $poly_conn
5 *37:8 *37:9 0.240059  // $metal1_conn
6 *37:9 *37:11 0.334244  // $metal1_conn
7 *37:9 *37:12 0.951912  // $metal1_conn
8 *37:12 *37:1 0.160021  // $metal1_conn
9 *37:11 *57:d 75.751816  // $metal1_conn
10 *37:12 *37:4 0.041948  // $metal1_conn
11 *12:d *37:11 62  // $metal1_conn

*END

*D_NET *36 5.60106e-16

*CONN
*I *60:d B *C 0.1950 0.4625 
*I *64:g B *C 1.2425 0.4050 
*I *16:d B *C 0.2500 1.0825 
*I *20:g B *C 0.9375 1.1700 
*N *36:2 *C 0.9000 0.8750 
*N *36:4 *C 1.2800 0.6600 
*N *36:7 *C 0.2400 1.1300 
*N *36:8 *C 0.8700 1.1000 

*CAP
0 *20:g 3.97182e-17
1 *16:d 6.88694e-17
2 *64:g 4.5437e-17
3 *60:d 5.97265e-17
4 *36:8 1.12054e-16
5 *36:2 8.30289e-17
6 *36:4 1.51272e-16

*RES
0 *20:g *36:2 61.15522  // $poly_conn
1 *64:g *36:4 67.565475  // $poly_conn
2 *60:d *36:7 75.545006  // $metal1_conn
3 *36:7 *36:8 0.431099  // $metal1_conn
4 *36:8 *36:2 0.173704  // $metal1_conn
5 *36:8 *36:4 0.778986  // $metal1_conn
6 *16:d *36:7 62  // $metal1_conn

*END

*D_NET *35 5.00778e-16

*CONN
*I *63:d B *C 1.1050 0.4050 
*I *64:d B *C 1.1050 0.4050 
*I *68:d B *C 2.1900 0.4300 
*I *20:d B *C 1.0650 1.1700 
*I *22:d B *C 1.0650 1.1700 
*I *31:d B *C 2.1050 1.1750 
*N *35:3 *C 2.1800 0.3600 
*N *35:5 *C 1.0900 0.4650 

*CAP
0 *31:d 1.02092e-16
1 *20:d 8.44899e-17
2 *68:d 1.69539e-16
3 *63:d 1.44657e-16

*RES
0 *31:d *35:3 62.583012  // $metal1_conn
1 *35:3 *35:5 0.887985  // $metal1_conn
2 *35:5 *20:d 62.439663  // $metal1_conn
3 *68:d *35:3 75  // $metal1_conn
4 *63:d *35:5 75  // $metal1_conn

*END

*D_NET *33 6.66425e-16

*CONN
*I *67:d B *C 1.8950 0.4625 
*I *68:g B *C 2.2825 0.4300 
*I *28:d B *C 1.8400 1.0825 
*I *34:g B *C 2.6025 1.1750 
*N *33:2 *C 2.2550 0.7350 
*N *33:4 *C 2.5750 0.8700 
*N *33:5 *C 2.2550 1.2300 
*N *33:7 *C 1.8500 1.1000 

*CAP
0 *34:g 6.35518e-17
1 *28:d 1.10314e-16
2 *68:g 3.02052e-17
3 *67:d 9.2132e-17
4 *33:5 1.39161e-16
5 *33:2 1.13986e-16
6 *33:4 1.17076e-16

*RES
0 *68:g *33:2 81.35862  // $poly_conn
1 *34:g *33:4 64.691956  // $poly_conn
2 *33:4 *33:5 0.516561  // $metal1_conn
3 *33:5 *33:7 0.413243  // $metal1_conn
4 *33:5 *33:2 0.378872  // $metal1_conn
5 *33:7 *67:d 75.522133  // $metal1_conn
6 *28:d *33:7 62  // $metal1_conn

*END

*D_NET *30 4.92003e-16

*CONN
*I *13:g B *C 3.4725 0.5300 
*I *15:d B *C 3.8150 0.5575 
*I *17:g B *C 4.2925 0.5575 
*I *71:g B *C 3.2075 0.5575 
*I *2:g B *C 3.4125 1.0950 
*I *3:d B *C 3.7975 1.1650 
*I *4:g B *C 4.1375 1.1650 
*I *44:g B *C 3.2075 1.0550 
*N *30:1 *C 3.7350 0.7600 
*N *30:2 *C 3.4725 0.7575 
*N *30:3 *C 3.4125 0.7575 
*N *30:4 *C 3.2075 0.7575 
*N *30:10 *C 4.1375 0.7850 
*N *30:11 *C 4.0750 0.7850 

*CAP
0 *44:g 1.93818e-17
1 *4:g 5.19522e-17
2 *3:d 5.44049e-17
3 *2:g 2.54303e-17
4 *71:g 2.19081e-17
5 *17:g 5.25279e-17
6 *15:d 3.63993e-17
7 *13:g 2.40203e-17
8 *30:10 2.17983e-17
9 *30:4 9.7771e-18
10 *30:3 7.65568e-18
11 *30:2 6.83718e-18
12 *30:1 8.63069e-17
13 *30:11 7.36034e-17

*RES
0 *30:1 *30:2 100.885895  // $poly_conn
1 *30:2 *30:3 13.080606  // $poly_conn
2 *30:3 *30:4 46.903973  // $poly_conn
3 *30:4 *71:g 23.465221  // $poly_conn
4 *30:2 *13:g 20.300484  // $poly_conn
5 *30:3 *2:g 31.838947  // $poly_conn
6 *30:4 *44:g 35.003685  // $poly_conn
7 *17:g *30:10 59.179943  // $poly_conn
8 *30:10 *30:11 48.900734  // $poly_conn
9 *30:10 *4:g 47.878052  // $poly_conn
10 *30:11 *30:1 0.284379  // $metal1_conn
11 *30:1 *15:d 75.143684  // $metal1_conn
12 *30:1 *3:d 31.307041  // $metal1_conn

*END

*D_NET *27 3.86761e-16

*CONN
*I *15:g B *C 3.9325 0.5575 
*I *19:d B *C 4.5800 0.5575 
*I *21:d B *C 4.5800 0.5575 
*I *3:g B *C 3.9325 1.1650 
*I *5:d B *C 4.4250 1.1650 
*I *6:d B *C 4.4250 1.1650 
*N *27:2 *C 3.9050 0.9000 
*N *27:5 *C 4.2350 0.9750 

*CAP
0 *5:d 4.40113e-17
1 *3:g 3.6786e-17
2 *19:d 8.11729e-17
3 *15:g 4.71962e-17
4 *27:5 8.0198e-17
5 *27:2 9.73967e-17

*RES
0 *3:g *27:2 19.691952  // $poly_conn
1 *27:2 *15:g 53.025284  // $poly_conn
2 *19:d *27:5 75.512329  // $metal1_conn
3 *27:5 *27:2 45.267296  // $metal1_conn
4 *27:5 *5:d 62.272999  // $metal1_conn

*END

*D_NET *24 3.37588e-16

*CONN
*I *23:g B *C 4.9525 0.5575 
*I *29:d B *C 5.5600 0.5575 
*I *32:d B *C 5.5600 0.5575 
*I *7:g B *C 4.9025 1.1650 
*I *9:d B *C 5.3750 1.1650 
*I *10:d B *C 5.3750 1.1650 
*N *24:2 *C 4.9900 0.8850 
*N *24:5 *C 5.3200 0.9700 

*CAP
0 *9:d 3.47938e-17
1 *7:g 4.42724e-17
2 *29:d 7.26034e-17
3 *23:g 3.99178e-17
4 *24:5 5.65706e-17
5 *24:2 8.94304e-17

*RES
0 *23:g *24:2 48.206497  // $poly_conn
1 *24:2 *7:g 30.471972  // $poly_conn
2 *29:d *24:5 75.436981  // $metal1_conn
3 *24:5 *24:2 45.269905  // $metal1_conn
4 *24:5 *9:d 62.071747  // $metal1_conn

*END

*D_NET *46 3.8238e-16

*CONN
*I *21:s B *C 4.8175 0.5575 
*I *23:d B *C 4.8175 0.5575 
*I *26:g B *C 5.3125 0.5575 
*I *6:s B *C 4.7150 1.1650 
*I *7:d B *C 4.7150 1.1650 
*I *8:g B *C 5.1675 1.1650 
*N *46:2 *C 5.1600 0.7800 
*N *46:4 *C 4.8300 0.6950 

*CAP
0 *8:g 8.92838e-17
1 *6:s 6.51763e-17
2 *26:g 5.83138e-17
3 *21:s 3.29842e-17
4 *46:4 4.80704e-17
5 *46:2 8.8551e-17

*RES
0 *26:g *46:2 38.61932  // $poly_conn
1 *46:2 *8:g 47.123608  // $poly_conn
2 *46:2 *46:4 45.271187  // $metal1_conn
3 *46:4 *21:s 75.068245  // $metal1_conn
4 *46:4 *6:s 62.268925  // $metal1_conn

*END

