*SPEF "IEEE 1481-1999"
*DESIGN  "SEDFFTRX2"
*DATE "Mon Sep 27 11:15:30 2010"
*VENDOR "Cadence Design Systems"
*PROGRAM "Assura RCX"
*VERSION "3.2 Red Hat Linux release 7.2 (Enigma) - (09/09/2009-10:39)"
*DESIGN_FLOW "Physical Verification"
*DIVIDER /
*DELIMITER :
*BUS_DELIMITER []
*T_UNIT 1 PS
*C_UNIT 1e15 FF
*R_UNIT 1 OHM
*L_UNIT 1 MH
// DeviceFingerDelim "@"
// MATCHED
// caps2d version: 10

*NAME_MAP
*1 net549
*2 net521
*3 net529
*4 mp55\@1
*5 mp57
*6 mp57\@1
*7 mn55\@1
*8 mp56
*9 mn57
*10 mp2
*11 mn57\@1
*12 mp36
*13 mn56
*14 mp35
*15 mn2
*16 net658
*17 mp30
*18 mn36
*19 net650
*20 mp40
*21 mn35
*22 net606
*23 mp51
*24 mn30
*25 net618
*26 mn40
*27 net634
*28 mn51
*29 net638
*30 mp50
*31 mp45
*32 mp10
*33 mn50
*34 mp13
*35 mn45
*36 mp14
*37 mn10
*38 mp12
*39 mn13
*40 mp11
*41 mn14
*42 mp21
*43 mn12
*44 mp25
*45 mn11
*46 mn21
*47 mn25
*48 QN
*49 D
*50 E
*51 VSS
*52 Q
*53 RN
*54 mp3
*55 VDD
*56 mp5
*57 mp4
*58 mp6
*59 mp7
*60 mp0
*61 SE
*62 mp1
*63 mp20
*64 mp55
*65 SI
*66 CK
*67 Db
*68 net493
*69 net505
*70 Eb
*71 RNb
*72 net582
*73 qbint
*74 n30
*75 mout
*76 mn3
*77 mn5
*78 mn4
*79 mn6
*80 mn7
*81 mn0
*82 mn1
*83 CKb
*84 mn20
*85 n20
*86 mn55
*87 CKbb
*88 Dpb
*89 Dp
*90 SEb
*91 net557

*GROUND_NETS VSS

*PORTS
*55 I
*51 I
*66 I
*49 I
*50 I
*53 I
*61 I
*65 I
*52 O
*48 O

*D_NET *55 1.14055e-15

*CONN
*P *55 I *C 0.1000 1.7100 
*I *54:s B *C 6.1100 1.3725 
*I *60:s B *C 7.8750 1.1275 
*I *62:s B *C 7.8750 1.1275 
*I *63:s B *C 4.4150 1.0950 
*I *64:s B *C 4.4150 1.0950 
*I *4:s B *C 4.8850 1.0950 
*I *5:s B *C 4.8850 1.0950 
*I *6:s B *C 5.2950 1.5700 
*I *8:s B *C 5.2950 1.5700 
*I *10:s B *C 6.1100 1.3725 
*I *14:s B *C 2.5425 1.1675 
*I *17:s B *C 2.5425 1.1675 
*I *30:s B *C 3.7450 1.5700 
*I *31:s B *C 3.7450 1.5700 
*I *32:s B *C 0.6200 1.0725 
*I *34:s B *C 0.6200 1.0725 
*I *40:s B *C 1.4200 1.5700 
*I *42:s B *C 1.4200 1.5700 
*N *55:2 *C 7.2000 1.7100 
*N *55:3 *C 7.2000 1.7100 
*N *55:4 *C 6.1550 1.7100 
*N *55:9 *C 3.7200 1.7100 
*N *55:10 *C 3.2000 1.7100 
*N *55:11 *C 2.2900 1.7100 
*N *55:12 *C 1.3950 1.7100 
*N *55:13 *C 1.1000 1.7100 
*N *55:14 *C 0.5050 1.7100 

*CAP
0 *40:s 1.77411e-17
1 *32:s 4.06303e-17
2 *30:s 2.27306e-17
3 *14:s 1.53502e-17
4 *6:s 1.23037e-16
5 *60:s 3.86954e-17
6 *54:s 3.85116e-17
7 *55:14 9.41415e-18
8 *55:12 2.09428e-17
9 *55:11 4.60939e-17
10 *55:9 2.50011e-17
11 *55:4 5.99864e-17
12 *55:2 6.74124e-16
13 *55 8.29281e-18

*RES
0 *55:14 *55 0.202823  // $metal1_conn
1 *55:2 *55:3 7.5  // $metal1_conn
2 *55:2 *6:s 7.5  // $metal1_conn
3 *55:2 *55:10 7.5  // $metal1_conn
4 *55:2 *55:13 6.818182  // $metal1_conn
5 *60:s *55:3 62.411201  // $metal1_conn
6 *55:4 *54:s 62.17712  // $metal1_conn
7 *55:9 *30:s 62.045856  // $metal1_conn
8 *55:11 *14:s 62.075157  // $metal1_conn
9 *55:12 *40:s 62.045856  // $metal1_conn
10 *55:14 *32:s 62.330208  // $metal1_conn
11 *55:3 *55:4 0.524291  // $metal1_conn
12 *55:4 *6:s 0.443791  // $metal1_conn
13 *6:s *55:9 0.304817  // $metal1_conn
14 *55:9 *55:10 0.259842  // $metal1_conn
15 *55:10 *55:11 0.456535  // $metal1_conn
16 *55:11 *55:12 0.447859  // $metal1_conn
17 *55:12 *55:13 0.146914  // $metal1_conn
18 *55:13 *55:14 0.298435  // $metal1_conn

*END

*D_NET *51 0

*CONN
*P *51 I *C 0.1000 0.0000 
*I *76:s B *C 6.1950 0.5875 
*I *78:s B *C 6.7350 0.4675 
*I *79:s B *C 7.0200 0.5525 
*I *81:s B *C 7.8300 0.4675 
*I *82:s B *C 7.8300 0.4675 
*I *84:s B *C 4.5100 0.4800 
*I *86:s B *C 4.5100 0.4800 
*I *7:s B *C 4.9800 0.4800 
*I *9:s B *C 4.9800 0.4800 
*I *11:s B *C 5.4500 0.5375 
*I *13:s B *C 5.4500 0.5375 
*I *15:s B *C 6.1950 0.5875 
*I *21:s B *C 2.5650 0.5875 
*I *24:s B *C 2.5650 0.5875 
*I *33:s B *C 3.7600 0.5575 
*I *35:s B *C 3.7600 0.5575 
*I *37:s B *C 0.5250 0.4775 
*I *39:s B *C 0.5250 0.4775 
*I *45:s B *C 1.3250 0.4775 
*I *46:s B *C 1.3250 0.4775 
*N *51:2 *C 7.2000 0.0000 
*N *51:3 *C 7.2000 0.0000 
*N *51:4 *C 6.9050 0.0000 
*N *51:5 *C 6.7350 0.0000 
*N *51:6 *C 6.1100 0.0000 
*N *51:11 *C 3.6450 0.0000 
*N *51:12 *C 3.2000 0.0000 
*N *51:13 *C 2.5100 0.0000 
*N *51:14 *C 1.3250 0.0000 
*N *51:15 *C 1.1000 0.0000 
*N *51:16 *C 0.5050 0.0000 


*RES
0 *51:16 *51 0.202823  // $metal1_conn
1 *51:2 *51:3 6.2  // $metal1_conn
2 *51:2 *11:s 6.2  // $metal1_conn
3 *51:2 *51:12 6.2  // $metal1_conn
4 *51:2 *51:15 5.636364  // $metal1_conn
5 *81:s *51:3 75.658379  // $metal1_conn
6 *51:4 *79:s 75.24321  // $metal1_conn
7 *51:5 *78:s 75.226753  // $metal1_conn
8 *51:6 *76:s 75.045853  // $metal1_conn
9 *51:11 *33:s 75.299965  // $metal1_conn
10 *51:13 *21:s 75.16555  // $metal1_conn
11 *51:14 *45:s 75.313843  // $metal1_conn
12 *51:16 *37:s 75.311508  // $metal1_conn
13 *51:3 *51:4 0.147865  // $metal1_conn
14 *51:4 *51:5 0.084931  // $metal1_conn
15 *51:5 *51:6 0.312346  // $metal1_conn
16 *51:6 *11:s 0.371624  // $metal1_conn
17 *11:s *51:11 0.390141  // $metal1_conn
18 *51:11 *51:12 0.22315  // $metal1_conn
19 *51:12 *51:13 0.346116  // $metal1_conn
20 *51:13 *51:14 0.594361  // $metal1_conn
21 *51:14 *51:15 0.112732  // $metal1_conn
22 *51:15 *51:16 0.298435  // $metal1_conn

*END

*D_NET *66 1.92653e-16

*CONN
*P *66 I *C 4.3000 1.0450 
*I *84:g B *C 4.2925 0.5375 
*I *63:g B *C 4.1975 1.0075 
*N *66:2 *C 4.2900 0.7400 

*CAP
0 *63:g 2.70602e-17
1 *84:g 3.3604e-17
2 *66:2 8.41327e-17
3 *66 4.78563e-17

*RES
0 *84:g *66:2 21.482582  // $poly_conn
1 *66:2 *63:g 39.728386  // $poly_conn
2 *66 *66:2 45.183617  // $metal1_conn

*END

*D_NET *49 2.41699e-16

*CONN
*P *49 I *C 7.9000 0.8550 
*I *82:g B *C 7.9325 0.4675 
*I *62:g B *C 7.9225 1.1275 
*N *49:2 *C 7.8950 0.6450 

*CAP
0 *62:g 5.06814e-17
1 *82:g 2.68026e-17
2 *49:2 8.18816e-17
3 *49 8.23331e-17

*RES
0 *82:g *49:2 17.437269  // $poly_conn
1 *49:2 *62:g 86.668037  // $poly_conn
2 *49:2 *49 45.105103  // $metal1_conn

*END

*D_NET *50 3.96362e-16

*CONN
*P *50 I *C 7.1000 0.8550 
*I *79:g B *C 7.0675 0.5525 
*I *81:g B *C 7.7275 0.4675 
*I *58:g B *C 7.0575 1.1375 
*I *60:g B *C 7.7275 1.1275 
*N *50:2 *C 7.0950 0.8650 
*N *50:5 *C 7.7275 0.8350 
*N *50:6 *C 7.5450 0.8350 

*CAP
0 *60:g 4.65091e-17
1 *58:g 4.02672e-17
2 *81:g 3.58046e-17
3 *79:g 4.54092e-17
4 *50:5 3.13213e-17
5 *50:2 3.85773e-17
6 *50:6 8.24836e-17
7 *50 7.59891e-17

*RES
0 *79:g *50:2 49.863373  // $poly_conn
1 *50:2 *58:g 32.04324  // $poly_conn
2 *60:g *50:5 44.124859  // $poly_conn
3 *50:5 *50:6 56.633698  // $poly_conn
4 *50:5 *81:g 72.329987  // $poly_conn
5 *50:6 *50 0.262069  // $metal1_conn
6 *50 *50:2 45.003311  // $metal1_conn

*END

*D_NET *53 2.3863e-16

*CONN
*P *53 I *C 5.9000 0.8550 
*I *15:g B *C 5.9775 0.5875 
*I *10:g B *C 5.9775 1.3725 
*N *53:2 *C 5.9500 1.1000 
*N *53:4 *C 5.9250 0.8550 
*N *53:5 *C 5.9250 1.1000 
*N *53:6 *C 5.9500 1.1000 

*CAP
0 *10:g 2.92677e-17
1 *15:g 4.94647e-17
2 *53:5 6.08062e-17
3 *53:4 6.48853e-17
4 *53:2 3.42058e-17

*RES
0 *10:g *53:2 33.794518  // $poly_conn
1 *53:2 *15:g 104.307335  // $poly_conn
2 *53 *53:4 0.004986  // $metal1_conn
3 *53:5 *53:6 0.005088  // $metal1_conn
4 *53:4 *53:5 0.059058  // $metal1_conn
5 *53:2 *53:6 45  // $metal1_conn

*END

*D_NET *61 6.20524e-16

*CONN
*P *61 I *C 0.3000 0.6650 
*I *37:g B *C 0.4025 0.4775 
*I *41:g B *C 0.7525 0.4775 
*I *32:g B *C 0.4025 1.0725 
*I *38:g B *C 1.1025 1.0725 
*N *61:2 *C 0.3750 0.6600 
*N *61:5 *C 0.7800 0.6750 
*N *61:7 *C 1.1300 0.7900 
*N *61:8 *C 0.6650 0.6750 
*N *61:9 *C 0.3750 0.6600 

*CAP
0 *38:g 5.49287e-17
1 *32:g 4.33835e-17
2 *41:g 6.20693e-17
3 *37:g 2.33386e-17
4 *61:8 1.0365e-16
5 *61:2 6.15595e-17
6 *61:5 7.3261e-17
7 *61:7 1.60486e-16
8 *61 3.78473e-17

*RES
0 *32:g *61:2 69.691948  // $poly_conn
1 *61:2 *37:g 19.691952  // $poly_conn
2 *41:g *61:5 68.538101  // $poly_conn
3 *38:g *61:7 81.35862  // $poly_conn
4 *61:7 *61:8 0.906644  // $metal1_conn
5 *61:8 *61:9 0.232569  // $metal1_conn
6 *61:9 *61 0.05152  // $metal1_conn
7 *61:8 *61:5 0.085586  // $metal1_conn
8 *61:2 *61:9 45  // $metal1_conn

*END

*D_NET *65 3.2392e-16

*CONN
*P *65 I *C 0.5000 0.8550 
*I *39:g B *C 0.6475 0.4775 
*I *34:g B *C 0.6675 1.0725 
*N *65:2 *C 0.6575 0.8350 
*N *65:3 *C 0.6100 0.8350 

*CAP
0 *34:g 6.16293e-17
1 *39:g 6.09003e-17
2 *65:3 9.8858e-17
3 *65 1.02533e-16

*RES
0 *34:g *65:2 34.427731  // $poly_conn
1 *65:2 *65:3 47.215244  // $poly_conn
2 *65:2 *39:g 74.171326  // $poly_conn
3 *65:3 *65 0.061956  // $metal1_conn

*END

*D_NET *52 1.12452e-16

*CONN
*P *52 O *C 4.7000 0.8550 
*I *86:d B *C 4.6600 0.4800 
*I *7:d B *C 4.6600 0.4800 
*I *64:d B *C 4.5650 1.0950 
*I *4:d B *C 4.5650 1.0950 
*N *52:1 *C 4.6425 0.9050 

*CAP
0 *64:d 1.91175e-17
1 *86:d 4.68901e-17
2 *52:1 4.64444e-17

*RES
0 *52 *52:1 0.043278  // $metal1_conn
1 *52:1 *86:d 75.154152  // $metal1_conn
2 *52:1 *64:d 62.05064  // $metal1_conn

*END

*D_NET *48 1.13353e-16

*CONN
*P *48 O *C 4.9000 0.6650 
*I *9:d B *C 5.1300 0.4800 
*I *11:d B *C 5.1300 0.4800 
*I *5:d B *C 5.0350 1.0950 
*I *6:d B *C 5.0350 1.0950 
*N *48:2 *C 5.0250 0.6650 

*CAP
0 *5:d 2.41344e-17
1 *9:d 2.73908e-17
2 *48:2 3.39612e-17
3 *48 2.78668e-17

*RES
0 *48:2 *48 0.040889  // $metal1_conn
1 *9:d *48:2 75.117287  // $metal1_conn
2 *48:2 *5:d 62.182987  // $metal1_conn

*END

*D_NET *29 4.09846e-19

*CONN
*I *79:d B *C 7.1400 0.5525 
*I *80:s B *C 7.1400 0.5525 

*CAP
0 *79:d 4.09846e-19

*RES
0 *80:s *79:d 0.001  // $mwires

*END

*D_NET *27 0

*CONN
*I *77:s B *C 6.5250 0.5875 
*I *78:d B *C 6.5250 0.5875 


*RES
0 *78:d *77:s 0.001  // $mwires

*END

*D_NET *25 1.54832e-18

*CONN
*I *28:s B *C 3.4900 0.5875 
*I *33:d B *C 3.4900 0.5875 

*CAP
0 *28:s 1.54832e-18

*RES
0 *33:d *28:s 0.001  // $mwires

*END

*D_NET *22 0

*CONN
*I *18:s B *C 2.2950 0.5875 
*I *21:d B *C 2.2950 0.5875 


*RES
0 *21:d *18:s 0.001  // $mwires

*END

*D_NET *19 2.55267e-18

*CONN
*I *43:s B *C 1.0900 0.4775 
*I *45:d B *C 1.0900 0.4775 

*CAP
0 *43:s 2.55267e-18

*RES
0 *45:d *43:s 0.001  // $mwires

*END

*D_NET *16 8.64555e-20

*CONN
*I *39:d B *C 0.7000 0.4775 
*I *41:s B *C 0.7000 0.4775 

*CAP
0 *39:d 8.64555e-20

*RES
0 *41:s *39:d 0.001  // $mwires

*END

*D_NET *3 3.38708e-18

*CONN
*I *23:s B *C 3.4025 1.1675 
*I *30:d B *C 3.4025 1.1675 

*CAP
0 *23:s 3.38708e-18

*RES
0 *30:d *23:s 0.001  // $mwires

*END

*D_NET *2 2.80343e-18

*CONN
*I *12:s B *C 2.2725 1.1675 
*I *14:d B *C 2.2725 1.1675 

*CAP
0 *12:s 2.80343e-18

*RES
0 *14:d *12:s 0.001  // $mwires

*END

*D_NET *1 2.86705e-18

*CONN
*I *38:s B *C 1.1825 1.0725 
*I *40:d B *C 1.1825 1.0725 

*CAP
0 *38:s 2.86705e-18

*RES
0 *40:d *38:s 0.001  // $mwires

*END

*D_NET *91 2.19216e-18

*CONN
*I *34:d B *C 0.7200 1.0725 
*I *36:s B *C 0.7200 1.0725 

*CAP
0 *34:d 2.19216e-18

*RES
0 *36:s *34:d 0.001  // $mwires

*END

*D_NET *90 4.50185e-16

*CONN
*I *37:d B *C 0.3100 0.4775 
*I *43:g B *C 0.9575 0.4775 
*I *32:d B *C 0.3100 1.0725 
*I *36:g B *C 0.7725 1.0725 
*N *90:2 *C 0.8100 0.8650 
*N *90:5 *C 0.3000 1.0550 

*CAP
0 *36:g 4.67608e-17
1 *32:d 1.25965e-16
2 *43:g 4.94894e-17
3 *37:d 7.851e-17
4 *90:2 1.4946e-16

*RES
0 *43:g *90:2 84.763519  // $poly_conn
1 *90:2 *36:g 16.15522  // $poly_conn
2 *90:2 *90:5 45.493668  // $metal1_conn
3 *90:5 *37:d 75.687134  // $metal1_conn
4 *32:d *90:5 62  // $metal1_conn

*END

*D_NET *89 1.55749e-15

*CONN
*I *76:d B *C 6.3450 0.5875 
*I *77:d B *C 6.3450 0.5875 
*I *80:d B *C 7.3050 0.5525 
*I *45:g B *C 1.2225 0.4775 
*I *58:d B *C 6.9650 1.1375 
*I *59:d B *C 7.3550 1.1375 
*I *40:g B *C 1.2625 1.0725 
*N *89:1 *C 1.2350 1.3200 
*N *89:5 *C 6.9300 1.0375 
*N *89:6 *C 6.3950 1.0500 

*CAP
0 *40:g 6.13197e-17
1 *59:d 7.4072e-17
2 *45:g 6.0686e-17
3 *80:d 1.06481e-16
4 *76:d 5.50987e-17
5 *89:6 5.01919e-16
6 *89:5 1.31605e-16
7 *89:1 5.66313e-16

*RES
0 *89:1 *40:g 72.384262  // $poly_conn
1 *40:g *45:g 107.88929  // $poly_conn
2 *59:d *89:5 62.403999  // $metal1_conn
3 *89:5 *89:6 0.431179  // $metal1_conn
4 *89:6 *89:1 4.338666  // $metal1_conn
5 *89:5 *80:d 75.603836  // $metal1_conn
6 *89:5 *58:d 62.027451  // $metal1_conn
7 *89:6 *76:d 75.289238  // $metal1_conn

*END

*D_NET *88 4.41153e-16

*CONN
*I *41:d B *C 0.8550 0.4775 
*I *43:d B *C 0.8550 0.4775 
*I *47:s B *C 1.7600 0.5875 
*I *36:d B *C 0.9375 1.0725 
*I *38:d B *C 0.9375 1.0725 
*I *44:s B *C 1.8550 1.1675 
*N *88:2 *C 1.7500 1.1550 
*N *88:4 *C 0.9700 1.1200 

*CAP
0 *44:s 3.06852e-17
1 *36:d 1.2276e-16
2 *47:s 6.92269e-17
3 *41:d 9.79261e-17
4 *88:2 1.20554e-16

*RES
0 *47:s *88:2 75.376625  // $metal1_conn
1 *88:2 *88:4 0.64747  // $metal1_conn
2 *88:4 *41:d 75.50428  // $metal1_conn
3 *88:2 *44:s 62.049675  // $metal1_conn
4 *36:d *88:4 62  // $metal1_conn

*END

*D_NET *87 7.87152e-16

*CONN
*I *18:g B *C 2.2425 0.5875 
*I *26:g B *C 3.0875 0.5875 
*I *46:d B *C 1.5200 0.4775 
*I *23:g B *C 3.2825 1.1675 
*I *42:d B *C 1.5500 1.0725 
*I *44:g B *C 1.9475 1.1675 
*N *87:2 *C 1.9100 0.8900 
*N *87:4 *C 2.2050 0.3050 
*N *87:6 *C 3.0500 0.7600 
*N *87:8 *C 2.2050 0.4250 
*N *87:9 *C 1.9100 0.4100 
*N *87:11 *C 1.5300 0.4650 

*CAP
0 *44:g 4.2465e-17
1 *42:d 6.2748e-17
2 *23:g 5.00643e-17
3 *46:d 6.16051e-17
4 *26:g 1.79894e-17
5 *18:g 7.31194e-17
6 *87:9 6.30575e-17
7 *87:8 9.37404e-17
8 *87:2 1.18059e-16
9 *87:4 4.20779e-17
10 *87:6 1.62226e-16

*RES
0 *44:g *87:2 79.103935  // $poly_conn
1 *18:g *87:4 89.360352  // $poly_conn
2 *23:g *87:6 100.695229  // $poly_conn
3 *87:6 *26:g 16.15522  // $poly_conn
4 *87:6 *87:8 45.934353  // $metal1_conn
5 *87:8 *87:9 0.277611  // $metal1_conn
6 *87:9 *87:11 0.341887  // $metal1_conn
7 *87:8 *87:4 0.037643  // $metal1_conn
8 *87:9 *87:2 0.364556  // $metal1_conn
9 *87:11 *42:d 62.406643  // $metal1_conn
10 *46:d *87:11 75  // $metal1_conn

*END

*D_NET *85 3.02923e-16

*CONN
*I *18:d B *C 2.0475 0.5875 
*I *24:g B *C 2.6125 0.5875 
*I *47:d B *C 2.0475 0.5875 
*I *12:d B *C 2.0600 1.1675 
*I *17:g B *C 2.6125 1.1675 
*I *44:d B *C 2.0600 1.1675 
*N *85:2 *C 2.5750 0.7600 
*N *85:4 *C 2.0700 0.7600 

*CAP
0 *17:g 4.73312e-17
1 *12:d 5.36568e-17
2 *24:g 2.45988e-17
3 *18:d 3.44203e-17
4 *85:4 6.16162e-17
5 *85:2 8.12998e-17

*RES
0 *17:g *85:2 67.437271  // $poly_conn
1 *85:2 *24:g 16.15522  // $poly_conn
2 *85:2 *85:4 45.351654  // $metal1_conn
3 *85:4 *12:d 62.279556  // $metal1_conn
4 *85:4 *18:d 75.111046  // $metal1_conn

*END

*D_NET *83 1.11172e-15

*CONN
*I *84:d B *C 4.2000 0.5375 
*I *28:g B *C 3.4375 0.5875 
*I *46:g B *C 1.4275 0.4775 
*I *47:g B *C 1.8525 0.5875 
*I *63:d B *C 4.1050 1.0075 
*I *12:g B *C 2.1725 1.1675 
*I *20:g B *C 3.0575 1.1675 
*I *42:g B *C 1.4575 1.0725 
*N *83:1 *C 2.2300 0.9600 
*N *83:2 *C 2.1775 0.9600 
*N *83:3 *C 1.8525 0.7575 
*N *83:4 *C 1.4650 0.7575 
*N *83:10 *C 3.0200 0.9600 
*N *83:12 *C 3.4000 0.8000 
*N *83:15 *C 4.0950 0.9600 
*N *83:16 *C 3.3700 1.1200 
*N *83:17 *C 2.9900 1.2800 

*CAP
0 *42:g 4.95161e-17
1 *20:g 3.40559e-17
2 *12:g 3.34882e-17
3 *63:d 1.11618e-16
4 *47:g 2.37365e-17
5 *46:g 2.79015e-17
6 *28:g 5.64841e-17
7 *84:d 6.29388e-17
8 *83:17 1.5465e-16
9 *83:16 1.25303e-16
10 *83:4 3.31553e-17
11 *83:3 3.73219e-17
12 *83:2 7.46085e-17
13 *83:1 1.12703e-16
14 *83:10 9.11997e-17
15 *83:12 8.30354e-17

*RES
0 *83:1 *83:2 47.472527  // $poly_conn
1 *83:2 *83:3 113.908798  // $poly_conn
2 *83:3 *83:4 97.485703  // $poly_conn
3 *83:4 *46:g 62.164814  // $poly_conn
4 *83:2 *12:g 17.3778  // $poly_conn
5 *83:3 *47:g 20.300484  // $poly_conn
6 *83:4 *42:g 50.72139  // $poly_conn
7 *20:g *83:10 61.15522  // $poly_conn
8 *28:g *83:12 71.411629  // $poly_conn
9 *84:d *83:15 75.395996  // $metal1_conn
10 *83:15 *83:16 0.625742  // $metal1_conn
11 *83:16 *83:17 0.414416  // $metal1_conn
12 *83:17 *83:1 0.812879  // $metal1_conn
13 *83:16 *83:12 0.244677  // $metal1_conn
14 *83:17 *83:10 0.224195  // $metal1_conn
15 *63:d *83:15 62  // $metal1_conn

*END

*D_NET *75 3.60217e-16

*CONN
*I *21:g B *C 2.3475 0.5875 
*I *24:d B *C 2.8500 0.5875 
*I *26:s B *C 2.8500 0.5875 
*I *14:g B *C 2.3725 1.1675 
*I *17:d B *C 2.8350 1.1675 
*I *20:s B *C 2.8350 1.1675 
*N *75:2 *C 2.4200 0.9600 
*N *75:5 *C 2.8300 0.9600 

*CAP
0 *17:d 4.3623e-17
1 *14:g 3.78695e-17
2 *24:d 5.26474e-17
3 *21:g 8.10211e-17
4 *75:5 4.6147e-17
5 *75:2 9.89095e-17

*RES
0 *14:g *75:2 16.15522  // $poly_conn
1 *75:2 *21:g 71.038818  // $poly_conn
2 *17:d *75:5 62.113434  // $metal1_conn
3 *75:5 *75:2 45.299095  // $metal1_conn
4 *75:5 *24:d 75.263306  // $metal1_conn

*END

*D_NET *74 3.57624e-16

*CONN
*I *26:d B *C 3.2625 0.5875 
*I *28:d B *C 3.2625 0.5875 
*I *35:g B *C 3.8075 0.5575 
*I *20:d B *C 3.1700 1.1675 
*I *23:d B *C 3.1700 1.1675 
*I *31:g B *C 3.7925 1.0550 
*N *74:2 *C 3.7650 0.7700 
*N *74:5 *C 3.2100 0.6000 

*CAP
0 *31:g 5.788e-17
1 *20:d 7.89594e-17
2 *35:g 2.90287e-17
3 *26:d 9.12743e-17
4 *74:2 1.00481e-16

*RES
0 *35:g *74:2 18.797684  // $poly_conn
1 *74:2 *31:g 21.658245  // $poly_conn
2 *74:2 *74:5 45.478344  // $metal1_conn
3 *74:5 *20:d 62.399094  // $metal1_conn
4 *26:d *74:5 75  // $metal1_conn

*END

*D_NET *73 1.2099e-15

*CONN
*I *77:g B *C 6.4475 0.5875 
*I *86:g B *C 4.5575 0.4800 
*I *7:g B *C 4.7625 0.4800 
*I *13:g B *C 5.4975 0.5375 
*I *33:g B *C 3.5425 0.5875 
*I *35:d B *C 3.9075 0.5575 
*I *56:g B *C 6.4475 1.3725 
*I *64:g B *C 4.4625 1.0950 
*I *4:g B *C 4.6675 1.0950 
*I *8:g B *C 5.3675 1.0075 
*I *30:g B *C 3.5225 1.1675 
*I *31:d B *C 3.8850 1.0550 
*N *73:2 *C 3.5600 0.9600 
*N *73:10 *C 5.5850 0.3550 
*N *73:15 *C 6.4200 0.3650 
*N *73:16 *C 4.4700 0.3650 
*N *73:18 *C 3.9250 0.5150 
*N *73:20 *C 3.9100 0.9600 

*CAP
0 *31:d 8.11266e-17
1 *30:g 4.15036e-17
2 *8:g 6.17885e-17
3 *4:g 2.17285e-16
4 *56:g 7.01125e-17
5 *35:d 8.5826e-17
6 *33:g 6.93397e-17
7 *13:g 3.08912e-17
8 *77:g 6.12381e-17
9 *73:16 1.28654e-16
10 *73:2 9.05839e-17
11 *73:10 1.72193e-16
12 *73:15 9.93614e-17

*RES
0 *56:g *77:g 155.128204  // $poly_conn
1 *13:g *8:g 95.864273  // $poly_conn
2 *73:2 *30:g 16.15522  // $poly_conn
3 *77:g *73:15 74.948364  // $poly_conn
4 *73:10 *13:g 68.922913  // $poly_conn
5 *33:g *73:2 67.437271  // $poly_conn
6 *73:16 *4:g 45.234806  // $metal1_conn
7 *73:15 *73:10 0.589647  // $metal1_conn
8 *73:10 *73:16 0.815928  // $metal1_conn
9 *73:20 *73:2 45.239552  // $metal1_conn
10 *31:d *73:20 62  // $metal1_conn
11 *35:d *73:18 75  // $metal1_conn
12 *73:16 *73:18 0.493693  // $metal1_conn
13 *73:18 *73:20 0.327863  // $metal1_conn

*END

*D_NET *72 3.30061e-16

*CONN
*I *9:g B *C 5.0275 0.4800 
*I *11:g B *C 5.2325 0.4800 
*I *13:d B *C 5.5900 0.5375 
*I *5:g B *C 4.9325 1.0950 
*I *6:g B *C 5.1375 1.0950 
*I *8:d B *C 5.5100 0.9600 
*N *72:8 *C 5.4700 0.8000 

*CAP
0 *8:d 2.9859e-17
1 *6:g 2.048e-16
2 *13:d 5.63536e-17
3 *72:8 3.90477e-17

*RES
0 *72:8 *6:g 45.150608  // $metal1_conn
1 *13:d *72:8 75.296349  // $metal1_conn
2 *72:8 *8:d 62.118954  // $metal1_conn

*END

*D_NET *71 4.22125e-16

*CONN
*I *76:g B *C 6.2425 0.5875 
*I *15:d B *C 5.8850 0.5875 
*I *54:g B *C 6.2425 1.3725 
*I *10:d B *C 5.8200 1.3725 
*N *71:2 *C 6.2050 0.7850 
*N *71:5 *C 5.8750 0.6850 

*CAP
0 *10:d 1.05503e-16
1 *54:g 5.47821e-17
2 *15:d 1.86246e-17
3 *76:g 3.8379e-17
4 *71:5 1.14607e-16
5 *71:2 9.02286e-17

*RES
0 *54:g *71:2 113.591118  // $poly_conn
1 *71:2 *76:g 22.565475  // $poly_conn
2 *15:d *71:5 75.044357  // $metal1_conn
3 *71:5 *10:d 62.711052  // $metal1_conn
4 *71:5 *71:2 45.26479  // $metal1_conn

*END

*D_NET *70 4.61802e-16

*CONN
*I *78:g B *C 6.6025 0.5875 
*I *81:d B *C 7.6350 0.4675 
*I *57:g B *C 6.6525 1.3725 
*I *60:d B *C 7.6350 1.1275 
*N *70:2 *C 6.6800 0.7700 
*N *70:5 *C 7.6250 0.4550 

*CAP
0 *60:d 8.02335e-17
1 *57:g 4.78119e-17
2 *81:d 1.47149e-16
3 *78:g 3.03387e-17
4 *70:2 1.56269e-16

*RES
0 *57:g *70:2 115.247986  // $poly_conn
1 *70:2 *78:g 22.360411  // $poly_conn
2 *70:2 *70:5 45.917358  // $metal1_conn
3 *70:5 *60:d 62.515205  // $metal1_conn
4 *81:d *70:5 75  // $metal1_conn

*END

*D_NET *69 2.00231e-16

*CONN
*I *56:d B *C 6.5500 1.3725 
*I *57:d B *C 6.5500 1.3725 
*I *58:s B *C 7.1600 1.1375 
*I *59:s B *C 7.1600 1.1375 

*CAP
0 *58:s 1.05599e-16
1 *56:d 9.46311e-17

*RES
0 *56:d *58:s 124.650276  // $metal1_conn

*END

*D_NET *68 1.531e-16

*CONN
*I *54:d B *C 6.3450 1.3725 
*I *56:s B *C 6.3450 1.3725 
*I *57:s B *C 6.7450 1.3725 

*CAP
0 *57:s 8.50439e-17
1 *54:d 6.80559e-17

*RES
0 *54:d *57:s 124.303391  // $metal1_conn

*END

*D_NET *67 3.67383e-16

*CONN
*I *80:g B *C 7.2125 0.5525 
*I *82:d B *C 8.0250 0.4675 
*I *59:g B *C 7.2625 1.1375 
*I *62:d B *C 8.0500 1.1275 
*N *67:3 *C 7.3050 1.3450 
*N *67:6 *C 8.0950 1.1750 

*CAP
0 *62:d 1.03738e-16
1 *59:g 4.39525e-17
2 *82:d 6.82473e-17
3 *80:g 6.37591e-17
4 *67:3 8.76854e-17

*RES
0 *80:g *59:g 104.838638  // $poly_conn
1 *59:g *67:3 61.15522  // $poly_conn
2 *82:d *67:6 75.497589  // $metal1_conn
3 *67:6 *67:3 0.63346  // $metal1_conn
4 *62:d *67:6 62  // $metal1_conn

*END

