*SPEF "IEEE 1481-1999"
*DESIGN  "SEDFFHQX2"
*DATE "Mon Sep 27 11:13:58 2010"
*VENDOR "Cadence Design Systems"
*PROGRAM "Assura RCX"
*VERSION "3.2 Red Hat Linux release 7.2 (Enigma) - (09/09/2009-10:39)"
*DESIGN_FLOW "Physical Verification"
*DIVIDER /
*DELIMITER :
*BUS_DELIMITER []
*T_UNIT 1 PS
*C_UNIT 1e15 FF
*R_UNIT 1 OHM
*L_UNIT 1 MH
// DeviceFingerDelim "@"
// MATCHED
// caps2d version: 10

*NAME_MAP
*1 mn56
*2 mn45
*3 mn50
*4 mn51
*5 mp56
*6 mn40
*7 mp45
*8 mn30
*9 mp50
*10 mn35
*11 mp51
*12 mn36
*13 mp40
*14 mn25
*15 SE
*16 mp30
*17 mp35
*18 mp36
*19 mp25
*20 SI
*21 VSS
*22 mp21
*23 mp20
*24 mp0
*25 mp3
*26 mp4
*27 mp2
*28 mp1
*29 mp10
*30 mp11
*31 mp13
*32 n20
*33 mp12
*34 qbint
*35 mp55
*36 n30
*37 mp55\@1
*38 SEb
*39 Db
*40 Eb
*41 D
*42 Ckbb
*43 E
*44 CKb
*45 qint
*46 Dbp
*47 net449
*48 net405
*49 Q
*50 mout
*51 net441
*52 net426
*53 net417
*54 CK
*55 net526
*56 net494
*57 net518
*58 net509
*59 VDD
*60 net501
*61 mn21
*62 mn20
*63 mn0
*64 mn3
*65 mn4
*66 mn2
*67 mn1
*68 mn10
*69 mn11
*70 mn13
*71 mn12
*72 mn55
*73 mn55\@1

*GROUND_NETS VSS

*PORTS
*59 I
*21 I
*54 I
*41 I
*43 I
*15 I
*20 I
*49 O

*D_NET *59 9.05736e-16

*CONN
*P *59 I *C 0.1000 1.7100 
*I *5:s B *C 3.5250 1.1900 
*I *7:s B *C 4.1850 1.1200 
*I *9:s B *C 4.1850 1.1200 
*I *16:s B *C 5.2150 1.1200 
*I *17:s B *C 5.2150 1.1200 
*I *22:s B *C 6.3075 1.2325 
*I *23:s B *C 6.3075 1.2325 
*I *24:s B *C 0.6650 1.2850 
*I *25:s B *C 0.6650 1.2850 
*I *28:s B *C 1.6525 1.1975 
*I *29:s B *C 1.6525 1.1975 
*I *33:s B *C 3.0550 1.1300 
*I *35:s B *C 3.0550 1.1300 
*I *37:s B *C 3.5250 1.1900 
*N *59:2 *C 5.7000 1.7100 
*N *59:3 *C 5.7000 1.7100 
*N *59:4 *C 5.1300 1.7100 
*N *59:5 *C 4.0850 1.7100 
*N *59:6 *C 3.5000 1.7100 
*N *59:9 *C 1.5250 1.7100 
*N *59:10 *C 1.2000 1.7100 
*N *59:11 *C 0.6550 1.7100 

*CAP
0 *28:s 6.32141e-17
1 *24:s 2.6381e-17
2 *22:s 5.84243e-17
3 *16:s 1.91515e-17
4 *7:s 5.65337e-17
5 *5:s 1.18453e-16
6 *59:11 2.02786e-17
7 *59:9 3.96592e-17
8 *59:5 2.12609e-17
9 *59:4 3.73226e-17
10 *59:2 4.32049e-16
11 *59 1.30075e-17

*RES
0 *59:11 *59 0.277969  // $metal1_conn
1 *59:2 *59:3 6.818182  // $metal1_conn
2 *59:2 *59:6 6.818182  // $metal1_conn
3 *59:2 *59:10 6.25  // $metal1_conn
4 *22:s *59:3 62.647282  // $metal1_conn
5 *59:4 *16:s 62.045834  // $metal1_conn
6 *59:5 *7:s 21.005842  // $metal1_conn
7 *59:9 *28:s 31.248087  // $metal1_conn
8 *59:11 *24:s 62.175217  // $metal1_conn
9 *59:3 *59:4 0.284795  // $metal1_conn
10 *59:4 *59:5 0.522883  // $metal1_conn
11 *59:5 *59:6 0.293269  // $metal1_conn
12 *59:6 *5:s 0.045024  // $metal1_conn
13 *5:s *59:9 0.739542  // $metal1_conn
14 *59:9 *59:10 0.16284  // $metal1_conn
15 *59:10 *59:11 0.273203  // $metal1_conn

*END

*D_NET *21 0

*CONN
*P *21 I *C 0.1000 0.0000 
*I *1:s B *C 3.4450 0.4825 
*I *2:s B *C 4.2800 0.4825 
*I *3:s B *C 4.2800 0.4825 
*I *8:s B *C 5.3200 0.4825 
*I *10:s B *C 5.3200 0.4825 
*I *61:s B *C 6.2650 0.3625 
*I *62:s B *C 6.2650 0.3625 
*I *63:s B *C 0.6650 0.3650 
*I *64:s B *C 0.6650 0.3650 
*I *67:s B *C 1.6250 0.4225 
*I *68:s B *C 1.6250 0.4225 
*I *71:s B *C 2.8450 0.4550 
*I *72:s B *C 2.8450 0.4550 
*I *73:s B *C 3.4450 0.4825 
*N *21:2 *C 5.7000 0.0000 
*N *21:3 *C 5.7000 0.0000 
*N *21:4 *C 5.2350 0.0000 
*N *21:5 *C 4.1650 0.0000 
*N *21:6 *C 3.5000 0.0000 
*N *21:9 *C 1.4950 0.0000 
*N *21:10 *C 1.2000 0.0000 
*N *21:11 *C 0.6550 0.0000 


*RES
0 *21:11 *21 0.277019  // $metal1_conn
1 *21:2 *21:3 5.636364  // $metal1_conn
2 *21:2 *21:6 5.636364  // $metal1_conn
3 *21:2 *21:10 5.166667  // $metal1_conn
4 *61:s *21:3 75.560722  // $metal1_conn
5 *21:4 *8:s 75.04583  // $metal1_conn
6 *21:5 *2:s 75.250717  // $metal1_conn
7 *21:9 *67:s 75.176361  // $metal1_conn
8 *21:11 *63:s 75.123589  // $metal1_conn
9 *21:3 *21:4 0.232121  // $metal1_conn
10 *21:4 *21:5 0.535424  // $metal1_conn
11 *21:5 *21:6 0.333401  // $metal1_conn
12 *21:6 *1:s 0.069085  // $metal1_conn
13 *1:s *21:9 0.639212  // $metal1_conn
14 *21:9 *21:10 0.147791  // $metal1_conn
15 *21:10 *21:11 0.272253  // $metal1_conn

*END

*D_NET *54 2.19952e-16

*CONN
*P *54 I *C 6.7000 0.8550 
*I *62:g B *C 6.3675 0.3625 
*I *23:g B *C 6.4525 1.2325 
*N *54:2 *C 6.4525 0.8500 
*N *54:4 *C 6.5100 0.8500 

*CAP
0 *23:g 3.3638e-17
1 *62:g 4.68955e-17
2 *54:2 3.69409e-17
3 *54:4 7.79544e-17
4 *54 2.4523e-17

*RES
0 *23:g *54:2 60.741188  // $poly_conn
1 *54:2 *62:g 115.504959  // $poly_conn
2 *54:2 *54:4 48.315495  // $poly_conn
3 *54 *54:4 0.062361  // $metal1_conn

*END

*D_NET *41 2.93133e-16

*CONN
*P *41 I *C 0.7000 0.8550 
*I *64:g B *C 0.7575 0.3650 
*I *25:g B *C 0.7575 1.2850 
*N *41:2 *C 0.7100 0.8500 
*N *41:4 *C 0.7100 0.8500 

*CAP
0 *25:g 9.01506e-17
1 *64:g 6.2726e-17
2 *41:2 1.40257e-16

*RES
0 *25:g *41:2 52.052654  // $poly_conn
1 *41:2 *64:g 81.539833  // $poly_conn
2 *41:4 *41 0.003116  // $metal1_conn
3 *41:2 *41:4 45  // $metal1_conn

*END

*D_NET *43 4.5303e-16

*CONN
*P *43 I *C 0.3000 0.6650 
*I *63:g B *C 0.4725 0.4225 
*I *65:g B *C 0.9675 0.3650 
*I *24:g B *C 0.5225 1.1975 
*I *27:g B *C 1.1325 1.2850 
*N *43:2 *C 0.4950 0.6550 
*N *43:5 *C 0.9300 0.5950 
*N *43:7 *C 0.4950 0.6550 

*CAP
0 *27:g 6.47253e-17
1 *24:g 5.0162e-17
2 *65:g 3.01458e-17
3 *63:g 2.54948e-17
4 *43:2 1.05573e-16
5 *43:5 1.34433e-16
6 *43 4.24961e-17

*RES
0 *24:g *43:2 100.73201  // $poly_conn
1 *43:2 *63:g 30.219189  // $poly_conn
2 *27:g *43:5 154.830948  // $poly_conn
3 *43:5 *65:g 16.15522  // $poly_conn
4 *43:5 *43:7 45.516262  // $metal1_conn
5 *43:7 *43 0.125229  // $metal1_conn
6 *43:2 *43:7 45  // $metal1_conn

*END

*D_NET *15 3.83737e-16

*CONN
*P *15 I *C 1.7000 0.6650 
*I *68:g B *C 1.6875 0.4225 
*I *70:g B *C 2.5625 0.4550 
*I *29:g B *C 1.7425 1.1975 
*I *30:g B *C 2.2425 1.1300 
*N *15:2 *C 2.2425 0.8375 
*N *15:3 *C 1.7150 0.8000 
*N *15:7 *C 1.7150 0.8000 
*N *15:8 *C 1.7075 0.8000 

*CAP
0 *30:g 2.41361e-17
1 *29:g 3.02598e-17
2 *70:g 1.01902e-16
3 *68:g 4.01867e-17
4 *15:8 5.21161e-17
5 *15:2 5.02826e-17
6 *15:3 4.60363e-17
7 *15 3.88171e-17

*RES
0 *70:g *15:2 127.900826  // $poly_conn
1 *15:2 *15:3 124.618599  // $poly_conn
2 *15:3 *68:g 66.530045  // $poly_conn
3 *15:2 *30:g 20.300484  // $poly_conn
4 *15:3 *29:g 63.309063  // $poly_conn
5 *15:7 *15:8 0.001772  // $metal1_conn
6 *15 *15:8 0.052328  // $metal1_conn
7 *15:3 *15:7 45  // $metal1_conn

*END

*D_NET *20 2.85706e-16

*CONN
*P *20 I *C 2.9000 0.8550 
*I *71:g B *C 2.6675 0.4550 
*I *33:g B *C 2.8375 1.1300 
*N *20:2 *C 2.8375 0.7525 
*N *20:4 *C 2.8900 0.7650 

*CAP
0 *33:g 5.42006e-17
1 *71:g 8.06226e-17
2 *20:2 4.35554e-17
3 *20:4 3.67609e-17
4 *20 7.0566e-17

*RES
0 *33:g *20:2 31.968122  // $poly_conn
1 *20:2 *71:g 69.868515  // $poly_conn
2 *20:2 *20:4 47.661674  // $poly_conn
3 *20:4 *20 0.052411  // $metal1_conn

*END

*D_NET *49 1.3286e-16

*CONN
*P *49 O *C 3.1000 0.6650 
*I *72:d B *C 3.1250 0.4550 
*I *73:d B *C 3.1250 0.4550 
*I *35:d B *C 3.2050 1.1300 
*I *37:d B *C 3.2050 1.1300 

*CAP
0 *35:d 6.06775e-17
1 *72:d 4.56009e-17
2 *49 2.65815e-17

*RES
0 *49 *72:d 75.085396  // $metal1_conn
1 *35:d *49 62.240871  // $metal1_conn

*END

*D_NET *60 1.52067e-18

*CONN
*I *10:d B *C 5.4450 0.4825 
*I *12:s B *C 5.4450 0.4825 

*CAP
0 *10:d 1.52067e-18

*RES
0 *12:s *10:d 0.001  // $mwires

*END

*D_NET *58 2.38063e-18

*CONN
*I *3:d B *C 4.4300 0.4825 
*I *4:s B *C 4.4300 0.4825 

*CAP
0 *3:d 2.38063e-18

*RES
0 *4:s *3:d 0.001  // $mwires

*END

*D_NET *57 1.39771e-18

*CONN
*I *70:s B *C 2.6150 0.4550 
*I *71:d B *C 2.6150 0.4550 

*CAP
0 *70:s 1.39771e-18

*RES
0 *71:d *70:s 0.001  // $mwires

*END

*D_NET *56 3.58748e-18

*CONN
*I *66:s B *C 1.3700 0.3650 
*I *67:d B *C 1.3700 0.3650 

*CAP
0 *66:s 3.58748e-18

*RES
0 *67:d *66:s 0.001  // $mwires

*END

*D_NET *55 4.99069e-18

*CONN
*I *64:d B *C 0.8625 0.3650 
*I *65:s B *C 0.8625 0.3650 

*CAP
0 *64:d 4.99069e-18

*RES
0 *65:s *64:d 0.001  // $mwires

*END

*D_NET *53 1.2468e-18

*CONN
*I *17:d B *C 5.3150 1.1200 
*I *18:s B *C 5.3150 1.1200 

*CAP
0 *17:d 1.2468e-18

*RES
0 *18:s *17:d 0.001  // $mwires

*END

*D_NET *52 4.71835e-18

*CONN
*I *9:d B *C 4.3400 1.1200 
*I *11:s B *C 4.3400 1.1200 

*CAP
0 *9:d 4.71835e-18

*RES
0 *11:s *9:d 0.001  // $mwires

*END

*D_NET *51 1.06134e-18

*CONN
*I *31:s B *C 2.7475 1.1300 
*I *33:d B *C 2.7475 1.1300 

*CAP
0 *31:s 1.06134e-18

*RES
0 *33:d *31:s 0.001  // $mwires

*END

*D_NET *48 6.90576e-18

*CONN
*I *27:s B *C 1.2775 1.2850 
*I *28:d B *C 1.2775 1.2850 

*CAP
0 *27:s 6.90576e-18

*RES
0 *28:d *27:s 0.001  // $mwires

*END

*D_NET *47 1.88455e-18

*CONN
*I *25:d B *C 0.8100 1.2850 
*I *26:s B *C 0.8100 1.2850 

*CAP
0 *25:d 1.88455e-18

*RES
0 *26:s *25:d 0.001  // $mwires

*END

*D_NET *46 8.91323e-16

*CONN
*I *14:s B *C 5.8200 0.4825 
*I *69:s B *C 2.4450 0.4550 
*I *70:d B *C 2.4450 0.4550 
*I *19:s B *C 5.7575 1.1200 
*I *30:s B *C 2.4500 1.1300 
*I *31:d B *C 2.4500 1.1300 
*N *46:3 *C 5.8300 0.4400 
*N *46:5 *C 2.4600 0.5250 

*CAP
0 *30:s 8.94931e-17
1 *19:s 8.48462e-17
2 *69:s 3.49518e-16
3 *14:s 3.67466e-16

*RES
0 *19:s *46:3 62.458221  // $metal1_conn
1 *46:3 *46:5 2.811363  // $metal1_conn
2 *46:5 *30:s 62.340927  // $metal1_conn
3 *14:s *46:3 75  // $metal1_conn
4 *69:s *46:5 75  // $metal1_conn

*END

*D_NET *45 7.33638e-16

*CONN
*I *1:d B *C 3.5850 0.4825 
*I *67:g B *C 1.4225 0.3650 
*I *5:d B *C 3.7150 1.2850 
*I *28:g B *C 1.4225 1.2850 
*N *45:2 *C 1.4600 0.9900 
*N *45:4 *C 3.5650 1.2850 

*CAP
0 *28:g 3.28147e-17
1 *5:d 1.5258e-17
2 *67:g 1.00746e-16
3 *1:d 8.29615e-17
4 *45:4 2.24759e-16
5 *45:2 2.77098e-16

*RES
0 *28:g *45:2 16.15522  // $poly_conn
1 *45:2 *67:g 117.437271  // $poly_conn
2 *45:2 *45:4 46.804142  // $metal1_conn
3 *45:4 *1:d 75.51931  // $metal1_conn
4 *45:4 *5:d 62.057838  // $metal1_conn

*END

*D_NET *44 8.98161e-16

*CONN
*I *4:g B *C 4.5325 0.4825 
*I *14:g B *C 5.7275 0.4825 
*I *61:g B *C 6.1625 0.3625 
*I *62:d B *C 6.4600 0.3625 
*I *13:g B *C 4.6375 1.1200 
*I *18:g B *C 5.3675 1.1200 
*I *22:g B *C 6.1625 1.2325 
*I *23:d B *C 6.5450 1.2325 
*N *44:3 *C 4.6750 1.3750 
*N *44:5 *C 5.4050 1.3750 
*N *44:7 *C 6.1625 0.6825 
*N *44:9 *C 6.1900 0.5700 
*N *44:12 *C 6.3500 0.5400 
*N *44:13 *C 6.3500 1.0900 

*CAP
0 *23:d 3.26811e-17
1 *22:g 3.51077e-17
2 *18:g 6.85552e-17
3 *13:g 5.64379e-17
4 *62:d 2.26444e-17
5 *61:g 2.37006e-17
6 *14:g 4.4223e-17
7 *4:g 7.31042e-17
8 *44:13 1.2601e-16
9 *44:12 5.10166e-17
10 *44:7 3.12955e-17
11 *44:3 9.27262e-17
12 *44:5 1.94919e-16
13 *44:9 4.57404e-17

*RES
0 *4:g *13:g 112.530945  // $poly_conn
1 *13:g *44:3 61.15522  // $poly_conn
2 *18:g *44:5 61.15522  // $poly_conn
3 *22:g *44:7 112.309532  // $poly_conn
4 *44:7 *14:g 125.924927  // $poly_conn
5 *44:7 *44:9 19.180971  // $poly_conn
6 *44:9 *61:g 26.102209  // $poly_conn
7 *62:d *44:12 75.201385  // $metal1_conn
8 *44:12 *44:13 0.37036  // $metal1_conn
9 *44:13 *44:5 0.893623  // $metal1_conn
10 *44:5 *44:3 0.553957  // $metal1_conn
11 *44:12 *44:9 45.110497  // $metal1_conn
12 *44:13 *23:d 62.17078  // $metal1_conn

*END

*D_NET *42 8.78238e-16

*CONN
*I *6:g B *C 4.7425 0.4825 
*I *12:g B *C 5.5225 0.4825 
*I *61:d B *C 6.0700 0.3625 
*I *11:g B *C 4.4325 1.1200 
*I *19:g B *C 5.6025 1.1200 
*I *22:d B *C 6.0550 1.2325 
*N *42:2 *C 4.4950 0.8650 
*N *42:4 *C 4.7800 0.8050 
*N *42:6 *C 5.6400 0.8650 
*N *42:8 *C 5.6700 1.2150 
*N *42:9 *C 4.7050 0.8650 
*N *42:11 *C 6.0300 1.1850 

*CAP
0 *22:d 9.76861e-17
1 *19:g 3.63797e-17
2 *11:g 4.59833e-17
3 *61:d 1.03649e-16
4 *12:g 6.2691e-17
5 *6:g 3.62456e-17
6 *42:9 1.23862e-16
7 *42:8 1.55927e-16
8 *42:2 7.93849e-17
9 *42:4 5.44226e-17
10 *42:6 8.20063e-17

*RES
0 *11:g *42:2 70.713776  // $poly_conn
1 *6:g *42:4 91.924454  // $poly_conn
2 *19:g *42:6 16.15522  // $poly_conn
3 *42:6 *12:g 70.993858  // $poly_conn
4 *42:6 *42:8 45.249172  // $metal1_conn
5 *42:8 *42:9 1.019055  // $metal1_conn
6 *42:9 *42:2 0.138996  // $metal1_conn
7 *42:8 *42:11 0.27668  // $metal1_conn
8 *42:11 *61:d 75.576096  // $metal1_conn
9 *42:9 *42:4 0.098404  // $metal1_conn
10 *22:d *42:11 62  // $metal1_conn

*END

*D_NET *40 6.35534e-16

*CONN
*I *63:d B *C 0.3800 0.4225 
*I *66:g B *C 1.3175 0.3650 
*I *24:d B *C 0.4300 1.1975 
*I *26:g B *C 0.8625 1.2850 
*N *40:2 *C 0.9000 0.9900 
*N *40:4 *C 1.2800 0.6600 
*N *40:7 *C 0.4200 1.2450 
*N *40:8 *C 0.8700 1.2150 

*CAP
0 *26:g 6.35714e-17
1 *24:d 7.86248e-17
2 *66:g 5.73211e-17
3 *63:d 9.00072e-17
4 *40:8 1.17046e-16
5 *40:2 7.59433e-17
6 *40:4 1.5302e-16

*RES
0 *26:g *40:2 61.15522  // $poly_conn
1 *66:g *40:4 77.821884  // $poly_conn
2 *63:d *40:7 75.890907  // $metal1_conn
3 *40:7 *40:8 0.29562  // $metal1_conn
4 *40:8 *40:2 0.173456  // $metal1_conn
5 *40:8 *40:4 0.889192  // $metal1_conn
6 *24:d *40:7 62  // $metal1_conn

*END

*D_NET *39 4.99159e-16

*CONN
*I *65:d B *C 1.1425 0.3650 
*I *66:d B *C 1.1425 0.3650 
*I *69:d B *C 2.2350 0.4550 
*I *26:d B *C 0.9975 1.2850 
*I *27:d B *C 0.9975 1.2850 
*I *30:d B *C 2.1500 1.1300 
*N *39:3 *C 2.2250 0.3850 
*N *39:5 *C 1.0900 0.4250 

*CAP
0 *30:d 8.16133e-17
1 *26:d 1.07555e-16
2 *69:d 1.45844e-16
3 *65:d 1.64147e-16

*RES
0 *30:d *39:3 62.454159  // $metal1_conn
1 *39:3 *39:5 0.989328  // $metal1_conn
2 *39:5 *26:d 62.585629  // $metal1_conn
3 *69:d *39:3 75  // $metal1_conn
4 *65:d *39:5 75  // $metal1_conn

*END

*D_NET *38 6.16492e-16

*CONN
*I *68:d B *C 1.8375 0.4225 
*I *69:g B *C 2.3275 0.4550 
*I *29:d B *C 1.8350 1.1975 
*I *31:g B *C 2.6575 1.1300 
*N *38:2 *C 2.3000 0.6950 
*N *38:4 *C 2.6200 0.8350 
*N *38:5 *C 2.3000 1.1850 
*N *38:7 *C 1.8450 1.1500 

*CAP
0 *31:g 3.69392e-17
1 *29:d 1.08764e-16
2 *69:g 3.30335e-17
3 *68:d 8.56612e-17
4 *38:5 1.33012e-16
5 *38:2 1.11463e-16
6 *38:4 1.07618e-16

*RES
0 *69:g *38:2 64.691956  // $poly_conn
1 *31:g *38:4 61.15522  // $poly_conn
2 *38:4 *38:5 0.497699  // $metal1_conn
3 *38:5 *38:7 0.353687  // $metal1_conn
4 *38:5 *38:2 0.374149  // $metal1_conn
5 *38:7 *68:d 75.554047  // $metal1_conn
6 *29:d *38:7 62  // $metal1_conn

*END

*D_NET *36 4.05468e-16

*CONN
*I *2:g B *C 3.9825 0.4550 
*I *4:d B *C 4.6375 0.4825 
*I *6:d B *C 4.6375 0.4825 
*I *7:g B *C 3.9825 1.1600 
*I *11:d B *C 4.5350 1.1200 
*I *13:d B *C 4.5350 1.1200 
*N *36:2 *C 3.9450 0.8650 
*N *36:5 *C 4.3050 0.8650 

*CAP
0 *11:d 5.69852e-17
1 *7:g 4.36409e-17
2 *4:d 8.39713e-17
3 *2:g 4.78727e-17
4 *36:5 7.9759e-17
5 *36:2 9.32392e-17

*RES
0 *7:g *36:2 16.15522  // $poly_conn
1 *36:2 *2:g 62.309063  // $poly_conn
2 *4:d *36:5 75.46875  // $metal1_conn
3 *36:5 *36:2 45.249603  // $metal1_conn
4 *36:5 *11:d 31.339905  // $metal1_conn

*END

*D_NET *34 5.8564e-16

*CONN
*I *1:g B *C 3.4925 0.4825 
*I *2:d B *C 3.8575 0.4550 
*I *3:g B *C 4.3275 0.4825 
*I *72:g B *C 3.0225 0.4550 
*I *73:g B *C 3.2275 0.4550 
*I *5:g B *C 3.5725 1.1900 
*I *7:d B *C 3.9100 1.1600 
*I *9:g B *C 4.2475 1.1200 
*I *35:g B *C 3.1025 1.1300 
*I *37:g B *C 3.3075 1.1300 
*N *34:2 *C 3.5725 0.6975 
*N *34:3 *C 3.4925 0.6975 
*N *34:8 *C 3.7250 0.7350 
*N *34:14 *C 4.2475 0.7325 
*N *34:15 *C 4.1150 0.7050 

*CAP
0 *37:g 1.32939e-16
1 *9:g 5.23785e-17
2 *7:d 4.75152e-17
3 *5:g 4.48881e-17
4 *3:g 3.08334e-17
5 *2:d 4.84198e-17
6 *1:g 2.6489e-17
7 *34:14 2.43476e-17
8 *34:3 3.301e-18
9 *34:2 1.07314e-17
10 *34:8 8.04326e-17
11 *34:15 8.33646e-17

*RES
0 *34:14 *9:g 54.915871  // $poly_conn
1 *5:g *34:2 82.030334  // $poly_conn
2 *3:g *34:14 51.267311  // $poly_conn
3 *34:3 *1:g 24.146639  // $poly_conn
4 *34:14 *34:15 68.336548  // $poly_conn
5 *34:2 *34:8 73.081978  // $poly_conn
6 *34:2 *34:3 17.826036  // $poly_conn
7 *34:3 *37:g 45.131889  // $poly_conn
8 *34:15 *34:8 0.289729  // $metal1_conn
9 *34:8 *7:d 62.278694  // $metal1_conn
10 *34:8 *2:d 75.092682  // $metal1_conn

*END

*D_NET *32 3.4591e-16

*CONN
*I *8:g B *C 5.1025 0.4825 
*I *12:d B *C 5.6250 0.4825 
*I *14:d B *C 5.6250 0.4825 
*I *16:g B *C 4.9975 1.1200 
*I *18:d B *C 5.4850 1.1200 
*I *19:d B *C 5.4850 1.1200 
*N *32:2 *C 5.1300 0.8550 
*N *32:5 *C 5.4500 0.8850 

*CAP
0 *18:d 4.04919e-17
1 *16:g 5.62482e-17
2 *12:d 6.63231e-17
3 *8:g 4.39516e-17
4 *32:5 5.74232e-17
5 *32:2 8.14718e-17

*RES
0 *8:g *32:2 57.555679  // $poly_conn
1 *32:2 *16:g 30.954159  // $poly_conn
2 *12:d *32:5 75.378357  // $metal1_conn
3 *32:5 *32:2 45.208363  // $metal1_conn
4 *32:5 *18:d 62.113266  // $metal1_conn

*END

*D_NET *50 3.77871e-16

*CONN
*I *6:s B *C 4.9225 0.4825 
*I *8:d B *C 4.9225 0.4825 
*I *10:g B *C 5.3675 0.4825 
*I *13:s B *C 4.8175 1.1200 
*I *16:d B *C 4.8175 1.1200 
*I *17:g B *C 5.2625 1.1200 
*N *50:2 *C 5.2900 0.6950 
*N *50:5 *C 4.9700 0.6650 

*CAP
0 *17:g 9.69798e-17
1 *13:s 5.58928e-17
2 *10:g 4.40906e-17
3 *6:s 4.81618e-17
4 *50:5 4.06391e-17
5 *50:2 9.21066e-17

*RES
0 *10:g *50:2 21.975241  // $poly_conn
1 *50:2 *17:g 57.555679  // $poly_conn
2 *13:s *50:5 62.311436  // $metal1_conn
3 *50:5 *6:s 75.185028  // $metal1_conn
4 *50:5 *50:2 45.208363  // $metal1_conn

*END

