*SPEF "IEEE 1481-1999"
*DESIGN  "SEDFFTRXL"
*DATE "Mon Sep 27 11:16:16 2010"
*VENDOR "Cadence Design Systems"
*PROGRAM "Assura RCX"
*VERSION "3.2 Red Hat Linux release 7.2 (Enigma) - (09/09/2009-10:39)"
*DESIGN_FLOW "Physical Verification"
*DIVIDER /
*DELIMITER :
*BUS_DELIMITER []
*T_UNIT 1 PS
*C_UNIT 1e15 FF
*R_UNIT 1 OHM
*L_UNIT 1 MH
// DeviceFingerDelim "@"
// MATCHED
// caps2d version: 10

*NAME_MAP
*1 net618
*2 net606
*3 mn14
*4 net658
*5 mn12
*6 net650
*7 mn11
*8 net634
*9 VDD
*10 mn55
*11 net638
*12 mn2
*13 mn30
*14 mn35
*15 mn36
*16 QN
*17 mn25
*18 mn21
*19 VSS
*20 mn20
*21 mn57
*22 mn56
*23 mn45
*24 mn50
*25 mn51
*26 mn40
*27 RN
*28 CK
*29 SE
*30 SI
*31 mp14
*32 mp12
*33 mp11
*34 mp55
*35 mp2
*36 mp30
*37 mp35
*38 mp36
*39 mp25
*40 mp21
*41 D
*42 E
*43 mp20
*44 mp57
*45 mp56
*46 mp45
*47 mp50
*48 mp51
*49 mp40
*50 Q
*51 Db
*52 net493
*53 net505
*54 Eb
*55 mn3
*56 RNb
*57 mn5
*58 Dp
*59 mn4
*60 SEb
*61 mp3
*62 mn6
*63 CKb
*64 mp5
*65 mn7
*66 Dpb
*67 mp4
*68 mn0
*69 mp6
*70 mn1
*71 mp7
*72 mn10
*73 mp0
*74 mn13
*75 mp1
*76 mp10
*77 mp13
*78 n20
*79 mout
*80 n30
*81 CKbb
*82 net582
*83 qbint
*84 net529
*85 net521
*86 net557
*87 net549

*GROUND_NETS VSS

*PORTS
*9 I
*19 I
*28 I
*41 I
*42 I
*27 I
*29 I
*30 I
*50 O
*16 O

*D_NET *9 1.10419e-15

*CONN
*P *9 I *C 0.1000 1.7100 
*I *61:s B *C 6.0475 1.1825 
*I *73:s B *C 7.7400 1.5700 
*I *75:s B *C 7.7400 1.5700 
*I *76:s B *C 4.3350 1.0275 
*I *77:s B *C 4.3350 1.0275 
*I *33:s B *C 5.2550 1.0275 
*I *34:s B *C 5.2550 1.0275 
*I *35:s B *C 6.0475 1.1825 
*I *36:s B *C 1.9800 1.2025 
*I *37:s B *C 1.9800 1.2025 
*I *40:s B *C 3.2200 1.5700 
*I *43:s B *C 3.2200 1.5700 
*I *44:s B *C 0.3950 1.5450 
*I *45:s B *C 0.3950 1.5450 
*I *46:s B *C 1.0800 1.2025 
*I *47:s B *C 1.0800 1.2025 
*N *9:2 *C 7.0000 1.7100 
*N *9:3 *C 7.0000 1.7100 
*N *9:4 *C 5.9600 1.7100 
*N *9:5 *C 5.1700 1.7100 
*N *9:6 *C 5.0000 1.7100 
*N *9:7 *C 4.2500 1.7100 
*N *9:8 *C 3.1950 1.7100 
*N *9:9 *C 3.0000 1.7100 
*N *9:10 *C 2.0100 1.7100 
*N *9:11 *C 1.0000 1.7100 
*N *9:12 *C 0.3400 1.7100 

*CAP
0 *46:s 3.35707e-17
1 *44:s 7.35534e-18
2 *40:s 2.26833e-17
3 *36:s 5.9308e-17
4 *33:s 1.72156e-17
5 *76:s 2.66853e-17
6 *73:s 3.80696e-17
7 *61:s 1.81758e-17
8 *9:12 9.73173e-18
9 *9:10 4.89089e-17
10 *9:8 2.64008e-17
11 *9:7 4.44815e-17
12 *9:5 1.73751e-17
13 *9:4 4.26883e-17
14 *9:2 6.87747e-16
15 *9 3.79137e-18

*RES
0 *73:s *9:3 62.469723  // $metal1_conn
1 *9:3 *9:4 0.521695  // $metal1_conn
2 *9:4 *9:5 0.395094  // $metal1_conn
3 *9:5 *9:6 0.084163  // $metal1_conn
4 *9:6 *9:7 0.375217  // $metal1_conn
5 *9:7 *9:8 0.527125  // $metal1_conn
6 *9:8 *9:9 0.096708  // $metal1_conn
7 *9:9 *9:10 0.496604  // $metal1_conn
8 *9:10 *9:11 0.50664  // $metal1_conn
9 *9:11 *9:12 0.331004  // $metal1_conn
10 *9:12 *9 0.119989  // $metal1_conn
11 *9:4 *61:s 62.07505  // $metal1_conn
12 *9:5 *33:s 62.045849  // $metal1_conn
13 *9:7 *76:s 62.045849  // $metal1_conn
14 *9:8 *40:s 62.045849  // $metal1_conn
15 *9:10 *36:s 62.3069  // $metal1_conn
16 *9:11 *46:s 62.207043  // $metal1_conn
17 *9:12 *44:s 62.0975  // $metal1_conn
18 *9:2 *9:3 7.5  // $metal1_conn
19 *9:2 *9:6 7.5  // $metal1_conn
20 *9:2 *9:9 7.5  // $metal1_conn
21 *9:2 *9:11 7.5  // $metal1_conn

*END

*D_NET *19 0

*CONN
*P *19 I *C 0.1000 0.0000 
*I *55:s B *C 6.0450 0.4975 
*I *59:s B *C 6.6400 0.4150 
*I *62:s B *C 6.9350 0.3325 
*I *68:s B *C 7.6850 0.5875 
*I *70:s B *C 7.6850 0.5875 
*I *72:s B *C 4.3350 0.4375 
*I *74:s B *C 4.3350 0.4375 
*I *7:s B *C 5.1700 0.4375 
*I *10:s B *C 5.1700 0.4375 
*I *12:s B *C 6.0450 0.4975 
*I *13:s B *C 2.0650 0.5875 
*I *14:s B *C 2.0650 0.5875 
*I *18:s B *C 3.1800 0.4275 
*I *20:s B *C 3.1800 0.4275 
*I *21:s B *C 0.3400 0.5875 
*I *22:s B *C 0.3400 0.5875 
*I *23:s B *C 0.9950 0.5875 
*I *24:s B *C 0.9950 0.5875 
*N *19:2 *C 7.0000 0.0000 
*N *19:3 *C 7.0000 0.0000 
*N *19:4 *C 6.8950 0.0000 
*N *19:5 *C 6.6100 0.0000 
*N *19:6 *C 6.1150 0.0000 
*N *19:7 *C 5.1700 0.0000 
*N *19:8 *C 5.0000 0.0000 
*N *19:9 *C 4.2200 0.0000 
*N *19:10 *C 3.1650 0.0000 
*N *19:11 *C 3.0000 0.0000 
*N *19:12 *C 2.0100 0.0000 
*N *19:13 *C 1.0000 0.0000 
*N *19:14 *C 0.3400 0.0000 


*RES
0 *68:s *19:3 75.769272  // $metal1_conn
1 *19:3 *19:4 0.052495  // $metal1_conn
2 *19:4 *19:5 0.142626  // $metal1_conn
3 *19:5 *19:6 0.248008  // $metal1_conn
4 *19:6 *19:7 0.473826  // $metal1_conn
5 *19:7 *19:8 0.085113  // $metal1_conn
6 *19:8 *19:9 0.391222  // $metal1_conn
7 *19:9 *19:10 0.529026  // $metal1_conn
8 *19:10 *19:11 0.082604  // $metal1_conn
9 *19:11 *19:12 0.496604  // $metal1_conn
10 *19:12 *19:13 0.50664  // $metal1_conn
11 *19:13 *19:14 0.331004  // $metal1_conn
12 *19:14 *19 0.119989  // $metal1_conn
13 *19:4 *62:s 75.192154  // $metal1_conn
14 *19:5 *59:s 75.192154  // $metal1_conn
15 *19:6 *55:s 75.322464  // $metal1_conn
16 *19:7 *7:s 75.280861  // $metal1_conn
17 *19:9 *72:s 75.175377  // $metal1_conn
18 *19:10 *18:s 75.263489  // $metal1_conn
19 *19:12 *13:s 75.14518  // $metal1_conn
20 *19:13 *23:s 75.375504  // $metal1_conn
21 *19:14 *21:s 75.382553  // $metal1_conn
22 *19:2 *19:3 6.2  // $metal1_conn
23 *19:2 *19:8 6.2  // $metal1_conn
24 *19:2 *19:11 6.2  // $metal1_conn
25 *19:2 *19:13 6.2  // $metal1_conn

*END

*D_NET *28 2.01554e-16

*CONN
*P *28 I *C 3.3000 0.8550 
*I *20:g B *C 3.2975 0.4275 
*I *43:g B *C 3.2975 1.0075 
*N *28:2 *C 3.2600 0.8000 

*CAP
0 *43:g 3.30591e-17
1 *20:g 3.56285e-17
2 *28:2 3.42553e-17
3 *28 9.86112e-17

*RES
0 *43:g *28:2 16.15522  // $poly_conn
1 *28:2 *20:g 67.437271  // $poly_conn
2 *28:2 *28 45.006523  // $metal1_conn

*END

*D_NET *41 2.06612e-16

*CONN
*P *41 I *C 7.7000 1.0450 
*I *70:g B *C 7.7875 0.5875 
*I *75:g B *C 7.7875 1.0275 
*N *41:2 *C 7.7875 0.7950 
*N *41:3 *C 7.7300 0.7950 

*CAP
0 *75:g 2.9618e-17
1 *70:g 2.7156e-17
2 *41:2 1.37943e-17
3 *41:3 7.64782e-17
4 *41 5.9565e-17

*RES
0 *75:g *41:2 29.296595  // $poly_conn
1 *41:2 *41:3 45.794373  // $poly_conn
2 *41:2 *70:g 31.860699  // $poly_conn
3 *41 *41:3 0.148186  // $metal1_conn

*END

*D_NET *42 4.26294e-16

*CONN
*P *42 I *C 7.1000 0.8550 
*I *62:g B *C 7.0275 0.3325 
*I *68:g B *C 7.5825 0.5875 
*I *69:g B *C 6.9125 1.1375 
*I *73:g B *C 7.5825 1.0275 
*N *42:2 *C 7.0000 0.8000 
*N *42:5 *C 7.5825 0.7725 
*N *42:6 *C 7.3350 0.8000 
*N *42:8 *C 7.1000 0.8100 

*CAP
0 *73:g 4.17976e-17
1 *69:g 4.07815e-17
2 *68:g 2.75092e-17
3 *62:g 6.85885e-17
4 *42:8 2.94401e-17
5 *42:5 2.93696e-17
6 *42:2 9.13605e-17
7 *42:6 7.05786e-17
8 *42 2.68687e-17

*RES
0 *62:g *42:2 89.606964  // $poly_conn
1 *42:2 *69:g 56.39505  // $poly_conn
2 *73:g *42:5 36.668507  // $poly_conn
3 *42:5 *42:6 95.24884  // $poly_conn
4 *42:5 *68:g 27.694149  // $poly_conn
5 *42:6 *42:8 0.14677  // $metal1_conn
6 *42:8 *42:2 45.065548  // $metal1_conn
7 *42:8 *42 0.002419  // $metal1_conn

*END

*D_NET *27 2.30309e-16

*CONN
*P *27 I *C 5.9000 1.0450 
*I *12:g B *C 5.9025 0.4975 
*I *35:g B *C 5.8275 1.1825 
*N *27:2 *C 5.8650 0.9650 

*CAP
0 *35:g 3.52414e-17
1 *12:g 4.71707e-17
2 *27:2 1.00565e-16
3 *27 4.73322e-17

*RES
0 *12:g *27:2 94.066559  // $poly_conn
1 *27:2 *35:g 20.989632  // $poly_conn
2 *27 *27:2 45.034267  // $metal1_conn

*END

*D_NET *29 4.17604e-16

*CONN
*P *29 I *C 3.9000 0.6650 
*I *72:g B *C 4.1175 0.4375 
*I *3:g B *C 4.6975 0.4375 
*I *76:g B *C 4.1175 1.0275 
*I *32:g B *C 4.7675 1.0275 
*N *29:2 *C 4.1175 0.6450 
*N *29:3 *C 4.0450 0.6450 
*N *29:6 *C 4.7250 0.6450 

*CAP
0 *32:g 3.93871e-17
1 *76:g 4.41719e-17
2 *3:g 2.87716e-17
3 *72:g 3.06757e-17
4 *29:2 1.97707e-17
5 *29:3 9.68376e-17
6 *29:6 1.19507e-16
7 *29 3.84821e-17

*RES
0 *76:g *29:2 67.201782  // $poly_conn
1 *29:2 *29:3 47.037205  // $poly_conn
2 *29:2 *72:g 31.304344  // $poly_conn
3 *32:g *29:6 59.706371  // $poly_conn
4 *29:6 *3:g 23.808931  // $poly_conn
5 *29:6 *29:3 45.529312  // $metal1_conn
6 *29:3 *29 0.086971  // $metal1_conn

*END

*D_NET *30 2.27073e-16

*CONN
*P *30 I *C 4.3000 0.8550 
*I *74:g B *C 4.3825 0.4375 
*I *77:g B *C 4.3825 1.0275 
*N *30:2 *C 4.3450 0.8050 
*N *30:4 *C 4.3225 0.8050 
*N *30:5 *C 4.3450 0.8050 
*N *30:6 *C 4.3225 0.8550 

*CAP
0 *77:g 5.88069e-17
1 *74:g 3.88385e-17
2 *30:6 4.41718e-17
3 *30:4 3.89097e-17
4 *30:2 4.6346e-17

*RES
0 *77:g *30:2 20.001371  // $poly_conn
1 *30:2 *74:g 66.15522  // $poly_conn
2 *30:4 *30:5 0.007126  // $metal1_conn
3 *30 *30:6 0.006968  // $metal1_conn
4 *30:4 *30:6 0.015836  // $metal1_conn
5 *30:2 *30:5 45  // $metal1_conn

*END

*D_NET *50 1.55326e-16

*CONN
*P *50 O *C 5.5000 0.6650 
*I *10:d B *C 5.4375 0.4375 
*I *34:d B *C 5.3950 1.0275 

*CAP
0 *34:d 3.22734e-17
1 *10:d 5.54914e-17
2 *50 6.7561e-17

*RES
0 *50 *34:d 62.211624  // $metal1_conn
1 *50 *10:d 75.129349  // $metal1_conn

*END

*D_NET *16 8.30681e-17

*CONN
*P *16 O *C 0.1000 0.4750 
*I *21:d B *C 0.1450 0.5875 
*I *44:d B *C 0.1325 1.0075 
*N *16:3 *C 0.1350 0.5750 

*CAP
0 *44:d 2.59653e-17
1 *21:d 2.94358e-17
2 *16 2.7667e-17

*RES
0 *44:d *16:3 62.231609  // $metal1_conn
1 *16:3 *16 0.056271  // $metal1_conn
2 *21:d *16:3 75  // $metal1_conn

*END

*D_NET *11 6.387e-20

*CONN
*I *62:d B *C 7.0800 0.3325 
*I *65:s B *C 7.0800 0.3325 

*CAP
0 *62:d 6.387e-20

*RES
0 *65:s *62:d 0.001  // $mwires

*END

*D_NET *8 1.87295e-18

*CONN
*I *57:s B *C 6.4500 0.4975 
*I *59:d B *C 6.4500 0.4975 

*CAP
0 *57:s 1.87295e-18

*RES
0 *59:d *57:s 0.001  // $mwires

*END

*D_NET *6 0

*CONN
*I *5:s B *C 4.9700 0.4375 
*I *7:d B *C 4.9700 0.4375 


*RES
0 *7:d *5:s 0.001  // $mwires

*END

*D_NET *4 5.47291e-18

*CONN
*I *74:d B *C 4.5400 0.4375 
*I *3:s B *C 4.5400 0.4375 

*CAP
0 *74:d 5.47291e-18

*RES
0 *3:s *74:d 0.001  // $mwires

*END

*D_NET *2 0

*CONN
*I *14:d B *C 2.1650 0.5875 
*I *15:s B *C 2.1650 0.5875 


*RES
0 *15:s *14:d 0.001  // $mwires

*END

*D_NET *1 1.46372e-18

*CONN
*I *24:d B *C 1.2300 0.5875 
*I *25:s B *C 1.2300 0.5875 

*CAP
0 *24:d 1.46372e-18

*RES
0 *25:s *24:d 0.001  // $mwires

*END

*D_NET *87 3.25663e-18

*CONN
*I *32:s B *C 4.9025 1.0275 
*I *33:d B *C 4.9025 1.0275 

*CAP
0 *32:s 3.25663e-18

*RES
0 *33:d *32:s 0.001  // $mwires

*END

*D_NET *86 1.30105e-18

*CONN
*I *77:d B *C 4.4400 1.0275 
*I *31:s B *C 4.4400 1.0275 

*CAP
0 *77:d 1.30105e-18

*RES
0 *31:s *77:d 0.001  // $mwires

*END

*D_NET *85 1.06974e-18

*CONN
*I *37:d B *C 2.1650 1.2025 
*I *38:s B *C 2.1650 1.2025 

*CAP
0 *37:d 1.06974e-18

*RES
0 *38:s *37:d 0.001  // $mwires

*END

*D_NET *84 3.59163e-19

*CONN
*I *47:d B *C 1.2275 1.2025 
*I *48:s B *C 1.2275 1.2025 

*CAP
0 *47:d 3.59163e-19

*RES
0 *48:s *47:d 0.001  // $mwires

*END

*D_NET *83 1.69925e-15

*CONN
*I *57:g B *C 6.3925 0.4975 
*I *10:g B *C 5.3025 0.4375 
*I *22:g B *C 0.4425 0.5875 
*I *23:d B *C 0.7600 0.5875 
*I *24:g B *C 1.1375 0.5875 
*I *64:g B *C 6.3025 1.1825 
*I *34:g B *C 5.3025 1.0275 
*I *45:g B *C 0.4425 1.0075 
*I *46:d B *C 0.7600 1.2025 
*I *47:g B *C 1.1375 1.2025 
*N *83:3 *C 0.4800 1.2150 
*N *83:6 *C 1.1750 1.4100 
*N *83:9 *C 5.3400 1.3800 
*N *83:12 *C 6.2400 1.3950 
*N *83:13 *C 1.1750 1.3450 
*N *83:15 *C 0.7500 1.2100 

*CAP
0 *47:g 5.44876e-17
1 *46:d 7.88393e-17
2 *45:g 3.729e-17
3 *34:g 4.38662e-17
4 *64:g 5.08302e-17
5 *24:g 5.27769e-17
6 *23:d 6.3619e-17
7 *22:g 4.2135e-17
8 *10:g 4.79036e-17
9 *57:g 8.77954e-17
10 *83:13 4.49316e-16
11 *83:3 4.48765e-17
12 *83:6 4.6114e-17
13 *83:9 4.78228e-16
14 *83:12 1.21171e-16

*RES
0 *45:g *22:g 61.538464  // $poly_conn
1 *45:g *83:3 61.15522  // $poly_conn
2 *47:g *24:g 111.53846  // $poly_conn
3 *47:g *83:6 61.15522  // $poly_conn
4 *34:g *10:g 105.128204  // $poly_conn
5 *34:g *83:9 98.334702  // $poly_conn
6 *57:g *64:g 140.736069  // $poly_conn
7 *64:g *83:12 66.938644  // $poly_conn
8 *83:12 *83:9 0.62921  // $metal1_conn
9 *83:9 *83:13 3.428424  // $metal1_conn
10 *83:13 *83:15 0.375639  // $metal1_conn
11 *83:15 *83:3 0.187011  // $metal1_conn
12 *83:13 *83:6 0.03466  // $metal1_conn
13 *83:15 *23:d 75.449738  // $metal1_conn
14 *46:d *83:15 62  // $metal1_conn

*END

*D_NET *82 2.16558e-16

*CONN
*I *21:g B *C 0.2375 0.5875 
*I *22:d B *C 0.5350 0.5875 
*I *44:g B *C 0.2375 1.0075 
*I *45:d B *C 0.5350 1.0075 
*N *82:1 *C 0.3000 0.7650 
*N *82:2 *C 0.2375 0.7650 
*N *82:6 *C 0.5350 0.7750 

*CAP
0 *45:d 3.17407e-17
1 *44:g 3.74839e-17
2 *22:d 3.3538e-17
3 *21:g 2.42205e-17
4 *82:6 2.87174e-17
5 *82:2 2.86077e-17
6 *82:1 3.225e-17

*RES
0 *82:1 *82:2 46.294373  // $poly_conn
1 *82:2 *21:g 21.845535  // $poly_conn
2 *82:2 *44:g 29.537844  // $poly_conn
3 *22:d *82:6 75.113159  // $metal1_conn
4 *82:6 *82:1 0.122788  // $metal1_conn
5 *82:6 *45:d 62.119747  // $metal1_conn

*END

*D_NET *81 9.11913e-16

*CONN
*I *15:g B *C 2.2175 0.5875 
*I *18:d B *C 2.9550 0.4275 
*I *26:g B *C 1.5275 0.5875 
*I *39:g B *C 2.4325 1.2025 
*I *40:d B *C 2.9400 1.0075 
*I *48:g B *C 1.3175 1.2025 
*N *81:2 *C 1.2800 0.8900 
*N *81:4 *C 1.5650 0.3700 
*N *81:6 *C 2.2550 0.3700 
*N *81:7 *C 2.5500 0.9650 
*N *81:11 *C 2.9300 0.4400 
*N *81:12 *C 2.5500 0.4100 

*CAP
0 *48:g 5.29476e-17
1 *40:d 6.17376e-17
2 *39:g 3.54425e-17
3 *26:g 5.84032e-17
4 *18:d 6.59618e-17
5 *15:g 9.04891e-17
6 *81:12 7.0026e-17
7 *81:2 1.30265e-16
8 *81:4 1.2622e-16
9 *81:6 1.05486e-16
10 *81:7 1.14934e-16

*RES
0 *48:g *81:2 88.078293  // $poly_conn
1 *26:g *81:4 72.69368  // $poly_conn
2 *15:g *81:6 72.69368  // $poly_conn
3 *81:7 *39:g 86.983063  // $poly_conn
4 *40:d *81:11 62.43539  // $metal1_conn
5 *81:11 *81:12 0.270355  // $metal1_conn
6 *81:12 *81:6 0.214031  // $metal1_conn
7 *81:6 *81:4 0.469366  // $metal1_conn
8 *81:4 *81:2 0.556348  // $metal1_conn
9 *81:12 *81:7 0.426952  // $metal1_conn
10 *18:d *81:11 75  // $metal1_conn

*END

*D_NET *80 3.51377e-16

*CONN
*I *23:g B *C 0.8525 0.5875 
*I *25:d B *C 1.4250 0.5875 
*I *26:d B *C 1.4250 0.5875 
*I *46:g B *C 0.8525 1.2025 
*I *48:d B *C 1.4225 1.2025 
*I *49:d B *C 1.4225 1.2025 
*N *80:2 *C 0.8900 0.9700 
*N *80:5 *C 1.4475 1.0500 

*CAP
0 *48:d 3.36339e-17
1 *46:g 3.65208e-17
2 *25:d 6.65376e-17
3 *23:g 3.22316e-17
4 *80:5 8.53313e-17
5 *80:2 9.71222e-17

*RES
0 *46:g *80:2 22.565475  // $poly_conn
1 *80:2 *23:g 70.001373  // $poly_conn
2 *25:d *80:5 75.3433  // $metal1_conn
3 *80:5 *80:2 45.437782  // $metal1_conn
4 *80:5 *48:d 62.059559  // $metal1_conn

*END

*D_NET *79 4.35293e-16

*CONN
*I *13:d B *C 1.6875 0.5875 
*I *14:g B *C 2.1125 0.5875 
*I *26:s B *C 1.6875 0.5875 
*I *36:d B *C 1.6875 1.2025 
*I *37:g B *C 2.1125 1.2025 
*I *49:s B *C 1.6875 1.2025 
*N *79:2 *C 2.0850 0.9300 
*N *79:4 *C 1.6300 0.9300 

*CAP
0 *37:g 6.38344e-17
1 *36:d 5.49376e-17
2 *14:g 6.84926e-17
3 *13:d 5.21513e-17
4 *79:4 6.75942e-17
5 *79:2 1.28283e-16

*RES
0 *37:g *79:2 33.794518  // $poly_conn
1 *79:2 *14:g 60.71759  // $poly_conn
2 *79:2 *79:4 45.342014  // $metal1_conn
3 *79:4 *13:d 75.257721  // $metal1_conn
4 *79:4 *36:d 62.182682  // $metal1_conn

*END

*D_NET *78 3.089e-16

*CONN
*I *13:g B *C 1.8475 0.5875 
*I *15:d B *C 2.3400 0.5875 
*I *17:d B *C 2.3400 0.5875 
*I *36:g B *C 1.8475 1.2025 
*I *38:d B *C 2.3250 1.2025 
*I *39:d B *C 2.3250 1.2025 
*N *78:2 *C 1.8750 0.7700 
*N *78:5 *C 2.3300 0.7700 

*CAP
0 *38:d 4.7647e-17
1 *36:g 4.8118e-17
2 *15:d 3.44759e-17
3 *13:g 3.24062e-17
4 *78:5 5.48262e-17
5 *78:2 9.14265e-17

*RES
0 *36:g *78:2 74.820152  // $poly_conn
1 *78:2 *13:g 19.691952  // $poly_conn
2 *38:d *78:5 62.298691  // $metal1_conn
3 *78:5 *78:2 45.311462  // $metal1_conn
4 *78:5 *15:d 75.120651  // $metal1_conn

*END

*D_NET *66 7.27492e-16

*CONN
*I *3:d B *C 4.8000 0.4375 
*I *5:d B *C 4.8000 0.4375 
*I *17:s B *C 2.6275 0.5875 
*I *31:d B *C 4.6325 1.0275 
*I *32:d B *C 4.6325 1.0275 
*I *39:s B *C 2.5250 1.2025 
*N *66:3 *C 4.6650 1.0100 
*N *66:4 *C 2.7100 1.2200 

*CAP
0 *39:s 4.04529e-17
1 *31:d 2.77048e-16
2 *17:s 7.9553e-17
3 *3:d 7.60249e-17
4 *66:4 2.54414e-16

*RES
0 *3:d *66:3 75.569389  // $metal1_conn
1 *66:3 *66:4 1.744886  // $metal1_conn
2 *66:4 *39:s 62.090473  // $metal1_conn
3 *66:4 *17:s 75.466797  // $metal1_conn
4 *31:d *66:3 62  // $metal1_conn

*END

*D_NET *63 7.58319e-16

*CONN
*I *17:g B *C 2.4625 0.5875 
*I *18:g B *C 3.0625 0.4275 
*I *20:d B *C 3.3900 0.4275 
*I *25:g B *C 1.3225 0.5875 
*I *38:g B *C 2.2175 1.2025 
*I *40:g B *C 3.0625 1.0075 
*I *43:d B *C 3.4200 1.0075 
*I *49:g B *C 1.5275 1.2025 
*N *63:2 *C 3.0625 0.7575 
*N *63:3 *C 2.4625 0.7575 
*N *63:7 *C 3.0900 0.6350 
*N *63:11 *C 3.5450 0.6050 

*CAP
0 *49:g 1.12264e-16
1 *43:d 6.51362e-17
2 *40:g 3.52433e-17
3 *38:g 1.38994e-16
4 *25:g 8.24236e-17
5 *20:d 3.78943e-17
6 *18:g 2.20309e-17
7 *17:g 2.55965e-17
8 *63:11 7.10863e-17
9 *63:3 6.30531e-17
10 *63:2 2.8195e-17
11 *63:7 7.64016e-17

*RES
0 *40:g *63:2 35.386456  // $poly_conn
1 *63:2 *63:3 147.994629  // $poly_conn
2 *63:3 *38:g 130.464935  // $poly_conn
3 *38:g *49:g 268.941223  // $poly_conn
4 *49:g *25:g 140.446503  // $poly_conn
5 *63:2 *63:7 21.745075  // $poly_conn
6 *63:7 *18:g 26.102209  // $poly_conn
7 *63:3 *17:g 20.300484  // $poly_conn
8 *43:d *63:11 62.391724  // $metal1_conn
9 *63:11 *63:7 45.318298  // $metal1_conn
10 *63:11 *20:d 75.222878  // $metal1_conn

*END

*D_NET *60 7.57779e-16

*CONN
*I *72:d B *C 4.0250 0.4375 
*I *5:g B *C 4.9025 0.4375 
*I *76:d B *C 4.0250 1.0275 
*I *31:g B *C 4.4975 1.0275 
*N *60:2 *C 4.5350 0.8200 
*N *60:4 *C 4.8650 0.1950 
*N *60:6 *C 4.0150 0.4250 
*N *60:8 *C 4.0150 1.0750 

*CAP
0 *31:g 5.77657e-17
1 *76:d 1.646e-16
2 *5:g 7.23642e-17
3 *72:d 2.06321e-16
4 *60:2 1.2252e-16
5 *60:4 1.34209e-16

*RES
0 *31:g *60:2 61.15522  // $poly_conn
1 *5:g *60:4 79.103935  // $poly_conn
2 *60:4 *60:6 0.803942  // $metal1_conn
3 *60:6 *60:8 0.904238  // $metal1_conn
4 *60:8 *60:2 0.560632  // $metal1_conn
5 *72:d *60:6 75  // $metal1_conn
6 *76:d *60:8 62  // $metal1_conn

*END

*D_NET *58 8.95865e-16

*CONN
*I *55:d B *C 6.2900 0.4975 
*I *57:d B *C 6.2900 0.4975 
*I *65:d B *C 7.2250 0.3325 
*I *7:g B *C 5.0375 0.4375 
*I *69:d B *C 6.8200 1.1375 
*I *71:d B *C 7.2250 1.1375 
*I *33:g B *C 5.0375 1.0275 
*N *58:2 *C 5.0750 0.6150 
*N *58:5 *C 6.8100 1.0250 
*N *58:6 *C 6.4350 0.4975 
*N *58:8 *C 6.2825 0.4850 

*CAP
0 *33:g 4.91981e-17
1 *71:d 7.65253e-17
2 *69:d 1.9449e-17
3 *7:g 3.47046e-17
4 *65:d 1.09631e-16
5 *55:d 1.69347e-16
6 *58:6 1.29415e-16
7 *58:5 9.08818e-17
8 *58:2 2.16713e-16

*RES
0 *33:g *58:2 68.719322  // $poly_conn
1 *58:2 *7:g 17.437269  // $poly_conn
2 *71:d *58:5 62.323368  // $metal1_conn
3 *58:5 *58:6 0.637377  // $metal1_conn
4 *58:6 *58:8 0.08881  // $metal1_conn
5 *58:8 *58:2 46.539913  // $metal1_conn
6 *58:5 *69:d 62.054516  // $metal1_conn
7 *58:6 *65:d 75.679214  // $metal1_conn
8 *55:d *58:8 75  // $metal1_conn

*END

*D_NET *56 3.71123e-16

*CONN
*I *55:g B *C 6.1875 0.4975 
*I *12:d B *C 5.7625 0.4975 
*I *61:g B *C 6.0975 1.1825 
*I *35:d B *C 5.7100 1.1825 
*N *56:2 *C 6.0600 0.8050 
*N *56:4 *C 5.6750 0.8050 

*CAP
0 *35:d 4.32183e-17
1 *61:g 5.77645e-17
2 *12:d 4.6161e-17
3 *55:g 4.30164e-17
4 *56:4 6.19894e-17
5 *56:2 1.18974e-16

*RES
0 *55:g *56:2 62.019493  // $poly_conn
1 *56:2 *61:g 59.744961  // $poly_conn
2 *56:2 *56:4 45.282825  // $metal1_conn
3 *56:4 *35:d 62.244671  // $metal1_conn
4 *56:4 *12:d 75.232674  // $metal1_conn

*END

*D_NET *54 4.46936e-16

*CONN
*I *59:g B *C 6.5075 0.4975 
*I *68:d B *C 7.4900 0.5875 
*I *67:g B *C 6.5075 1.1825 
*I *73:d B *C 7.4900 1.0275 
*N *54:1 *C 6.5950 0.6700 
*N *54:2 *C 6.5075 0.6700 
*N *54:6 *C 7.4800 1.0100 
*N *54:8 *C 7.4800 0.6000 

*CAP
0 *73:d 6.11717e-17
1 *67:g 5.56645e-17
2 *68:d 1.23602e-16
3 *59:g 4.17854e-17
4 *54:2 3.38588e-17
5 *54:1 1.30854e-16

*RES
0 *54:1 *54:2 48.890118  // $poly_conn
1 *54:2 *59:g 20.563484  // $poly_conn
2 *54:2 *67:g 98.768608  // $poly_conn
3 *54:6 *54:8 0.298181  // $metal1_conn
4 *54:8 *54:1 0.685725  // $metal1_conn
5 *73:d *54:6 62  // $metal1_conn
6 *68:d *54:8 75  // $metal1_conn

*END

*D_NET *53 1.50331e-16

*CONN
*I *64:d B *C 6.4050 1.1825 
*I *67:d B *C 6.4050 1.1825 
*I *69:s B *C 7.0225 1.1375 
*I *71:s B *C 7.0225 1.1375 
*N *53:3 *C 6.4050 1.2300 

*CAP
0 *69:s 8.0345e-17
1 *64:d 6.99856e-17

*RES
0 *69:s *53:3 62.529472  // $metal1_conn
1 *64:d *53:3 62  // $metal1_conn

*END

*D_NET *52 1.23404e-16

*CONN
*I *61:d B *C 6.2000 1.1825 
*I *64:s B *C 6.2000 1.1825 
*I *67:s B *C 6.6000 1.1825 

*CAP
0 *67:s 7.42838e-17
1 *61:d 4.91199e-17

*RES
0 *67:s *61:d 124.331947  // $metal1_conn

*END

*D_NET *51 3.91051e-16

*CONN
*I *65:g B *C 7.1325 0.3325 
*I *70:d B *C 7.8800 0.5875 
*I *71:g B *C 7.1325 1.1375 
*I *75:d B *C 7.8800 1.0275 
*N *51:3 *C 7.1700 1.3450 
*N *51:5 *C 7.8900 0.9800 

*CAP
0 *75:d 9.99628e-17
1 *71:g 6.72642e-17
2 *70:d 3.27175e-17
3 *65:g 8.37326e-17
4 *51:3 1.07374e-16

*RES
0 *71:g *65:g 160.256409  // $poly_conn
1 *71:g *51:3 61.15522  // $poly_conn
2 *51:5 *51:3 0.754389  // $metal1_conn
3 *51:5 *70:d 75.275909  // $metal1_conn
4 *75:d *51:5 62  // $metal1_conn

*END

