*SPEF "IEEE 1481-1999"
*DESIGN  "SMDFFHQX1"
*DATE "Mon Sep 27 11:18:09 2010"
*VENDOR "Cadence Design Systems"
*PROGRAM "Assura RCX"
*VERSION "3.2 Red Hat Linux release 7.2 (Enigma) - (09/09/2009-10:39)"
*DESIGN_FLOW "Physical Verification"
*DIVIDER /
*DELIMITER :
*BUS_DELIMITER []
*T_UNIT 1 PS
*C_UNIT 1e15 FF
*R_UNIT 1 OHM
*L_UNIT 1 MH
// DeviceFingerDelim "@"
// MATCHED
// caps2d version: 10

*NAME_MAP
*1 S0
*2 VDD
*3 SE
*4 SI
*5 mn3
*6 mn0
*7 mn55
*8 mp25
*9 mn20
*10 mp21
*11 mn45
*12 mp12
*13 mn50
*14 mp13
*15 mn51
*16 mp11
*17 mn40
*18 mp10
*19 mn30
*20 mn25
*21 mp1
*22 mn35
*23 mn21
*24 mp2
*25 mn12
*26 mp4
*27 mn13
*28 mn11
*29 mn10
*30 mn1
*31 mn2
*32 mn4
*33 mn36
*34 mp3
*35 mp0
*36 mp55
*37 mp20
*38 mp45
*39 mp50
*40 mp51
*41 D0
*42 mp40
*43 D1
*44 mp30
*45 mp35
*46 mout
*47 n30
*48 n20
*49 S0b
*50 dbp
*51 qbint
*52 SEb
*53 Q
*54 CK
*55 mp36
*56 db
*57 CKbb
*58 VSS
*59 CKb
*60 net409
*61 net393
*62 net417
*63 net425
*64 net429
*65 net482
*66 net474
*67 net490
*68 net498
*69 net510

*GROUND_NETS VSS

*PORTS
*2 I
*58 I
*54 I
*41 I
*43 I
*1 I
*3 I
*4 I
*53 O

*D_NET *2 7.48337e-16

*CONN
*P *2 I *C 0.1000 1.7100 
*I *10:s B *C 3.6550 1.1950 
*I *12:s B *C 3.6550 1.1950 
*I *18:s B *C 4.7600 1.2850 
*I *21:s B *C 4.7600 1.2850 
*I *34:s B *C 5.6350 1.1975 
*I *35:s B *C 5.6350 1.1975 
*I *36:s B *C 0.4225 1.0575 
*I *37:s B *C 0.4225 1.0575 
*I *38:s B *C 1.3600 1.1200 
*I *39:s B *C 1.3600 1.1200 
*I *44:s B *C 2.5550 1.1200 
*I *45:s B *C 2.5550 1.1200 
*N *2:2 *C 5.0000 1.7100 
*N *2:3 *C 5.0000 1.7100 
*N *2:4 *C 4.7300 1.7100 
*N *2:5 *C 3.5550 1.7100 
*N *2:6 *C 3.0000 1.7100 
*N *2:7 *C 2.4400 1.7100 
*N *2:8 *C 1.2450 1.7100 
*N *2:9 *C 1.0000 1.7100 
*N *2:10 *C 0.3200 1.7100 

*CAP
0 *44:s 3.71727e-17
1 *38:s 3.42144e-17
2 *36:s 3.47509e-17
3 *34:s 4.90535e-17
4 *18:s 3.5624e-17
5 *10:s 4.57891e-17
6 *2:10 9.39251e-18
7 *2:8 2.02533e-17
8 *2:7 2.31035e-17
9 *2:5 3.7842e-17
10 *2:4 3.68015e-17
11 *2:2 3.77514e-16
12 *2 6.82571e-18

*RES
0 *34:s *2:3 62.490063  // $metal1_conn
1 *2:3 *2:4 0.135227  // $metal1_conn
2 *2:4 *2:5 0.588949  // $metal1_conn
3 *2:5 *2:6 0.278173  // $metal1_conn
4 *2:6 *2:7 0.280681  // $metal1_conn
5 *2:7 *2:8 0.59898  // $metal1_conn
6 *2:8 *2:9 0.122688  // $metal1_conn
7 *2:9 *2:10 0.340869  // $metal1_conn
8 *2:10 *2 0.110248  // $metal1_conn
9 *2:4 *18:s 62.179424  // $metal1_conn
10 *2:5 *10:s 62.235111  // $metal1_conn
11 *2:7 *44:s 62.221405  // $metal1_conn
12 *2:8 *38:s 62.221405  // $metal1_conn
13 *2:10 *36:s 62.27298  // $metal1_conn
14 *2:2 *2:3 7.5  // $metal1_conn
15 *2:2 *2:6 7.5  // $metal1_conn
16 *2:2 *2:9 7.5  // $metal1_conn

*END

*D_NET *58 0

*CONN
*P *58 I *C 0.1000 0.0000 
*I *23:s B *C 3.7300 0.4950 
*I *25:s B *C 3.7300 0.4950 
*I *29:s B *C 4.7750 0.3950 
*I *30:s B *C 4.7750 0.3950 
*I *5:s B *C 5.6150 0.4525 
*I *6:s B *C 5.6150 0.4525 
*I *7:s B *C 0.4225 0.5875 
*I *9:s B *C 0.4225 0.5875 
*I *11:s B *C 1.1950 0.4175 
*I *13:s B *C 1.1950 0.4175 
*I *19:s B *C 2.5550 0.4175 
*I *22:s B *C 2.5550 0.4175 
*N *58:2 *C 5.0000 0.0000 
*N *58:3 *C 5.0000 0.0000 
*N *58:4 *C 4.7650 0.0000 
*N *58:5 *C 3.7000 0.0000 
*N *58:6 *C 3.0000 0.0000 
*N *58:7 *C 2.4700 0.0000 
*N *58:8 *C 1.1600 0.0000 
*N *58:9 *C 1.0000 0.0000 
*N *58:10 *C 0.3200 0.0000 


*RES
0 *5:s *58:3 75.594971  // $metal1_conn
1 *58:3 *58:4 0.117672  // $metal1_conn
2 *58:4 *58:5 0.533776  // $metal1_conn
3 *58:5 *58:6 0.350901  // $metal1_conn
4 *58:6 *58:7 0.264684  // $metal1_conn
5 *58:7 *58:8 0.65571  // $metal1_conn
6 *58:8 *58:9 0.080055  // $metal1_conn
7 *58:9 *58:10 0.340869  // $metal1_conn
8 *58:10 *58 0.110248  // $metal1_conn
9 *58:4 *29:s 75.198357  // $metal1_conn
10 *58:5 *23:s 75.276695  // $metal1_conn
11 *58:7 *19:s 75.045822  // $metal1_conn
12 *58:8 *11:s 75.228088  // $metal1_conn
13 *58:10 *7:s 75.29451  // $metal1_conn
14 *58:2 *58:3 6.2  // $metal1_conn
15 *58:2 *58:6 6.2  // $metal1_conn
16 *58:2 *58:9 6.2  // $metal1_conn

*END

*D_NET *54 2.01572e-16

*CONN
*P *54 I *C 0.3000 1.0450 
*I *9:g B *C 0.4875 0.5875 
*I *37:g B *C 0.4875 1.0575 
*N *54:2 *C 0.4600 0.8400 

*CAP
0 *37:g 3.04585e-17
1 *9:g 3.97099e-17
2 *54:2 7.68594e-17
3 *54 5.45444e-17

*RES
0 *37:g *54:2 19.691952  // $poly_conn
1 *54:2 *9:g 37.640671  // $poly_conn
2 *54:2 *54 45.196205  // $metal1_conn

*END

*D_NET *41 3.35614e-16

*CONN
*P *41 I *C 4.7000 0.8550 
*I *30:g B *C 4.8675 0.3950 
*I *21:g B *C 4.8325 1.2850 
*N *41:2 *C 4.8275 0.8500 
*N *41:3 *C 4.7100 0.8500 

*CAP
0 *21:g 1.02035e-16
1 *30:g 5.09252e-17
2 *41:2 4.46839e-17
3 *41:3 1.3797e-16

*RES
0 *30:g *41:2 81.155914  // $poly_conn
1 *41:2 *41:3 52.776646  // $poly_conn
2 *41:2 *21:g 51.242733  // $poly_conn
3 *41:3 *41 0.003114  // $metal1_conn

*END

*D_NET *43 2.94471e-16

*CONN
*P *43 I *C 5.5000 0.8550 
*I *5:g B *C 5.4475 0.3950 
*I *34:g B *C 5.4475 1.2850 
*N *43:2 *C 5.4750 0.8650 
*N *43:4 *C 5.4750 0.8650 

*CAP
0 *34:g 5.40214e-17
1 *5:g 8.57085e-17
2 *43:2 5.32073e-17
3 *43 1.01534e-16

*RES
0 *34:g *43:2 49.179131  // $poly_conn
1 *43:2 *5:g 78.666313  // $poly_conn
2 *43:4 *43 0.012811  // $metal1_conn
3 *43:2 *43:4 45  // $metal1_conn

*END

*D_NET *1 5.64004e-16

*CONN
*P *1 I *C 5.3000 0.6650 
*I *32:g B *C 5.3425 0.3950 
*I *6:g B *C 5.6825 0.4525 
*I *24:g B *C 4.9375 1.2850 
*I *35:g B *C 5.6825 1.1975 
*N *1:1 *C 5.0300 0.9800 
*N *1:4 *C 5.3050 0.6750 
*N *1:5 *C 5.7600 0.7050 
*N *1:6 *C 5.6825 0.7050 

*CAP
0 *35:g 4.83055e-17
1 *24:g 7.23016e-17
2 *6:g 3.08147e-17
3 *32:g 6.95821e-17
4 *1:6 4.09076e-17
5 *1:1 1.26781e-16
6 *1:4 4.61768e-17
7 *1:5 5.02286e-17
8 *1 7.89064e-17

*RES
0 *1:1 *24:g 69.283562  // $poly_conn
1 *32:g *1:4 73.975731  // $poly_conn
2 *1:5 *1:6 47.445099  // $poly_conn
3 *1:6 *6:g 39.483456  // $poly_conn
4 *1:6 *35:g 92.047554  // $poly_conn
5 *1:1 *1 0.398941  // $metal1_conn
6 *1 *1:4 0.003007  // $metal1_conn
7 *1:4 *1:5 0.329947  // $metal1_conn

*END

*D_NET *3 4.60891e-16

*CONN
*P *3 I *C 4.5000 0.8550 
*I *27:g B *C 3.9075 0.4950 
*I *29:g B *C 4.6325 0.4525 
*I *16:g B *C 4.0375 1.1950 
*I *18:g B *C 4.6275 1.3725 
*N *3:2 *C 4.5100 0.8750 
*N *3:3 *C 4.0375 0.9025 
*N *3:8 *C 4.5050 0.8750 

*CAP
0 *18:g 4.59662e-17
1 *16:g 3.07258e-17
2 *29:g 3.99376e-17
3 *27:g 8.52586e-17
4 *3:8 5.82996e-17
5 *3:3 6.59604e-17
6 *3:2 6.64545e-17
7 *3 6.82889e-17

*RES
0 *29:g *3:2 90.224632  // $poly_conn
1 *3:2 *3:3 104.970634  // $poly_conn
2 *3:3 *27:g 91.124367  // $poly_conn
3 *3:2 *18:g 99.198982  // $poly_conn
4 *3:3 *16:g 23.465221  // $poly_conn
5 *3 *3:8 0.012456  // $metal1_conn
6 *3:2 *3:8 45  // $metal1_conn

*END

*D_NET *4 3.39095e-16

*CONN
*P *4 I *C 3.5000 0.6650 
*I *25:g B *C 3.8025 0.4950 
*I *12:g B *C 3.7275 1.1950 
*N *4:2 *C 3.7275 0.7600 
*N *4:3 *C 3.5850 0.7600 

*CAP
0 *12:g 8.87265e-17
1 *25:g 6.90196e-17
2 *4:2 3.26816e-17
3 *4:3 9.94052e-17
4 *4 4.92616e-17

*RES
0 *25:g *4:2 39.416653  // $poly_conn
1 *4:2 *4:3 55.373291  // $poly_conn
2 *4:2 *12:g 49.64127  // $poly_conn
3 *4:3 *4 0.018167  // $metal1_conn

*END

*D_NET *53 9.53541e-17

*CONN
*P *53 O *C 0.1000 0.6650 
*I *7:d B *C 0.1250 0.5300 
*I *36:d B *C 0.1250 1.1450 

*CAP
0 *36:d 5.31308e-17
1 *7:d 4.22233e-17

*RES
0 *36:d *53 21.026836  // $metal1_conn
1 *53 *7:d 75.059669  // $metal1_conn

*END

*D_NET *69 0

*CONN
*I *32:s B *C 5.3950 0.3950 
*I *5:d B *C 5.3950 0.3950 


*RES
0 *5:d *32:s 0.001  // $mwires

*END

*D_NET *68 6.54292e-18

*CONN
*I *30:d B *C 5.0025 0.3950 
*I *31:s B *C 5.0025 0.3950 

*CAP
0 *30:d 6.54292e-18

*RES
0 *31:s *30:d 0.001  // $mwires

*END

*D_NET *67 0

*CONN
*I *25:d B *C 3.8550 0.4950 
*I *27:s B *C 3.8550 0.4950 


*RES
0 *27:s *25:d 0.001  // $mwires

*END

*D_NET *66 6.70793e-19

*CONN
*I *22:d B *C 2.6600 0.4175 
*I *33:s B *C 2.6600 0.4175 

*CAP
0 *22:d 6.70793e-19

*RES
0 *33:s *22:d 0.001  // $mwires

*END

*D_NET *65 2.77605e-18

*CONN
*I *13:d B *C 1.3925 0.4175 
*I *15:s B *C 1.3925 0.4175 

*CAP
0 *13:d 2.77605e-18

*RES
0 *15:s *13:d 0.001  // $mwires

*END

*D_NET *64 7.54683e-18

*CONN
*I *26:s B *C 5.3050 1.2850 
*I *34:d B *C 5.3050 1.2850 

*CAP
0 *26:s 7.54683e-18

*RES
0 *34:d *26:s 0.001  // $mwires

*END

*D_NET *63 1.71352e-18

*CONN
*I *21:d B *C 4.8850 1.2850 
*I *24:s B *C 4.8850 1.2850 

*CAP
0 *21:d 1.71352e-18

*RES
0 *24:s *21:d 0.001  // $mwires

*END

*D_NET *62 1.65023e-18

*CONN
*I *12:d B *C 3.7800 1.1950 
*I *14:s B *C 3.7800 1.1950 

*CAP
0 *12:d 1.65023e-18

*RES
0 *14:s *12:d 0.001  // $mwires

*END

*D_NET *61 5.21015e-18

*CONN
*I *45:d B *C 2.7225 1.1200 
*I *55:s B *C 2.7225 1.1200 

*CAP
0 *45:d 5.21015e-18

*RES
0 *55:s *45:d 0.001  // $mwires

*END

*D_NET *60 6.89536e-18

*CONN
*I *39:d B *C 1.5000 1.1200 
*I *40:s B *C 1.5000 1.1200 

*CAP
0 *39:d 6.89536e-18

*RES
0 *40:s *39:d 0.001  // $mwires

*END

*D_NET *59 1.00098e-15

*CONN
*I *20:g B *C 3.0175 0.4175 
*I *23:g B *C 3.5975 0.4375 
*I *9:d B *C 0.6050 0.5875 
*I *15:g B *C 1.4825 0.4175 
*I *10:g B *C 3.4525 1.2825 
*I *37:d B *C 0.6050 1.0575 
*I *42:g B *C 1.8625 1.1200 
*I *55:g B *C 2.8425 1.1200 
*N *59:2 *C 1.4450 0.6950 
*N *59:4 *C 1.8250 0.8500 
*N *59:6 *C 3.4525 0.6175 
*N *59:7 *C 3.0175 0.6175 
*N *59:9 *C 2.8050 1.3750 
*N *59:12 *C 1.8550 1.1775 
*N *59:13 *C 1.4650 1.1775 
*N *59:15 *C 0.6400 1.0100 

*CAP
0 *55:g 4.10999e-17
1 *42:g 2.32743e-17
2 *37:d 8.76118e-17
3 *10:g 5.98875e-17
4 *15:g 4.68597e-17
5 *9:d 5.41317e-17
6 *23:g 4.13279e-17
7 *20:g 2.40502e-17
8 *59:13 1.17743e-16
9 *59:12 9.77633e-17
10 *59:7 4.37334e-17
11 *59:6 4.80104e-17
12 *59:2 1.19964e-16
13 *59:4 7.23725e-17
14 *59:9 1.23145e-16

*RES
0 *15:g *59:2 80.385986  // $poly_conn
1 *42:g *59:4 65.001373  // $poly_conn
2 *23:g *59:6 57.67757  // $poly_conn
3 *59:6 *59:7 109.234451  // $poly_conn
4 *59:7 *55:g 115.080315  // $poly_conn
5 *55:g *59:9 61.15522  // $poly_conn
6 *59:6 *10:g 138.249207  // $poly_conn
7 *59:7 *20:g 20.300484  // $poly_conn
8 *59:4 *59:12 0.223524  // $metal1_conn
9 *59:12 *59:13 0.393952  // $metal1_conn
10 *59:13 *59:15 0.68149  // $metal1_conn
11 *59:15 *9:d 75.273987  // $metal1_conn
12 *59:12 *59:9 0.768106  // $metal1_conn
13 *59:13 *59:2 0.35908  // $metal1_conn
14 *37:d *59:15 62  // $metal1_conn

*END

*D_NET *57 9.15919e-16

*CONN
*I *23:d B *C 3.5050 0.4375 
*I *17:g B *C 1.7375 0.4175 
*I *33:g B *C 2.7175 0.4175 
*I *8:g B *C 3.0775 1.1200 
*I *10:d B *C 3.3600 1.2825 
*I *40:g B *C 1.5925 1.1200 
*N *57:2 *C 1.7375 0.6150 
*N *57:4 *C 2.0150 0.6500 
*N *57:6 *C 2.7550 0.6550 
*N *57:8 *C 3.1050 0.8400 
*N *57:10 *C 3.1050 0.3000 
*N *57:11 *C 2.7250 0.3000 

*CAP
0 *40:g 6.35159e-17
1 *10:d 7.06397e-17
2 *8:g 3.80612e-17
3 *33:g 5.26846e-17
4 *17:g 2.2122e-17
5 *23:d 5.81518e-17
6 *57:11 1.19255e-16
7 *57:10 8.814e-17
8 *57:2 4.53705e-17
9 *57:4 1.29422e-16
10 *57:6 9.00654e-17
11 *57:8 1.38491e-16

*RES
0 *17:g *57:2 19.402143  // $poly_conn
1 *57:2 *40:g 118.763916  // $poly_conn
2 *57:2 *57:4 98.7052  // $poly_conn
3 *33:g *57:6 70.129578  // $poly_conn
4 *8:g *57:8 68.538101  // $poly_conn
5 *23:d *57:10 75.368164  // $metal1_conn
6 *57:10 *57:11 0.284462  // $metal1_conn
7 *57:11 *57:4 0.869972  // $metal1_conn
8 *57:10 *57:8 0.377329  // $metal1_conn
9 *57:8 *10:d 62.496948  // $metal1_conn
10 *57:11 *57:6 0.252154  // $metal1_conn

*END

*D_NET *56 5.3989e-16

*CONN
*I *28:d B *C 4.2775 0.4950 
*I *31:d B *C 5.2400 0.3950 
*I *32:d B *C 5.2400 0.3950 
*I *16:s B *C 4.2375 1.1300 
*I *24:d B *C 5.0500 1.2850 
*I *26:d B *C 5.0500 1.2850 
*N *56:2 *C 4.8700 1.2300 
*N *56:3 *C 4.3300 1.2000 

*CAP
0 *24:d 4.63933e-17
1 *16:s 3.50919e-17
2 *31:d 1.22811e-16
3 *28:d 9.49408e-17
4 *56:3 1.13192e-16
5 *56:2 1.2746e-16

*RES
0 *31:d *56:2 75.822838  // $metal1_conn
1 *56:2 *56:3 0.410983  // $metal1_conn
2 *56:3 *16:s 62.040268  // $metal1_conn
3 *56:2 *24:d 31.193346  // $metal1_conn
4 *56:3 *28:d 75.482613  // $metal1_conn

*END

*D_NET *52 5.81005e-16

*CONN
*I *28:g B *C 4.1425 0.4950 
*I *29:d B *C 4.5400 0.4525 
*I *14:g B *C 3.8325 1.1950 
*I *18:d B *C 4.5550 1.3725 
*N *52:1 *C 3.9050 0.8900 
*N *52:4 *C 4.1700 0.7600 
*N *52:6 *C 4.0950 0.9200 

*CAP
0 *18:d 1.02208e-16
1 *14:g 7.16549e-17
2 *29:d 7.35442e-17
3 *28:g 3.69978e-17
4 *52:6 9.43734e-17
5 *52:1 8.7647e-17
6 *52:4 1.1458e-16

*RES
0 *52:1 *14:g 66.579163  // $poly_conn
1 *28:g *52:4 71.102211  // $poly_conn
2 *29:d *52:4 75.559158  // $metal1_conn
3 *52:4 *52:6 0.174742  // $metal1_conn
4 *52:6 *52:1 0.144675  // $metal1_conn
5 *52:6 *18:d 62.638439  // $metal1_conn

*END

*D_NET *51 5.99089e-16

*CONN
*I *7:g B *C 0.2175 0.5300 
*I *11:d B *C 0.9800 0.4175 
*I *13:g B *C 1.3025 0.4175 
*I *36:g B *C 0.2175 1.1450 
*I *38:d B *C 1.0500 1.1200 
*I *39:g B *C 1.4075 1.1200 
*N *51:1 *C 0.2750 0.7600 
*N *51:2 *C 0.2175 0.7600 
*N *51:6 *C 1.2750 0.8550 
*N *51:8 *C 0.9550 0.8550 
*N *51:10 *C 0.9550 0.4400 

*CAP
0 *39:g 6.49895e-17
1 *38:d 4.25931e-17
2 *36:g 4.39971e-17
3 *13:g 6.04518e-17
4 *11:d 7.56665e-17
5 *7:g 2.74815e-17
6 *51:8 3.87055e-17
7 *51:2 3.1802e-17
8 *51:1 1.23967e-16
9 *51:6 8.94345e-17

*RES
0 *51:1 *51:2 45.794373  // $poly_conn
1 *51:2 *7:g 20.563484  // $poly_conn
2 *51:2 *36:g 43.640408  // $poly_conn
3 *39:g *51:6 30.568989  // $poly_conn
4 *51:6 *13:g 74.222343  // $poly_conn
5 *51:6 *51:8 45.21442  // $metal1_conn
6 *51:8 *51:10 0.299312  // $metal1_conn
7 *51:10 *51:1 0.707132  // $metal1_conn
8 *51:8 *38:d 62.185085  // $metal1_conn
9 *11:d *51:10 75  // $metal1_conn

*END

*D_NET *50 4.06928e-16

*CONN
*I *20:d B *C 3.1975 0.4175 
*I *27:d B *C 4.0250 0.4950 
*I *28:s B *C 4.0250 0.4950 
*I *8:s B *C 3.2775 1.0250 
*I *14:d B *C 3.9350 1.1950 
*I *16:d B *C 3.9350 1.1950 
*N *50:2 *C 3.7450 1.1400 
*N *50:4 *C 3.2950 1.0250 

*CAP
0 *14:d 5.60463e-17
1 *8:s 9.54455e-17
2 *27:d 8.29278e-17
3 *20:d 7.79491e-17
4 *50:2 9.45592e-17

*RES
0 *27:d *50:2 75.590645  // $metal1_conn
1 *50:2 *50:4 0.378817  // $metal1_conn
2 *50:4 *20:d 75.434769  // $metal1_conn
3 *50:2 *14:d 31.214136  // $metal1_conn
4 *8:s *50:4 62  // $metal1_conn

*END

*D_NET *49 4.08555e-16

*CONN
*I *31:g B *C 5.1375 0.3950 
*I *6:d B *C 5.7750 0.4525 
*I *26:g B *C 5.1625 1.2850 
*I *35:d B *C 5.7750 1.1975 
*N *49:2 *C 5.2000 0.9900 
*N *49:6 *C 5.7850 1.2450 

*CAP
0 *35:d 1.03756e-16
1 *26:g 3.54764e-17
2 *6:d 7.53528e-17
3 *31:g 6.03006e-17
4 *49:2 1.3367e-16

*RES
0 *26:g *49:2 16.15522  // $poly_conn
1 *49:2 *31:g 113.346519  // $poly_conn
2 *6:d *49:6 75.6576  // $metal1_conn
3 *49:6 *49:2 45.545799  // $metal1_conn
4 *35:d *49:6 62  // $metal1_conn

*END

*D_NET *48 3.9113e-16

*CONN
*I *20:s B *C 2.8675 0.4175 
*I *19:g B *C 2.3375 0.4175 
*I *33:d B *C 2.8675 0.4175 
*I *8:d B *C 2.9600 1.1200 
*I *44:g B *C 2.3375 1.1200 
*I *55:d B *C 2.9600 1.1200 
*N *48:2 *C 2.3650 0.8150 
*N *48:5 *C 2.9450 0.8150 

*CAP
0 *44:g 3.91761e-17
1 *8:d 6.56914e-17
2 *19:g 4.92826e-17
3 *20:s 6.35892e-17
4 *48:5 7.62708e-17
5 *48:2 9.71204e-17

*RES
0 *44:g *48:2 29.948362  // $poly_conn
1 *48:2 *19:g 67.127846  // $poly_conn
2 *8:d *48:5 31.223907  // $metal1_conn
3 *48:5 *48:2 45.399605  // $metal1_conn
4 *48:5 *20:s 75.284355  // $metal1_conn

*END

*D_NET *47 3.58103e-16

*CONN
*I *11:g B *C 1.0875 0.4175 
*I *15:d B *C 1.6100 0.4175 
*I *17:s B *C 1.6100 0.4175 
*I *38:g B *C 1.1425 1.1200 
*I *40:d B *C 1.7275 1.1200 
*I *42:d B *C 1.7275 1.1200 
*N *47:2 *C 1.1150 0.6300 
*N *47:5 *C 1.6350 0.5350 

*CAP
0 *40:d 9.26461e-17
1 *38:g 5.57569e-17
2 *15:d 1.60724e-17
3 *11:g 2.44129e-17
4 *47:5 6.23928e-17
5 *47:2 1.06822e-16

*RES
0 *38:g *47:2 77.384254  // $poly_conn
1 *47:2 *11:g 19.691952  // $poly_conn
2 *15:d *47:5 75.060928  // $metal1_conn
3 *47:5 *47:2 45.415779  // $metal1_conn
4 *47:5 *40:d 62.401237  // $metal1_conn

*END

*D_NET *46 3.79319e-16

*CONN
*I *17:d B *C 2.0375 0.4175 
*I *19:d B *C 2.0375 0.4175 
*I *22:g B *C 2.6025 0.4175 
*I *42:s B *C 2.1000 1.1200 
*I *44:d B *C 2.1000 1.1200 
*I *45:g B *C 2.6025 1.1200 
*N *46:2 *C 2.6025 0.6200 
*N *46:3 *C 2.5350 0.6200 
*N *46:5 *C 2.1750 0.6200 

*CAP
0 *45:g 6.32108e-17
1 *42:s 5.82092e-17
2 *22:g 5.40452e-17
3 *17:d 4.78371e-17
4 *46:5 5.33932e-17
5 *46:2 4.145e-17
6 *46:3 6.11729e-17

*RES
0 *45:g *46:2 85.706856  // $poly_conn
1 *46:2 *46:3 46.794373  // $poly_conn
2 *46:2 *22:g 22.886339  // $poly_conn
3 *46:3 *46:5 0.244956  // $metal1_conn
4 *46:5 *17:d 75.173302  // $metal1_conn
5 *46:5 *42:s 62.284122  // $metal1_conn

*END

