*SPEF "IEEE 1481-1999"
*DESIGN  "TBUFX20"
*DATE "Mon Sep 27 11:21:13 2010"
*VENDOR "Cadence Design Systems"
*PROGRAM "Assura RCX"
*VERSION "3.2 Red Hat Linux release 7.2 (Enigma) - (09/09/2009-10:39)"
*DESIGN_FLOW "Physical Verification"
*DIVIDER /
*DELIMITER :
*BUS_DELIMITER []
*T_UNIT 1 PS
*C_UNIT 1e15 FF
*R_UNIT 1 OHM
*L_UNIT 1 MH
// DeviceFingerDelim "@"
// MATCHED
// caps2d version: 10

*NAME_MAP
*1 VSS
*2 mp5
*3 mp5\@1
*4 mp5\@2
*5 mp5\@3
*6 mp5\@4
*7 mp5\@5
*8 mp5\@6
*9 mp5\@7
*10 mp5\@8
*11 mn5
*12 mn5\@1
*13 net127\@3
*14 mn5\@2
*15 net127\@4
*16 mn5\@3
*17 net127\@5
*18 mn5\@4
*19 net127
*20 mn5\@5
*21 net127\@1
*22 mn5\@6
*23 net144\@3
*24 mn5\@7
*25 net144\@4
*26 mn5\@8
*27 net144\@5
*28 net144
*29 net144\@1
*30 A
*31 mp5\@9
*32 mp5\@10
*33 mp5\@11
*34 mp2
*35 mp2\@1
*36 non
*37 mp1\@1
*38 OEb
*39 net144\@2
*40 mp5\@12
*41 pon
*42 mp5\@13
*43 net127\@2
*44 OE
*45 mp5\@14
*46 mp5\@15
*47 mp5\@16
*48 mp5\@17
*49 mp5\@18
*50 mp5\@19
*51 mp0
*52 mp0\@1
*53 Y
*54 mp1\@2
*55 mp2\@2
*56 mp2\@3
*57 mp1\@3
*58 mp1\@4
*59 mp2\@4
*60 mp2\@5
*61 mp1\@5
*62 mp1
*63 mp4
*64 mp3
*65 mp3\@1
*66 mp4\@1
*67 mp4\@2
*68 mp3\@2
*69 mp3\@3
*70 mp4\@3
*71 mp4\@4
*72 mp3\@4
*73 mp3\@5
*74 mp4\@5
*75 mn5\@9
*76 mn5\@10
*77 mn5\@11
*78 mn2
*79 mn2\@1
*80 mn1
*81 mn5\@12
*82 mn5\@13
*83 mn5\@14
*84 mn5\@15
*85 mn5\@16
*86 mn5\@17
*87 mn5\@18
*88 mn5\@19
*89 mn0
*90 mn0\@1
*91 mn1\@1
*92 mn2\@2
*93 mn2\@3
*94 mn1\@2
*95 mn1\@3
*96 mn2\@4
*97 mn2\@5
*98 mn1\@4
*99 mn1\@5
*100 mn4
*101 mn3
*102 mn3\@1
*103 mn4\@1
*104 mn4\@2
*105 mn3\@2
*106 mn3\@3
*107 mn4\@3
*108 mn4\@4
*109 mn3\@4
*110 mn3\@5
*111 mn4\@5
*112 VDD

*GROUND_NETS VSS

*PORTS
*112 I
*1 I
*30 I
*44 I
*53 O

*D_NET *112 1.53921e-15

*CONN
*P *112 I *C 0.1000 1.7100 
*I *2:s B *C 8.6700 1.2200 
*I *3:s B *C 9.0800 1.2200 
*I *4:s B *C 9.0800 1.2200 
*I *5:s B *C 9.4900 1.2200 
*I *6:s B *C 9.4900 1.2200 
*I *7:s B *C 9.8900 1.2200 
*I *8:s B *C 7.4400 1.2200 
*I *9:s B *C 7.8500 1.2200 
*I *10:s B *C 7.8500 1.2200 
*I *31:s B *C 8.2600 1.2200 
*I *32:s B *C 8.2600 1.2200 
*I *33:s B *C 8.6700 1.2200 
*I *37:s B *C 5.7700 1.2200 
*I *40:s B *C 5.7700 1.2200 
*I *42:s B *C 6.2100 1.2200 
*I *45:s B *C 6.2100 1.2200 
*I *46:s B *C 6.6200 1.2200 
*I *47:s B *C 6.6200 1.2200 
*I *48:s B *C 7.0300 1.2200 
*I *49:s B *C 7.0300 1.2200 
*I *50:s B *C 7.4400 1.2200 
*I *51:s B *C 2.6850 1.0950 
*I *52:s B *C 3.2925 1.1375 
*I *54:s B *C 3.2925 1.1375 
*I *57:s B *C 4.1450 1.1875 
*I *58:s B *C 4.1450 1.1875 
*I *61:s B *C 4.9050 1.1875 
*I *62:s B *C 4.9050 1.1875 
*I *63:s B *C 1.3550 1.5700 
*I *64:s B *C 1.8600 1.5700 
*I *65:s B *C 1.8600 1.5700 
*I *66:s B *C 2.2500 1.0625 
*I *67:s B *C 2.2500 1.0625 
*I *68:s B *C 2.6850 1.0950 
*I *69:s B *C 0.1550 1.5700 
*I *70:s B *C 0.5550 1.5700 
*I *71:s B *C 0.5550 1.5700 
*I *72:s B *C 0.9550 1.5700 
*I *73:s B *C 0.9550 1.5700 
*I *74:s B *C 1.3550 1.5700 
*N *112:14 *C 5.0000 1.7100 
*N *112:15 *C 4.7900 1.7100 
*N *112:16 *C 4.0300 1.7100 

*CAP
0 *61:s 3.73241e-17
1 *57:s 4.05018e-17
2 *7:s 7.27943e-16
3 *112:16 2.75233e-17
4 *112:15 1.34037e-17
5 *112 6.92515e-16

*RES
0 *112 *7:s 7.5  // $metal1_conn
1 *112 *7:s 7.5  // $metal1_conn
2 *112 *112:14 7.5  // $metal1_conn
3 *112:15 *61:s 62.161034  // $metal1_conn
4 *112:16 *57:s 62.214417  // $metal1_conn
5 *7:s *112:14 0.365886  // $metal1_conn
6 *112:14 *112:15 0.105115  // $metal1_conn
7 *112:15 *112:16 0.380735  // $metal1_conn
8 *112:16 *112 0.450943  // $metal1_conn

*END

*D_NET *1 0

*CONN
*P *1 I *C 0.1000 0.0000 
*I *11:s B *C 7.7600 0.4650 
*I *12:s B *C 7.7600 0.4650 
*I *14:s B *C 8.1700 0.4650 
*I *16:s B *C 8.1700 0.4650 
*I *18:s B *C 8.5800 0.4650 
*I *20:s B *C 8.5800 0.4650 
*I *22:s B *C 8.9900 0.4650 
*I *24:s B *C 8.9900 0.4650 
*I *26:s B *C 9.4000 0.4650 
*I *75:s B *C 9.4000 0.4650 
*I *76:s B *C 9.8000 0.4650 
*I *77:s B *C 7.3500 0.4650 
*I *78:s B *C 5.2600 0.4425 
*I *79:s B *C 5.2600 0.4425 
*I *80:s B *C 5.7400 0.4650 
*I *81:s B *C 5.7400 0.4650 
*I *82:s B *C 6.1200 0.4650 
*I *83:s B *C 6.1200 0.4650 
*I *84:s B *C 6.5300 0.4650 
*I *85:s B *C 6.5300 0.4650 
*I *86:s B *C 6.9400 0.4650 
*I *87:s B *C 6.9400 0.4650 
*I *88:s B *C 7.3500 0.4650 
*I *89:s B *C 2.6850 0.4650 
*I *90:s B *C 3.1875 0.4425 
*I *91:s B *C 3.1875 0.4425 
*I *92:s B *C 3.6200 0.4425 
*I *93:s B *C 3.6200 0.4425 
*I *94:s B *C 4.0300 0.4425 
*I *95:s B *C 4.0300 0.4425 
*I *96:s B *C 4.4400 0.4425 
*I *97:s B *C 4.4400 0.4425 
*I *98:s B *C 4.8500 0.4425 
*I *99:s B *C 4.8500 0.4425 
*I *101:s B *C 1.7950 0.4425 
*I *102:s B *C 1.7950 0.4425 
*I *105:s B *C 2.6850 0.4650 
*I *106:s B *C 0.1550 0.4425 
*I *109:s B *C 0.8850 0.4425 
*I *110:s B *C 0.8850 0.4425 
*N *1:3 *C 9.0000 0.0000 
*N *1:23 *C 1.7950 0.0000 
*N *1:24 *C 1.0000 0.0000 
*N *1:25 *C 0.8850 0.0000 
*N *1:26 *C 0.1450 0.0000 


*RES
0 *1:26 *1 0.022116  // $metal1_conn
1 *1:3 *76:s 6.2  // $metal1_conn
2 *1:3 *76:s 6.2  // $metal1_conn
3 *1:3 *76:s 6.2  // $metal1_conn
4 *1:3 *76:s 6.2  // $metal1_conn
5 *1:3 *1:24 6.2  // $metal1_conn
6 *1:23 *101:s 75.260635  // $metal1_conn
7 *1:25 *109:s 75.260635  // $metal1_conn
8 *1:26 *106:s 75.251831  // $metal1_conn
9 *76:s *1:23 0.358168  // $metal1_conn
10 *1:23 *1:24 0.398483  // $metal1_conn
11 *1:24 *1:25 0.057474  // $metal1_conn
12 *1:25 *1:26 0.370705  // $metal1_conn

*END

*D_NET *30 2.60039e-15

*CONN
*P *30 I *C 0.1000 0.6650 
*I *80:g B *C 5.5675 0.4425 
*I *91:g B *C 3.3125 0.4425 
*I *94:g B *C 3.9275 0.4425 
*I *95:g B *C 4.1325 0.4425 
*I *98:g B *C 4.7475 0.4425 
*I *99:g B *C 4.9525 0.4425 
*I *101:g B *C 1.6925 0.4425 
*I *102:g B *C 1.8975 0.4425 
*I *105:g B *C 2.4075 0.4425 
*I *106:g B *C 0.2475 0.4425 
*I *109:g B *C 0.7825 0.4425 
*I *110:g B *C 0.9875 0.4425 
*I *37:g B *C 5.5675 1.1875 
*I *54:g B *C 3.3875 1.1375 
*I *57:g B *C 3.9275 1.1375 
*I *58:g B *C 4.1925 1.1875 
*I *61:g B *C 4.6875 1.1875 
*I *62:g B *C 4.9525 1.1875 
*I *64:g B *C 1.7025 1.0625 
*I *65:g B *C 1.8975 1.0625 
*I *68:g B *C 2.5025 1.0625 
*I *69:g B *C 0.1925 1.0625 
*I *72:g B *C 0.7975 1.0625 
*I *73:g B *C 0.9925 1.0625 

*CAP
0 *68:g 1.08647e-15
1 *62:g 4.31643e-17
2 *61:g 5.39813e-17
3 *58:g 5.96317e-17
4 *57:g 6.68521e-17
5 *54:g 5.34419e-17
6 *37:g 5.38974e-17
7 *110:g 1.81762e-17
8 *109:g 2.01995e-17
9 *106:g 2.9962e-17
10 *105:g 3.33108e-17
11 *102:g 3.74201e-17
12 *101:g 1.52909e-17
13 *80:g 1.00458e-15
14 *30 2.40088e-17

*RES
0 *37:g *80:g 76.17614  // $poly_conn
1 *62:g *80:g 68.719788  // $poly_conn
2 *80:g *61:g 76.907867  // $poly_conn
3 *58:g *80:g 74.840485  // $poly_conn
4 *80:g *57:g 57.180859  // $poly_conn
5 *54:g *80:g 59.451172  // $poly_conn
6 *68:g *105:g 27.69368  // $poly_conn
7 *68:g *102:g 18.71979  // $poly_conn
8 *68:g *101:g 21.47279  // $poly_conn
9 *68:g *110:g 17.398676  // $poly_conn
10 *68:g *109:g 17.398676  // $poly_conn
11 *106:g *68:g 23.538105  // $poly_conn
12 *68:g *30 0.079679  // $metal1_conn
13 *80:g *68:g 1.008947  // $metal1_conn

*END

*D_NET *44 1.07262e-15

*CONN
*P *44 I *C 1.7000 0.8550 
*I *89:g B *C 2.7575 0.4650 
*I *90:g B *C 2.9625 0.4650 
*I *100:g B *C 1.4425 0.4425 
*I *103:g B *C 2.0025 0.4425 
*I *104:g B *C 2.2475 0.4425 
*I *107:g B *C 0.3975 0.4425 
*I *108:g B *C 0.6025 0.4425 
*I *111:g B *C 1.1875 0.4425 
*I *51:g B *C 2.7575 1.0950 
*I *52:g B *C 3.0275 1.0950 
*I *63:g B *C 1.4975 1.0625 
*I *66:g B *C 2.1025 1.0625 
*I *67:g B *C 2.2975 1.0625 
*I *70:g B *C 0.3975 1.0625 
*I *71:g B *C 0.5925 1.0625 
*I *74:g B *C 1.1975 1.0625 

*CAP
0 *52:g 1.8413e-16
1 *111:g 3.07804e-17
2 *108:g 2.45501e-17
3 *107:g 3.02178e-17
4 *104:g 3.44772e-17
5 *103:g 5.21496e-17
6 *100:g 2.55247e-17
7 *44 6.90792e-16

*RES
0 *52:g *44 193.300171  // $poly_conn
1 *44 *104:g 52.351768  // $poly_conn
2 *44 *103:g 49.863373  // $poly_conn
3 *44 *100:g 49.863373  // $poly_conn
4 *44 *111:g 54.61676  // $poly_conn
5 *108:g *44 18.156845  // $poly_conn
6 *44 *107:g 18.337015  // $poly_conn

*END

*D_NET *53 1.1868e-15

*CONN
*P *53 O *C 6.1000 0.6650 
*I *11:d B *C 7.5550 0.4650 
*I *12:d B *C 7.9650 0.4650 
*I *14:d B *C 7.9650 0.4650 
*I *16:d B *C 8.3750 0.4650 
*I *18:d B *C 8.3750 0.4650 
*I *20:d B *C 8.7850 0.4650 
*I *22:d B *C 8.7850 0.4650 
*I *24:d B *C 9.1950 0.4650 
*I *26:d B *C 9.1950 0.4650 
*I *75:d B *C 9.6050 0.4650 
*I *76:d B *C 9.6050 0.4650 
*I *77:d B *C 7.5550 0.4650 
*I *81:d B *C 5.9150 0.4650 
*I *82:d B *C 5.9150 0.4650 
*I *83:d B *C 6.3250 0.4650 
*I *84:d B *C 6.3250 0.4650 
*I *85:d B *C 6.7350 0.4650 
*I *86:d B *C 6.7350 0.4650 
*I *87:d B *C 7.1450 0.4650 
*I *88:d B *C 7.1450 0.4650 
*I *2:d B *C 8.8750 1.2200 
*I *3:d B *C 8.8750 1.2200 
*I *4:d B *C 9.2850 1.2200 
*I *5:d B *C 9.2850 1.2200 
*I *6:d B *C 9.6950 1.2200 
*I *7:d B *C 9.6950 1.2200 
*I *8:d B *C 7.6450 1.2200 
*I *9:d B *C 7.6450 1.2200 
*I *10:d B *C 8.0550 1.2200 
*I *31:d B *C 8.0550 1.2200 
*I *32:d B *C 8.4650 1.2200 
*I *33:d B *C 8.4650 1.2200 
*I *40:d B *C 5.9850 1.2200 
*I *42:d B *C 5.9850 1.2200 
*I *45:d B *C 6.4150 1.2200 
*I *46:d B *C 6.4150 1.2200 
*I *47:d B *C 6.8250 1.2200 
*I *48:d B *C 6.8250 1.2200 
*I *49:d B *C 7.2350 1.2200 
*I *50:d B *C 7.2350 1.2200 

*CAP
0 *53 1.1868e-15


*END

*D_NET *39 1.84152e-18

*CONN
*I *104:s B *C 2.3275 0.4425 
*I *105:d B *C 2.3275 0.4425 

*CAP
0 *104:s 1.84152e-18

*RES
0 *105:d *104:s 0.001  // $mwires

*END

*D_NET *29 9.24291e-19

*CONN
*I *102:d B *C 1.9500 0.4425 
*I *103:s B *C 1.9500 0.4425 

*CAP
0 *102:d 9.24291e-19

*RES
0 *103:s *102:d 0.001  // $mwires

*END

*D_NET *28 3.03708e-18

*CONN
*I *100:s B *C 1.5675 0.4425 
*I *101:d B *C 1.5675 0.4425 

*CAP
0 *100:s 3.03708e-18

*RES
0 *101:d *100:s 0.001  // $mwires

*END

*D_NET *27 2.97462e-18

*CONN
*I *110:d B *C 1.0875 0.4425 
*I *111:s B *C 1.0875 0.4425 

*CAP
0 *110:d 2.97462e-18

*RES
0 *111:s *110:d 0.001  // $mwires

*END

*D_NET *25 2.50553e-18

*CONN
*I *108:s B *C 0.6925 0.4425 
*I *109:d B *C 0.6925 0.4425 

*CAP
0 *108:s 2.50553e-18

*RES
0 *109:d *108:s 0.001  // $mwires

*END

*D_NET *23 7.3094e-18

*CONN
*I *106:d B *C 0.3225 0.4425 
*I *107:s B *C 0.3225 0.4425 

*CAP
0 *106:d 7.3094e-18

*RES
0 *107:s *106:d 0.001  // $mwires

*END

*D_NET *21 7.80836e-18

*CONN
*I *35:s B *C 5.4650 1.1875 
*I *37:d B *C 5.4650 1.1875 

*CAP
0 *35:s 7.80836e-18

*RES
0 *37:d *35:s 0.001  // $mwires

*END

*D_NET *19 8.20698e-18

*CONN
*I *34:s B *C 5.0550 1.1875 
*I *62:d B *C 5.0550 1.1875 

*CAP
0 *34:s 8.20698e-18

*RES
0 *62:d *34:s 0.001  // $mwires

*END

*D_NET *17 5.36602e-18

*CONN
*I *60:s B *C 4.6150 1.1875 
*I *61:d B *C 4.6150 1.1875 

*CAP
0 *60:s 5.36602e-18

*RES
0 *61:d *60:s 0.001  // $mwires

*END

*D_NET *15 3.43373e-18

*CONN
*I *58:d B *C 4.2650 1.1875 
*I *59:s B *C 4.2650 1.1875 

*CAP
0 *58:d 3.43373e-18

*RES
0 *59:s *58:d 0.001  // $mwires

*END

*D_NET *13 2.87537e-18

*CONN
*I *56:s B *C 3.8750 1.1375 
*I *57:d B *C 3.8750 1.1375 

*CAP
0 *56:s 2.87537e-18

*RES
0 *57:d *56:s 0.001  // $mwires

*END

*D_NET *43 7.22022e-18

*CONN
*I *54:d B *C 3.5025 1.1375 
*I *55:s B *C 3.5025 1.1375 

*CAP
0 *54:d 7.22022e-18

*RES
0 *55:s *54:d 0.001  // $mwires

*END

*D_NET *41 1.93433e-15

*CONN
*I *100:d B *C 1.3150 0.4425 
*I *103:d B *C 2.1250 0.4425 
*I *104:d B *C 2.1250 0.4425 
*I *107:d B *C 0.5000 0.4425 
*I *108:d B *C 0.5000 0.4425 
*I *111:d B *C 1.3150 0.4425 
*I *2:g B *C 8.7725 1.2200 
*I *3:g B *C 8.9775 1.2200 
*I *4:g B *C 9.1825 1.2200 
*I *5:g B *C 9.3875 1.2200 
*I *6:g B *C 9.5925 1.2200 
*I *7:g B *C 9.7975 1.2200 
*I *8:g B *C 7.5425 1.2200 
*I *9:g B *C 7.7475 1.2200 
*I *10:g B *C 7.9525 1.2200 
*I *31:g B *C 8.1575 1.2200 
*I *32:g B *C 8.3625 1.2200 
*I *33:g B *C 8.5675 1.2200 
*I *40:g B *C 5.8625 1.2200 
*I *42:g B *C 6.1075 1.2200 
*I *45:g B *C 6.3125 1.2200 
*I *46:g B *C 6.5175 1.2200 
*I *47:g B *C 6.7225 1.2200 
*I *48:g B *C 6.9275 1.2200 
*I *49:g B *C 7.1325 1.2200 
*I *50:g B *C 7.3375 1.2200 
*I *63:d B *C 1.6000 1.0625 
*I *64:d B *C 1.6000 1.0625 
*I *65:d B *C 2.0000 1.0625 
*I *66:d B *C 2.0000 1.0625 
*I *67:d B *C 2.4000 1.0625 
*I *68:d B *C 2.4000 1.0625 
*I *69:d B *C 0.2950 1.0625 
*I *70:d B *C 0.2950 1.0625 
*I *71:d B *C 0.6950 1.0625 
*I *72:d B *C 0.6950 1.0625 
*I *73:d B *C 1.0950 1.0625 
*I *74:d B *C 1.0950 1.0625 
*N *41:42 *C 5.8900 0.8900 

*CAP
0 *67:d 6.80972e-16
1 *7:g 1.04444e-15
2 *107:d 7.42338e-17
3 *103:d 7.18178e-17
4 *100:d 6.28719e-17

*RES
0 *7:g *41:42 45  // $metal1_conn
1 *67:d *103:d 75.348961  // $metal1_conn
2 *67:d *100:d 75.35347  // $metal1_conn
3 *67:d *107:d 75.366814  // $metal1_conn
4 *67:d *41:42 3.027315  // $metal1_conn

*END

*D_NET *38 1.19667e-15

*CONN
*I *78:g B *C 5.1575 0.4425 
*I *79:g B *C 5.3625 0.4425 
*I *89:d B *C 2.8600 0.4650 
*I *90:d B *C 2.8600 0.4650 
*I *92:g B *C 3.5175 0.4425 
*I *93:g B *C 3.7225 0.4425 
*I *96:g B *C 4.3375 0.4425 
*I *97:g B *C 4.5425 0.4425 
*I *34:g B *C 5.1575 1.1875 
*I *35:g B *C 5.3625 1.1875 
*I *51:d B *C 2.8925 1.0950 
*I *52:d B *C 2.8925 1.0950 
*I *55:g B *C 3.6175 1.1375 
*I *56:g B *C 3.8225 1.1375 
*I *59:g B *C 4.3375 1.1875 
*I *60:g B *C 4.5425 1.1875 
*N *38:22 *C 2.9250 0.8750 

*CAP
0 *60:g 4.05928e-17
1 *59:g 4.01398e-17
2 *56:g 5.76734e-17
3 *55:g 2.53244e-17
4 *51:d 3.39767e-17
5 *35:g 4.06228e-17
6 *34:g 3.00988e-17
7 *89:d 7.98726e-17
8 *78:g 7.92723e-16
9 *38:22 5.5648e-17

*RES
0 *35:g *78:g 100.77108  // $poly_conn
1 *78:g *34:g 28.975733  // $poly_conn
2 *60:g *78:g 30.258253  // $poly_conn
3 *78:g *59:g 28.975733  // $poly_conn
4 *56:g *78:g 49.774982  // $poly_conn
5 *78:g *55:g 16.15522  // $poly_conn
6 *38:22 *51:d 62.06496  // $metal1_conn
7 *38:22 *89:d 75.145241  // $metal1_conn
8 *78:g *38:22 0.518945  // $metal1_conn

*END

*D_NET *36 1.63882e-15

*CONN
*I *11:g B *C 7.6575 0.4650 
*I *12:g B *C 7.8625 0.4650 
*I *14:g B *C 8.0675 0.4650 
*I *16:g B *C 8.2725 0.4650 
*I *18:g B *C 8.4775 0.4650 
*I *20:g B *C 8.6825 0.4650 
*I *22:g B *C 8.8875 0.4650 
*I *24:g B *C 9.0925 0.4650 
*I *26:g B *C 9.2975 0.4650 
*I *75:g B *C 9.5025 0.4650 
*I *76:g B *C 9.7075 0.4650 
*I *77:g B *C 7.4525 0.4650 
*I *78:d B *C 5.0550 0.4425 
*I *79:d B *C 5.4650 0.4425 
*I *80:d B *C 5.4650 0.4425 
*I *81:g B *C 5.8125 0.4650 
*I *82:g B *C 6.0175 0.4650 
*I *83:g B *C 6.2225 0.4650 
*I *84:g B *C 6.4275 0.4650 
*I *85:g B *C 6.6325 0.4650 
*I *86:g B *C 6.8375 0.4650 
*I *87:g B *C 7.0425 0.4650 
*I *88:g B *C 7.2475 0.4650 
*I *91:d B *C 3.4150 0.4425 
*I *92:d B *C 3.4150 0.4425 
*I *93:d B *C 3.8250 0.4425 
*I *94:d B *C 3.8250 0.4425 
*I *95:d B *C 4.2350 0.4425 
*I *96:d B *C 4.2350 0.4425 
*I *97:d B *C 4.6450 0.4425 
*I *98:d B *C 4.6450 0.4425 
*I *99:d B *C 5.0550 0.4425 
*I *34:d B *C 5.2600 1.1875 
*I *35:d B *C 5.2600 1.1875 
*I *55:d B *C 3.7200 1.1375 
*I *56:d B *C 3.7200 1.1375 
*I *59:d B *C 4.4400 1.1875 
*I *60:d B *C 4.4400 1.1875 
*N *36:21 *C 5.7300 0.7050 
*N *36:49 *C 5.2600 1.0850 
*N *36:51 *C 4.4400 1.0850 

*CAP
0 *59:d 1.77925e-16
1 *55:d 1.1787e-16
2 *34:d 1.42627e-16
3 *79:d 4.73055e-16
4 *76:g 5.89835e-16
5 *36:21 1.37506e-16

*RES
0 *76:g *36:21 52.542732  // $poly_conn
1 *79:d *36:21 0.259218  // $metal1_conn
2 *36:21 *36:49 0.518628  // $metal1_conn
3 *34:d *36:49 62  // $metal1_conn
4 *59:d *36:51 62  // $metal1_conn
5 *36:51 *55:d 62.583282  // $metal1_conn
6 *36:49 *36:51 0.610306  // $metal1_conn

*END

