*SPEF "IEEE 1481-1999"
*DESIGN  "TBUFX4"
*DATE "Mon Sep 27 11:21:57 2010"
*VENDOR "Cadence Design Systems"
*PROGRAM "Assura RCX"
*VERSION "3.2 Red Hat Linux release 7.2 (Enigma) - (09/09/2009-10:39)"
*DESIGN_FLOW "Physical Verification"
*DIVIDER /
*DELIMITER :
*BUS_DELIMITER []
*T_UNIT 1 PS
*C_UNIT 1e15 FF
*R_UNIT 1 OHM
*L_UNIT 1 MH
// DeviceFingerDelim "@"
// MATCHED
// caps2d version: 10

*NAME_MAP
*1 mp3
*2 mp0
*3 mp2
*4 OE
*5 mp1
*6 mp5
*7 mp5\@1
*8 mp5\@2
*9 mp5\@3
*10 mn4
*11 mn3
*12 mn0
*13 mn2
*14 mn1
*15 mn5
*16 mn5\@1
*17 mn5\@2
*18 mn5\@3
*19 A
*20 OEb
*21 non
*22 pon
*23 VSS
*24 net127
*25 net144
*26 VDD
*27 Y
*28 mp4

*GROUND_NETS VSS

*PORTS
*26 I
*23 I
*19 I
*4 I
*27 O

*D_NET *26 3.78505e-16

*CONN
*P *26 I *C 0.1000 1.7100 
*I *28:s B *C 0.2500 1.1650 
*I *1:s B *C 0.7675 1.0775 
*I *2:s B *C 0.7675 1.0775 
*I *5:s B *C 1.7500 1.1350 
*I *6:s B *C 1.7500 1.1350 
*I *7:s B *C 2.2800 1.1350 
*I *8:s B *C 2.2800 1.1350 
*I *9:s B *C 2.6800 1.1350 
*N *26:3 *C 2.1000 1.7100 
*N *26:6 *C 0.7000 1.7100 
*N *26:7 *C 0.2400 1.7100 

*CAP
0 *9:s 1.63398e-16
1 *1:s 3.4976e-17
2 *28:s 2.7033e-17
3 *26:7 6.14985e-18
4 *26:3 1.43833e-16
5 *26 3.11489e-18

*RES
0 *26:7 *26 0.069726  // $metal1_conn
1 *26:3 *9:s 10.714286  // $metal1_conn
2 *26:3 *26:6 10.714286  // $metal1_conn
3 *26:6 *1:s 62.22356  // $metal1_conn
4 *26:7 *28:s 62.258144  // $metal1_conn
5 *9:s *26:6 0.506048  // $metal1_conn
6 *26:6 *26:7 0.230371  // $metal1_conn

*END

*D_NET *23 0

*CONN
*P *23 I *C 0.1000 0.0000 
*I *11:s B *C 0.7175 0.5075 
*I *12:s B *C 0.7175 0.5075 
*I *13:s B *C 1.2700 0.4000 
*I *14:s B *C 1.7125 0.4000 
*I *15:s B *C 1.7125 0.4000 
*I *16:s B *C 2.1800 0.4000 
*I *17:s B *C 2.1800 0.4000 
*I *18:s B *C 2.5800 0.4000 
*N *23:3 *C 2.1000 0.0000 
*N *23:6 *C 1.1850 0.0000 
*N *23:7 *C 0.7000 0.0000 
*N *23:8 *C 0.5800 0.0000 


*RES
0 *23:8 *23 0.240145  // $metal1_conn
1 *23:3 *18:s 8.857142  // $metal1_conn
2 *23:3 *23:7 8.857142  // $metal1_conn
3 *23:6 *13:s 75.045792  // $metal1_conn
4 *23:8 *11:s 75.23378  // $metal1_conn
5 *18:s *23:6 0.29188  // $metal1_conn
6 *23:6 *23:7 0.241952  // $metal1_conn
7 *23:7 *23:8 0.059952  // $metal1_conn

*END

*D_NET *19 6.86554e-16

*CONN
*P *19 I *C 0.9000 0.6650 
*I *11:g B *C 0.4775 0.4500 
*I *14:g B *C 1.5525 0.4000 
*I *1:g B *C 0.5475 1.1650 
*I *5:g B *C 1.5975 1.1350 
*N *19:2 *C 0.5050 0.8600 
*N *19:5 *C 1.5800 0.6400 
*N *19:7 *C 0.8650 0.6650 

*CAP
0 *5:g 8.34019e-17
1 *1:g 4.16711e-17
2 *14:g 2.56941e-17
3 *11:g 6.28637e-17
4 *19:7 1.54243e-16
5 *19:2 1.13835e-16
6 *19:5 1.85642e-16
7 *19 1.92035e-17

*RES
0 *1:g *19:2 18.797684  // $poly_conn
1 *19:2 *11:g 60.119781  // $poly_conn
2 *5:g *19:5 66.116623  // $poly_conn
3 *19:5 *14:g 17.398676  // $poly_conn
4 *19:5 *19:7 46.009369  // $metal1_conn
5 *19:7 *19:2 45.403217  // $metal1_conn
6 *19:7 *19 0.003419  // $metal1_conn

*END

*D_NET *4 3.42219e-16

*CONN
*P *4 I *C 0.5000 0.6650 
*I *10:g B *C 0.3425 0.4500 
*I *12:g B *C 0.8175 0.5075 
*I *28:g B *C 0.3425 1.1650 
*I *2:g B *C 0.8175 1.0775 
*N *4:2 *C 0.3150 0.7100 
*N *4:5 *C 0.8175 0.6575 
*N *4:6 *C 0.6750 0.6800 

*CAP
0 *2:g 4.05382e-17
1 *28:g 4.37266e-17
2 *12:g 3.23028e-17
3 *10:g 4.14995e-17
4 *4:5 1.89177e-17
5 *4:2 6.72662e-17
6 *4:6 5.64266e-17
7 *4 4.15418e-17

*RES
0 *28:g *4:2 58.153492  // $poly_conn
1 *4:2 *10:g 24.820156  // $poly_conn
2 *2:g *4:5 78.976196  // $poly_conn
3 *4:5 *4:6 66.032494  // $poly_conn
4 *4:5 *12:g 18.71979  // $poly_conn
5 *4:6 *4 0.103001  // $metal1_conn
6 *4 *4:2 45.106701  // $metal1_conn

*END

*D_NET *27 2.38186e-16

*CONN
*P *27 O *C 2.1000 0.8550 
*I *15:d B *C 1.9750 0.4000 
*I *16:d B *C 1.9750 0.4000 
*I *17:d B *C 2.3850 0.4000 
*I *18:d B *C 2.3850 0.4000 
*I *6:d B *C 2.0400 1.1350 
*I *7:d B *C 2.0400 1.1350 
*I *8:d B *C 2.4850 1.1350 
*I *9:d B *C 2.4850 1.1350 

*CAP
0 *8:d 1.31557e-16
1 *15:d 7.53385e-17
2 *27 3.12899e-17

*RES
0 *8:d *27 0.073345  // $metal1_conn
1 *27 *15:d 0.2176  // $metal1_conn

*END

*D_NET *25 0

*CONN
*I *10:s B *C 0.4100 0.4500 
*I *11:d B *C 0.4100 0.4500 


*RES
0 *11:d *10:s 0.001  // $mwires

*END

*D_NET *24 2.2833e-18

*CONN
*I *3:s B *C 1.5450 1.1350 
*I *5:d B *C 1.5450 1.1350 

*CAP
0 *3:s 2.2833e-18

*RES
0 *5:d *3:s 0.001  // $mwires

*END

*D_NET *22 6.12011e-16

*CONN
*I *10:d B *C 0.2500 0.4500 
*I *28:d B *C 0.4450 1.1650 
*I *1:d B *C 0.4450 1.1650 
*I *6:g B *C 1.9025 1.1350 
*I *7:g B *C 2.1775 1.1350 
*I *8:g B *C 2.3825 1.1350 
*I *9:g B *C 2.5875 1.1350 
*N *22:9 *C 0.4450 1.1750 

*CAP
0 *9:g 3.38029e-16
1 *28:d 2.07446e-16
2 *10:d 6.65353e-17

*RES
0 *9:g *22:9 46.300179  // $metal1_conn
1 *22:9 *10:d 75.710449  // $metal1_conn
2 *28:d *22:9 20.666666  // $metal1_conn

*END

*D_NET *21 3.77203e-16

*CONN
*I *13:d B *C 1.4350 0.4000 
*I *14:d B *C 1.4350 0.4000 
*I *15:g B *C 1.8725 0.4000 
*I *16:g B *C 2.0775 0.4000 
*I *17:g B *C 2.2825 0.4000 
*I *18:g B *C 2.4875 0.4000 
*I *3:d B *C 1.4000 1.1350 
*N *21:5 *C 1.7700 0.6550 
*N *21:9 *C 1.3900 0.8000 

*CAP
0 *3:d 4.22717e-17
1 *18:g 1.29009e-16
2 *13:d 5.3778e-17
3 *21:9 5.93073e-17
4 *21:5 9.28371e-17

*RES
0 *18:g *21:5 61.616871  // $poly_conn
1 *21:5 *21:9 0.363754  // $metal1_conn
2 *21:9 *3:d 62.146263  // $metal1_conn
3 *21:9 *13:d 75.236366  // $metal1_conn

*END

*D_NET *20 3.39121e-16

*CONN
*I *12:d B *C 0.9775 0.5075 
*I *13:g B *C 1.3175 0.4000 
*I *2:d B *C 0.9100 1.0775 
*I *3:g B *C 1.4925 1.1350 
*N *20:2 *C 1.3175 0.7550 
*N *20:3 *C 1.2000 0.7550 
*N *20:5 *C 1.0950 0.7550 

*CAP
0 *3:g 8.58398e-17
1 *2:d 6.88112e-17
2 *13:g 3.9674e-17
3 *12:d 4.33078e-17
4 *20:5 4.45842e-17
5 *20:2 2.77047e-17
6 *20:3 2.91994e-17

*RES
0 *3:g *20:2 79.692764  // $poly_conn
1 *20:2 *20:3 54.687965  // $poly_conn
2 *20:2 *13:g 47.878052  // $poly_conn
3 *20:3 *20:5 0.057148  // $metal1_conn
4 *20:5 *2:d 62.320431  // $metal1_conn
5 *20:5 *12:d 75.177368  // $metal1_conn

*END

