*SPEF "IEEE 1481-1999"
*DESIGN  "TBUFX12"
*DATE "Mon Sep 27 11:20:04 2010"
*VENDOR "Cadence Design Systems"
*PROGRAM "Assura RCX"
*VERSION "3.2 Red Hat Linux release 7.2 (Enigma) - (09/09/2009-10:39)"
*DESIGN_FLOW "Physical Verification"
*DIVIDER /
*DELIMITER :
*BUS_DELIMITER []
*T_UNIT 1 PS
*C_UNIT 1e15 FF
*R_UNIT 1 OHM
*L_UNIT 1 MH
// DeviceFingerDelim "@"
// MATCHED
// caps2d version: 10

*NAME_MAP
*1 mn5
*2 mn2\@1
*3 mn5\@1
*4 mn1
*5 mn5\@2
*6 mn5\@8
*7 mn5\@3
*8 mn5\@9
*9 mn5\@4
*10 mn5\@10
*11 mn5\@5
*12 mn5\@11
*13 mn5\@6
*14 mn4
*15 mn5\@7
*16 mn3
*17 mn2
*18 mn1\@1
*19 mn2\@2
*20 OEb
*21 non
*22 pon
*23 net127\@2
*24 mn2\@3
*25 mn1\@2
*26 mn1\@3
*27 mn0
*28 mn3\@1
*29 mp2\@1
*30 mn4\@1
*31 mp1\@1
*32 mn4\@2
*33 mp5\@8
*34 mn3\@2
*35 mp5\@9
*36 mn3\@3
*37 mp5\@10
*38 mn4\@3
*39 mp5\@11
*40 mp4
*41 OE
*42 mp3
*43 mp1\@2
*44 VSS
*45 mp2\@2
*46 VDD
*47 mp2\@3
*48 mp1\@3
*49 mp1
*50 mp0
*51 mp3\@1
*52 mp4\@1
*53 mp4\@2
*54 mp3\@2
*55 mp3\@3
*56 mp4\@3
*57 A
*58 Y
*59 net127\@3
*60 net127
*61 net127\@1
*62 net144\@1
*63 net144\@2
*64 net144\@3
*65 net144
*66 mp5
*67 mp5\@1
*68 mp5\@2
*69 mp5\@3
*70 mp5\@4
*71 mp5\@5
*72 mp5\@6
*73 mp5\@7
*74 mp2

*GROUND_NETS VSS

*PORTS
*46 I
*44 I
*57 I
*41 I
*58 O

*D_NET *46 1.15692e-15

*CONN
*P *46 I *C 0.1000 1.7100 
*I *66:s B *C 4.8600 1.2100 
*I *67:s B *C 5.2700 1.2100 
*I *68:s B *C 5.2700 1.2100 
*I *69:s B *C 5.6800 1.2100 
*I *70:s B *C 5.6800 1.2100 
*I *71:s B *C 6.0900 1.2100 
*I *72:s B *C 6.0900 1.2100 
*I *73:s B *C 6.4900 1.2100 
*I *31:s B *C 4.0700 1.2100 
*I *33:s B *C 4.0700 1.2100 
*I *35:s B *C 4.4500 1.2100 
*I *37:s B *C 4.4500 1.2100 
*I *39:s B *C 4.8600 1.2100 
*I *40:s B *C 2.0250 1.0800 
*I *42:s B *C 2.4800 1.0825 
*I *43:s B *C 2.4800 1.0825 
*I *48:s B *C 3.2700 1.0900 
*I *49:s B *C 3.2700 1.0900 
*I *50:s B *C 0.5800 1.0925 
*I *51:s B *C 0.5800 1.0925 
*I *52:s B *C 0.9900 1.5700 
*I *53:s B *C 0.9900 1.5700 
*I *54:s B *C 1.5650 1.5700 
*I *55:s B *C 1.5650 1.5700 
*I *56:s B *C 2.0250 1.0800 
*N *46:4 *C 5.5000 1.7100 
*N *46:10 *C 3.3000 1.7100 
*N *46:11 *C 3.1550 1.7100 

*CAP
0 *48:s 4.6225e-17
1 *42:s 1.56659e-16
2 *73:s 5.63024e-16
3 *46:11 1.41005e-17
4 *46:4 3.70941e-16
5 *46 5.97373e-18

*RES
0 *42:s *46 0.182655  // $metal1_conn
1 *46:4 *73:s 6.818182  // $metal1_conn
2 *46:4 *46:10 6.818182  // $metal1_conn
3 *46:4 *42:s 6.818182  // $metal1_conn
4 *46:11 *48:s 62.241798  // $metal1_conn
5 *73:s *46:10 0.318352  // $metal1_conn
6 *46:10 *46:11 0.072543  // $metal1_conn
7 *46:11 *42:s 0.380862  // $metal1_conn

*END

*D_NET *44 0

*CONN
*P *44 I *C 0.1000 0.0000 
*I *1:s B *C 5.1550 0.4050 
*I *3:s B *C 5.1550 0.4050 
*I *5:s B *C 5.5650 0.4050 
*I *7:s B *C 5.5650 0.4050 
*I *9:s B *C 5.9750 0.4050 
*I *11:s B *C 5.9750 0.4050 
*I *13:s B *C 6.3750 0.4050 
*I *15:s B *C 4.7450 0.4050 
*I *17:s B *C 3.5150 0.3700 
*I *2:s B *C 3.5150 0.3700 
*I *4:s B *C 3.9550 0.4050 
*I *6:s B *C 3.9550 0.4050 
*I *8:s B *C 4.3350 0.4050 
*I *10:s B *C 4.3350 0.4050 
*I *12:s B *C 4.7450 0.4050 
*I *16:s B *C 2.3150 0.4425 
*I *18:s B *C 2.3150 0.4425 
*I *19:s B *C 2.6950 0.3725 
*I *24:s B *C 2.6950 0.3725 
*I *25:s B *C 3.1550 0.3700 
*I *26:s B *C 3.1550 0.3700 
*I *27:s B *C 0.5450 0.4475 
*I *28:s B *C 0.5450 0.4475 
*I *34:s B *C 1.5500 0.4450 
*I *36:s B *C 1.5500 0.4450 
*N *44:4 *C 5.5000 0.0000 
*N *44:15 *C 1.5300 0.0000 
*N *44:16 *C 1.1000 0.0000 
*N *44:17 *C 0.4650 0.0000 


*RES
0 *44:17 *44 0.182655  // $metal1_conn
1 *44:4 *13:s 5.636364  // $metal1_conn
2 *44:4 *13:s 5.636364  // $metal1_conn
3 *44:4 *44:16 5.636364  // $metal1_conn
4 *44:15 *34:s 75.266426  // $metal1_conn
5 *44:17 *27:s 75.255524  // $metal1_conn
6 *13:s *44:15 0.393403  // $metal1_conn
7 *44:15 *44:16 0.215514  // $metal1_conn
8 *44:16 *44:17 0.318352  // $metal1_conn

*END

*D_NET *57 1.79865e-15

*CONN
*P *57 I *C 0.7000 0.8550 
*I *4:g B *C 3.8225 0.3700 
*I *16:g B *C 2.1825 0.4450 
*I *18:g B *C 2.3875 0.4425 
*I *25:g B *C 3.0025 0.3725 
*I *26:g B *C 3.2075 0.3700 
*I *28:g B *C 0.6275 0.4475 
*I *34:g B *C 1.3975 0.4475 
*I *36:g B *C 1.6025 0.4450 
*I *31:g B *C 3.8225 1.2600 
*I *42:g B *C 2.3325 1.0800 
*I *43:g B *C 2.5275 1.0825 
*I *48:g B *C 3.0525 1.0825 
*I *49:g B *C 3.3175 1.0900 
*I *51:g B *C 0.6275 1.0925 
*I *54:g B *C 1.4075 1.0825 
*I *55:g B *C 1.6025 1.0800 

*CAP
0 *49:g 6.06734e-17
1 *48:g 5.17781e-17
2 *43:g 3.8171e-17
3 *31:g 7.87465e-17
4 *36:g 3.66152e-17
5 *34:g 2.17746e-17
6 *28:g 5.42991e-17
7 *16:g 3.02679e-17
8 *57 1.42633e-15

*RES
0 *31:g *57 76.17614  // $poly_conn
1 *49:g *57 56.395519  // $poly_conn
2 *57 *48:g 16.15522  // $poly_conn
3 *43:g *57 52.263069  // $poly_conn
4 *57 *16:g 55.112999  // $poly_conn
5 *57 *36:g 18.71979  // $poly_conn
6 *57 *34:g 20.190739  // $poly_conn
7 *57 *28:g 65.845802  // $poly_conn

*END

*D_NET *41 8.02554e-16

*CONN
*P *41 I *C 0.5000 0.6650 
*I *14:g B *C 1.9825 0.4450 
*I *27:g B *C 0.3625 0.4800 
*I *30:g B *C 0.8325 0.4475 
*I *32:g B *C 1.2225 0.4475 
*I *38:g B *C 1.7075 0.4450 
*I *40:g B *C 2.0725 1.0800 
*I *50:g B *C 0.3625 1.1400 
*I *52:g B *C 0.8325 1.0825 
*I *53:g B *C 1.2025 1.0825 
*I *56:g B *C 1.8075 1.0800 
*N *41:2 *C 0.3900 0.7200 
*N *41:7 *C 0.8325 0.6450 
*N *41:8 *C 0.7700 0.6450 

*CAP
0 *50:g 5.09428e-17
1 *40:g 4.08991e-16
2 *38:g 4.95647e-17
3 *32:g 3.58172e-17
4 *30:g 2.1691e-17
5 *27:g 3.2035e-17
6 *14:g 3.02948e-17
7 *41:7 9.88989e-18
8 *41:2 5.97946e-17
9 *41:8 7.08111e-17
10 *41 3.27219e-17

*RES
0 *50:g *41:2 49.179131  // $poly_conn
1 *40:g *14:g 56.197922  // $poly_conn
2 *40:g *38:g 58.462914  // $poly_conn
3 *32:g *40:g 64.873169  // $poly_conn
4 *41:7 *30:g 22.886339  // $poly_conn
5 *41:2 *27:g 19.691952  // $poly_conn
6 *41:7 *41:8 46.294373  // $poly_conn
7 *40:g *41:7 37.377201  // $poly_conn
8 *41:8 *41 0.156415  // $metal1_conn
9 *41 *41:2 45.062019  // $metal1_conn

*END

*D_NET *58 8.35015e-16

*CONN
*P *58 O *C 4.3000 0.8550 
*I *1:d B *C 4.9500 0.4050 
*I *3:d B *C 5.3600 0.4050 
*I *5:d B *C 5.3600 0.4050 
*I *7:d B *C 5.7700 0.4050 
*I *9:d B *C 5.7700 0.4050 
*I *11:d B *C 6.1800 0.4050 
*I *13:d B *C 6.1800 0.4050 
*I *15:d B *C 4.9500 0.4050 
*I *6:d B *C 4.1300 0.4050 
*I *8:d B *C 4.1300 0.4050 
*I *10:d B *C 4.5400 0.4050 
*I *12:d B *C 4.5400 0.4050 
*I *66:d B *C 5.0650 1.2100 
*I *67:d B *C 5.0650 1.2100 
*I *68:d B *C 5.4750 1.2100 
*I *69:d B *C 5.4750 1.2100 
*I *70:d B *C 5.8850 1.2100 
*I *71:d B *C 5.8850 1.2100 
*I *72:d B *C 6.2950 1.2100 
*I *73:d B *C 6.2950 1.2100 
*I *33:d B *C 4.2450 1.2100 
*I *35:d B *C 4.2450 1.2100 
*I *37:d B *C 4.6550 1.2100 
*I *39:d B *C 4.6550 1.2100 

*CAP
0 *58 8.35015e-16


*END

*D_NET *65 1.95078e-18

*CONN
*I *14:s B *C 2.0825 0.4450 
*I *16:d B *C 2.0825 0.4450 

*CAP
0 *14:s 1.95078e-18

*RES
0 *16:d *14:s 0.001  // $mwires

*END

*D_NET *64 5.60508e-20

*CONN
*I *36:d B *C 1.6550 0.4450 
*I *38:s B *C 1.6550 0.4450 

*CAP
0 *36:d 5.60508e-20

*RES
0 *38:s *36:d 0.001  // $mwires

*END

*D_NET *63 1.98674e-18

*CONN
*I *32:s B *C 1.3100 0.4475 
*I *34:d B *C 1.3100 0.4475 

*CAP
0 *32:s 1.98674e-18

*RES
0 *34:d *32:s 0.001  // $mwires

*END

*D_NET *62 0

*CONN
*I *28:d B *C 0.7300 0.4475 
*I *30:s B *C 0.7300 0.4475 


*RES
0 *30:s *28:d 0.001  // $mwires

*END

*D_NET *61 2.12086e-18

*CONN
*I *29:s B *C 3.7700 1.2600 
*I *31:d B *C 3.7700 1.2600 

*CAP
0 *29:s 2.12086e-18

*RES
0 *31:d *29:s 0.001  // $mwires

*END

*D_NET *60 2.85578e-18

*CONN
*I *74:s B *C 3.3700 1.0900 
*I *49:d B *C 3.3700 1.0900 

*CAP
0 *74:s 2.85578e-18

*RES
0 *49:d *74:s 0.001  // $mwires

*END

*D_NET *59 2.85578e-18

*CONN
*I *47:s B *C 3.0000 1.0825 
*I *48:d B *C 3.0000 1.0825 

*CAP
0 *47:s 2.85578e-18

*RES
0 *48:d *47:s 0.001  // $mwires

*END

*D_NET *23 3.62644e-18

*CONN
*I *43:d B *C 2.6350 1.0825 
*I *45:s B *C 2.6350 1.0825 

*CAP
0 *43:d 3.62644e-18

*RES
0 *45:s *43:d 0.001  // $mwires

*END

*D_NET *22 1.31844e-15

*CONN
*I *14:d B *C 1.8450 0.4450 
*I *30:d B *C 1.0275 0.4475 
*I *32:d B *C 1.0275 0.4475 
*I *38:d B *C 1.8450 0.4450 
*I *66:g B *C 4.9625 1.2100 
*I *67:g B *C 5.1675 1.2100 
*I *68:g B *C 5.3725 1.2100 
*I *69:g B *C 5.5775 1.2100 
*I *70:g B *C 5.7825 1.2100 
*I *71:g B *C 5.9875 1.2100 
*I *72:g B *C 6.1925 1.2100 
*I *73:g B *C 6.3975 1.2100 
*I *33:g B *C 4.1425 1.2100 
*I *35:g B *C 4.3475 1.2100 
*I *37:g B *C 4.5525 1.2100 
*I *39:g B *C 4.7575 1.2100 
*I *40:d B *C 2.2025 1.0800 
*I *42:d B *C 2.2025 1.0800 
*I *51:d B *C 0.7800 1.0825 
*I *52:d B *C 0.7800 1.0825 
*I *53:d B *C 1.3050 1.0825 
*I *54:d B *C 1.3050 1.0825 
*I *55:d B *C 1.7050 1.0800 
*I *56:d B *C 1.7050 1.0800 

*CAP
0 *40:d 5.18308e-16
1 *73:g 6.48187e-16
2 *30:d 7.84542e-17
3 *14:d 7.34903e-17

*RES
0 *40:d *73:g 46.937469  // $metal1_conn
1 *14:d *40:d 75.368599  // $metal1_conn
2 *40:d *30:d 75.395187  // $metal1_conn

*END

*D_NET *21 1.04896e-15

*CONN
*I *1:g B *C 5.0525 0.4050 
*I *3:g B *C 5.2575 0.4050 
*I *5:g B *C 5.4625 0.4050 
*I *7:g B *C 5.6675 0.4050 
*I *9:g B *C 5.8725 0.4050 
*I *11:g B *C 6.0775 0.4050 
*I *13:g B *C 6.2825 0.4050 
*I *15:g B *C 4.8475 0.4050 
*I *17:d B *C 3.3100 0.3700 
*I *2:d B *C 3.7200 0.3700 
*I *4:d B *C 3.7200 0.3700 
*I *6:g B *C 4.0275 0.4050 
*I *8:g B *C 4.2325 0.4050 
*I *10:g B *C 4.4375 0.4050 
*I *12:g B *C 4.6425 0.4050 
*I *18:d B *C 2.5400 0.3725 
*I *19:d B *C 2.5400 0.3725 
*I *24:d B *C 2.9000 0.3725 
*I *25:d B *C 2.9000 0.3725 
*I *26:d B *C 3.3100 0.3700 
*I *74:d B *C 3.6450 1.2600 
*I *29:d B *C 3.6450 1.2600 
*I *45:d B *C 2.8450 1.0825 
*I *47:d B *C 2.8450 1.0825 
*N *21:13 *C 3.9650 0.6350 
*N *21:30 *C 3.6150 0.9950 

*CAP
0 *45:d 1.22943e-16
1 *74:d 4.01494e-17
2 *2:d 3.10499e-16
3 *13:g 3.23842e-16
4 *21:30 1.41966e-16
5 *21:13 1.09558e-16

*RES
0 *13:g *21:13 51.386597  // $poly_conn
1 *2:d *21:13 0.238096  // $metal1_conn
2 *21:13 *21:30 0.467687  // $metal1_conn
3 *21:30 *74:d 62.11483  // $metal1_conn
4 *21:30 *45:d 62.640625  // $metal1_conn

*END

*D_NET *20 1.17641e-15

*CONN
*I *17:g B *C 3.4125 0.3700 
*I *2:g B *C 3.6175 0.3700 
*I *19:g B *C 2.5925 0.3725 
*I *24:g B *C 2.7975 0.3725 
*I *27:d B *C 0.2550 0.4800 
*I *74:g B *C 3.4225 1.0900 
*I *29:g B *C 3.7175 1.2600 
*I *45:g B *C 2.7425 1.0825 
*I *47:g B *C 2.9475 1.0825 
*I *50:d B *C 0.2550 1.1400 
*N *20:6 *C 2.7700 1.3400 
*N *20:15 *C 0.2300 1.1400 

*CAP
0 *50:d 1.95353e-16
1 *47:g 6.82256e-17
2 *45:g 2.29394e-17
3 *29:g 8.28972e-17
4 *74:g 6.66198e-17
5 *27:d 4.69884e-17
6 *2:g 4.48303e-16
7 *20:6 2.45085e-16

*RES
0 *29:g *2:g 140.225082  // $poly_conn
1 *2:g *74:g 62.683887  // $poly_conn
2 *47:g *2:g 87.164284  // $poly_conn
3 *45:g *20:6 64.691956  // $poly_conn
4 *2:g *45:g 55.61676  // $poly_conn
5 *20:15 *20:6 1.843931  // $metal1_conn
6 *50:d *20:15 20.666666  // $metal1_conn
7 *20:15 *27:d 75.394836  // $metal1_conn

*END

