*SPEF "IEEE 1481-1999"
*DESIGN  "TBUFX8"
*DATE "Mon Sep 27 11:22:45 2010"
*VENDOR "Cadence Design Systems"
*PROGRAM "Assura RCX"
*VERSION "3.2 Red Hat Linux release 7.2 (Enigma) - (09/09/2009-10:39)"
*DESIGN_FLOW "Physical Verification"
*DIVIDER /
*DELIMITER :
*BUS_DELIMITER []
*T_UNIT 1 PS
*C_UNIT 1e15 FF
*R_UNIT 1 OHM
*L_UNIT 1 MH
// DeviceFingerDelim "@"
// MATCHED
// caps2d version: 10

*NAME_MAP
*1 mp5\@6
*2 mn1\@2
*3 mp5\@7
*4 mp4
*5 mp3
*6 mp3\@1
*7 mp4\@1
*8 mp4\@2
*9 mp3\@2
*10 mp0
*11 mp2\@2
*12 mp1\@2
*13 mp1
*14 VDD
*15 mn2
*16 mn2\@1
*17 mn1
*18 mn5
*19 mn5\@1
*20 mn5\@2
*21 mn5\@3
*22 mp2
*23 mn5\@4
*24 mp2\@1
*25 mn5\@5
*26 mp1\@1
*27 mp5
*28 mp5\@1
*29 mp5\@2
*30 mp5\@3
*31 mp5\@4
*32 mp5\@5
*33 net127
*34 net127\@1
*35 net144
*36 net144\@1
*37 A
*38 net144\@2
*39 mn5\@6
*40 mn5\@7
*41 mn4
*42 mn3
*43 mn3\@1
*44 mn4\@1
*45 VSS
*46 mn4\@2
*47 OEb
*48 Y
*49 mn3\@2
*50 non
*51 mn0
*52 pon
*53 mn2\@2
*54 net127\@2
*55 OE
*56 mn1\@1

*GROUND_NETS VSS

*PORTS
*14 I
*45 I
*37 I
*55 I
*48 O

*D_NET *14 7.31408e-16

*CONN
*P *14 I *C 0.1000 1.7100 
*I *26:s B *C 3.1050 1.0950 
*I *27:s B *C 3.1050 1.0950 
*I *28:s B *C 3.4850 1.0950 
*I *29:s B *C 3.4850 1.0950 
*I *30:s B *C 3.8950 1.0950 
*I *31:s B *C 3.8950 1.0950 
*I *32:s B *C 4.3050 1.0950 
*I *1:s B *C 4.3050 1.0950 
*I *3:s B *C 4.7050 1.0950 
*I *4:s B *C 0.1600 1.1700 
*I *5:s B *C 0.5750 1.1700 
*I *6:s B *C 0.5750 1.1700 
*I *7:s B *C 0.9850 1.1700 
*I *8:s B *C 0.9850 1.1700 
*I *9:s B *C 1.5100 1.1475 
*I *10:s B *C 1.5100 1.1475 
*I *12:s B *C 2.2250 1.1600 
*I *13:s B *C 2.2250 1.1600 
*N *14:3 *C 4.2000 1.7100 
*N *14:8 *C 2.6000 1.7100 
*N *14:9 *C 2.2300 1.7100 

*CAP
0 *12:s 4.86454e-17
1 *9:s 1.31365e-16
2 *3:s 3.05659e-16
3 *14:9 1.48913e-17
4 *14:3 2.28779e-16
5 *14 2.06867e-18

*RES
0 *9:s *14 0.024627  // $metal1_conn
1 *14:3 *3:s 9.375  // $metal1_conn
2 *14:3 *14:8 9.375  // $metal1_conn
3 *14:3 *9:s 8.333333  // $metal1_conn
4 *14:9 *12:s 62.300484  // $metal1_conn
5 *3:s *14:8 0.238048  // $metal1_conn
6 *14:8 *14:9 0.185384  // $metal1_conn
7 *14:9 *9:s 0.402419  // $metal1_conn

*END

*D_NET *45 0

*CONN
*P *45 I *C 0.1000 0.0000 
*I *15:s B *C 2.7550 0.4825 
*I *16:s B *C 2.7550 0.4825 
*I *17:s B *C 3.1550 0.4400 
*I *18:s B *C 3.1550 0.4400 
*I *19:s B *C 3.5350 0.4400 
*I *20:s B *C 3.5350 0.4400 
*I *21:s B *C 3.9450 0.4400 
*I *23:s B *C 3.9450 0.4400 
*I *25:s B *C 4.3550 0.4400 
*I *39:s B *C 4.3550 0.4400 
*I *40:s B *C 4.7550 0.4400 
*I *42:s B *C 0.5750 0.5050 
*I *43:s B *C 0.5750 0.5050 
*I *49:s B *C 1.2700 0.5225 
*I *51:s B *C 1.2700 0.5225 
*I *53:s B *C 1.7650 0.4850 
*I *56:s B *C 2.2725 0.4850 
*I *2:s B *C 2.2725 0.4850 
*N *45:3 *C 4.2000 0.0000 
*N *45:11 *C 1.1600 0.0000 
*N *45:12 *C 0.9000 0.0000 
*N *45:13 *C 0.4600 0.0000 


*RES
0 *45:13 *45 0.180117  // $metal1_conn
1 *45:3 *40:s 7.75  // $metal1_conn
2 *45:3 *40:s 7.75  // $metal1_conn
3 *45:3 *45:12 6.888889  // $metal1_conn
4 *45:11 *49:s 75.317528  // $metal1_conn
5 *45:13 *42:s 75.221405  // $metal1_conn
6 *40:s *45:11 0.259473  // $metal1_conn
7 *45:11 *45:12 0.130211  // $metal1_conn
8 *45:12 *45:13 0.220493  // $metal1_conn

*END

*D_NET *37 1.38317e-15

*CONN
*P *37 I *C 0.7000 0.8550 
*I *17:g B *C 3.0075 0.4825 
*I *42:g B *C 0.3575 0.5050 
*I *43:g B *C 0.6225 0.5050 
*I *49:g B *C 1.0575 0.5075 
*I *56:g B *C 2.0425 0.4850 
*I *2:g B *C 2.3325 0.4850 
*I *26:g B *C 2.9425 1.1600 
*I *5:g B *C 0.4725 1.1700 
*I *6:g B *C 0.6775 1.1700 
*I *9:g B *C 1.2925 1.1700 
*I *12:g B *C 2.0875 1.1600 
*I *13:g B *C 2.3625 1.1600 
*N *37:3 *C 0.6225 0.6875 

*CAP
0 *13:g 4.68843e-17
1 *12:g 7.29675e-17
2 *9:g 4.38465e-16
3 *26:g 7.82366e-17
4 *49:g 8.59851e-17
5 *43:g 3.46541e-17
6 *42:g 6.21257e-17
7 *17:g 5.15995e-16
8 *37:3 2.35767e-17
9 *37 2.42814e-17

*RES
0 *17:g *26:g 122.787354  // $poly_conn
1 *13:g *17:g 128.148102  // $poly_conn
2 *12:g *17:g 117.659149  // $poly_conn
3 *9:g *49:g 104.061646  // $poly_conn
4 *37:3 *43:g 23.847994  // $poly_conn
5 *37:3 *42:g 82.335182  // $poly_conn
6 *9:g *37:3 39.095982  // $poly_conn
7 *37 *9:g 0.013203  // $metal1_conn
8 *9:g *17:g 0.89747  // $metal1_conn

*END

*D_NET *55 7.57997e-16

*CONN
*P *55 I *C 0.3000 0.8550 
*I *41:g B *C 0.2525 0.5050 
*I *44:g B *C 0.7475 0.5050 
*I *46:g B *C 0.9525 0.5075 
*I *51:g B *C 1.3425 0.5225 
*I *4:g B *C 0.2525 1.1700 
*I *7:g B *C 0.8825 1.1700 
*I *8:g B *C 1.0875 1.1700 
*I *10:g B *C 1.5575 1.1475 
*N *55:11 *C 1.3425 0.6925 
*N *55:12 *C 1.2000 0.7000 

*CAP
0 *10:g 6.30026e-17
1 *51:g 3.32117e-17
2 *46:g 4.00294e-17
3 *44:g 4.82485e-17
4 *41:g 5.94731e-17
5 *55:11 2.50906e-17
6 *55:12 8.33344e-17
7 *55 4.05607e-16

*RES
0 *10:g *55:11 137.164749  // $poly_conn
1 *55:11 *51:g 20.300484  // $poly_conn
2 *55 *46:g 24.986431  // $poly_conn
3 *55 *44:g 56.105236  // $poly_conn
4 *55 *41:g 68.409897  // $poly_conn
5 *55:11 *55:12 69.580002  // $poly_conn
6 *55 *55:12 0.194587  // $metal1_conn

*END

*D_NET *48 4.90023e-16

*CONN
*P *48 O *C 3.5000 0.8550 
*I *18:d B *C 3.3300 0.4400 
*I *19:d B *C 3.3300 0.4400 
*I *20:d B *C 3.7400 0.4400 
*I *21:d B *C 3.7400 0.4400 
*I *23:d B *C 4.1500 0.4400 
*I *25:d B *C 4.1500 0.4400 
*I *39:d B *C 4.5600 0.4400 
*I *40:d B *C 4.5600 0.4400 
*I *27:d B *C 3.2800 1.0950 
*I *28:d B *C 3.2800 1.0950 
*I *29:d B *C 3.6900 1.0950 
*I *30:d B *C 3.6900 1.0950 
*I *31:d B *C 4.1000 1.0950 
*I *32:d B *C 4.1000 1.0950 
*I *1:d B *C 4.5100 1.0950 
*I *3:d B *C 4.5100 1.0950 

*CAP
0 *48 4.90023e-16


*END

*D_NET *38 0

*CONN
*I *46:s B *C 1.0050 0.5075 
*I *49:d B *C 1.0050 0.5075 


*RES
0 *49:d *46:s 0.001  // $mwires

*END

*D_NET *36 2.32125e-18

*CONN
*I *43:d B *C 0.6850 0.5050 
*I *44:s B *C 0.6850 0.5050 

*CAP
0 *43:d 2.32125e-18

*RES
0 *44:s *43:d 0.001  // $mwires

*END

*D_NET *35 1.62221e-18

*CONN
*I *41:s B *C 0.3050 0.5050 
*I *42:d B *C 0.3050 0.5050 

*CAP
0 *41:s 1.62221e-18

*RES
0 *42:d *41:s 0.001  // $mwires

*END

*D_NET *34 2.88862e-18

*CONN
*I *24:s B *C 2.8725 1.1600 
*I *26:d B *C 2.8725 1.1600 

*CAP
0 *24:s 2.88862e-18

*RES
0 *26:d *24:s 0.001  // $mwires

*END

*D_NET *33 4.56816e-18

*CONN
*I *22:s B *C 2.4500 1.1600 
*I *13:d B *C 2.4500 1.1600 

*CAP
0 *22:s 4.56816e-18

*RES
0 *13:d *22:s 0.001  // $mwires

*END

*D_NET *54 1.59876e-18

*CONN
*I *11:s B *C 2.0350 1.1600 
*I *12:d B *C 2.0350 1.1600 

*CAP
0 *11:s 1.59876e-18

*RES
0 *12:d *11:s 0.001  // $mwires

*END

*D_NET *52 1.23391e-15

*CONN
*I *41:d B *C 0.1600 0.5050 
*I *44:d B *C 0.8800 0.5075 
*I *46:d B *C 0.8800 0.5075 
*I *27:g B *C 3.1775 1.0950 
*I *28:g B *C 3.3825 1.0950 
*I *29:g B *C 3.5875 1.0950 
*I *30:g B *C 3.7925 1.0950 
*I *31:g B *C 3.9975 1.0950 
*I *32:g B *C 4.2025 1.0950 
*I *1:g B *C 4.4075 1.0950 
*I *3:g B *C 4.6125 1.0950 
*I *4:d B *C 0.3625 1.1700 
*I *5:d B *C 0.3625 1.1700 
*I *6:d B *C 0.7800 1.1700 
*I *7:d B *C 0.7800 1.1700 
*I *8:d B *C 1.1900 1.1700 
*I *9:d B *C 1.1900 1.1700 
*N *52:23 *C 0.1500 0.4950 

*CAP
0 *8:d 4.35268e-16
1 *3:g 5.97464e-16
2 *44:d 9.03918e-17
3 *41:d 1.10789e-16

*RES
0 *3:g *8:d 47.19746  // $metal1_conn
1 *52:23 *44:d 75.519043  // $metal1_conn
2 *41:d *52:23 75  // $metal1_conn
3 *8:d *52:23 0.58472  // $metal1_conn

*END

*D_NET *50 8.57948e-16

*CONN
*I *15:d B *C 2.4350 0.4850 
*I *16:d B *C 2.9050 0.4825 
*I *17:d B *C 2.9050 0.4825 
*I *18:g B *C 3.2275 0.4400 
*I *19:g B *C 3.4325 0.4400 
*I *20:g B *C 3.6375 0.4400 
*I *21:g B *C 3.8425 0.4400 
*I *23:g B *C 4.0475 0.4400 
*I *25:g B *C 4.2525 0.4400 
*I *39:g B *C 4.4575 0.4400 
*I *40:g B *C 4.6625 0.4400 
*I *53:d B *C 1.9275 0.4850 
*I *56:d B *C 1.9275 0.4850 
*I *2:d B *C 2.4350 0.4850 
*I *22:d B *C 2.6700 1.1600 
*I *24:d B *C 2.6700 1.1600 
*I *11:d B *C 1.8900 1.1600 
*N *50:9 *C 3.1500 0.6700 
*N *50:18 *C 2.7550 0.9100 
*N *50:20 *C 2.8450 0.5925 

*CAP
0 *11:d 1.21464e-16
1 *22:d 4.66973e-17
2 *40:g 2.7748e-16
3 *16:d 1.32725e-16
4 *50:20 7.91947e-17
5 *50:18 9.7312e-17
6 *50:9 1.03074e-16

*RES
0 *40:g *50:9 52.434616  // $poly_conn
1 *50:20 *50:9 0.161624  // $metal1_conn
2 *22:d *50:18 62.133701  // $metal1_conn
3 *50:18 *11:d 62.769615  // $metal1_conn
4 *50:18 *50:20 0.253406  // $metal1_conn
5 *50:20 *16:d 0.025397  // $metal1_conn

*END

*D_NET *47 6.61389e-16

*CONN
*I *15:g B *C 2.5375 0.4850 
*I *16:g B *C 2.8025 0.4825 
*I *51:d B *C 1.4875 0.5225 
*I *53:g B *C 1.8125 0.4850 
*I *22:g B *C 2.5375 1.1600 
*I *24:g B *C 2.8025 1.1600 
*I *10:d B *C 1.6500 1.1475 
*I *11:g B *C 1.9825 1.1600 
*N *47:11 *C 1.6300 0.7050 

*CAP
0 *11:g 9.08254e-17
1 *10:d 5.40466e-17
2 *24:g 4.98448e-17
3 *22:g 3.87196e-17
4 *51:d 3.58344e-17
5 *16:g 3.61531e-16
6 *47:11 3.05867e-17

*RES
0 *24:g *16:g 91.796715  // $poly_conn
1 *16:g *22:g 71.658241  // $poly_conn
2 *11:g *16:g 88.648788  // $poly_conn
3 *47:11 *51:d 75.1745  // $metal1_conn
4 *47:11 *10:d 62.269272  // $metal1_conn
5 *16:g *47:11 0.134323  // $metal1_conn

*END

