*SPEF "IEEE 1481-1999"
*DESIGN  "TLATNSRX2"
*DATE "Mon Sep 27 11:27:37 2010"
*VENDOR "Cadence Design Systems"
*PROGRAM "Assura RCX"
*VERSION "3.2 Red Hat Linux release 7.2 (Enigma) - (09/09/2009-10:39)"
*DESIGN_FLOW "Physical Verification"
*DIVIDER /
*DELIMITER :
*BUS_DELIMITER []
*T_UNIT 1 PS
*C_UNIT 1e15 FF
*R_UNIT 1 OHM
*L_UNIT 1 MH
// DeviceFingerDelim "@"
// MATCHED
// caps2d version: 10

*NAME_MAP
*1 mp3
*2 mp5
*3 mp6
*4 mp17
*5 mp16
*6 mp15
*7 mp1
*8 mp2
*9 VDD
*10 mn11
*11 mn10
*12 mn22
*13 mn22\@1
*14 mn20
*15 VSS
*16 mn20\@1
*17 mp10
*18 mn21
*19 mp22
*20 mn21\@1
*21 GN
*22 mp22\@1
*23 mn0
*24 mp20
*25 mp20\@1
*26 mp21
*27 net270
*28 QN
*29 mp21\@1
*30 GNb
*31 mp0
*32 n5
*33 mp11
*34 qint
*35 GNbb
*36 GNbp
*37 net313
*38 net366
*39 net354
*40 net350
*41 net326
*42 RN
*43 net342
*44 D
*45 mn3
*46 mn5
*47 mn6
*48 mn17
*49 mn16
*50 mn15
*51 SN
*52 mn1
*53 mn2
*54 qbint
*55 Q

*GROUND_NETS VSS

*PORTS
*9 I
*15 I
*44 I
*21 I
*42 I
*51 I
*55 O
*28 O

*D_NET *9 6.24263e-16

*CONN
*P *9 I *C 0.1000 1.7100 
*I *17:s B *C 2.9150 1.1150 
*I *19:s B *C 2.9150 1.1150 
*I *22:s B *C 3.3850 1.1150 
*I *24:s B *C 3.3850 1.1150 
*I *25:s B *C 3.8600 1.1150 
*I *26:s B *C 3.8600 1.1150 
*I *29:s B *C 4.4100 1.0275 
*I *31:s B *C 4.4100 1.0275 
*I *33:s B *C 2.5125 1.5700 
*I *1:s B *C 0.4600 1.2975 
*I *2:s B *C 0.4600 1.2975 
*I *5:s B *C 1.5600 1.5700 
*I *6:s B *C 1.9600 1.5700 
*I *7:s B *C 1.9600 1.5700 
*I *8:s B *C 2.5125 1.5700 
*N *9:3 *C 3.6000 1.7100 
*N *9:7 *C 2.6100 1.7100 
*N *9:8 *C 1.9350 1.7100 
*N *9:9 *C 1.5350 1.7100 
*N *9:10 *C 1.2000 1.7100 
*N *9:11 *C 0.4600 1.7100 

*CAP
0 *6:s 1.4496e-17
1 *5:s 2.29656e-17
2 *1:s 3.01584e-17
3 *33:s 1.83329e-17
4 *29:s 1.56336e-16
5 *9:11 1.72871e-17
6 *9:9 1.23221e-17
7 *9:8 2.40196e-17
8 *9:7 1.90225e-17
9 *9:3 3.0141e-16
10 *9 7.91234e-18

*RES
0 *9:11 *9 0.179997  // $metal1_conn
1 *9:3 *29:s 6.25  // $metal1_conn
2 *9:3 *9:10 6.25  // $metal1_conn
3 *9:7 *33:s 62.080212  // $metal1_conn
4 *9:8 *6:s 62.074306  // $metal1_conn
5 *9:9 *5:s 62.045795  // $metal1_conn
6 *9:11 *1:s 62.223812  // $metal1_conn
7 *29:s *9:7 0.109879  // $metal1_conn
8 *9:7 *9:8 0.33794  // $metal1_conn
9 *9:8 *9:9 0.199152  // $metal1_conn
10 *9:9 *9:10 0.166768  // $metal1_conn
11 *9:10 *9:11 0.370716  // $metal1_conn

*END

*D_NET *15 0

*CONN
*P *15 I *C 0.1000 0.0000 
*I *11:s B *C 2.8700 0.5000 
*I *12:s B *C 2.8700 0.5000 
*I *13:s B *C 3.2950 0.5000 
*I *14:s B *C 3.2950 0.5000 
*I *16:s B *C 3.7750 0.5000 
*I *18:s B *C 3.7750 0.5000 
*I *20:s B *C 4.3475 0.5575 
*I *23:s B *C 4.3475 0.5575 
*I *45:s B *C 0.4350 0.4775 
*I *46:s B *C 0.4350 0.4775 
*I *50:s B *C 1.9200 0.4775 
*I *52:s B *C 1.9200 0.4775 
*N *15:3 *C 3.6000 0.0000 
*N *15:7 *C 1.8050 0.0000 
*N *15:8 *C 1.2000 0.0000 
*N *15:9 *C 0.3800 0.0000 


*RES
0 *15:9 *15 0.139898  // $metal1_conn
1 *15:3 *20:s 5.166667  // $metal1_conn
2 *15:3 *15:8 5.166667  // $metal1_conn
3 *15:7 *50:s 75.117203  // $metal1_conn
4 *15:9 *45:s 75.300255  // $metal1_conn
5 *20:s *15:7 0.528408  // $metal1_conn
6 *15:7 *15:8 0.303049  // $metal1_conn
7 *15:8 *15:9 0.410814  // $metal1_conn

*END

*D_NET *44 2.33742e-16

*CONN
*P *44 I *C 0.5000 0.8550 
*I *46:g B *C 0.5625 0.4775 
*I *2:g B *C 0.5625 1.2975 
*N *44:2 *C 0.5250 0.8150 
*N *44:4 *C 0.5125 0.8150 
*N *44:5 *C 0.5250 0.8150 
*N *44:6 *C 0.5125 0.8550 

*CAP
0 *2:g 4.43227e-17
1 *46:g 3.59904e-17
2 *44:6 5.53596e-17
3 *44:4 3.9713e-17
4 *44:2 5.83567e-17

*RES
0 *2:g *44:2 86.668037  // $poly_conn
1 *44:2 *46:g 58.462914  // $poly_conn
2 *44:4 *44:5 0.002943  // $metal1_conn
3 *44 *44:6 0.002825  // $metal1_conn
4 *44:4 *44:6 0.015453  // $metal1_conn
5 *44:2 *44:5 45  // $metal1_conn

*END

*D_NET *21 1.94801e-16

*CONN
*P *21 I *C 4.3000 0.8550 
*I *23:g B *C 4.4375 0.5575 
*I *31:g B *C 4.4575 1.0275 
*N *21:2 *C 4.4475 0.7950 
*N *21:3 *C 4.4000 0.7950 

*CAP
0 *31:g 1.95955e-17
1 *23:g 2.549e-17
2 *21:3 7.1217e-17
3 *21 7.84985e-17

*RES
0 *31:g *21:2 33.145679  // $poly_conn
1 *21:2 *21:3 47.215244  // $poly_conn
2 *21:2 *23:g 43.402088  // $poly_conn
3 *21:3 *21 0.019516  // $metal1_conn

*END

*D_NET *42 3.15622e-16

*CONN
*P *42 I *C 1.9000 0.8550 
*I *50:g B *C 1.7025 0.4775 
*I *52:g B *C 1.9675 0.4775 
*I *6:g B *C 1.8025 1.0275 
*I *7:g B *C 1.9975 1.0275 
*N *42:2 *C 1.8400 0.8200 
*N *42:3 *C 1.8025 0.6475 

*CAP
0 *7:g 3.46355e-17
1 *6:g 2.57463e-17
2 *52:g 4.66516e-17
3 *50:g 4.45057e-17
4 *42:3 2.23837e-17
5 *42:2 1.41699e-16

*RES
0 *7:g *42:2 47.619846  // $poly_conn
1 *42:2 *42:3 30.236835  // $poly_conn
2 *42:3 *50:g 43.19223  // $poly_conn
3 *42:2 *6:g 16.15522  // $poly_conn
4 *42:3 *52:g 59.858898  // $poly_conn
5 *42 *42:2 45.041855  // $metal1_conn

*END

*D_NET *51 2.4571e-16

*CONN
*P *51 I *C 2.7000 0.8550 
*I *11:g B *C 2.6825 0.5275 
*I *17:g B *C 2.6825 1.0750 
*N *51:2 *C 2.7100 0.8100 
*N *51:4 *C 2.7050 0.8100 

*CAP
0 *17:g 3.95438e-17
1 *11:g 6.17278e-17
2 *51:4 3.43411e-17
3 *51:2 3.96745e-17
4 *51 7.04231e-17

*RES
0 *17:g *51:2 19.691952  // $poly_conn
1 *51:2 *11:g 37.640671  // $poly_conn
2 *51:4 *51 0.02797  // $metal1_conn
3 *51:2 *51:4 45  // $metal1_conn

*END

*D_NET *55 1.20702e-16

*CONN
*P *55 O *C 4.1000 0.6650 
*I *18:d B *C 4.0150 0.5000 
*I *20:d B *C 4.0150 0.5000 
*I *26:d B *C 4.0525 1.1150 
*I *29:d B *C 4.0525 1.1150 

*CAP
0 *26:d 6.40878e-17
1 *18:d 1.47257e-17
2 *55 4.1889e-17

*RES
0 *55 *26:d 62.188999  // $metal1_conn
1 *55 *18:d 75.030746  // $metal1_conn

*END

*D_NET *28 9.16812e-17

*CONN
*P *28 O *C 3.1000 0.6650 
*I *12:d B *C 3.0775 0.5000 
*I *13:d B *C 3.0775 0.5000 
*I *19:d B *C 3.0650 1.1150 
*I *22:d B *C 3.0650 1.1150 
*N *28:2 *C 3.0650 0.9800 

*CAP
0 *19:d 4.82991e-17
1 *12:d 2.0578e-17
2 *28 2.28041e-17

*RES
0 *28 *12:d 75.0569  // $metal1_conn
1 *28 *28:2 0.172816  // $metal1_conn
2 *19:d *28:2 62  // $metal1_conn

*END

*D_NET *43 1.46331e-18

*CONN
*I *10:s B *C 2.6300 0.5275 
*I *11:d B *C 2.6300 0.5275 

*CAP
0 *10:s 1.46331e-18

*RES
0 *11:d *10:s 0.001  // $mwires

*END

*D_NET *41 6.47047e-19

*CONN
*I *52:d B *C 2.0250 0.4775 
*I *53:s B *C 2.0250 0.4775 

*CAP
0 *52:d 6.47047e-19

*RES
0 *53:s *52:d 0.001  // $mwires

*END

*D_NET *40 6.0807e-19

*CONN
*I *49:s B *C 1.6500 0.4775 
*I *50:d B *C 1.6500 0.4775 

*CAP
0 *49:s 6.0807e-19

*RES
0 *50:d *49:s 0.001  // $mwires

*END

*D_NET *39 6.60341e-19

*CONN
*I *48:s B *C 1.4400 0.4775 
*I *49:d B *C 1.4400 0.4775 

*CAP
0 *48:s 6.60341e-19

*RES
0 *49:d *48:s 0.001  // $mwires

*END

*D_NET *38 0

*CONN
*I *46:d B *C 0.6850 0.4775 
*I *47:s B *C 0.6850 0.4775 


*RES
0 *47:s *46:d 0.001  // $mwires

*END

*D_NET *37 0

*CONN
*I *2:d B *C 0.7375 1.2975 
*I *3:s B *C 0.7375 1.2975 


*RES
0 *3:s *2:d 0.001  // $mwires

*END

*D_NET *36 6.52558e-16

*CONN
*I *23:d B *C 4.5400 0.5575 
*I *53:g B *C 2.0825 0.4775 
*I *31:d B *C 4.5500 1.0275 
*I *8:g B *C 2.2025 1.0275 
*N *36:1 *C 2.1750 1.3800 
*N *36:5 *C 4.5600 0.9800 

*CAP
0 *8:g 6.50893e-17
1 *31:d 2.30987e-16
2 *53:g 6.19904e-17
3 *23:d 2.72802e-17
4 *36:1 2.67211e-16

*RES
0 *36:1 *8:g 99.307335  // $poly_conn
1 *8:g *53:g 113.813004  // $poly_conn
2 *36:5 *36:1 1.929815  // $metal1_conn
3 *36:5 *23:d 75.29052  // $metal1_conn
4 *31:d *36:5 62  // $metal1_conn

*END

*D_NET *35 8.03024e-16

*CONN
*I *45:g B *C 0.3075 0.4775 
*I *48:g B *C 1.2825 0.4775 
*I *53:d B *C 2.1750 0.4775 
*I *1:g B *C 0.3575 1.2975 
*I *3:g B *C 0.9125 1.2975 
*I *7:d B *C 2.1000 1.0275 
*I *8:d B *C 2.1000 1.0275 
*N *35:2 *C 0.3300 0.6700 
*N *35:5 *C 0.9600 0.8800 
*N *35:7 *C 1.3100 0.6600 
*N *35:9 *C 2.0700 0.6600 
*N *35:10 *C 0.9600 0.6325 

*CAP
0 *7:d 5.06869e-17
1 *3:g 4.08004e-17
2 *1:g 4.78512e-17
3 *53:d 2.51982e-17
4 *48:g 3.36481e-17
5 *45:g 2.27213e-17
6 *35:10 1.14485e-16
7 *35:9 8.92042e-17
8 *35:2 1.32887e-16
9 *35:5 9.50818e-17
10 *35:7 1.5046e-16

*RES
0 *1:g *35:2 122.526878  // $poly_conn
1 *35:2 *45:g 19.962778  // $poly_conn
2 *3:g *35:5 115.680061  // $poly_conn
3 *48:g *35:7 64.691956  // $poly_conn
4 *53:d *35:9 75.19738  // $metal1_conn
5 *35:9 *35:7 0.548968  // $metal1_conn
6 *35:7 *35:10 0.718261  // $metal1_conn
7 *35:10 *35:2 45.43549  // $metal1_conn
8 *35:9 *7:d 62.204674  // $metal1_conn
9 *35:10 *35:5 0.20091  // $metal1_conn

*END

*D_NET *34 7.33854e-16

*CONN
*I *10:d B *C 2.4850 0.5275 
*I *12:g B *C 2.9625 0.5000 
*I *13:g B *C 3.1925 0.5000 
*I *14:g B *C 3.3975 0.5000 
*I *16:g B *C 3.6375 0.5000 
*I *49:g B *C 1.5975 0.4775 
*I *17:d B *C 2.5550 1.0750 
*I *19:g B *C 2.9625 1.1150 
*I *22:g B *C 3.1675 1.1150 
*I *24:g B *C 3.4325 1.1150 
*I *25:g B *C 3.6375 1.1150 
*I *33:d B *C 2.5550 1.0750 
*I *5:g B *C 1.5975 1.0275 
*N *34:3 *C 1.5600 0.3050 
*N *34:18 *C 2.5325 0.6200 
*N *34:20 *C 2.4750 0.4850 

*CAP
0 *5:g 4.92653e-17
1 *25:g 1.17081e-16
2 *22:g 1.77568e-16
3 *17:d 6.00273e-17
4 *49:g 4.89733e-17
5 *10:d 7.69903e-17
6 *34:18 6.44001e-17
7 *34:3 1.39548e-16

*RES
0 *5:g *49:g 94.871796  // $poly_conn
1 *49:g *34:3 61.15522  // $poly_conn
2 *25:g *22:g 47.272049  // $poly_conn
3 *34:20 *34:3 0.833489  // $metal1_conn
4 *34:18 *17:d 62.258175  // $metal1_conn
5 *10:d *34:20 75  // $metal1_conn
6 *22:g *34:18 45.368042  // $metal1_conn
7 *34:18 *34:20 0.135107  // $metal1_conn

*END

*D_NET *32 6.50512e-16

*CONN
*I *10:g B *C 2.5775 0.5275 
*I *47:d B *C 1.0450 0.4775 
*I *48:d B *C 1.0450 0.4775 
*I *33:g B *C 2.4275 1.0750 
*I *3:d B *C 1.0150 1.2975 
*I *4:d B *C 1.0150 1.2975 
*N *32:2 *C 2.4275 0.8200 
*N *32:3 *C 2.3700 0.8200 
*N *32:6 *C 1.0150 1.2500 

*CAP
0 *3:d 2.08506e-16
1 *33:g 4.1039e-17
2 *47:d 1.0834e-16
3 *10:g 6.43948e-17
4 *32:2 2.57e-17
5 *32:3 2.02533e-16

*RES
0 *10:g *32:2 74.564552  // $poly_conn
1 *32:2 *32:3 48.400734  // $poly_conn
2 *32:2 *33:g 15.826773  // $poly_conn
3 *32:3 *32:6 1.389953  // $metal1_conn
4 *32:6 *47:d 75.624657  // $metal1_conn
5 *3:d *32:6 62  // $metal1_conn

*END

*D_NET *30 4.26112e-16

*CONN
*I *45:d B *C 0.2150 0.4775 
*I *47:g B *C 0.8075 0.4775 
*I *1:d B *C 0.2650 1.2975 
*I *4:g B *C 1.1175 1.2975 
*N *30:2 *C 0.7700 0.7850 
*N *30:5 *C 0.2550 1.1550 

*CAP
0 *4:g 7.04922e-17
1 *1:d 1.3172e-17
2 *47:g 2.74196e-17
3 *45:d 6.84163e-17
4 *30:5 9.16629e-17
5 *30:2 1.54949e-16

*RES
0 *4:g *30:2 186.385635  // $poly_conn
1 *30:2 *47:g 50.770603  // $poly_conn
2 *1:d *30:5 62.050503  // $metal1_conn
3 *30:5 *45:d 75.591293  // $metal1_conn
4 *30:5 *30:2 45.613022  // $metal1_conn

*END

*D_NET *27 1.44515e-16

*CONN
*I *4:s B *C 1.2100 1.2975 
*I *5:d B *C 1.7000 1.0275 
*I *6:d B *C 1.7000 1.0275 

*CAP
0 *5:d 5.82819e-17
1 *4:s 8.62326e-17

*RES
0 *5:d *4:s 124.360413  // $metal1_conn

*END

*D_NET *54 2.56042e-16

*CONN
*I *14:d B *C 3.5175 0.5000 
*I *16:d B *C 3.5175 0.5000 
*I *18:g B *C 3.9125 0.5000 
*I *20:g B *C 4.1175 0.5000 
*I *24:d B *C 3.5350 1.1150 
*I *25:d B *C 3.5350 1.1150 
*I *26:g B *C 3.9125 1.1150 
*I *29:g B *C 4.1925 1.1150 
*N *54:7 *C 3.5450 0.8100 

*CAP
0 *29:g 1.78808e-16
1 *24:d 3.36733e-17
2 *14:d 1.84454e-17
3 *54:7 2.51152e-17

*RES
0 *54:7 *24:d 62.107124  // $metal1_conn
1 *54:7 *14:d 75.145149  // $metal1_conn
2 *29:g *54:7 45.180286  // $metal1_conn

*END

