*SPEF "IEEE 1481-1999"
*DESIGN  "TLATNCAX20"
*DATE "Mon Sep 27 11:25:22 2010"
*VENDOR "Cadence Design Systems"
*PROGRAM "Assura RCX"
*VERSION "3.2 Red Hat Linux release 7.2 (Enigma) - (09/09/2009-10:39)"
*DESIGN_FLOW "Physical Verification"
*DIVIDER /
*DELIMITER :
*BUS_DELIMITER []
*T_UNIT 1 PS
*C_UNIT 1e15 FF
*R_UNIT 1 OHM
*L_UNIT 1 MH
// DeviceFingerDelim "@"
// MATCHED
// caps2d version: 10

*NAME_MAP
*1 CK
*2 mp22
*3 mp22\@1
*4 mp22\@2
*5 mp22\@3
*6 mp22\@4
*7 mp22\@5
*8 mp22\@6
*9 mp22\@7
*10 mp22\@8
*11 mn22
*12 mn22\@1
*13 mn22\@2
*14 mn22\@3
*15 mn22\@4
*16 mn22\@5
*17 mn22\@6
*18 mn22\@7
*19 mn22\@8
*20 ECK
*21 mp20
*22 mp22\@9
*23 VSS
*24 mp22\@10
*25 mp22\@11
*26 mp22\@12
*27 mp22\@13
*28 mp22\@14
*29 mp22\@15
*30 mp22\@16
*31 mp21
*32 mp21\@1
*33 mp20\@1
*34 E
*35 mp20\@2
*36 mp21\@2
*37 mp21\@3
*38 mp20\@3
*39 mp20\@4
*40 mp21\@4
*41 mp0
*42 mp5
*43 mn20
*44 mn22\@9
*45 mn22\@10
*46 mn22\@11
*47 mn22\@12
*48 mn22\@13
*49 mp6
*50 mn22\@14
*51 mp16
*52 mn22\@15
*53 mp15
*54 mn22\@16
*55 mp10
*56 mn21
*57 mp10\@1
*58 mp1
*59 mn21\@1
*60 mn20\@1
*61 mn20\@2
*62 mn21\@2
*63 mn21\@3
*64 mn20\@3
*65 mn20\@4
*66 mn21\@4
*67 mn0
*68 mn5
*69 mn6
*70 mn16
*71 mn15
*72 mn10
*73 mn10\@1
*74 mn1
*75 n0
*76 CKb
*77 ECKb
*78 CKbb
*79 VDD
*80 Eint
*81 net217
*82 net205
*83 net254
*84 net230
*85 net238\@1
*86 net238\@2
*87 net238\@3
*88 net238\@4
*89 net238

*GROUND_NETS VSS

*PORTS
*79 I
*23 I
*1 I
*34 I
*20 O

*D_NET *79 1.76212e-15

*CONN
*P *79 I *C 0.1000 1.7100 
*I *2:s B *C 5.9550 1.1750 
*I *3:s B *C 6.3650 1.1750 
*I *4:s B *C 6.3650 1.1750 
*I *5:s B *C 6.7750 1.1750 
*I *6:s B *C 6.7750 1.1750 
*I *7:s B *C 7.1850 1.1750 
*I *8:s B *C 7.1850 1.1750 
*I *9:s B *C 7.6450 1.1725 
*I *10:s B *C 7.6450 1.1725 
*I *21:s B *C 4.3450 1.1750 
*I *22:s B *C 4.3450 1.1750 
*I *24:s B *C 4.7250 1.1750 
*I *25:s B *C 4.7250 1.1750 
*I *26:s B *C 5.1350 1.1750 
*I *27:s B *C 5.1350 1.1750 
*I *28:s B *C 5.5450 1.1750 
*I *29:s B *C 5.5450 1.1750 
*I *30:s B *C 5.9550 1.1750 
*I *31:s B *C 3.9050 1.2100 
*I *32:s B *C 2.1500 1.2100 
*I *33:s B *C 2.5300 1.2100 
*I *35:s B *C 2.5300 1.2100 
*I *36:s B *C 2.9400 1.2100 
*I *37:s B *C 2.9400 1.2100 
*I *38:s B *C 3.4225 1.2100 
*I *39:s B *C 3.4225 1.2100 
*I *40:s B *C 3.9050 1.2100 
*I *41:s B *C 0.4350 1.2225 
*I *42:s B *C 0.4350 1.2225 
*I *53:s B *C 1.3250 1.0950 
*I *55:s B *C 1.3250 1.0950 
*I *57:s B *C 1.7950 1.0075 
*I *58:s B *C 1.7950 1.0075 
*N *79:3 *C 7.0000 1.7100 
*N *79:21 *C 1.0000 1.7100 
*N *79:22 *C 0.4350 1.7100 

*CAP
0 *57:s 7.02545e-17
1 *41:s 4.24279e-17
2 *9:s 1.24498e-15
3 *79:22 1.40906e-17
4 *79:3 3.79116e-16
5 *79 1.12486e-17

*RES
0 *79:22 *79 0.167662  // $metal1_conn
1 *79:3 *9:s 7.5  // $metal1_conn
2 *79:3 *9:s 7.5  // $metal1_conn
3 *79:3 *9:s 7.5  // $metal1_conn
4 *79:3 *79:21 7.5  // $metal1_conn
5 *79:22 *41:s 62.286312  // $metal1_conn
6 *9:s *57:s 0.220408  // $metal1_conn
7 *57:s *79:21 0.105186  // $metal1_conn
8 *79:21 *79:22 0.283331  // $metal1_conn

*END

*D_NET *23 0

*CONN
*P *23 I *C 0.1000 0.0000 
*I *11:s B *C 5.9250 0.5075 
*I *12:s B *C 6.3350 0.5075 
*I *13:s B *C 6.3350 0.5075 
*I *14:s B *C 6.7450 0.5075 
*I *15:s B *C 6.7450 0.5075 
*I *16:s B *C 7.1550 0.5075 
*I *17:s B *C 7.1550 0.5075 
*I *18:s B *C 7.5650 0.5075 
*I *19:s B *C 7.5650 0.5075 
*I *43:s B *C 4.2950 0.5075 
*I *44:s B *C 4.2950 0.5075 
*I *45:s B *C 4.6950 0.5075 
*I *46:s B *C 4.6950 0.5075 
*I *47:s B *C 5.1050 0.5075 
*I *48:s B *C 5.1050 0.5075 
*I *50:s B *C 5.5150 0.5075 
*I *52:s B *C 5.5150 0.5075 
*I *54:s B *C 5.9250 0.5075 
*I *60:s B *C 2.6300 0.4850 
*I *61:s B *C 2.6300 0.4850 
*I *64:s B *C 3.4225 0.4850 
*I *65:s B *C 3.4225 0.4850 
*I *67:s B *C 0.4250 0.3025 
*I *68:s B *C 0.4250 0.3025 
*I *71:s B *C 1.3550 0.5300 
*I *72:s B *C 1.3550 0.5300 
*I *73:s B *C 1.8250 0.5875 
*I *74:s B *C 1.8250 0.5875 
*N *23:3 *C 7.0000 0.0000 
*N *23:13 *C 3.3200 0.0000 
*N *23:14 *C 3.0000 0.0000 
*N *23:15 *C 2.6000 0.0000 
*N *23:18 *C 1.0000 0.0000 
*N *23:19 *C 0.4250 0.0000 


*RES
0 *23:19 *23 0.162644  // $metal1_conn
1 *23:3 *18:s 6.2  // $metal1_conn
2 *23:3 *18:s 6.2  // $metal1_conn
3 *23:3 *23:14 6.2  // $metal1_conn
4 *23:3 *23:18 6.2  // $metal1_conn
5 *23:13 *64:s 75.255913  // $metal1_conn
6 *23:15 *60:s 75.255913  // $metal1_conn
7 *23:19 *67:s 75.178329  // $metal1_conn
8 *18:s *23:13 0.473826  // $metal1_conn
9 *23:13 *23:14 0.160386  // $metal1_conn
10 *23:14 *23:15 0.200531  // $metal1_conn
11 *23:15 *73:s 0.430221  // $metal1_conn
12 *73:s *23:18 0.134344  // $metal1_conn
13 *23:18 *23:19 0.288349  // $metal1_conn

*END

*D_NET *1 2.52744e-16

*CONN
*P *1 I *C 0.3000 1.0450 
*I *67:g B *C 0.3225 0.3025 
*I *41:g B *C 0.3325 1.2225 
*N *1:2 *C 0.2950 1.0150 
*N *1:4 *C 0.2950 1.0150 

*CAP
0 *41:g 3.07033e-17
1 *67:g 5.14502e-17
2 *1:2 5.02116e-17
3 *1 1.20379e-16

*RES
0 *41:g *1:2 16.15522  // $poly_conn
1 *1:2 *67:g 154.61676  // $poly_conn
2 *1:4 *1 0.018712  // $metal1_conn
3 *1:2 *1:4 45  // $metal1_conn

*END

*D_NET *34 3.12128e-16

*CONN
*P *34 I *C 0.5000 1.0450 
*I *68:g B *C 0.5275 0.3025 
*I *42:g B *C 0.5375 1.2225 
*N *34:2 *C 0.5100 0.9800 
*N *34:4 *C 0.5050 0.9800 

*CAP
0 *42:g 3.58511e-17
1 *68:g 9.06969e-17
2 *34:4 9.22996e-17
3 *34:2 6.2745e-17
4 *34 3.05356e-17

*RES
0 *42:g *34:2 23.808931  // $poly_conn
1 *34:2 *68:g 144.321747  // $poly_conn
2 *34:4 *34 0.040542  // $metal1_conn
3 *34:2 *34:4 45  // $metal1_conn

*END

*D_NET *20 1.62974e-15

*CONN
*P *20 O *C 4.5000 0.8550 
*I *11:d B *C 6.1300 0.5075 
*I *12:d B *C 6.1300 0.5075 
*I *13:d B *C 6.5400 0.5075 
*I *14:d B *C 6.5400 0.5075 
*I *15:d B *C 6.9500 0.5075 
*I *16:d B *C 6.9500 0.5075 
*I *17:d B *C 7.3600 0.5075 
*I *18:d B *C 7.3600 0.5075 
*I *19:d B *C 7.7600 0.5075 
*I *44:d B *C 4.4800 0.5075 
*I *45:d B *C 4.4800 0.5075 
*I *46:d B *C 4.9000 0.5075 
*I *47:d B *C 4.9000 0.5075 
*I *48:d B *C 5.3100 0.5075 
*I *50:d B *C 5.3100 0.5075 
*I *52:d B *C 5.7200 0.5075 
*I *54:d B *C 5.7200 0.5075 
*I *2:d B *C 6.1600 1.1750 
*I *3:d B *C 6.1600 1.1750 
*I *4:d B *C 6.5700 1.1750 
*I *5:d B *C 6.5700 1.1750 
*I *6:d B *C 6.9800 1.1750 
*I *7:d B *C 6.9800 1.1750 
*I *8:d B *C 7.3900 1.1750 
*I *9:d B *C 7.3900 1.1750 
*I *10:d B *C 7.7900 1.1725 
*I *22:d B *C 4.5200 1.1750 
*I *24:d B *C 4.5200 1.1750 
*I *25:d B *C 4.9300 1.1750 
*I *26:d B *C 4.9300 1.1750 
*I *27:d B *C 5.3400 1.1750 
*I *28:d B *C 5.3400 1.1750 
*I *29:d B *C 5.7500 1.1750 
*I *30:d B *C 5.7500 1.1750 

*CAP
0 *20 1.62974e-15


*END

*D_NET *89 1.74642e-18

*CONN
*I *43:d B *C 4.0600 0.4850 
*I *56:s B *C 4.0600 0.4850 

*CAP
0 *43:d 1.74642e-18

*RES
0 *56:s *43:d 0.001  // $mwires

*END

*D_NET *88 4.61657e-18

*CONN
*I *65:d B *C 3.7000 0.4850 
*I *66:s B *C 3.7000 0.4850 

*CAP
0 *65:d 4.61657e-18

*RES
0 *66:s *65:d 0.001  // $mwires

*END

*D_NET *87 4.75588e-18

*CONN
*I *63:s B *C 3.1450 0.4850 
*I *64:d B *C 3.1450 0.4850 

*CAP
0 *63:s 4.75588e-18

*RES
0 *64:d *63:s 0.001  // $mwires

*END

*D_NET *86 1.77101e-18

*CONN
*I *61:d B *C 2.7850 0.4850 
*I *62:s B *C 2.7850 0.4850 

*CAP
0 *61:d 1.77101e-18

*RES
0 *62:s *61:d 0.001  // $mwires

*END

*D_NET *85 1.79092e-18

*CONN
*I *59:s B *C 2.4750 0.4850 
*I *60:d B *C 2.4750 0.4850 

*CAP
0 *59:s 1.79092e-18

*RES
0 *60:d *59:s 0.001  // $mwires

*END

*D_NET *84 0

*CONN
*I *70:s B *C 1.0500 0.3025 
*I *71:d B *C 1.0500 0.3025 


*RES
0 *71:d *70:s 0.001  // $mwires

*END

*D_NET *83 0

*CONN
*I *68:d B *C 0.5800 0.3025 
*I *69:s B *C 0.5800 0.3025 


*RES
0 *69:s *68:d 0.001  // $mwires

*END

*D_NET *82 1.66475e-18

*CONN
*I *51:s B *C 1.0500 1.2225 
*I *53:d B *C 1.0500 1.2225 

*CAP
0 *51:s 1.66475e-18

*RES
0 *53:d *51:s 0.001  // $mwires

*END

*D_NET *81 2.15271e-18

*CONN
*I *42:d B *C 0.6625 1.2225 
*I *49:s B *C 0.6625 1.2225 

*CAP
0 *42:d 2.15271e-18

*RES
0 *49:s *42:d 0.001  // $mwires

*END

*D_NET *80 1.56276e-15

*CONN
*I *43:g B *C 4.1125 0.4850 
*I *60:g B *C 2.5275 0.4850 
*I *61:g B *C 2.7325 0.4850 
*I *64:g B *C 3.2475 0.4850 
*I *65:g B *C 3.5975 0.4850 
*I *71:g B *C 1.1375 0.3025 
*I *72:d B *C 1.5050 0.5300 
*I *73:d B *C 1.5050 0.5300 
*I *21:g B *C 4.2125 1.2100 
*I *33:g B *C 2.4275 1.2100 
*I *35:g B *C 2.6325 1.2100 
*I *38:g B *C 3.2475 1.2100 
*I *39:g B *C 3.5975 1.2100 
*I *53:g B *C 1.1075 1.2225 
*I *55:d B *C 1.4750 1.0950 
*I *57:d B *C 1.4750 1.0950 
*N *80:2 *C 1.1800 0.6000 
*N *80:12 *C 3.5975 0.6925 
*N *80:13 *C 3.2750 0.6925 
*N *80:24 *C 1.5350 0.9800 
*N *80:26 *C 1.5050 0.6000 

*CAP
0 *55:d 1.29828e-16
1 *53:g 9.01216e-17
2 *21:g 8.28182e-16
3 *72:d 5.61643e-17
4 *71:g 4.35369e-17
5 *65:g 2.44447e-17
6 *64:g 2.44798e-17
7 *61:g 6.03717e-17
8 *60:g 5.69451e-17
9 *43:g 7.83046e-17
10 *80:13 1.84885e-17
11 *80:12 2.40064e-17
12 *80:2 1.27884e-16

*RES
0 *80:2 *53:g 129.419373  // $poly_conn
1 *21:g *43:g 60.119781  // $poly_conn
2 *80:12 *65:g 18.71979  // $poly_conn
3 *80:13 *64:g 16.623686  // $poly_conn
4 *61:g *21:g 83.006393  // $poly_conn
5 *21:g *60:g 60.988419  // $poly_conn
6 *71:g *80:2 46.885853  // $poly_conn
7 *80:13 *21:g 18.645283  // $poly_conn
8 *21:g *80:12 60.516506  // $poly_conn
9 *80:12 *80:13 68.221161  // $poly_conn
10 *80:26 *80:2 45.218117  // $metal1_conn
11 *80:24 *55:d 62.032761  // $metal1_conn
12 *72:d *80:26 75  // $metal1_conn
13 *21:g *80:24 0.998607  // $metal1_conn
14 *80:24 *80:26 0.234828  // $metal1_conn

*END

*D_NET *78 1.38412e-15

*CONN
*I *56:g B *C 4.0075 0.4850 
*I *59:g B *C 2.4225 0.4850 
*I *62:g B *C 2.8375 0.4850 
*I *63:g B *C 3.0425 0.4850 
*I *66:g B *C 3.8025 0.4850 
*I *70:g B *C 0.9625 0.3025 
*I *74:d B *C 1.9650 0.5875 
*I *31:g B *C 4.0075 1.2100 
*I *32:g B *C 2.2225 1.2100 
*I *36:g B *C 2.8375 1.2100 
*I *37:g B *C 3.0425 1.2100 
*I *40:g B *C 3.8025 1.2100 
*I *49:g B *C 0.7875 1.2225 
*I *58:d B *C 1.9350 1.0075 
*N *78:2 *C 0.9900 0.4850 
*N *78:21 *C 1.9750 0.7350 
*N *78:23 *C 1.9750 0.5750 

*CAP
0 *58:d 4.41037e-17
1 *49:g 7.32803e-17
2 *31:g 7.64879e-16
3 *74:d 7.03733e-17
4 *70:g 2.86155e-17
5 *66:g 2.42631e-17
6 *63:g 2.3798e-17
7 *62:g 4.44769e-17
8 *59:g 5.48815e-17
9 *56:g 4.53293e-17
10 *78:21 3.04652e-17
11 *78:2 1.7965e-16

*RES
0 *78:2 *49:g 186.069061  // $poly_conn
1 *31:g *56:g 18.71979  // $poly_conn
2 *31:g *66:g 21.224049  // $poly_conn
3 *31:g *63:g 20.001841  // $poly_conn
4 *31:g *62:g 19.719322  // $poly_conn
5 *59:g *31:g 19.094143  // $poly_conn
6 *70:g *78:2 19.691952  // $poly_conn
7 *78:23 *78:2 45.776688  // $metal1_conn
8 *78:21 *58:d 62.160439  // $metal1_conn
9 *74:d *78:23 75  // $metal1_conn
10 *31:g *78:21 0.303333  // $metal1_conn
11 *78:21 *78:23 0.107496  // $metal1_conn

*END

*D_NET *77 1.77831e-15

*CONN
*I *11:g B *C 6.0275 0.5075 
*I *12:g B *C 6.2325 0.5075 
*I *13:g B *C 6.4375 0.5075 
*I *14:g B *C 6.6425 0.5075 
*I *15:g B *C 6.8475 0.5075 
*I *16:g B *C 7.0525 0.5075 
*I *17:g B *C 7.2575 0.5075 
*I *18:g B *C 7.4625 0.5075 
*I *19:g B *C 7.6675 0.5075 
*I *44:g B *C 4.3675 0.5075 
*I *45:g B *C 4.5925 0.5075 
*I *46:g B *C 4.7975 0.5075 
*I *47:g B *C 5.0025 0.5075 
*I *48:g B *C 5.2075 0.5075 
*I *50:g B *C 5.4125 0.5075 
*I *52:g B *C 5.6175 0.5075 
*I *54:g B *C 5.8225 0.5075 
*I *56:d B *C 3.9050 0.4850 
*I *59:d B *C 2.3300 0.4850 
*I *62:d B *C 2.9400 0.4850 
*I *63:d B *C 2.9400 0.4850 
*I *66:d B *C 3.9050 0.4850 
*I *2:g B *C 6.0575 1.1750 
*I *3:g B *C 6.2625 1.1750 
*I *4:g B *C 6.4675 1.1750 
*I *5:g B *C 6.6725 1.1750 
*I *6:g B *C 6.8775 1.1750 
*I *7:g B *C 7.0825 1.1750 
*I *8:g B *C 7.2875 1.1750 
*I *9:g B *C 7.4925 1.1750 
*I *10:g B *C 7.6975 1.1725 
*I *21:d B *C 4.1100 1.2100 
*I *22:g B *C 4.4175 1.1750 
*I *24:g B *C 4.6225 1.1750 
*I *25:g B *C 4.8275 1.1750 
*I *26:g B *C 5.0325 1.1750 
*I *27:g B *C 5.2375 1.1750 
*I *28:g B *C 5.4425 1.1750 
*I *29:g B *C 5.6475 1.1750 
*I *30:g B *C 5.8525 1.1750 
*I *31:d B *C 4.1100 1.2100 
*I *32:d B *C 2.3250 1.2100 
*I *33:d B *C 2.3250 1.2100 
*I *35:d B *C 2.7350 1.2100 
*I *36:d B *C 2.7350 1.2100 
*I *37:d B *C 3.1450 1.2100 
*I *38:d B *C 3.1450 1.2100 
*I *39:d B *C 3.7000 1.2100 
*I *40:d B *C 3.7000 1.2100 
*N *77:70 *C 4.3300 0.7600 
*N *77:72 *C 3.9050 0.5450 
*N *77:74 *C 2.9400 0.5550 

*CAP
0 *21:d 5.77036e-16
1 *10:g 8.62703e-16
2 *62:d 1.55462e-16
3 *59:d 7.92868e-17
4 *56:d 1.03825e-16

*RES
0 *56:d *77:72 75  // $metal1_conn
1 *62:d *77:74 75  // $metal1_conn
2 *77:74 *59:d 75.480247  // $metal1_conn
3 *10:g *77:70 45  // $metal1_conn
4 *21:d *77:70 0.38209  // $metal1_conn
5 *77:70 *77:72 0.384862  // $metal1_conn
6 *77:72 *77:74 0.721862  // $metal1_conn

*END

*D_NET *76 8.83466e-16

*CONN
*I *67:d B *C 0.2300 0.3025 
*I *69:g B *C 0.6325 0.3025 
*I *74:g B *C 1.8725 0.5875 
*I *41:d B *C 0.2400 1.2225 
*I *51:g B *C 0.9925 1.2225 
*I *58:g B *C 1.8425 1.0075 
*N *76:2 *C 0.6700 0.6550 
*N *76:4 *C 0.9650 1.4400 
*N *76:7 *C 1.8700 1.2800 
*N *76:8 *C 0.9650 1.3650 
*N *76:9 *C 0.2200 0.4800 

*CAP
0 *58:g 2.91167e-17
1 *51:g 6.70969e-17
2 *41:d 7.87247e-17
3 *74:g 4.58942e-17
4 *69:g 5.3936e-17
5 *67:d 1.82271e-17
6 *76:9 1.04986e-16
7 *76:8 1.29637e-16
8 *76:2 1.92982e-16
9 *76:4 4.791e-17
10 *76:7 1.14955e-16

*RES
0 *69:g *76:2 107.309067  // $poly_conn
1 *51:g *76:4 64.691956  // $poly_conn
2 *74:g *58:g 68.698082  // $poly_conn
3 *58:g *76:7 78.794518  // $poly_conn
4 *76:7 *76:8 0.692672  // $metal1_conn
5 *76:8 *76:2 0.752881  // $metal1_conn
6 *76:2 *76:9 0.454754  // $metal1_conn
7 *76:9 *67:d 75.09243  // $metal1_conn
8 *76:8 *76:4 0.036713  // $metal1_conn
9 *76:9 *41:d 62.676468  // $metal1_conn

*END

*D_NET *75 4.00172e-16

*CONN
*I *69:d B *C 0.7975 0.3025 
*I *70:d B *C 0.7975 0.3025 
*I *72:g B *C 1.4025 0.5300 
*I *73:g B *C 1.6075 0.5300 
*I *49:d B *C 0.8900 1.2225 
*I *51:d B *C 0.8900 1.2225 
*I *55:g B *C 1.3725 1.0950 
*I *57:g B *C 1.5775 1.0950 
*N *75:8 *C 0.8900 0.8050 

*CAP
0 *57:g 2.14806e-16
1 *49:d 3.90155e-17
2 *69:d 5.94925e-17
3 *75:8 8.68578e-17

*RES
0 *57:g *75:8 45.33297  // $metal1_conn
1 *75:8 *69:d 75.400307  // $metal1_conn
2 *75:8 *49:d 62.254902  // $metal1_conn

*END

