*SPEF "IEEE 1481-1999"
*DESIGN  "TLATNCAX2"
*DATE "Mon Sep 27 11:24:59 2010"
*VENDOR "Cadence Design Systems"
*PROGRAM "Assura RCX"
*VERSION "3.2 Red Hat Linux release 7.2 (Enigma) - (09/09/2009-10:39)"
*DESIGN_FLOW "Physical Verification"
*DIVIDER /
*DELIMITER :
*BUS_DELIMITER []
*T_UNIT 1 PS
*C_UNIT 1e15 FF
*R_UNIT 1 OHM
*L_UNIT 1 MH
// DeviceFingerDelim "@"
// MATCHED
// caps2d version: 10

*NAME_MAP
*1 VDD
*2 E
*3 mp5
*4 mp10
*5 CKb
*6 net205
*7 net217
*8 net238
*9 net230
*10 net254
*11 n0
*12 ECKb
*13 CKbb
*14 ECK
*15 Eint
*16 CK
*17 VSS
*18 mp0
*19 mp22
*20 mp22\@1
*21 mp1
*22 mp21
*23 mp20
*24 mp15
*25 mn0
*26 mp16
*27 mn22
*28 mp6
*29 mn22\@1
*30 mn1
*31 mn21
*32 mn20
*33 mn15
*34 mn5
*35 mn16
*36 mn10
*37 mn6

*GROUND_NETS VSS

*PORTS
*1 I
*17 I
*16 I
*2 I
*14 O

*D_NET *1 3.81088e-16

*CONN
*P *1 I *C 0.1000 1.7100 
*I *18:s B *C 0.5700 1.0950 
*I *19:s B *C 0.5700 1.0950 
*I *20:s B *C 0.9800 1.4400 
*I *21:s B *C 0.9800 1.4400 
*I *22:s B *C 1.4700 1.1675 
*I *23:s B *C 1.9400 1.1675 
*I *24:s B *C 1.9400 1.1675 
*I *3:s B *C 2.7600 1.1675 
*I *4:s B *C 2.7600 1.1675 
*N *1:2 *C 2.4000 1.7100 
*N *1:3 *C 2.4000 1.7100 
*N *1:4 *C 1.8550 1.7100 
*N *1:5 *C 1.3850 1.7100 

*CAP
0 *3:s 3.29307e-17
1 *23:s 1.07328e-17
2 *22:s 9.91356e-18
3 *20:s 6.77357e-17
4 *1:5 1.48695e-17
5 *1:4 1.70748e-17
6 *1:2 2.23648e-16
7 *1 4.18239e-18

*RES
0 *20:s *1 0.192239  // $metal1_conn
1 *1:2 *1:3 9.375  // $metal1_conn
2 *1:2 *20:s 9.375  // $metal1_conn
3 *3:s *1:3 62.496056  // $metal1_conn
4 *1:4 *23:s 62.073994  // $metal1_conn
5 *1:5 *22:s 62.073994  // $metal1_conn
6 *1:3 *1:4 0.272566  // $metal1_conn
7 *1:4 *1:5 0.234834  // $metal1_conn
8 *1:5 *20:s 0.229829  // $metal1_conn

*END

*D_NET *17 0

*CONN
*P *17 I *C 0.1000 0.0000 
*I *25:s B *C 0.4950 0.5100 
*I *27:s B *C 0.4950 0.5100 
*I *29:s B *C 1.0100 0.5675 
*I *30:s B *C 1.0100 0.5675 
*I *32:s B *C 1.8500 0.5825 
*I *33:s B *C 1.8500 0.5825 
*I *34:s B *C 2.8450 0.5825 
*I *36:s B *C 2.8450 0.5825 
*N *17:2 *C 1.7550 0.0000 
*N *17:4 *C 0.8000 0.0000 
*N *17:7 *C 2.4000 0.0000 


*RES
0 *29:s *17 0.192239  // $metal1_conn
1 *17:4 *29:s 7.75  // $metal1_conn
2 *17:4 *17:7 7.75  // $metal1_conn
3 *17:7 *34:s 75.294861  // $metal1_conn
4 *32:s *17:2 75.074211  // $metal1_conn
5 *17:2 *29:s 0.429611  // $metal1_conn
6 *17:2 *17:7 0.322203  // $metal1_conn

*END

*D_NET *16 1.84634e-16

*CONN
*P *16 I *C 0.5000 0.6650 
*I *25:g B *C 0.3525 0.5675 
*I *18:g B *C 0.3525 1.0075 
*N *16:1 *C 0.4100 0.7400 
*N *16:2 *C 0.3525 0.7400 

*CAP
0 *18:g 2.06207e-17
1 *25:g 2.73981e-17
2 *16:2 2.56786e-17
3 *16:1 7.66423e-17
4 *16 3.42949e-17

*RES
0 *16:1 *16:2 45.794373  // $poly_conn
1 *16:2 *25:g 20.563484  // $poly_conn
2 *16:2 *18:g 35.948097  // $poly_conn
3 *16 *16:1 0.036342  // $metal1_conn

*END

*D_NET *2 2.07307e-16

*CONN
*P *2 I *C 2.7000 0.8550 
*I *34:g B *C 2.6075 0.5825 
*I *3:g B *C 2.6075 1.1675 
*N *2:2 *C 2.6450 0.8750 

*CAP
0 *3:g 3.60836e-17
1 *34:g 3.65407e-17
2 *2:2 1.07973e-16
3 *2 2.67092e-17

*RES
0 *3:g *2:2 37.950092  // $poly_conn
1 *2:2 *34:g 46.92445  // $poly_conn
2 *2 *2:2 45.010876  // $metal1_conn

*END

*D_NET *14 8.75717e-17

*CONN
*P *14 O *C 0.7000 0.6650 
*I *27:d B *C 0.6900 0.5100 
*I *29:d B *C 0.6900 0.5100 
*I *19:d B *C 0.7200 1.0950 
*I *20:d B *C 0.7200 1.0950 

*CAP
0 *19:d 4.53832e-17
1 *27:d 2.07362e-17
2 *14 2.14524e-17

*RES
0 *14 *19:d 62.174614  // $metal1_conn
1 *14 *27:d 75.050812  // $metal1_conn

*END

*D_NET *10 5.79403e-18

*CONN
*I *37:s B *C 2.4650 0.5825 
*I *34:d B *C 2.4650 0.5825 

*CAP
0 *37:s 5.79403e-18

*RES
0 *34:d *37:s 0.001  // $mwires

*END

*D_NET *9 0

*CONN
*I *33:d B *C 1.9975 0.5825 
*I *35:s B *C 1.9975 0.5825 


*RES
0 *35:s *33:d 0.001  // $mwires

*END

*D_NET *8 0

*CONN
*I *31:s B *C 1.5700 0.5825 
*I *32:d B *C 1.5700 0.5825 


*RES
0 *32:d *31:s 0.001  // $mwires

*END

*D_NET *7 2.16579e-18

*CONN
*I *28:s B *C 2.5225 1.1675 
*I *3:d B *C 2.5225 1.1675 

*CAP
0 *28:s 2.16579e-18

*RES
0 *3:d *28:s 0.001  // $mwires

*END

*D_NET *6 2.13272e-18

*CONN
*I *24:d B *C 2.0900 1.1675 
*I *26:s B *C 2.0900 1.1675 

*CAP
0 *24:d 2.13272e-18

*RES
0 *26:s *24:d 0.001  // $mwires

*END

*D_NET *5 6.7217e-16

*CONN
*I *25:d B *C 0.2600 0.5675 
*I *30:g B *C 1.0875 0.5675 
*I *37:g B *C 2.3225 0.5825 
*I *18:d B *C 0.2600 1.0075 
*I *21:g B *C 1.0875 1.0075 
*I *26:g B *C 2.1925 1.1675 
*N *5:3 *C 1.1150 1.2800 
*N *5:6 *C 2.1550 1.3750 
*N *5:8 *C 0.2500 1.0550 

*CAP
0 *26:g 5.85284e-17
1 *21:g 4.45618e-17
2 *18:d 1.00315e-16
3 *37:g 6.93681e-17
4 *30:g 4.21185e-17
5 *25:d 3.97608e-17
6 *5:3 2.01631e-16
7 *5:6 1.15887e-16

*RES
0 *21:g *30:g 66.666664  // $poly_conn
1 *21:g *5:3 78.794518  // $poly_conn
2 *37:g *26:g 125.351456  // $poly_conn
3 *26:g *5:6 61.15522  // $poly_conn
4 *5:6 *5:3 0.789791  // $metal1_conn
5 *5:3 *5:8 0.738841  // $metal1_conn
6 *5:8 *25:d 75.34269  // $metal1_conn
7 *18:d *5:8 62  // $metal1_conn

*END

*D_NET *15 5.33136e-16

*CONN
*I *32:g B *C 1.6225 0.5825 
*I *33:g B *C 1.9075 0.5825 
*I *36:d B *C 3.0475 0.5825 
*I *23:g B *C 1.7225 1.1675 
*I *24:g B *C 1.9875 1.1675 
*I *4:d B *C 3.0050 1.1675 
*N *15:2 *C 1.9075 0.7525 
*N *15:3 *C 1.7225 0.7525 
*N *15:6 *C 1.9450 0.3800 
*N *15:10 *C 3.1000 0.5700 

*CAP
0 *4:d 3.95427e-17
1 *24:g 4.78488e-17
2 *23:g 3.71213e-17
3 *36:d 1.63517e-16
4 *33:g 1.4987e-17
5 *32:g 4.07436e-17
6 *15:3 2.78148e-17
7 *15:2 2.81577e-17
8 *15:6 1.33403e-16

*RES
0 *24:g *15:2 86.378937  // $poly_conn
1 *15:2 *15:3 41.584377  // $poly_conn
2 *15:3 *32:g 43.575005  // $poly_conn
3 *15:2 *33:g 23.847994  // $poly_conn
4 *33:g *15:6 68.847527  // $poly_conn
5 *15:3 *23:g 74.146645  // $poly_conn
6 *4:d *15:10 62.436172  // $metal1_conn
7 *15:10 *15:6 0.959985  // $metal1_conn
8 *36:d *15:10 75  // $metal1_conn

*END

*D_NET *13 5.53056e-16

*CONN
*I *30:d B *C 1.1925 0.5675 
*I *31:g B *C 1.5175 0.5825 
*I *35:g B *C 2.0875 0.5825 
*I *21:d B *C 1.2575 0.9600 
*I *22:g B *C 1.5175 1.1675 
*I *28:g B *C 2.4375 1.1675 
*N *13:2 *C 1.4900 0.8950 
*N *13:5 *C 2.0600 0.8200 
*N *13:7 *C 2.3250 0.9250 
*N *13:8 *C 2.0600 0.8950 
*N *13:9 *C 1.4900 0.8950 
*N *13:10 *C 1.2450 0.8950 

*CAP
0 *28:g 4.32577e-17
1 *22:g 4.14897e-17
2 *21:d 2.84489e-17
3 *35:g 5.75047e-17
4 *31:g 4.87357e-17
5 *30:d 4.65317e-17
6 *13:10 3.58542e-17
7 *13:8 3.67752e-17
8 *13:2 7.48463e-17
9 *13:5 5.73118e-17
10 *13:7 8.23001e-17

*RES
0 *22:g *13:2 33.794518  // $poly_conn
1 *13:2 *31:g 53.025284  // $poly_conn
2 *35:g *13:5 78.794518  // $poly_conn
3 *28:g *13:7 83.446335  // $poly_conn
4 *13:5 *13:8 0.037056  // $metal1_conn
5 *13:8 *13:9 0.396993  // $metal1_conn
6 *13:9 *13:10 0.151307  // $metal1_conn
7 *13:10 *30:d 75.232101  // $metal1_conn
8 *13:8 *13:7 0.181091  // $metal1_conn
9 *13:10 *21:d 62.034595  // $metal1_conn
10 *13:2 *13:9 45  // $metal1_conn

*END

*D_NET *12 5.00114e-16

*CONN
*I *27:g B *C 0.5875 0.5100 
*I *29:g B *C 0.7925 0.5100 
*I *31:d B *C 1.4250 0.5825 
*I *19:g B *C 0.6175 1.0950 
*I *20:g B *C 0.8225 1.0950 
*I *22:d B *C 1.6200 1.1675 
*I *23:d B *C 1.6200 1.1675 
*N *12:6 *C 0.9100 0.8000 
*N *12:10 *C 1.0550 0.8000 

*CAP
0 *22:d 1.15513e-16
1 *20:g 1.34238e-16
2 *31:d 7.05091e-17
3 *12:10 1.45591e-16
4 *12:6 3.42635e-17

*RES
0 *20:g *12:6 50.980305  // $poly_conn
1 *12:10 *12:6 0.07537  // $metal1_conn
2 *22:d *12:10 62.679813  // $metal1_conn
3 *12:10 *31:d 75.666161  // $metal1_conn

*END

*D_NET *11 3.78881e-16

*CONN
*I *35:d B *C 2.2050 0.5825 
*I *37:d B *C 2.2050 0.5825 
*I *36:g B *C 2.9125 0.5825 
*I *26:d B *C 2.3150 1.1675 
*I *28:d B *C 2.3150 1.1675 
*I *4:g B *C 2.9125 1.1675 
*N *11:2 *C 2.9400 0.7650 
*N *11:4 *C 2.4850 0.5700 

*CAP
0 *4:g 2.75966e-17
1 *26:d 6.17209e-17
2 *36:g 2.55275e-17
3 *35:d 4.35531e-17
4 *11:4 1.1358e-16
5 *11:2 1.06903e-16

*RES
0 *4:g *11:2 67.127846  // $poly_conn
1 *11:2 *36:g 19.691952  // $poly_conn
2 *11:2 *11:4 45.51329  // $metal1_conn
3 *11:4 *35:d 75.135277  // $metal1_conn
4 *11:4 *26:d 62.478714  // $metal1_conn

*END

