*SPEF "IEEE 1481-1999"
*DESIGN  "TLATNX2"
*DATE "Mon Sep 27 11:32:10 2010"
*VENDOR "Cadence Design Systems"
*PROGRAM "Assura RCX"
*VERSION "3.2 Red Hat Linux release 7.2 (Enigma) - (09/09/2009-10:39)"
*DESIGN_FLOW "Physical Verification"
*DIVIDER /
*DELIMITER :
*BUS_DELIMITER []
*T_UNIT 1 PS
*C_UNIT 1e15 FF
*R_UNIT 1 OHM
*L_UNIT 1 MH
// DeviceFingerDelim "@"
// MATCHED
// caps2d version: 10

*NAME_MAP
*1 D
*2 mn6
*3 GN
*4 mn16
*5 mn15
*6 Q
*7 mp6
*8 mn10
*9 VDD
*10 mp16
*11 mp15
*12 VSS
*13 mp10
*14 n0
*15 GNb
*16 net220
*17 net212
*18 net257
*19 net245
*20 mn0
*21 mn22
*22 mn22\@1
*23 Qbint
*24 mn20
*25 GNbb
*26 mn20\@1
*27 Qint
*28 mn21
*29 mn21\@1
*30 QN
*31 mn1
*32 mn5
*33 mp0
*34 mp22
*35 mp22\@1
*36 mp20
*37 mp20\@1
*38 mp21
*39 mp21\@1
*40 mp1
*41 mp5

*GROUND_NETS VSS

*PORTS
*9 I
*12 I
*1 I
*3 I
*6 O
*30 O

*D_NET *9 5.9701e-16

*CONN
*P *9 I *C 0.1000 1.7100 
*I *33:s B *C 2.1150 1.0950 
*I *34:s B *C 2.1150 1.0950 
*I *35:s B *C 2.4950 1.0950 
*I *36:s B *C 2.4950 1.0950 
*I *37:s B *C 2.9050 1.0950 
*I *38:s B *C 2.9050 1.0950 
*I *39:s B *C 3.3300 1.0950 
*I *40:s B *C 0.4400 1.1675 
*I *41:s B *C 0.4400 1.1675 
*I *11:s B *C 1.4200 1.2150 
*I *13:s B *C 1.4200 1.2150 
*N *9:3 *C 2.7000 1.7100 
*N *9:7 *C 1.3350 1.7100 
*N *9:8 *C 0.9000 1.7100 
*N *9:9 *C 0.4400 1.7100 

*CAP
0 *11:s 1.85824e-17
1 *40:s 3.78719e-17
2 *39:s 3.08456e-16
3 *9:9 9.00508e-18
4 *9:7 2.27757e-17
5 *9:3 1.91939e-16
6 *9 8.37904e-18

*RES
0 *9:9 *9 0.170057  // $metal1_conn
1 *9:3 *39:s 8.333333  // $metal1_conn
2 *9:3 *9:8 8.333333  // $metal1_conn
3 *9:7 *11:s 62.045818  // $metal1_conn
4 *9:9 *40:s 62.311516  // $metal1_conn
5 *39:s *9:7 0.344681  // $metal1_conn
6 *9:7 *9:8 0.216999  // $metal1_conn
7 *9:8 *9:9 0.230486  // $metal1_conn

*END

*D_NET *12 0

*CONN
*P *12 I *C 0.1000 0.0000 
*I *20:s B *C 2.1400 0.4500 
*I *21:s B *C 2.1400 0.4500 
*I *22:s B *C 2.4950 0.4500 
*I *24:s B *C 2.4950 0.4500 
*I *26:s B *C 2.9050 0.4500 
*I *28:s B *C 2.9050 0.4500 
*I *29:s B *C 3.3300 0.4500 
*I *31:s B *C 0.4375 0.3775 
*I *32:s B *C 0.4375 0.3775 
*I *5:s B *C 1.3600 0.4075 
*I *8:s B *C 1.3600 0.4075 
*N *12:3 *C 2.7000 0.0000 
*N *12:7 *C 1.3050 0.0000 
*N *12:8 *C 0.9000 0.0000 
*N *12:9 *C 0.4350 0.0000 


*RES
0 *12:9 *12 0.16755  // $metal1_conn
1 *12:3 *29:s 6.888889  // $metal1_conn
2 *12:3 *12:8 6.888889  // $metal1_conn
3 *12:7 *5:s 75.227783  // $metal1_conn
4 *12:9 *31:s 75.229218  // $metal1_conn
5 *29:s *12:7 0.37477  // $metal1_conn
6 *12:7 *12:8 0.202905  // $metal1_conn
7 *12:8 *12:9 0.232993  // $metal1_conn

*END

*D_NET *1 2.90221e-16

*CONN
*P *1 I *C 0.3000 0.8550 
*I *32:g B *C 0.5425 0.3775 
*I *41:g B *C 0.5425 1.1675 
*N *1:2 *C 0.5050 0.7150 

*CAP
0 *41:g 5.16179e-17
1 *32:g 6.36257e-17
2 *1:2 1.16844e-16
3 *1 5.81338e-17

*RES
0 *41:g *1:2 78.975731  // $poly_conn
1 *1:2 *32:g 58.462914  // $poly_conn
2 *1 *1:2 45.172756  // $metal1_conn

*END

*D_NET *3 1.8335e-16

*CONN
*P *3 I *C 1.9000 0.6650 
*I *20:g B *C 1.9225 0.5075 
*I *33:g B *C 1.9225 1.0075 
*N *3:2 *C 1.8850 0.6800 
*N *3:4 *C 1.8850 0.6800 

*CAP
0 *33:g 3.54163e-17
1 *20:g 3.14306e-17
2 *3:2 3.14233e-17
3 *3 8.50799e-17

*RES
0 *33:g *3:2 46.92445  // $poly_conn
1 *3:2 *20:g 16.15522  // $poly_conn
2 *3:4 *3 0.003656  // $metal1_conn
3 *3:2 *3:4 45  // $metal1_conn

*END

*D_NET *6 1.45773e-16

*CONN
*P *6 O *C 3.3000 0.6650 
*I *28:d B *C 3.1225 0.4500 
*I *29:d B *C 3.1225 0.4500 
*I *38:d B *C 3.1225 1.0950 
*I *39:d B *C 3.1225 1.0950 
*N *6:1 *C 3.1450 0.6650 

*CAP
0 *38:d 7.77115e-17
1 *28:d 1.26668e-17
2 *6:1 2.58133e-17
3 *6 2.95811e-17

*RES
0 *6 *6:1 0.075915  // $metal1_conn
1 *6:1 *38:d 20.926115  // $metal1_conn
2 *6:1 *28:d 75.088417  // $metal1_conn

*END

*D_NET *30 1.35965e-16

*CONN
*P *30 O *C 2.3000 0.6650 
*I *21:d B *C 2.2900 0.4500 
*I *22:d B *C 2.2900 0.4500 
*I *34:d B *C 2.2900 1.0950 
*I *35:d B *C 2.2900 1.0950 

*CAP
0 *34:d 7.95211e-17
1 *21:d 2.91436e-17
2 *30 2.73002e-17

*RES
0 *30 *34:d 20.924707  // $metal1_conn
1 *30 *21:d 75.090706  // $metal1_conn

*END

*D_NET *19 6.98765e-18

*CONN
*I *4:s B *C 1.0275 0.3775 
*I *5:d B *C 1.0275 0.3775 

*CAP
0 *4:s 6.98765e-18

*RES
0 *5:d *4:s 0.001  // $mwires

*END

*D_NET *18 0

*CONN
*I *32:d B *C 0.5950 0.3775 
*I *2:s B *C 0.5950 0.3775 


*RES
0 *2:s *32:d 0.001  // $mwires

*END

*D_NET *17 2.79341e-19

*CONN
*I *10:s B *C 1.1500 1.1675 
*I *11:d B *C 1.1500 1.1675 

*CAP
0 *10:s 2.79341e-19

*RES
0 *11:d *10:s 0.001  // $mwires

*END

*D_NET *16 0

*CONN
*I *41:d B *C 0.6375 1.1675 
*I *7:s B *C 0.6375 1.1675 


*RES
0 *7:s *41:d 0.001  // $mwires

*END

*D_NET *15 9.55908e-16

*CONN
*I *20:d B *C 1.8300 0.5075 
*I *31:g B *C 0.3325 0.3775 
*I *2:g B *C 0.6475 0.3775 
*I *33:d B *C 1.8300 1.0075 
*I *40:g B *C 0.3375 1.1675 
*I *10:g B *C 1.0975 1.1675 
*N *15:2 *C 0.3050 0.5850 
*N *15:5 *C 0.6950 0.5850 
*N *15:7 *C 0.9600 0.9500 
*N *15:10 *C 1.8200 1.0550 

*CAP
0 *10:g 6.69543e-17
1 *40:g 4.57653e-17
2 *33:d 1.99656e-16
3 *2:g 5.98449e-17
4 *31:g 2.80784e-17
5 *20:d 9.47243e-17
6 *15:2 9.36583e-17
7 *15:5 1.54419e-16
8 *15:7 2.12807e-16

*RES
0 *40:g *15:2 112.246674  // $poly_conn
1 *15:2 *31:g 26.102209  // $poly_conn
2 *2:g *15:5 71.820488  // $poly_conn
3 *10:g *15:7 72.586876  // $poly_conn
4 *20:d *15:10 75.581909  // $metal1_conn
5 *15:10 *15:7 1.338055  // $metal1_conn
6 *15:7 *15:5 0.400101  // $metal1_conn
7 *15:5 *15:2 45.267212  // $metal1_conn
8 *33:d *15:10 62  // $metal1_conn

*END

*D_NET *14 4.26992e-16

*CONN
*I *2:d B *C 0.7500 0.3775 
*I *4:d B *C 0.7500 0.3775 
*I *8:g B *C 1.4325 0.4075 
*I *7:d B *C 0.9150 1.1675 
*I *10:d B *C 0.9150 1.1675 
*I *13:g B *C 1.4675 1.2150 
*N *14:2 *C 1.4275 0.6100 
*N *14:3 *C 1.3450 0.6100 
*N *14:5 *C 1.1200 0.6100 

*CAP
0 *13:g 6.53098e-17
1 *7:d 8.84092e-17
2 *8:g 3.37153e-17
3 *2:d 6.62204e-17
4 *14:5 1.01081e-16
5 *14:2 2.31936e-17
6 *14:3 4.90625e-17

*RES
0 *13:g *14:2 115.122452  // $poly_conn
1 *14:2 *14:3 50.568272  // $poly_conn
2 *14:2 *8:g 17.3778  // $poly_conn
3 *14:3 *14:5 0.141917  // $metal1_conn
4 *14:5 *2:d 75.411827  // $metal1_conn
5 *14:5 *7:d 62.543777  // $metal1_conn

*END

*D_NET *27 7.69182e-16

*CONN
*I *21:g B *C 2.1875 0.4500 
*I *22:g B *C 2.3925 0.4500 
*I *24:g B *C 2.5975 0.4500 
*I *26:g B *C 2.8025 0.4500 
*I *5:g B *C 1.2025 0.3775 
*I *8:d B *C 1.5250 0.4075 
*I *34:g B *C 2.1875 1.0950 
*I *35:g B *C 2.3925 1.0950 
*I *36:g B *C 2.5975 1.0950 
*I *37:g B *C 2.8025 1.0950 
*I *11:g B *C 1.2025 1.1675 
*I *13:d B *C 1.6100 1.2475 
*N *27:1 *C 1.2800 0.9500 
*N *27:2 *C 1.2025 0.9500 
*N *27:10 *C 2.1300 0.6800 
*N *27:19 *C 1.5350 0.3650 
*N *27:20 *C 1.5350 0.9200 

*CAP
0 *13:d 3.81996e-17
1 *11:g 6.08943e-17
2 *37:g 1.25557e-16
3 *35:g 1.04789e-16
4 *8:d 1.13453e-16
5 *5:g 5.89898e-17
6 *27:20 6.63705e-17
7 *27:2 6.23731e-17
8 *27:1 2.98696e-17
9 *27:10 1.08687e-16

*RES
0 *27:2 *11:g 21.534737  // $poly_conn
1 *27:2 *5:g 121.534737  // $poly_conn
2 *35:g *27:10 48.256718  // $poly_conn
3 *27:1 *27:2 47.445099  // $poly_conn
4 *37:g *35:g 48.231998  // $poly_conn
5 *27:10 *27:19 0.66965  // $metal1_conn
6 *27:20 *27:1 0.152533  // $metal1_conn
7 *8:d *27:19 75  // $metal1_conn
8 *27:20 *13:d 62.191284  // $metal1_conn
9 *27:19 *27:20 0.415672  // $metal1_conn

*END

*D_NET *25 3.882e-16

*CONN
*I *31:d B *C 0.2400 0.3775 
*I *4:g B *C 0.8525 0.3775 
*I *40:d B *C 0.2450 1.1675 
*I *7:g B *C 0.7325 1.1675 
*N *25:2 *C 0.7700 0.8950 
*N *25:4 *C 0.2350 1.0250 

*CAP
0 *7:g 3.19771e-17
1 *40:d 1.23085e-17
2 *4:g 4.71628e-17
3 *31:d 6.8497e-17
4 *25:4 9.967e-17
5 *25:2 1.28584e-16

*RES
0 *4:g *25:2 110.963928  // $poly_conn
1 *25:2 *7:g 32.821884  // $poly_conn
2 *25:2 *25:4 45.473141  // $metal1_conn
3 *25:4 *31:d 75.655136  // $metal1_conn
4 *25:4 *40:d 62.049442  // $metal1_conn

*END

*D_NET *23 2.86541e-16

*CONN
*I *24:d B *C 2.7000 0.4500 
*I *26:d B *C 2.7000 0.4500 
*I *28:g B *C 3.0075 0.4500 
*I *29:g B *C 3.2375 0.4500 
*I *36:d B *C 2.7000 1.0950 
*I *37:d B *C 2.7000 1.0950 
*I *38:g B *C 3.0075 1.0950 
*I *39:g B *C 3.2375 1.0950 
*N *23:4 *C 2.9450 0.6800 
*N *23:8 *C 2.7000 0.6800 

*CAP
0 *39:g 1.20562e-16
1 *36:d 7.51597e-17
2 *24:d 1.5718e-17
3 *23:8 2.51151e-17
4 *23:4 4.99865e-17

*RES
0 *39:g *23:4 48.756718  // $poly_conn
1 *23:4 *23:8 0.150814  // $metal1_conn
2 *23:8 *36:d 20.966295  // $metal1_conn
3 *23:8 *24:d 75.107285  // $metal1_conn

*END

