*SPEF "IEEE 1481-1999"
*DESIGN  "TLATNTSCAX2"
*DATE "Mon Sep 27 11:29:31 2010"
*VENDOR "Cadence Design Systems"
*PROGRAM "Assura RCX"
*VERSION "3.2 Red Hat Linux release 7.2 (Enigma) - (09/09/2009-10:39)"
*DESIGN_FLOW "Physical Verification"
*DIVIDER /
*DELIMITER :
*BUS_DELIMITER []
*T_UNIT 1 PS
*C_UNIT 1e15 FF
*R_UNIT 1 OHM
*L_UNIT 1 MH
// DeviceFingerDelim "@"
// MATCHED
// caps2d version: 10

*NAME_MAP
*1 E
*2 SE
*3 CK
*4 mn5
*5 mn16
*6 mn15
*7 mp5
*8 VDD
*9 mp16
*10 mp15
*11 VSS
*12 n5
*13 CKb
*14 CKbb
*15 net246
*16 net234
*17 net263
*18 net271
*19 mn3
*20 mn10
*21 mn20
*22 ECKb
*23 mn21
*24 Eint
*25 mn22
*26 Eb
*27 mn22\@1
*28 mn1
*29 mn0
*30 mn2
*31 ECK
*32 mp3
*33 mp10
*34 mp20
*35 mp21
*36 mp22
*37 mp22\@1
*38 mp1
*39 mp0
*40 mp2

*GROUND_NETS VSS

*PORTS
*8 I
*11 I
*3 I
*1 I
*2 I
*31 O

*D_NET *8 6.0176e-16

*CONN
*P *8 I *C 0.1000 1.7100 
*I *32:s B *C 1.8575 1.3475 
*I *33:s B *C 2.6250 1.0225 
*I *34:s B *C 2.6250 1.0225 
*I *35:s B *C 3.1150 1.0950 
*I *36:s B *C 3.1150 1.0950 
*I *37:s B *C 3.4850 1.0950 
*I *39:s B *C 0.5550 1.2225 
*I *40:s B *C 0.5550 1.2225 
*I *10:s B *C 1.8575 1.3475 
*N *8:3 *C 2.9000 1.7100 
*N *8:4 *C 2.9000 1.7100 
*N *8:5 *C 2.6400 1.7100 
*N *8:6 *C 1.6700 1.7100 
*N *8:7 *C 1.0000 1.7100 
*N *8:8 *C 0.5500 1.7100 

*CAP
0 *39:s 4.12313e-17
1 *37:s 1.01257e-16
2 *33:s 4.87639e-17
3 *32:s 3.20603e-17
4 *8:8 1.55217e-17
5 *8:6 4.48605e-17
6 *8:5 4.44064e-17
7 *8:3 2.62494e-16
8 *8 1.11641e-17

*RES
0 *8:8 *8 0.225333  // $metal1_conn
1 *8:3 *8:4 8.333333  // $metal1_conn
2 *8:3 *8:7 7.5  // $metal1_conn
3 *8:5 *33:s 62.431728  // $metal1_conn
4 *8:6 *32:s 62.09745  // $metal1_conn
5 *8:8 *39:s 62.285301  // $metal1_conn
6 *37:s *8:4 0.092625  // $metal1_conn
7 *8:4 *8:5 0.130255  // $metal1_conn
8 *8:5 *8:6 0.48629  // $metal1_conn
9 *8:6 *8:7 0.335966  // $metal1_conn
10 *8:7 *8:8 0.225584  // $metal1_conn

*END

*D_NET *11 0

*CONN
*P *11 I *C 0.1000 0.0000 
*I *19:s B *C 1.8525 0.5725 
*I *20:s B *C 2.6950 0.5875 
*I *21:s B *C 2.6950 0.5875 
*I *25:s B *C 3.1800 0.5300 
*I *27:s B *C 3.5250 0.5300 
*I *28:s B *C 0.1350 0.3025 
*I *29:s B *C 0.5550 0.3025 
*I *30:s B *C 0.5550 0.3025 
*I *6:s B *C 1.8525 0.5725 
*N *11:3 *C 2.9000 0.0000 
*N *11:4 *C 2.9000 0.0000 
*N *11:5 *C 2.7000 0.0000 
*N *11:6 *C 1.7600 0.0000 
*N *11:7 *C 1.0000 0.0000 
*N *11:8 *C 0.5500 0.0000 


*RES
0 *11 *28:s 75.181412  // $metal1_conn
1 *11:8 *11 0.225891  // $metal1_conn
2 *11:3 *11:4 6.888889  // $metal1_conn
3 *11:3 *11:7 6.2  // $metal1_conn
4 *11:5 *20:s 75.074944  // $metal1_conn
5 *11:6 *19:s 75.433693  // $metal1_conn
6 *11:8 *29:s 75.183197  // $metal1_conn
7 *27:s *11:4 0.097642  // $metal1_conn
8 *11:4 *11:5 0.100151  // $metal1_conn
9 *11:5 *11:6 0.471238  // $metal1_conn
10 *11:6 *11:7 0.381122  // $metal1_conn
11 *11:7 *11:8 0.225584  // $metal1_conn

*END

*D_NET *3 2.6016e-16

*CONN
*P *3 I *C 0.7000 0.6650 
*I *30:g B *C 0.6625 0.3025 
*I *40:g B *C 0.6625 1.2225 
*N *3:2 *C 0.6900 0.6700 
*N *3:4 *C 0.6900 0.6700 

*CAP
0 *40:g 4.95741e-17
1 *30:g 3.74715e-17
2 *3:2 4.76089e-17
3 *3 1.25506e-16

*RES
0 *40:g *3:2 105.589386  // $poly_conn
1 *3:2 *30:g 67.127846  // $poly_conn
2 *3 *3:4 0.003117  // $metal1_conn
3 *3:2 *3:4 45  // $metal1_conn

*END

*D_NET *1 2.76555e-16

*CONN
*P *1 I *C 0.1000 0.6650 
*I *28:g B *C 0.2275 0.3025 
*I *38:g B *C 0.3425 1.2225 
*N *1:2 *C 0.2275 0.5700 
*N *1:3 *C 0.1700 0.5700 
*N *1:5 *C 0.1350 0.5700 
*N *1:6 *C 0.1350 0.6650 

*CAP
0 *38:g 8.8273e-17
1 *28:g 2.80377e-17
2 *1:6 6.57852e-17
3 *1:5 2.92915e-17
4 *1:2 5.52949e-17
5 *1:3 9.87247e-18

*RES
0 *38:g *1:2 156.615829  // $poly_conn
1 *1:2 *1:3 48.400734  // $poly_conn
2 *1:2 *28:g 40.185745  // $poly_conn
3 *1:5 *1:3 0.005139  // $metal1_conn
4 *1 *1:6 0.005066  // $metal1_conn
5 *1:5 *1:6 0.041039  // $metal1_conn

*END

*D_NET *2 3.29199e-16

*CONN
*P *2 I *C 0.5000 0.6650 
*I *29:g B *C 0.4475 0.3025 
*I *39:g B *C 0.4475 1.2225 
*N *2:2 *C 0.4900 0.6600 
*N *2:4 *C 0.4900 0.6600 

*CAP
0 *39:g 8.38591e-17
1 *29:g 3.91155e-17
2 *2:2 2.06224e-16

*RES
0 *39:g *2:2 105.860214  // $poly_conn
1 *2:2 *29:g 62.27047  // $poly_conn
2 *2:4 *2 0.003117  // $metal1_conn
3 *2:2 *2:4 45  // $metal1_conn

*END

*D_NET *31 1.38037e-16

*CONN
*P *31 O *C 3.3000 0.4750 
*I *25:d B *C 3.3300 0.5300 
*I *27:d B *C 3.3300 0.5300 
*I *36:d B *C 3.2900 1.0950 
*I *37:d B *C 3.2900 1.0950 

*CAP
0 *36:d 9.34619e-17
1 *31 4.45752e-17

*RES
0 *36:d *31 21.039856  // $metal1_conn
1 *31 *25:d 75.002808  // $metal1_conn

*END

*D_NET *18 0

*CONN
*I *21:d B *C 2.8025 0.5875 
*I *23:s B *C 2.8025 0.5875 


*RES
0 *23:s *21:d 0.001  // $mwires

*END

*D_NET *17 1.06229e-18

*CONN
*I *5:s B *C 1.6375 0.5725 
*I *6:d B *C 1.6375 0.5725 

*CAP
0 *5:s 1.06229e-18

*RES
0 *6:d *5:s 0.001  // $mwires

*END

*D_NET *16 2.66262e-18

*CONN
*I *9:s B *C 1.5150 1.3475 
*I *10:d B *C 1.5150 1.3475 

*CAP
0 *9:s 2.66262e-18

*RES
0 *10:d *9:s 0.001  // $mwires

*END

*D_NET *15 0

*CONN
*I *38:s B *C 0.3950 1.2225 
*I *39:d B *C 0.3950 1.2225 


*RES
0 *39:d *38:s 0.001  // $mwires

*END

*D_NET *14 8.01005e-16

*CONN
*I *19:d B *C 2.1200 0.5725 
*I *23:g B *C 2.8625 0.5875 
*I *5:g B *C 1.5475 0.5725 
*I *32:d B *C 2.0700 1.3475 
*I *35:g B *C 2.9475 1.0225 
*I *7:g B *C 1.2575 1.3475 
*N *14:2 *C 1.5850 0.8800 
*N *14:6 *C 2.8900 0.4050 
*N *14:8 *C 2.1800 0.5850 
*N *14:9 *C 1.5850 0.8800 

*CAP
0 *7:g 7.05028e-17
1 *35:g 5.5474e-17
2 *32:d 1.17685e-16
3 *5:g 3.09209e-17
4 *23:g 4.68356e-17
5 *19:d 1.60023e-16
6 *14:2 2.24614e-16
7 *14:6 9.4949e-17

*RES
0 *5:g *14:2 50.770603  // $poly_conn
1 *14:2 *7:g 152.266846  // $poly_conn
2 *35:g *23:g 75.351456  // $poly_conn
3 *23:g *14:6 64.691956  // $poly_conn
4 *14:6 *14:8 0.615848  // $metal1_conn
5 *14:8 *14:9 0.711998  // $metal1_conn
6 *14:9 *32:d 62.609097  // $metal1_conn
7 *19:d *14:8 75  // $metal1_conn
8 *14:2 *14:9 45  // $metal1_conn

*END

*D_NET *13 8.94053e-16

*CONN
*I *19:g B *C 1.9775 0.5725 
*I *30:d B *C 0.7550 0.3025 
*I *4:g B *C 1.1325 0.5725 
*I *32:g B *C 1.9775 1.3475 
*I *40:d B *C 0.8075 1.2225 
*I *9:g B *C 1.4625 1.3475 
*N *13:2 *C 1.1600 0.2600 
*N *13:4 *C 1.4250 1.0400 
*N *13:7 *C 1.9500 0.3900 
*N *13:8 *C 1.3950 0.2600 
*N *13:9 *C 0.8700 0.2900 

*CAP
0 *9:g 7.00601e-17
1 *40:d 1.11658e-16
2 *32:g 5.50968e-17
3 *4:g 2.16087e-17
4 *30:d 2.29303e-17
5 *19:g 3.71593e-17
6 *13:9 8.6498e-17
7 *13:8 1.15628e-16
8 *13:2 5.03764e-17
9 *13:4 1.44166e-16
10 *13:7 1.78871e-16

*RES
0 *4:g *13:2 98.025284  // $poly_conn
1 *9:g *13:4 86.796242  // $poly_conn
2 *32:g *19:g 152.564102  // $poly_conn
3 *19:g *13:7 64.691956  // $poly_conn
4 *13:7 *13:8 1.127383  // $metal1_conn
5 *13:8 *13:2 0.178668  // $metal1_conn
6 *13:2 *13:9 0.223024  // $metal1_conn
7 *13:9 *30:d 75.055336  // $metal1_conn
8 *13:8 *13:4 0.594473  // $metal1_conn
9 *13:9 *40:d 62.675465  // $metal1_conn

*END

*D_NET *12 5.43016e-16

*CONN
*I *20:g B *C 2.5075 0.5875 
*I *4:s B *C 1.3400 0.5725 
*I *5:d B *C 1.3400 0.5725 
*I *33:g B *C 2.5075 1.0225 
*I *7:d B *C 1.3600 1.3475 
*I *9:d B *C 1.3600 1.3475 
*N *12:2 *C 2.4800 1.2900 
*N *12:5 *C 1.3600 1.3000 

*CAP
0 *7:d 2.21097e-16
1 *33:g 3.06325e-17
2 *4:s 1.03811e-16
3 *20:g 4.28836e-17
4 *12:2 1.44592e-16

*RES
0 *33:g *12:2 77.512466  // $poly_conn
1 *33:g *20:g 65.384613  // $poly_conn
2 *12:2 *12:5 1.053384  // $metal1_conn
3 *12:5 *4:s 75.646111  // $metal1_conn
4 *7:d *12:5 62  // $metal1_conn

*END

*D_NET *26 5.01704e-16

*CONN
*I *28:d B *C 0.3375 0.3025 
*I *29:d B *C 0.3375 0.3025 
*I *4:d B *C 1.0400 0.5725 
*I *38:d B *C 0.2500 1.2225 
*I *7:s B *C 1.1250 1.3475 
*N *26:2 *C 0.3300 1.0800 
*N *26:5 *C 1.0750 1.3950 

*CAP
0 *7:s 1.43674e-16
1 *38:d 9.80975e-18
2 *4:d 1.10061e-16
3 *28:d 8.08434e-17
4 *26:2 1.57315e-16

*RES
0 *28:d *26:2 75.584  // $metal1_conn
1 *26:2 *38:d 62.129486  // $metal1_conn
2 *26:2 *26:5 0.724991  // $metal1_conn
3 *26:5 *4:d 75.669266  // $metal1_conn
4 *7:s *26:5 62  // $metal1_conn

*END

*D_NET *24 5.66867e-16

*CONN
*I *20:d B *C 2.4025 0.5875 
*I *21:g B *C 2.7425 0.5875 
*I *6:g B *C 1.7275 0.5725 
*I *33:d B *C 2.4150 1.0225 
*I *34:g B *C 2.7425 1.0225 
*I *10:g B *C 1.5675 1.3475 
*N *24:2 *C 1.7275 1.0400 
*N *24:4 *C 1.8050 1.0400 
*N *24:6 *C 2.7150 0.7700 
*N *24:8 *C 2.3800 0.7700 
*N *24:10 *C 2.4050 1.0700 

*CAP
0 *10:g 7.30471e-17
1 *34:g 3.40669e-17
2 *33:d 5.8805e-17
3 *6:g 4.99623e-17
4 *21:g 4.94175e-17
5 *20:d 2.94535e-17
6 *24:8 3.59465e-17
7 *24:2 5.43864e-17
8 *24:4 1.13548e-16
9 *24:6 6.82341e-17

*RES
0 *6:g *24:2 91.510422  // $poly_conn
1 *24:2 *10:g 79.607521  // $poly_conn
2 *24:2 *24:4 50.347412  // $poly_conn
3 *34:g *24:6 28.666313  // $poly_conn
4 *24:6 *21:g 19.691952  // $poly_conn
5 *24:6 *24:8 45.211777  // $metal1_conn
6 *24:8 *24:10 0.225513  // $metal1_conn
7 *24:8 *20:d 75.123741  // $metal1_conn
8 *24:10 *24:4 0.451699  // $metal1_conn
9 *33:d *24:10 62  // $metal1_conn

*END

*D_NET *22 2.35286e-16

*CONN
*I *23:d B *C 2.9550 0.5875 
*I *25:g B *C 3.2275 0.5300 
*I *27:g B *C 3.4325 0.5300 
*I *34:d B *C 2.8450 1.0225 
*I *35:d B *C 2.8450 1.0225 
*I *36:g B *C 3.1875 1.0950 
*I *37:g B *C 3.3925 1.0950 
*N *22:5 *C 3.1000 0.7850 
*N *22:9 *C 2.9500 0.7950 

*CAP
0 *37:g 1.17639e-16
1 *34:d 3.07191e-17
2 *23:d 2.6883e-17
3 *22:9 2.45315e-17
4 *22:5 3.55134e-17

*RES
0 *37:g *22:5 50.79977  // $poly_conn
1 *22:5 *22:9 0.056263  // $metal1_conn
2 *22:9 *23:d 75.112358  // $metal1_conn
3 *22:9 *34:d 62.131451  // $metal1_conn

*END

