*SPEF "IEEE 1481-1999"
*DESIGN  "TLATNCAX3"
*DATE "Mon Sep 27 11:25:44 2010"
*VENDOR "Cadence Design Systems"
*PROGRAM "Assura RCX"
*VERSION "3.2 Red Hat Linux release 7.2 (Enigma) - (09/09/2009-10:39)"
*DESIGN_FLOW "Physical Verification"
*DIVIDER /
*DELIMITER :
*BUS_DELIMITER []
*T_UNIT 1 PS
*C_UNIT 1e15 FF
*R_UNIT 1 OHM
*L_UNIT 1 MH
// DeviceFingerDelim "@"
// MATCHED
// caps2d version: 10

*NAME_MAP
*1 CKb
*2 n0
*3 ECKb
*4 Eint
*5 E
*6 mn10
*7 mn21
*8 mn20
*9 mp0
*10 mn22
*11 mp1
*12 mn22\@1
*13 mp5
*14 mn22\@2
*15 mp6
*16 mn0
*17 mp16
*18 mn1
*19 mp15
*20 mn5
*21 mp10
*22 mp21
*23 mp20
*24 mp22
*25 mp22\@1
*26 mp22\@2
*27 VDD
*28 mn6
*29 mn16
*30 mn15
*31 CKbb
*32 net217
*33 ECK
*34 net205
*35 net254
*36 net230
*37 net238
*38 CK
*39 VSS

*GROUND_NETS VSS

*PORTS
*27 I
*39 I
*38 I
*5 I
*33 O

*D_NET *27 4.6861e-16

*CONN
*P *27 I *C 0.1000 1.7100 
*I *9:s B *C 0.1650 1.0075 
*I *11:s B *C 0.7950 1.3025 
*I *13:s B *C 0.7950 1.3025 
*I *19:s B *C 1.6000 1.3025 
*I *21:s B *C 1.6000 1.3025 
*I *22:s B *C 2.2650 1.2050 
*I *23:s B *C 2.6650 1.2050 
*I *24:s B *C 2.6650 1.2050 
*I *25:s B *C 3.0750 1.2050 
*I *26:s B *C 3.0750 1.2050 
*N *27:3 *C 2.6000 1.7100 
*N *27:4 *C 2.6000 1.7100 
*N *27:5 *C 2.2250 1.7100 
*N *27:6 *C 1.6000 1.7100 
*N *27:7 *C 0.9000 1.7100 
*N *27:8 *C 0.7950 1.7100 
*N *27:9 *C 0.1550 1.7100 

*CAP
0 *25:s 1.2215e-16
1 *22:s 2.94877e-17
2 *19:s 2.38648e-17
3 *11:s 2.79429e-17
4 *9:s 2.83395e-17
5 *27:9 8.13657e-18
6 *27:8 1.35861e-17
7 *27:6 2.11165e-17
8 *27:5 9.78543e-18
9 *27:3 1.84201e-16

*RES
0 *27:9 *27 0.027111  // $metal1_conn
1 *27:3 *27:4 9.375  // $metal1_conn
2 *27:3 *27:7 8.333333  // $metal1_conn
3 *27:5 *22:s 62.224316  // $metal1_conn
4 *27:6 *19:s 62.220181  // $metal1_conn
5 *27:8 *11:s 62.220181  // $metal1_conn
6 *27:9 *9:s 62.41592  // $metal1_conn
7 *25:s *27:4 0.032372  // $metal1_conn
8 *27:4 *27:5 0.187735  // $metal1_conn
9 *27:5 *27:6 0.312826  // $metal1_conn
10 *27:6 *27:7 0.350608  // $metal1_conn
11 *27:7 *27:8 0.052425  // $metal1_conn
12 *27:8 *27:9 0.320343  // $metal1_conn

*END

*D_NET *39 0

*CONN
*P *39 I *C 0.1000 0.0000 
*I *6:s B *C 1.7700 0.5025 
*I *8:s B *C 2.6650 0.5300 
*I *10:s B *C 2.6650 0.5300 
*I *12:s B *C 3.0750 0.5300 
*I *14:s B *C 3.0750 0.5300 
*I *16:s B *C 0.2100 0.5875 
*I *18:s B *C 0.9650 0.5025 
*I *20:s B *C 0.9650 0.5025 
*I *30:s B *C 1.7700 0.5025 
*N *39:2 *C 2.6000 0.0000 
*N *39:4 *C 1.6850 0.0000 
*N *39:5 *C 0.9000 0.0000 
*N *39:6 *C 0.1950 0.0000 


*RES
0 *39:6 *39 0.047163  // $metal1_conn
1 *39:2 *12:s 7.75  // $metal1_conn
2 *39:2 *39:5 6.888889  // $metal1_conn
3 *39:4 *6:s 75.074203  // $metal1_conn
4 *39:5 *18:s 75.217087  // $metal1_conn
5 *39:6 *16:s 75.074203  // $metal1_conn
6 *12:s *39:4 0.458355  // $metal1_conn
7 *39:4 *39:5 0.393205  // $metal1_conn
8 *39:5 *39:6 0.353114  // $metal1_conn

*END

*D_NET *38 1.42889e-16

*CONN
*P *38 I *C 0.1000 0.4750 
*I *16:g B *C 0.2575 0.5875 
*I *9:g B *C 0.2575 1.0075 
*N *38:2 *C 0.2575 0.7600 
*N *38:3 *C 0.2000 0.7600 

*CAP
0 *9:g 2.5002e-17
1 *16:g 1.62654e-17
2 *38:2 1.1044e-17
3 *38:3 4.10396e-17
4 *38 4.95379e-17

*RES
0 *9:g *38:2 33.14275  // $poly_conn
1 *38:2 *38:3 45.794373  // $poly_conn
2 *38:2 *16:g 22.886339  // $poly_conn
3 *38:3 *38 0.189301  // $metal1_conn

*END

*D_NET *5 3.43795e-16

*CONN
*P *5 I *C 0.7000 0.8550 
*I *20:g B *C 1.0125 0.5025 
*I *13:g B *C 0.8975 1.3025 
*N *5:2 *C 0.8250 0.8750 

*CAP
0 *13:g 7.27091e-17
1 *20:g 5.75869e-17
2 *5:2 1.44407e-16
3 *5 6.9092e-17

*RES
0 *20:g *5:2 97.607513  // $poly_conn
1 *5:2 *13:g 74.292412  // $poly_conn
2 *5 *5:2 45.067719  // $metal1_conn

*END

*D_NET *33 2.18517e-16

*CONN
*P *33 O *C 2.9000 0.8550 
*I *10:d B *C 2.8700 0.5300 
*I *12:d B *C 2.8700 0.5300 
*I *14:d B *C 3.2700 0.5300 
*I *24:d B *C 2.8700 1.2050 
*I *25:d B *C 2.8700 1.2050 
*I *26:d B *C 3.2700 1.2050 

*CAP
0 *26:d 1.27162e-16
1 *10:d 6.61601e-17
2 *33 2.51953e-17

*RES
0 *33 *10:d 0.187294  // $metal1_conn
1 *26:d *33 0.112604  // $metal1_conn

*END

*D_NET *37 1.63531e-18

*CONN
*I *7:s B *C 2.5100 0.5300 
*I *8:d B *C 2.5100 0.5300 

*CAP
0 *7:s 1.63531e-18

*RES
0 *8:d *7:s 0.001  // $mwires

*END

*D_NET *36 0

*CONN
*I *29:s B *C 1.5000 0.5025 
*I *30:d B *C 1.5000 0.5025 


*RES
0 *30:d *29:s 0.001  // $mwires

*END

*D_NET *35 2.23579e-18

*CONN
*I *20:d B *C 1.1275 0.5025 
*I *28:s B *C 1.1275 0.5025 

*CAP
0 *20:d 2.23579e-18

*RES
0 *28:s *20:d 0.001  // $mwires

*END

*D_NET *34 2.41748e-18

*CONN
*I *17:s B *C 1.3725 1.3025 
*I *19:d B *C 1.3725 1.3025 

*CAP
0 *17:s 2.41748e-18

*RES
0 *19:d *17:s 0.001  // $mwires

*END

*D_NET *32 0

*CONN
*I *13:d B *C 0.9500 1.3025 
*I *15:s B *C 0.9500 1.3025 


*RES
0 *15:s *13:d 0.001  // $mwires

*END

*D_NET *31 9.44806e-16

*CONN
*I *7:g B *C 2.4575 0.5300 
*I *18:d B *C 0.6550 0.5025 
*I *29:g B *C 1.4475 0.5025 
*I *11:d B *C 0.6000 1.3025 
*I *15:g B *C 1.0025 1.3025 
*I *22:g B *C 2.3575 1.2050 
*N *31:2 *C 1.0400 0.9950 
*N *31:4 *C 1.4200 0.2700 
*N *31:6 *C 2.3200 0.7850 
*N *31:8 *C 2.3200 0.7850 
*N *31:9 *C 1.1550 0.5200 

*CAP
0 *22:g 4.26682e-17
1 *15:g 6.41211e-17
2 *11:d 6.34729e-17
3 *29:g 7.65394e-17
4 *18:d 6.99862e-17
5 *7:g 5.37766e-17
6 *31:9 9.91372e-17
7 *31:2 1.49482e-16
8 *31:4 1.54434e-16
9 *31:6 1.71188e-16

*RES
0 *15:g *31:2 86.796242  // $poly_conn
1 *29:g *31:4 77.512466  // $poly_conn
2 *7:g *31:6 43.292484  // $poly_conn
3 *31:6 *22:g 48.206497  // $poly_conn
4 *31:4 *31:8 0.91755  // $metal1_conn
5 *31:4 *31:9 0.344607  // $metal1_conn
6 *31:9 *18:d 75.365196  // $metal1_conn
7 *31:9 *31:2 0.450782  // $metal1_conn
8 *31:2 *11:d 62.437641  // $metal1_conn
9 *31:6 *31:8 45  // $metal1_conn

*END

*D_NET *4 6.09926e-16

*CONN
*I *6:d B *C 1.9525 0.5025 
*I *8:g B *C 2.5625 0.5300 
*I *30:g B *C 1.5525 0.5025 
*I *19:g B *C 1.4975 1.3025 
*I *21:d B *C 1.7950 1.3025 
*I *23:g B *C 2.5625 1.2050 
*N *4:2 *C 1.5250 0.9450 
*N *4:5 *C 2.5350 0.9000 
*N *4:7 *C 2.0050 0.9450 
*N *4:8 *C 1.8050 0.9450 

*CAP
0 *23:g 4.58247e-17
1 *21:d 2.77375e-17
2 *19:g 3.78005e-17
3 *30:g 7.91992e-17
4 *8:g 7.81135e-17
5 *6:d 5.96362e-17
6 *4:8 2.96258e-17
7 *4:7 4.79689e-17
8 *4:2 8.96035e-17
9 *4:5 1.14416e-16

*RES
0 *30:g *4:2 86.35862  // $poly_conn
1 *4:2 *19:g 55.58939  // $poly_conn
2 *23:g *4:5 19.691952  // $poly_conn
3 *4:5 *8:g 53.025284  // $poly_conn
4 *4:5 *4:7 45.380672  // $metal1_conn
5 *4:7 *4:8 0.154236  // $metal1_conn
6 *4:8 *4:2 45.199905  // $metal1_conn
7 *4:7 *6:d 75.297249  // $metal1_conn
8 *4:8 *21:d 62.191822  // $metal1_conn

*END

*D_NET *3 4.18714e-16

*CONN
*I *7:d B *C 2.3650 0.5300 
*I *10:g B *C 2.7675 0.5300 
*I *12:g B *C 2.9725 0.5300 
*I *14:g B *C 3.1775 0.5300 
*I *22:d B *C 2.4600 1.2050 
*I *23:d B *C 2.4600 1.2050 
*I *24:g B *C 2.7675 1.2050 
*I *25:g B *C 2.9725 1.2050 
*I *26:g B *C 3.1775 1.2050 
*N *3:5 *C 2.7100 0.7600 
*N *3:13 *C 2.3550 0.6000 

*CAP
0 *26:g 1.72031e-16
1 *22:d 9.00678e-17
2 *7:d 4.40652e-17
3 *3:5 1.12551e-16

*RES
0 *26:g *3:5 48.256718  // $poly_conn
1 *22:d *3:5 31.500856  // $metal1_conn
2 *3:5 *3:13 0.331109  // $metal1_conn
3 *7:d *3:13 75  // $metal1_conn

*END

*D_NET *2 3.25211e-16

*CONN
*I *6:g B *C 1.8175 0.5025 
*I *28:d B *C 1.3450 0.5025 
*I *29:d B *C 1.3450 0.5025 
*I *15:d B *C 1.1250 1.3025 
*I *17:d B *C 1.1250 1.3025 
*I *21:g B *C 1.7025 1.3025 
*N *2:2 *C 1.7800 0.7000 
*N *2:4 *C 1.3150 0.7000 

*CAP
0 *21:g 4.83931e-17
1 *15:d 5.63276e-17
2 *28:d 3.14306e-17
3 *6:g 2.84252e-17
4 *2:4 8.20974e-17
5 *2:2 7.85373e-17

*RES
0 *6:g *2:2 24.835787  // $poly_conn
1 *2:2 *21:g 121.18663  // $poly_conn
2 *2:2 *2:4 45.304626  // $metal1_conn
3 *2:4 *15:d 62.49073  // $metal1_conn
4 *2:4 *28:d 75.136505  // $metal1_conn

*END

*D_NET *1 5.52695e-16

*CONN
*I *16:d B *C 0.3500 0.5875 
*I *18:g B *C 0.7475 0.5025 
*I *28:g B *C 1.2425 0.5025 
*I *9:d B *C 0.3500 1.0075 
*I *11:g B *C 0.6925 1.3025 
*I *17:g B *C 1.2475 1.3025 
*N *1:2 *C 0.6925 0.7225 
*N *1:3 *C 0.6150 0.6850 
*N *1:6 *C 1.2450 0.7775 
*N *1:7 *C 0.9950 0.8050 
*N *1:9 *C 0.3600 0.6850 

*CAP
0 *17:g 5.38329e-17
1 *11:g 4.94194e-17
2 *9:d 2.82139e-17
3 *28:g 4.28277e-17
4 *18:g 3.47388e-17
5 *16:d 2.00498e-17
6 *1:9 2.89855e-17
7 *1:6 3.86845e-17
8 *1:2 5.56737e-17
9 *1:3 8.62209e-17
10 *1:7 1.14048e-16

*RES
0 *18:g *1:2 44.857056  // $poly_conn
1 *1:2 *1:3 54.233982  // $poly_conn
2 *1:2 *11:g 116.45433  // $poly_conn
3 *17:g *1:6 106.106323  // $poly_conn
4 *1:6 *1:7 96.373505  // $poly_conn
5 *1:6 *28:g 51.168953  // $poly_conn
6 *1:7 *1:3 0.383585  // $metal1_conn
7 *1:3 *1:9 0.168577  // $metal1_conn
8 *1:9 *16:d 75.068649  // $metal1_conn
9 *1:9 *9:d 62.204395  // $metal1_conn

*END

