*SPEF "IEEE 1481-1999"
*DESIGN  "TLATNCAX6"
*DATE "Mon Sep 27 11:26:29 2010"
*VENDOR "Cadence Design Systems"
*PROGRAM "Assura RCX"
*VERSION "3.2 Red Hat Linux release 7.2 (Enigma) - (09/09/2009-10:39)"
*DESIGN_FLOW "Physical Verification"
*DIVIDER /
*DELIMITER :
*BUS_DELIMITER []
*T_UNIT 1 PS
*C_UNIT 1e15 FF
*R_UNIT 1 OHM
*L_UNIT 1 MH
// DeviceFingerDelim "@"
// MATCHED
// caps2d version: 10

*NAME_MAP
*1 VDD
*2 ECKb
*3 mp20
*4 n0
*5 mp21
*6 CKbb
*7 mp21\@1
*8 CKb
*9 mp20\@1
*10 mp22
*11 mp22\@1
*12 mp22\@2
*13 mp22\@3
*14 mp0
*15 mp22\@4
*16 mp5
*17 mp6
*18 mp16
*19 mp15
*20 mp1
*21 CK
*22 mp10
*23 mn22\@4
*24 mn0
*25 mn5
*26 mn6
*27 mn16
*28 mn15
*29 mn1
*30 VSS
*31 Eint
*32 net217
*33 net205
*34 ECK
*35 mn10
*36 net254
*37 mn20
*38 net230
*39 mn21
*40 net238
*41 mn21\@1
*42 net238\@1
*43 mn20\@1
*44 mn22
*45 mn22\@1
*46 E
*47 mn22\@2
*48 mn22\@3

*GROUND_NETS VSS

*PORTS
*1 I
*30 I
*21 I
*46 I
*34 O

*D_NET *1 6.89832e-16

*CONN
*P *1 I *C 0.1000 1.7100 
*I *3:s B *C 2.3100 1.1850 
*I *5:s B *C 2.6750 1.1850 
*I *7:s B *C 2.6750 1.1850 
*I *9:s B *C 3.1150 1.1450 
*I *10:s B *C 3.1150 1.1450 
*I *11:s B *C 3.4950 1.1450 
*I *12:s B *C 3.4950 1.1450 
*I *13:s B *C 3.9050 1.1450 
*I *15:s B *C 3.9050 1.1450 
*I *14:s B *C 0.5550 1.1975 
*I *16:s B *C 0.5550 1.1975 
*I *19:s B *C 1.4900 1.1975 
*I *20:s B *C 1.4900 1.1975 
*I *22:s B *C 2.3100 1.1850 
*N *1:3 *C 3.3000 1.7100 
*N *1:8 *C 1.4050 1.7100 
*N *1:9 *C 1.1000 1.7100 
*N *1:10 *C 0.5550 1.7100 

*CAP
0 *19:s 1.70415e-17
1 *14:s 4.33949e-17
2 *13:s 2.9621e-16
3 *5:s 3.94319e-17
4 *1:10 1.99247e-17
5 *1:8 1.83177e-17
6 *1:3 2.45211e-16
7 *1 1.03006e-17

*RES
0 *1:10 *1 0.22769  // $metal1_conn
1 *1:3 *13:s 6.818182  // $metal1_conn
2 *1:3 *1:9 6.818182  // $metal1_conn
3 *13:s *5:s 62.251102  // $metal1_conn
4 *1:8 *19:s 62.045811  // $metal1_conn
5 *1:10 *14:s 62.299137  // $metal1_conn
6 *13:s *1:8 0.409806  // $metal1_conn
7 *1:8 *1:9 0.151781  // $metal1_conn
8 *1:9 *1:10 0.273067  // $metal1_conn

*END

*D_NET *30 0

*CONN
*P *30 I *C 0.1000 0.0000 
*I *35:s B *C 2.4250 0.4800 
*I *37:s B *C 2.4250 0.4800 
*I *43:s B *C 3.0950 0.5050 
*I *44:s B *C 3.0950 0.5050 
*I *45:s B *C 3.4950 0.5050 
*I *47:s B *C 3.4950 0.5050 
*I *48:s B *C 3.9050 0.5050 
*I *23:s B *C 3.9050 0.5050 
*I *24:s B *C 0.5500 0.5775 
*I *25:s B *C 0.5500 0.5775 
*I *28:s B *C 1.4950 0.5775 
*I *29:s B *C 1.4950 0.5775 
*N *30:3 *C 3.3000 0.0000 
*N *30:6 *C 2.4450 0.0000 
*N *30:7 *C 1.3800 0.0000 
*N *30:8 *C 1.1000 0.0000 
*N *30:9 *C 0.5300 0.0000 


*RES
0 *30:9 *30 0.215155  // $metal1_conn
1 *30:3 *48:s 5.636364  // $metal1_conn
2 *30:3 *30:8 5.636364  // $metal1_conn
3 *30:6 *35:s 75.252243  // $metal1_conn
4 *30:7 *28:s 75.074516  // $metal1_conn
5 *30:9 *24:s 75.074516  // $metal1_conn
6 *48:s *30:6 0.295433  // $metal1_conn
7 *30:6 *30:7 0.533598  // $metal1_conn
8 *30:7 *30:8 0.140196  // $metal1_conn
9 *30:8 *30:9 0.285602  // $metal1_conn

*END

*D_NET *21 2.06636e-16

*CONN
*P *21 I *C 0.3000 0.8550 
*I *24:g B *C 0.3975 0.5775 
*I *14:g B *C 0.4525 1.1975 
*N *21:2 *C 0.4250 0.8350 

*CAP
0 *14:g 3.60175e-17
1 *24:g 3.39052e-17
2 *21:2 1.05366e-16
3 *21 3.13472e-17

*RES
0 *14:g *21:2 56.871437  // $poly_conn
1 *21:2 *24:g 38.922718  // $poly_conn
2 *21:2 *21 45.062531  // $metal1_conn

*END

*D_NET *46 2.62227e-16

*CONN
*P *46 I *C 0.7000 1.0450 
*I *25:g B *C 0.6025 0.5775 
*I *16:g B *C 0.6575 1.1975 
*N *46:2 *C 0.6300 0.9800 

*CAP
0 *16:g 3.10626e-17
1 *25:g 7.55469e-17
2 *46:2 7.96713e-17
3 *46 7.59465e-17

*RES
0 *16:g *46:2 19.691952  // $poly_conn
1 *46:2 *25:g 76.102211  // $poly_conn
2 *46:2 *46 45.030884  // $metal1_conn

*END

*D_NET *34 4.8687e-16

*CONN
*P *34 O *C 3.3000 0.6650 
*I *44:d B *C 3.2800 0.5050 
*I *45:d B *C 3.2800 0.5050 
*I *47:d B *C 3.7000 0.5050 
*I *48:d B *C 3.7000 0.5050 
*I *23:d B *C 4.1000 0.5050 
*I *10:d B *C 3.2900 1.1450 
*I *11:d B *C 3.2900 1.1450 
*I *12:d B *C 3.7000 1.1450 
*I *13:d B *C 3.7000 1.1450 
*I *15:d B *C 4.1000 1.1450 

*CAP
0 *34 4.8687e-16


*END

*D_NET *42 2.41708e-18

*CONN
*I *41:s B *C 2.8800 0.4800 
*I *43:d B *C 2.8800 0.4800 

*CAP
0 *41:s 2.41708e-18

*RES
0 *43:d *41:s 0.001  // $mwires

*END

*D_NET *40 1.85061e-18

*CONN
*I *37:d B *C 2.5700 0.4800 
*I *39:s B *C 2.5700 0.4800 

*CAP
0 *37:d 1.85061e-18

*RES
0 *39:s *37:d 0.001  // $mwires

*END

*D_NET *38 0

*CONN
*I *27:s B *C 1.2675 0.5775 
*I *28:d B *C 1.2675 0.5775 


*RES
0 *28:d *27:s 0.001  // $mwires

*END

*D_NET *36 1.6687e-18

*CONN
*I *25:d B *C 0.6550 0.5775 
*I *26:s B *C 0.6550 0.5775 

*CAP
0 *25:d 1.6687e-18

*RES
0 *26:s *25:d 0.001  // $mwires

*END

*D_NET *33 2.1969e-18

*CONN
*I *18:s B *C 1.1775 1.1975 
*I *19:d B *C 1.1775 1.1975 

*CAP
0 *18:s 2.1969e-18

*RES
0 *19:d *18:s 0.001  // $mwires

*END

*D_NET *32 2.37411e-18

*CONN
*I *16:d B *C 0.7675 1.1975 
*I *17:s B *C 0.7675 1.1975 

*CAP
0 *16:d 2.37411e-18

*RES
0 *17:s *16:d 0.001  // $mwires

*END

*D_NET *31 9.0467e-16

*CONN
*I *35:d B *C 2.0925 0.5075 
*I *37:g B *C 2.5175 0.4800 
*I *43:g B *C 2.9325 0.4800 
*I *28:g B *C 1.3475 0.5775 
*I *3:g B *C 2.3575 1.1850 
*I *9:g B *C 2.9825 1.1850 
*I *19:g B *C 1.2725 1.1975 
*I *22:d B *C 2.0400 1.1450 
*N *31:2 *C 1.3475 0.8900 
*N *31:4 *C 1.4050 0.8900 
*N *31:12 *C 2.0050 0.7300 
*N *31:13 *C 2.0050 0.8900 

*CAP
0 *22:d 2.67614e-17
1 *19:g 4.94392e-17
2 *9:g 3.83643e-16
3 *28:g 5.64022e-17
4 *43:g 7.87453e-17
5 *37:g 6.73156e-17
6 *35:d 3.70557e-17
7 *31:13 4.15246e-17
8 *31:12 2.66654e-17
9 *31:2 3.58959e-17
10 *31:4 1.01221e-16

*RES
0 *31:2 *19:g 56.026451  // $poly_conn
1 *9:g *43:g 58.424316  // $poly_conn
2 *37:g *9:g 47.420689  // $poly_conn
3 *28:g *31:2 49.669704  // $poly_conn
4 *31:2 *31:4 47.969933  // $poly_conn
5 *31:13 *31:4 0.409945  // $metal1_conn
6 *31:13 *22:d 62.118599  // $metal1_conn
7 *31:12 *35:d 75.125977  // $metal1_conn
8 *9:g *31:12 0.266843  // $metal1_conn
9 *31:12 *31:13 0.117291  // $metal1_conn

*END

*D_NET *8 7.62162e-16

*CONN
*I *24:d B *C 0.3050 0.5775 
*I *26:g B *C 0.7075 0.5775 
*I *29:g B *C 1.5425 0.5775 
*I *14:d B *C 0.3600 1.1975 
*I *18:g B *C 1.0825 1.1975 
*I *20:g B *C 1.5375 1.1975 
*N *8:2 *C 0.7350 0.7600 
*N *8:4 *C 1.0550 0.9400 
*N *8:7 *C 1.5700 0.3950 
*N *8:8 *C 1.0550 0.4000 
*N *8:9 *C 0.7350 0.5950 
*N *8:11 *C 0.2950 0.5650 

*CAP
0 *20:g 6.08895e-17
1 *18:g 4.81079e-17
2 *14:d 6.92277e-17
3 *29:g 4.45343e-17
4 *26:g 5.43443e-17
5 *24:d 8.51251e-17
6 *8:9 5.13506e-17
7 *8:8 7.57194e-17
8 *8:2 6.08199e-17
9 *8:4 1.30743e-16
10 *8:7 8.13013e-17

*RES
0 *26:g *8:2 64.691956  // $poly_conn
1 *18:g *8:4 74.948364  // $poly_conn
2 *20:g *29:g 111.785492  // $poly_conn
3 *29:g *8:7 64.691956  // $poly_conn
4 *8:4 *8:8 0.399744  // $metal1_conn
5 *8:8 *8:9 0.366461  // $metal1_conn
6 *8:9 *8:11 0.28855  // $metal1_conn
7 *8:8 *8:7 0.376523  // $metal1_conn
8 *8:9 *8:2 0.122277  // $metal1_conn
9 *8:11 *14:d 62.671284  // $metal1_conn
10 *24:d *8:11 75  // $metal1_conn

*END

*D_NET *6 8.68102e-16

*CONN
*I *39:g B *C 2.6225 0.4800 
*I *41:g B *C 2.8275 0.4800 
*I *27:g B *C 1.1875 0.5775 
*I *29:d B *C 1.6625 0.5775 
*I *5:g B *C 2.5725 1.1850 
*I *7:g B *C 2.7775 1.1850 
*I *17:g B *C 0.8775 1.1975 
*I *20:d B *C 1.6300 1.1975 
*N *6:2 *C 1.2150 0.7600 
*N *6:11 *C 1.2150 0.7600 
*N *6:13 *C 1.7000 0.5850 

*CAP
0 *20:d 8.99746e-17
1 *17:g 7.2205e-17
2 *7:g 2.63866e-16
3 *29:d 1.45972e-16
4 *27:g 3.21206e-17
5 *41:g 5.01989e-17
6 *39:g 4.327e-17
7 *6:2 1.70496e-16

*RES
0 *6:2 *17:g 134.310608  // $poly_conn
1 *41:g *7:g 43.575005  // $poly_conn
2 *7:g *39:g 16.530039  // $poly_conn
3 *27:g *6:2 16.530041  // $poly_conn
4 *6:13 *7:g 45.964626  // $metal1_conn
5 *6:2 *6:11 45  // $metal1_conn
6 *20:d *6:11 62.57402  // $metal1_conn
7 *29:d *6:13 75  // $metal1_conn
8 *6:11 *6:13 0.441119  // $metal1_conn

*END

*D_NET *4 5.55134e-16

*CONN
*I *35:g B *C 2.2325 0.5075 
*I *26:d B *C 0.9475 0.5775 
*I *27:d B *C 0.9475 0.5775 
*I *17:d B *C 0.9800 1.1975 
*I *18:d B *C 0.9800 1.1975 
*I *22:g B *C 2.1575 1.1450 
*N *4:2 *C 2.1950 0.8900 
*N *4:6 *C 0.9800 1.1600 

*CAP
0 *22:g 4.51356e-17
1 *17:d 2.07542e-16
2 *26:d 9.13975e-17
3 *35:g 5.2722e-17
4 *4:2 1.58337e-16

*RES
0 *35:g *4:2 64.579376  // $poly_conn
1 *4:2 *22:g 18.425531  // $poly_conn
2 *26:d *4:6 75.451485  // $metal1_conn
3 *4:6 *4:2 46.219788  // $metal1_conn
4 *17:d *4:6 62  // $metal1_conn

*END

*D_NET *2 5.93739e-16

*CONN
*I *39:d B *C 2.7250 0.4800 
*I *41:d B *C 2.7250 0.4800 
*I *44:g B *C 3.1675 0.5050 
*I *45:g B *C 3.3925 0.5050 
*I *47:g B *C 3.5975 0.5050 
*I *48:g B *C 3.8025 0.5050 
*I *23:g B *C 4.0075 0.5050 
*I *3:d B *C 2.4650 1.1850 
*I *5:d B *C 2.4650 1.1850 
*I *7:d B *C 2.8800 1.1850 
*I *9:d B *C 2.8800 1.1850 
*I *10:g B *C 3.1875 1.1450 
*I *11:g B *C 3.3925 1.1450 
*I *12:g B *C 3.5975 1.1450 
*I *13:g B *C 3.8025 1.1450 
*I *15:g B *C 4.0075 1.1450 
*N *2:8 *C 3.1300 0.7600 

*CAP
0 *15:g 2.51665e-16
1 *7:d 1.80247e-16
2 *39:d 5.64187e-17
3 *2:8 1.05409e-16

*RES
0 *15:g *2:8 47.215244  // $poly_conn
1 *2:8 *39:d 75.420471  // $metal1_conn
2 *7:d *2:8 0.411503  // $metal1_conn

*END

