*SPEF "IEEE 1481-1999"
*DESIGN  "TLATNCAX4"
*DATE "Mon Sep 27 11:26:07 2010"
*VENDOR "Cadence Design Systems"
*PROGRAM "Assura RCX"
*VERSION "3.2 Red Hat Linux release 7.2 (Enigma) - (09/09/2009-10:39)"
*DESIGN_FLOW "Physical Verification"
*DIVIDER /
*DELIMITER :
*BUS_DELIMITER []
*T_UNIT 1 PS
*C_UNIT 1e15 FF
*R_UNIT 1 OHM
*L_UNIT 1 MH
// DeviceFingerDelim "@"
// MATCHED
// caps2d version: 10

*NAME_MAP
*1 E
*2 CK
*3 mn22\@1
*4 mn22\@2
*5 mn22\@3
*6 mp22\@1
*7 mn1
*8 VDD
*9 mp22\@2
*10 mp22\@3
*11 VSS
*12 mp1
*13 CKb
*14 net205
*15 net217
*16 net238
*17 net230
*18 net254
*19 mn21
*20 mn20
*21 n0
*22 mn15
*23 CKbb
*24 mn16
*25 ECKb
*26 mn6
*27 Eint
*28 mn5
*29 mn10
*30 mn0
*31 mn22
*32 ECK
*33 mp21
*34 mp20
*35 mp15
*36 mp16
*37 mp6
*38 mp5
*39 mp10
*40 mp0
*41 mp22

*GROUND_NETS VSS

*PORTS
*8 I
*11 I
*2 I
*1 I
*32 O

*D_NET *8 4.47534e-16

*CONN
*P *8 I *C 0.1000 1.7100 
*I *33:s B *C 1.8950 1.2550 
*I *34:s B *C 2.3650 1.1725 
*I *35:s B *C 2.3650 1.1725 
*I *38:s B *C 3.0750 1.1725 
*I *39:s B *C 3.0750 1.1725 
*I *40:s B *C 0.5200 1.0950 
*I *41:s B *C 0.5200 1.0950 
*I *6:s B *C 0.9900 1.0950 
*I *9:s B *C 0.9900 1.0950 
*I *10:s B *C 1.4600 1.0075 
*I *12:s B *C 1.4600 1.0075 
*N *8:2 *C 2.7000 1.7100 
*N *8:3 *C 2.7000 1.7100 
*N *8:4 *C 2.2500 1.7100 
*N *8:5 *C 1.8100 1.7100 

*CAP
0 *10:s 9.30343e-17
1 *38:s 3.25902e-17
2 *34:s 3.04495e-17
3 *33:s 1.23002e-17
4 *8:5 1.41274e-17
5 *8:4 1.41573e-17
6 *8:2 2.45706e-16
7 *8 5.16976e-18

*RES
0 *10:s *8 0.167438  // $metal1_conn
1 *8:2 *8:3 8.333333  // $metal1_conn
2 *8:2 *10:s 8.333333  // $metal1_conn
3 *38:s *8:3 62.516148  // $metal1_conn
4 *8:4 *34:s 62.156803  // $metal1_conn
5 *8:5 *33:s 62.074203  // $metal1_conn
6 *8:3 *8:4 0.225321  // $metal1_conn
7 *8:4 *8:5 0.220113  // $metal1_conn
8 *8:5 *10:s 0.217608  // $metal1_conn

*END

*D_NET *11 0

*CONN
*P *11 I *C 0.1000 0.0000 
*I *20:s B *C 2.2000 0.4725 
*I *22:s B *C 2.2000 0.4725 
*I *28:s B *C 3.1600 0.4725 
*I *29:s B *C 3.1600 0.4725 
*I *30:s B *C 0.4950 0.5100 
*I *31:s B *C 0.4950 0.5100 
*I *3:s B *C 0.9025 0.5100 
*I *4:s B *C 0.9025 0.5100 
*I *5:s B *C 1.4325 0.5675 
*I *7:s B *C 1.4325 0.5675 
*N *11:2 *C 2.7000 0.0000 
*N *11:3 *C 2.7000 0.0000 
*N *11:4 *C 2.0900 0.0000 


*RES
0 *5:s *11 0.192496  // $metal1_conn
1 *11:2 *11:3 6.888889  // $metal1_conn
2 *11:2 *5:s 6.888889  // $metal1_conn
3 *28:s *11:3 75.437599  // $metal1_conn
4 *11:4 *20:s 75.321053  // $metal1_conn
5 *11:3 *11:4 0.305504  // $metal1_conn
6 *11:4 *5:s 0.385492  // $metal1_conn

*END

*D_NET *2 1.78512e-16

*CONN
*P *2 I *C 0.5000 0.6650 
*I *30:g B *C 0.3225 0.5675 
*I *40:g B *C 0.3025 1.0075 
*N *2:2 *C 0.3125 0.7400 
*N *2:4 *C 0.3600 0.7400 

*CAP
0 *40:g 2.17394e-17
1 *30:g 2.52244e-17
2 *2:2 2.60968e-17
3 *2:4 6.67199e-17
4 *2 3.8731e-17

*RES
0 *30:g *2:2 26.735422  // $poly_conn
1 *2:2 *40:g 42.120037  // $poly_conn
2 *2:2 *2:4 47.215244  // $poly_conn
3 *2 *2:4 0.067655  // $metal1_conn

*END

*D_NET *1 2.24026e-16

*CONN
*P *1 I *C 3.1000 0.8550 
*I *28:g B *C 2.9425 0.4725 
*I *38:g B *C 2.9425 1.1725 
*N *1:2 *C 2.9800 0.8400 

*CAP
0 *38:g 3.86027e-17
1 *28:g 3.91807e-17
2 *1:2 1.0148e-16
3 *1 4.47623e-17

*RES
0 *38:g *1:2 48.206497  // $poly_conn
1 *1:2 *28:g 66.15522  // $poly_conn
2 *1 *1:2 45.053665  // $metal1_conn

*END

*D_NET *32 2.26371e-16

*CONN
*P *32 O *C 0.7000 0.8550 
*I *31:d B *C 0.6900 0.5100 
*I *3:d B *C 0.6900 0.5100 
*I *4:d B *C 1.1150 0.5100 
*I *5:d B *C 1.1150 0.5100 
*I *41:d B *C 0.6700 1.0950 
*I *6:d B *C 0.6700 1.0950 
*I *9:d B *C 1.1400 1.0950 
*I *10:d B *C 1.1400 1.0950 

*CAP
0 *9:d 1.09567e-16
1 *31:d 9.63486e-17
2 *32 2.04551e-17

*RES
0 *32 *31:d 0.20691  // $metal1_conn
1 *9:d *32 0.044294  // $metal1_conn

*END

*D_NET *18 1.57078e-18

*CONN
*I *26:s B *C 2.8000 0.4725 
*I *28:d B *C 2.8000 0.4725 

*CAP
0 *26:s 1.57078e-18

*RES
0 *28:d *26:s 0.001  // $mwires

*END

*D_NET *17 0

*CONN
*I *22:d B *C 2.3375 0.4725 
*I *24:s B *C 2.3375 0.4725 


*RES
0 *24:s *22:d 0.001  // $mwires

*END

*D_NET *16 0

*CONN
*I *19:s B *C 1.9950 0.5300 
*I *20:d B *C 1.9950 0.5300 


*RES
0 *20:d *19:s 0.001  // $mwires

*END

*D_NET *15 2.40975e-18

*CONN
*I *37:s B *C 2.8525 1.1725 
*I *38:d B *C 2.8525 1.1725 

*CAP
0 *37:s 2.40975e-18

*RES
0 *38:d *37:s 0.001  // $mwires

*END

*D_NET *14 1.37719e-18

*CONN
*I *35:d B *C 2.4700 1.1725 
*I *36:s B *C 2.4700 1.1725 

*CAP
0 *35:d 1.37719e-18

*RES
0 *36:s *35:d 0.001  // $mwires

*END

*D_NET *13 7.68243e-16

*CONN
*I *26:g B *C 2.6575 0.4725 
*I *30:d B *C 0.2200 0.5675 
*I *7:g B *C 1.5075 0.5675 
*I *36:g B *C 2.5275 1.1725 
*I *40:d B *C 0.2100 1.0075 
*I *12:g B *C 1.5075 1.0075 
*N *13:3 *C 1.5450 1.2800 
*N *13:6 *C 2.5650 1.3800 
*N *13:8 *C 0.2000 0.9600 

*CAP
0 *12:g 3.34632e-17
1 *40:d 1.3048e-16
2 *36:g 8.41227e-17
3 *7:g 3.95736e-17
4 *30:d 3.27567e-17
5 *26:g 7.88178e-17
6 *13:3 2.39066e-16
7 *13:6 1.29963e-16

*RES
0 *12:g *7:g 66.666664  // $poly_conn
1 *12:g *13:3 77.821884  // $poly_conn
2 *26:g *36:g 154.838638  // $poly_conn
3 *36:g *13:6 61.15522  // $poly_conn
4 *13:6 *13:3 0.788565  // $metal1_conn
5 *13:3 *13:8 1.161841  // $metal1_conn
6 *13:8 *30:d 75.274994  // $metal1_conn
7 *40:d *13:8 62  // $metal1_conn

*END

*D_NET *27 6.29882e-16

*CONN
*I *20:g B *C 2.0475 0.5300 
*I *22:g B *C 2.2525 0.4725 
*I *29:d B *C 3.3000 0.4725 
*I *34:g B *C 2.1475 1.2550 
*I *35:g B *C 2.4125 1.1725 
*I *39:d B *C 3.3000 1.1725 
*N *27:2 *C 2.2525 0.9625 
*N *27:3 *C 2.1475 0.9625 
*N *27:6 *C 2.2800 0.2950 
*N *27:10 *C 3.3100 0.4600 

*CAP
0 *39:d 5.77262e-17
1 *35:g 6.49404e-17
2 *34:g 3.94296e-17
3 *29:d 1.8966e-16
4 *22:g 2.72654e-17
5 *20:g 6.94955e-17
6 *27:3 3.39928e-17
7 *27:2 3.09817e-17
8 *27:6 1.1639e-16

*RES
0 *35:g *27:2 60.241673  // $poly_conn
1 *27:2 *27:3 24.619068  // $poly_conn
2 *27:3 *20:g 96.139107  // $poly_conn
3 *27:2 *22:g 102.351768  // $poly_conn
4 *22:g *27:6 62.437271  // $poly_conn
5 *27:3 *34:g 20.300484  // $poly_conn
6 *39:d *27:10 62.731441  // $metal1_conn
7 *27:10 *27:6 0.848666  // $metal1_conn
8 *29:d *27:10 75  // $metal1_conn

*END

*D_NET *25 5.83113e-16

*CONN
*I *19:d B *C 1.8500 0.5300 
*I *31:g B *C 0.5875 0.5100 
*I *3:g B *C 0.7925 0.5100 
*I *4:g B *C 1.0125 0.5100 
*I *5:g B *C 1.2175 0.5100 
*I *33:d B *C 2.0450 1.2550 
*I *34:d B *C 2.0450 1.2550 
*I *41:g B *C 0.5675 1.0950 
*I *6:g B *C 0.7725 1.0950 
*I *9:g B *C 1.0375 1.0950 
*I *10:g B *C 1.2425 1.0950 
*N *25:15 *C 1.4800 0.7650 

*CAP
0 *10:g 2.60702e-16
1 *33:d 1.12864e-16
2 *19:d 8.3542e-17
3 *25:15 1.26005e-16

*RES
0 *33:d *25:15 62.683319  // $metal1_conn
1 *25:15 *19:d 75.565567  // $metal1_conn
2 *25:15 *10:g 45.273289  // $metal1_conn

*END

*D_NET *23 5.94504e-16

*CONN
*I *19:g B *C 1.9425 0.5300 
*I *24:g B *C 2.4225 0.4725 
*I *7:d B *C 1.6150 0.5675 
*I *33:g B *C 1.9425 1.2550 
*I *37:g B *C 2.7625 1.1725 
*I *12:d B *C 1.6800 0.9600 
*N *23:2 *C 1.9050 0.8500 
*N *23:5 *C 2.3950 0.8200 
*N *23:7 *C 2.6600 0.9200 
*N *23:8 *C 1.9050 0.8500 
*N *23:9 *C 1.7000 0.8550 

*CAP
0 *12:d 3.24708e-17
1 *37:g 4.36264e-17
2 *33:g 5.54858e-17
3 *7:d 3.50134e-17
4 *24:g 6.10146e-17
5 *19:g 5.66323e-17
6 *23:9 3.46365e-17
7 *23:2 7.5554e-17
8 *23:5 1.0173e-16
9 *23:7 9.83406e-17

*RES
0 *33:g *23:2 44.360348  // $poly_conn
1 *23:2 *19:g 39.232143  // $poly_conn
2 *24:g *23:5 106.999649  // $poly_conn
3 *37:g *23:7 83.446335  // $poly_conn
4 *23:7 *23:5 0.226579  // $metal1_conn
5 *23:5 *23:8 0.321474  // $metal1_conn
6 *23:8 *23:9 0.125459  // $metal1_conn
7 *23:9 *7:d 75.242325  // $metal1_conn
8 *23:9 *12:d 62.081211  // $metal1_conn
9 *23:2 *23:8 45  // $metal1_conn

*END

*D_NET *21 4.04795e-16

*CONN
*I *24:d B *C 2.5400 0.4725 
*I *26:d B *C 2.5400 0.4725 
*I *29:g B *C 3.2075 0.4725 
*I *36:d B *C 2.6450 1.1725 
*I *37:d B *C 2.6450 1.1725 
*I *39:g B *C 3.2075 1.1725 
*N *21:1 *C 3.3800 0.6800 
*N *21:2 *C 3.2075 0.6800 
*N *21:6 *C 2.8200 0.6500 

*CAP
0 *39:g 3.39662e-17
1 *36:d 6.22836e-17
2 *29:g 2.8225e-17
3 *24:d 4.75848e-17
4 *21:6 1.12791e-16
5 *21:2 2.92517e-17
6 *21:1 9.0692e-17

*RES
0 *21:1 *21:2 55.756504  // $poly_conn
1 *21:2 *29:g 27.944992  // $poly_conn
2 *21:2 *39:g 92.047554  // $poly_conn
3 *36:d *21:6 62.4436  // $metal1_conn
4 *21:6 *24:d 75.298515  // $metal1_conn
5 *21:6 *21:1 0.440254  // $metal1_conn

*END

