*SPEF "IEEE 1481-1999"
*DESIGN  "TLATSRX1"
*DATE "Mon Sep 27 11:33:18 2010"
*VENDOR "Cadence Design Systems"
*PROGRAM "Assura RCX"
*VERSION "3.2 Red Hat Linux release 7.2 (Enigma) - (09/09/2009-10:39)"
*DESIGN_FLOW "Physical Verification"
*DIVIDER /
*DELIMITER :
*BUS_DELIMITER []
*T_UNIT 1 PS
*C_UNIT 1e15 FF
*R_UNIT 1 OHM
*L_UNIT 1 MH
// DeviceFingerDelim "@"
// MATCHED
// caps2d version: 10

*NAME_MAP
*1 D
*2 G
*3 mn20
*4 mn22
*5 mn10
*6 Q
*7 mp22
*8 mn11
*9 SN
*10 VDD
*11 mp10
*12 mp11
*13 VSS
*14 mp1
*15 net103
*16 Gbb
*17 Qint
*18 n5
*19 Gb
*20 net142
*21 net183
*22 net159
*23 net167
*24 net171
*25 net191
*26 mn1
*27 mn0
*28 mn15
*29 mn16
*30 mn17
*31 Qbint
*32 mn6
*33 mn5
*34 QN
*35 mn2
*36 mn21
*37 mp15
*38 mp16
*39 mp17
*40 mp6
*41 mp5
*42 mp2
*43 mp0
*44 mp21
*45 mp20
*46 RN

*GROUND_NETS VSS

*PORTS
*10 I
*13 I
*1 I
*2 I
*46 I
*9 I
*6 O
*34 O

*D_NET *10 5.19875e-16

*CONN
*P *10 I *C 0.1000 1.7100 
*I *37:s B *C 2.1750 1.5700 
*I *38:s B *C 2.5750 1.4600 
*I *41:s B *C 3.5500 1.1225 
*I *42:s B *C 3.5500 1.1225 
*I *43:s B *C 2.1750 1.5700 
*I *44:s B *C 0.5050 1.0950 
*I *45:s B *C 0.5050 1.0950 
*I *7:s B *C 1.1725 1.2025 
*I *11:s B *C 1.1725 1.2025 
*I *12:s B *C 1.5950 1.5700 
*I *14:s B *C 1.5950 1.5700 
*N *10:2 *C 2.9000 1.7100 
*N *10:3 *C 2.9000 1.7100 
*N *10:4 *C 2.5500 1.7100 
*N *10:5 *C 2.1500 1.7100 
*N *10:6 *C 1.5700 1.7100 
*N *10:7 *C 1.1150 1.7100 
*N *10:8 *C 1.0000 1.7100 
*N *10:9 *C 0.5050 1.7100 

*CAP
0 *12:s 1.81098e-17
1 *7:s 2.8876e-17
2 *44:s 6.45779e-17
3 *41:s 4.24564e-17
4 *38:s 2.72303e-17
5 *37:s 1.26808e-17
6 *10:9 7.47673e-18
7 *10:7 8.46923e-18
8 *10:6 2.27466e-17
9 *10:5 1.96048e-17
10 *10:4 1.08262e-17
11 *10:2 2.51033e-16
12 *10 5.78737e-18

*RES
0 *41:s *10:3 62.34338  // $metal1_conn
1 *10:3 *10:4 0.175352  // $metal1_conn
2 *10:4 *10:5 0.200234  // $metal1_conn
3 *10:5 *10:6 0.290516  // $metal1_conn
4 *10:6 *10:7 0.227821  // $metal1_conn
5 *10:7 *10:8 0.057484  // $metal1_conn
6 *10:8 *10:9 0.248079  // $metal1_conn
7 *10:9 *10 0.202688  // $metal1_conn
8 *10:4 *38:s 62.148239  // $metal1_conn
9 *10:5 *37:s 62.07473  // $metal1_conn
10 *10:6 *12:s 62.07473  // $metal1_conn
11 *10:7 *7:s 62.300453  // $metal1_conn
12 *10:9 *44:s 21.068626  // $metal1_conn
13 *10:2 *10:3 8.333333  // $metal1_conn
14 *10:2 *10:8 7.5  // $metal1_conn

*END

*D_NET *13 0

*CONN
*P *13 I *C 0.1000 0.0000 
*I *27:s B *C 2.4850 0.4775 
*I *28:s B *C 2.4850 0.4775 
*I *33:s B *C 3.4950 0.4775 
*I *35:s B *C 3.4950 0.4775 
*I *36:s B *C 0.5050 0.5300 
*I *3:s B *C 0.5050 0.5300 
*I *4:s B *C 1.2200 0.4575 
*I *5:s B *C 1.2200 0.4575 
*N *13:2 *C 2.9000 0.0000 
*N *13:3 *C 2.9000 0.0000 
*N *13:4 *C 2.4300 0.0000 
*N *13:5 *C 1.1150 0.0000 
*N *13:6 *C 1.0000 0.0000 
*N *13:7 *C 0.5050 0.0000 


*RES
0 *33:s *13:3 75.629501  // $metal1_conn
1 *13:3 *13:4 0.23554  // $metal1_conn
2 *13:4 *13:5 0.659168  // $metal1_conn
3 *13:5 *13:6 0.057484  // $metal1_conn
4 *13:6 *13:7 0.248079  // $metal1_conn
5 *13:7 *13 0.202688  // $metal1_conn
6 *13:4 *27:s 75.205444  // $metal1_conn
7 *13:5 *4:s 75.201698  // $metal1_conn
8 *13:7 *36:s 75.291084  // $metal1_conn
9 *13:2 *13:3 6.888889  // $metal1_conn
10 *13:2 *13:6 6.2  // $metal1_conn

*END

*D_NET *1 2.58718e-16

*CONN
*P *1 I *C 3.3000 1.0450 
*I *33:g B *C 3.3925 0.4775 
*I *41:g B *C 3.3325 1.1225 
*N *1:2 *C 3.3600 0.9050 

*CAP
0 *41:g 4.98913e-17
1 *33:g 5.669e-17
2 *1:2 1.07269e-16
3 *1 4.48683e-17

*RES
0 *33:g *1:2 80.219193  // $poly_conn
1 *1:2 *41:g 17.398676  // $poly_conn
2 *1:2 *1 45.012268  // $metal1_conn

*END

*D_NET *2 2.60394e-16

*CONN
*P *2 I *C 1.7000 0.8550 
*I *26:g B *C 2.0275 0.4775 
*I *14:g B *C 1.6675 1.2025 
*N *2:2 *C 1.7050 0.8450 

*CAP
0 *14:g 3.80332e-17
1 *26:g 5.57186e-17
2 *2:2 1.66642e-16

*RES
0 *26:g *2:2 146.634872  // $poly_conn
1 *2:2 *14:g 54.61676  // $poly_conn
2 *2 *2:2 45.002842  // $metal1_conn

*END

*D_NET *46 3.04818e-16

*CONN
*P *46 I *C 2.1000 0.8550 
*I *27:g B *C 2.2675 0.4775 
*I *28:g B *C 2.5325 0.4775 
*I *37:g B *C 2.2125 1.2025 
*I *43:g B *C 2.0175 1.2025 
*N *46:2 *C 2.2675 0.6475 
*N *46:3 *C 2.2400 0.8450 
*N *46:4 *C 2.2125 0.9975 

*CAP
0 *43:g 2.91972e-17
1 *37:g 2.71991e-17
2 *28:g 4.53184e-17
3 *27:g 1.94774e-17
4 *46:4 1.46291e-17
5 *46:2 2.43507e-17
6 *46:3 9.06268e-17
7 *46 5.40194e-17

*RES
0 *28:g *46:2 82.526573  // $poly_conn
1 *46:2 *46:3 40.593071  // $poly_conn
2 *46:3 *46:4 29.437382  // $poly_conn
3 *46:4 *43:g 64.386475  // $poly_conn
4 *46:2 *27:g 23.465221  // $poly_conn
5 *46:4 *37:g 23.847994  // $poly_conn
6 *46:3 *46 45.057713  // $metal1_conn

*END

*D_NET *9 2.66468e-16

*CONN
*P *9 I *C 1.3000 0.8550 
*I *5:g B *C 1.2875 0.4575 
*I *11:g B *C 1.2325 1.2025 
*N *9:2 *C 1.2600 0.8700 

*CAP
0 *11:g 4.39843e-17
1 *5:g 7.26097e-17
2 *9:2 1.49874e-16

*RES
0 *5:g *9:2 78.666313  // $poly_conn
1 *9:2 *11:g 49.179131  // $poly_conn
2 *9:2 *9 45.031887  // $metal1_conn

*END

*D_NET *6 1.18137e-16

*CONN
*P *6 O *C 0.1000 0.4750 
*I *36:d B *C 0.2975 0.5300 
*I *44:d B *C 0.2975 1.0950 
*N *6:3 *C 0.2750 0.4700 

*CAP
0 *44:d 5.8515e-17
1 *36:d 3.60689e-17
2 *6 2.3553e-17

*RES
0 *44:d *6:3 21.046637  // $metal1_conn
1 *6:3 *6 0.084439  // $metal1_conn
2 *36:d *6:3 75  // $metal1_conn

*END

*D_NET *34 1.15987e-16

*CONN
*P *34 O *C 0.9000 0.6650 
*I *4:d B *C 0.9200 0.4000 
*I *7:d B *C 0.9400 1.1150 

*CAP
0 *7:d 3.36141e-17
1 *4:d 2.27941e-17
2 *34 5.95789e-17

*RES
0 *7:d *34 62.251339  // $metal1_conn
1 *34 *4:d 75.144043  // $metal1_conn

*END

*D_NET *25 0

*CONN
*I *32:s B *C 3.3100 0.4775 
*I *33:d B *C 3.3100 0.4775 


*RES
0 *33:d *32:s 0.001  // $mwires

*END

*D_NET *24 5.57945e-18

*CONN
*I *29:d B *C 2.8250 0.4775 
*I *30:s B *C 2.8250 0.4775 

*CAP
0 *29:d 5.57945e-18

*RES
0 *30:s *29:d 0.001  // $mwires

*END

*D_NET *23 3.58578e-18

*CONN
*I *28:d B *C 2.6175 0.4775 
*I *29:s B *C 2.6175 0.4775 

*CAP
0 *28:d 3.58578e-18

*RES
0 *29:s *28:d 0.001  // $mwires

*END

*D_NET *22 1.45678e-18

*CONN
*I *26:s B *C 2.1475 0.4775 
*I *27:d B *C 2.1475 0.4775 

*CAP
0 *26:s 1.45678e-18

*RES
0 *27:d *26:s 0.001  // $mwires

*END

*D_NET *21 1.35824e-18

*CONN
*I *5:d B *C 1.3400 0.4575 
*I *8:s B *C 1.3400 0.4575 

*CAP
0 *5:d 1.35824e-18

*RES
0 *8:s *5:d 0.001  // $mwires

*END

*D_NET *20 6.87895e-19

*CONN
*I *40:s B *C 3.2675 1.1225 
*I *41:d B *C 3.2675 1.1225 

*CAP
0 *40:s 6.87895e-19

*RES
0 *41:d *40:s 0.001  // $mwires

*END

*D_NET *19 7.8946e-16

*CONN
*I *26:d B *C 1.9350 0.4775 
*I *30:g B *C 2.9475 0.4775 
*I *35:g B *C 3.5975 0.4775 
*I *40:g B *C 3.2025 1.1225 
*I *42:g B *C 3.5975 1.1225 
*I *43:d B *C 1.8425 1.2025 
*I *14:d B *C 1.8425 1.2025 
*N *19:2 *C 2.9100 0.6550 
*N *19:4 *C 3.1650 1.4150 
*N *19:7 *C 3.6850 1.3300 
*N *19:8 *C 3.1650 1.3300 
*N *19:9 *C 1.8950 0.6550 

*CAP
0 *43:d 5.08987e-17
1 *42:g 3.4865e-17
2 *40:g 6.02727e-17
3 *35:g 4.6255e-17
4 *30:g 4.65098e-17
5 *26:d 2.58524e-17
6 *19:9 1.29031e-16
7 *19:8 1.09334e-16
8 *19:2 1.83711e-16
9 *19:4 4.01591e-17
10 *19:7 6.25721e-17

*RES
0 *30:g *19:2 62.437271  // $poly_conn
1 *40:g *19:4 82.950089  // $poly_conn
2 *42:g *35:g 119.230766  // $poly_conn
3 *42:g *19:7 68.795837  // $poly_conn
4 *19:7 *19:8 0.387811  // $metal1_conn
5 *19:8 *19:2 0.652944  // $metal1_conn
6 *19:2 *19:9 0.665587  // $metal1_conn
7 *19:9 *43:d 62.360149  // $metal1_conn
8 *19:8 *19:4 0.027632  // $metal1_conn
9 *19:9 *26:d 75.107193  // $metal1_conn

*END

*D_NET *18 5.99455e-16

*CONN
*I *30:d B *C 3.0875 0.4775 
*I *32:d B *C 3.0875 0.4775 
*I *8:g B *C 1.3925 0.4575 
*I *39:d B *C 3.1000 1.1225 
*I *40:d B *C 3.1000 1.1225 
*I *12:g B *C 1.4375 1.2025 
*N *18:3 *C 1.4300 0.2800 
*N *18:6 *C 3.1000 0.4650 

*CAP
0 *12:g 7.18818e-17
1 *39:d 7.64919e-17
2 *8:g 7.0632e-17
3 *30:d 2.12642e-16
4 *18:3 1.67808e-16

*RES
0 *12:g *8:g 144.58223  // $poly_conn
1 *8:g *18:3 62.437271  // $poly_conn
2 *39:d *18:6 62.483559  // $metal1_conn
3 *18:6 *18:3 1.334445  // $metal1_conn
4 *30:d *18:6 75  // $metal1_conn

*END

*D_NET *17 8.88016e-16

*CONN
*I *29:g B *C 2.7025 0.4775 
*I *3:g B *C 0.6075 0.5300 
*I *4:g B *C 1.0125 0.4000 
*I *8:d B *C 1.4850 0.4575 
*I *38:g B *C 2.4175 1.2025 
*I *45:g B *C 0.6075 1.0950 
*I *7:g B *C 1.0125 1.1150 
*I *11:d B *C 1.3350 1.2025 
*I *12:d B *C 1.3350 1.2025 
*N *17:1 *C 1.0700 0.6400 
*N *17:2 *C 1.0125 0.6400 
*N *17:3 *C 1.0125 0.8225 
*N *17:4 *C 0.6075 0.8225 
*N *17:10 *C 2.5600 0.9700 
*N *17:13 *C 1.3350 1.2500 
*N *17:15 *C 1.4950 0.4700 

*CAP
0 *11:d 1.83755e-16
1 *7:g 4.26774e-17
2 *45:g 3.19957e-17
3 *38:g 3.05684e-17
4 *8:d 1.17651e-16
5 *4:g 3.20457e-17
6 *3:g 3.28147e-17
7 *29:g 6.23904e-17
8 *17:4 2.57582e-17
9 *17:3 1.61928e-17
10 *17:2 1.92809e-17
11 *17:1 6.37603e-17
12 *17:10 2.29126e-16

*RES
0 *17:1 *17:2 45.778431  // $poly_conn
1 *17:2 *17:3 38.972477  // $poly_conn
2 *17:3 *17:4 94.638512  // $poly_conn
3 *17:4 *3:g 40.131889  // $poly_conn
4 *17:2 *4:g 21.534737  // $poly_conn
5 *17:3 *7:g 23.847994  // $poly_conn
6 *17:4 *45:g 18.337015  // $poly_conn
7 *29:g *17:10 122.752296  // $poly_conn
8 *17:10 *38:g 36.089134  // $poly_conn
9 *17:10 *17:13 46.25666  // $metal1_conn
10 *17:13 *17:15 0.711652  // $metal1_conn
11 *17:15 *17:1 0.378507  // $metal1_conn
12 *11:d *17:13 62  // $metal1_conn
13 *8:d *17:15 75  // $metal1_conn

*END

*D_NET *16 3.03309e-16

*CONN
*I *32:g B *C 3.2275 0.4775 
*I *35:d B *C 3.6900 0.4775 
*I *39:g B *C 2.9975 1.1225 
*I *42:d B *C 3.6900 1.1225 
*N *16:2 *C 3.2600 0.6850 
*N *16:5 *C 3.7000 0.6550 

*CAP
0 *42:d 3.79275e-17
1 *39:g 6.11404e-17
2 *35:d 1.89444e-17
3 *32:g 3.30888e-17
4 *16:5 3.80585e-17
5 *16:2 1.1415e-16

*RES
0 *32:g *16:2 23.808931  // $poly_conn
1 *16:2 *39:g 120.955261  // $poly_conn
2 *42:d *16:5 62.291473  // $metal1_conn
3 *16:5 *16:2 45.294292  // $metal1_conn
4 *16:5 *35:d 75.115448  // $metal1_conn

*END

*D_NET *15 1.66019e-16

*CONN
*I *37:d B *C 2.3150 1.2025 
*I *38:d B *C 2.3150 1.2025 
*I *39:s B *C 2.9250 1.1225 

*CAP
0 *39:s 8.99005e-17
1 *37:d 7.61186e-17

*RES
0 *37:d *39:s 124.340286  // $metal1_conn

*END

*D_NET *31 2.23143e-16

*CONN
*I *36:g B *C 0.4025 0.5300 
*I *3:d B *C 0.7000 0.5300 
*I *44:g B *C 0.4025 1.0950 
*I *45:d B *C 0.7500 0.9600 
*N *31:1 *C 0.4650 0.7600 
*N *31:2 *C 0.4025 0.7600 
*N *31:6 *C 0.7000 0.7600 

*CAP
0 *45:d 3.57226e-17
1 *44:g 3.83118e-17
2 *3:d 2.83985e-17
3 *36:g 2.95302e-17
4 *31:6 2.77422e-17
5 *31:2 2.82128e-17
6 *31:1 3.52248e-17

*RES
0 *31:1 *31:2 46.294373  // $poly_conn
1 *31:2 *36:g 20.563484  // $poly_conn
2 *31:2 *44:g 30.819893  // $poly_conn
3 *3:d *31:6 75.103149  // $metal1_conn
4 *31:6 *31:1 0.122552  // $metal1_conn
5 *31:6 *45:d 62.123802  // $metal1_conn

*END

