*SPEF "IEEE 1481-1999"
*DESIGN  "TLATNX4"
*DATE "Mon Sep 27 11:32:33 2010"
*VENDOR "Cadence Design Systems"
*PROGRAM "Assura RCX"
*VERSION "3.2 Red Hat Linux release 7.2 (Enigma) - (09/09/2009-10:39)"
*DESIGN_FLOW "Physical Verification"
*DIVIDER /
*DELIMITER :
*BUS_DELIMITER []
*T_UNIT 1 PS
*C_UNIT 1e15 FF
*R_UNIT 1 OHM
*L_UNIT 1 MH
// DeviceFingerDelim "@"
// MATCHED
// caps2d version: 10

*NAME_MAP
*1 mn21\@1
*2 QN
*3 mn21\@2
*4 mn21\@3
*5 mn20
*6 mn20\@1
*7 mn20\@2
*8 mn20\@3
*9 mp22\@2
*10 GN
*11 mp0
*12 mp21
*13 mp21\@1
*14 mp21\@2
*15 mp21\@3
*16 mp20
*17 mp20\@1
*18 mp20\@2
*19 mp20\@3
*20 Qbint
*21 mp22
*22 GNb
*23 mp22\@1
*24 net212
*25 mp10
*26 net220
*27 mp10\@1
*28 net245
*29 mp15
*30 net257
*31 mp16
*32 mp6
*33 mp22\@3
*34 mp5
*35 mp1
*36 VSS
*37 D
*38 mn22
*39 mn22\@1
*40 mn22\@2
*41 mn10
*42 Q
*43 mn10\@1
*44 VDD
*45 mn15
*46 mn16
*47 mn6
*48 n0
*49 mn5
*50 GNbb
*51 Qint
*52 mn1
*53 mn22\@3
*54 mn0
*55 mn21

*GROUND_NETS VSS

*PORTS
*44 I
*36 I
*37 I
*10 I
*42 O
*2 O

*D_NET *44 8.16558e-16

*CONN
*P *44 I *C 0.1000 1.7100 
*I *21:s B *C 2.7650 1.1450 
*I *23:s B *C 3.3100 1.1850 
*I *25:s B *C 3.3100 1.1850 
*I *27:s B *C 3.8350 1.2325 
*I *29:s B *C 3.8350 1.2325 
*I *34:s B *C 4.6900 1.2325 
*I *35:s B *C 4.6900 1.2325 
*I *9:s B *C 2.7650 1.1450 
*I *11:s B *C 0.6950 1.1450 
*I *12:s B *C 0.6950 1.1450 
*I *13:s B *C 1.0950 1.1450 
*I *14:s B *C 1.0950 1.1450 
*I *15:s B *C 1.5200 1.1450 
*I *16:s B *C 1.5200 1.1450 
*I *17:s B *C 1.9450 1.1450 
*I *18:s B *C 1.9450 1.1450 
*I *19:s B *C 2.3550 1.1450 
*I *33:s B *C 2.3550 1.1450 
*N *44:2 *C 4.3000 1.7100 
*N *44:3 *C 4.3000 1.7100 

*CAP
0 *34:s 2.84713e-17
1 *27:s 5.42838e-16
2 *44:2 2.3941e-16
3 *44 5.83787e-18

*RES
0 *27:s *44 0.292774  // $metal1_conn
1 *44:2 *44:3 8.333333  // $metal1_conn
2 *44:2 *27:s 9.375  // $metal1_conn
3 *44:2 *27:s 8.333333  // $metal1_conn
4 *34:s *44:3 62.498581  // $metal1_conn
5 *44:3 *27:s 0.333123  // $metal1_conn

*END

*D_NET *36 0

*CONN
*P *36 I *C 0.1000 0.0000 
*I *38:s B *C 3.0000 0.4450 
*I *39:s B *C 3.0000 0.4450 
*I *40:s B *C 3.4700 0.4725 
*I *41:s B *C 3.4700 0.4725 
*I *43:s B *C 4.0250 0.5025 
*I *45:s B *C 4.0250 0.5025 
*I *49:s B *C 4.7600 0.5025 
*I *52:s B *C 4.7600 0.5025 
*I *53:s B *C 2.5300 0.4450 
*I *54:s B *C 0.6075 0.4450 
*I *55:s B *C 0.6075 0.4450 
*I *1:s B *C 1.1200 0.4450 
*I *3:s B *C 1.1200 0.4450 
*I *4:s B *C 1.5900 0.4450 
*I *5:s B *C 1.5900 0.4450 
*I *6:s B *C 2.0600 0.4450 
*I *7:s B *C 2.0600 0.4450 
*I *8:s B *C 2.5300 0.4450 
*N *36:2 *C 4.3000 0.0000 
*N *36:3 *C 4.3000 0.0000 


*RES
0 *43:s *36 0.190021  // $metal1_conn
1 *36:2 *36:3 6.888889  // $metal1_conn
2 *36:2 *43:s 7.75  // $metal1_conn
3 *36:2 *43:s 6.888889  // $metal1_conn
4 *49:s *36:3 75.291519  // $metal1_conn
5 *36:3 *43:s 0.180247  // $metal1_conn

*END

*D_NET *37 3.01277e-16

*CONN
*P *37 I *C 4.7000 1.0450 
*I *49:g B *C 4.5275 0.5025 
*I *34:g B *C 4.5875 1.2325 
*N *37:2 *C 4.6900 0.7100 

*CAP
0 *34:g 7.13245e-17
1 *49:g 5.89126e-17
2 *37:2 1.27989e-16
3 *37 4.30509e-17

*RES
0 *34:g *37:2 102.137917  // $poly_conn
1 *37:2 *49:g 51.266846  // $poly_conn
2 *37 *37:2 45.200645  // $metal1_conn

*END

*D_NET *10 1.76581e-16

*CONN
*P *10 I *C 0.5000 0.6650 
*I *54:g B *C 0.3475 0.5025 
*I *11:g B *C 0.5525 1.0575 
*N *10:2 *C 0.5250 0.8000 

*CAP
0 *11:g 3.1779e-17
1 *54:g 3.06617e-17
2 *10:2 6.2176e-17
3 *10 5.19645e-17

*RES
0 *11:g *10:2 26.786451  // $poly_conn
1 *10:2 *54:g 78.189926  // $poly_conn
2 *10 *10:2 45.051693  // $metal1_conn

*END

*D_NET *42 2.82749e-16

*CONN
*P *42 O *C 0.9000 0.8550 
*I *55:d B *C 0.8000 0.4450 
*I *1:d B *C 0.8000 0.4450 
*I *3:d B *C 1.2700 0.4450 
*I *4:d B *C 1.2700 0.4450 
*I *12:d B *C 0.8900 1.1450 
*I *13:d B *C 0.8900 1.1450 
*I *14:d B *C 1.3000 1.1450 
*I *15:d B *C 1.3000 1.1450 

*CAP
0 *14:d 1.6504e-16
1 *55:d 9.94504e-17
2 *42 1.82582e-17

*RES
0 *14:d *42 0.081145  // $metal1_conn
1 *42 *55:d 0.178174  // $metal1_conn

*END

*D_NET *2 2.55521e-16

*CONN
*P *2 O *C 2.7000 1.0450 
*I *38:d B *C 2.6800 0.4450 
*I *39:d B *C 3.1500 0.4450 
*I *40:d B *C 3.1500 0.4450 
*I *53:d B *C 2.6800 0.4450 
*I *21:d B *C 2.9950 1.1450 
*I *23:d B *C 2.9950 1.1450 
*I *9:d B *C 2.5600 1.1450 
*I *33:d B *C 2.5600 1.1450 

*CAP
0 *38:d 1.22424e-16
1 *2 1.33097e-16

*RES
0 *38:d *2 0.303505  // $metal1_conn

*END

*D_NET *30 5.51213e-19

*CONN
*I *47:s B *C 4.4550 0.5025 
*I *49:d B *C 4.4550 0.5025 

*CAP
0 *47:s 5.51213e-19

*RES
0 *49:d *47:s 0.001  // $mwires

*END

*D_NET *28 3.00461e-19

*CONN
*I *45:d B *C 4.1250 0.5025 
*I *46:s B *C 4.1250 0.5025 

*CAP
0 *45:d 3.00461e-19

*RES
0 *46:s *45:d 0.001  // $mwires

*END

*D_NET *26 0

*CONN
*I *32:s B *C 4.5250 1.2325 
*I *34:d B *C 4.5250 1.2325 


*RES
0 *34:d *32:s 0.001  // $mwires

*END

*D_NET *24 0

*CONN
*I *29:d B *C 4.0625 1.2325 
*I *31:s B *C 4.0625 1.2325 


*RES
0 *31:s *29:d 0.001  // $mwires

*END

*D_NET *22 1.27942e-15

*CONN
*I *47:g B *C 4.3825 0.5025 
*I *52:g B *C 4.8225 0.5025 
*I *54:d B *C 0.2550 0.5025 
*I *31:g B *C 4.1575 1.2325 
*I *35:g B *C 4.7925 1.2325 
*I *11:d B *C 0.4600 1.0575 
*N *22:2 *C 4.1200 0.9150 
*N *22:4 *C 4.3300 0.1900 
*N *22:7 *C 4.8500 0.3200 
*N *22:8 *C 4.3300 0.3300 
*N *22:9 *C 4.0900 0.3300 
*N *22:11 *C 0.2450 0.4900 

*CAP
0 *11:d 6.17296e-17
1 *35:g 1.07922e-16
2 *31:g 3.90487e-17
3 *54:d 3.51855e-16
4 *47:g 5.14531e-17
5 *22:9 3.53992e-16
6 *22:8 5.35572e-17
7 *22:2 1.15705e-16
8 *22:4 5.19226e-17
9 *22:7 9.22315e-17

*RES
0 *31:g *22:2 89.360352  // $poly_conn
1 *47:g *22:4 99.014168  // $poly_conn
2 *35:g *52:g 148.185272  // $poly_conn
3 *52:g *22:7 62.398674  // $poly_conn
4 *22:4 *22:8 0.055136  // $metal1_conn
5 *22:8 *22:9 0.181927  // $metal1_conn
6 *22:9 *22:11 2.872709  // $metal1_conn
7 *22:8 *22:7 0.404047  // $metal1_conn
8 *22:9 *22:2 0.400693  // $metal1_conn
9 *22:11 *11:d 62.479767  // $metal1_conn
10 *54:d *22:11 75  // $metal1_conn

*END

*D_NET *20 5.53845e-16

*CONN
*I *55:g B *C 0.6975 0.4450 
*I *1:g B *C 0.9025 0.4450 
*I *3:g B *C 1.1675 0.4450 
*I *4:g B *C 1.3725 0.4450 
*I *5:d B *C 1.7400 0.4450 
*I *6:d B *C 1.7400 0.4450 
*I *7:d B *C 2.2100 0.4450 
*I *8:d B *C 2.2100 0.4450 
*I *12:g B *C 0.7875 1.1450 
*I *13:g B *C 0.9925 1.1450 
*I *14:g B *C 1.1975 1.1450 
*I *15:g B *C 1.4025 1.1450 
*I *16:d B *C 1.7400 1.1450 
*I *17:d B *C 1.7400 1.1450 
*I *18:d B *C 2.1500 1.1450 
*I *19:d B *C 2.1500 1.1450 
*N *20:18 *C 1.7400 0.8200 

*CAP
0 *18:d 1.42022e-16
1 *15:g 2.99617e-16
2 *5:d 8.66802e-17
3 *20:18 2.55261e-17

*RES
0 *20:18 *15:g 45.259647  // $metal1_conn
1 *5:d *20:18 0.223377  // $metal1_conn
2 *20:18 *18:d 0.119554  // $metal1_conn

*END

*D_NET *51 8.51966e-16

*CONN
*I *38:g B *C 2.7825 0.4450 
*I *39:g B *C 3.0475 0.4450 
*I *40:g B *C 3.2525 0.4450 
*I *41:d B *C 3.6200 0.4725 
*I *43:d B *C 3.6200 0.4725 
*I *45:g B *C 4.0725 0.5025 
*I *53:g B *C 2.5775 0.4450 
*I *5:g B *C 1.6375 0.4450 
*I *6:g B *C 1.8425 0.4450 
*I *7:g B *C 2.1075 0.4450 
*I *8:g B *C 2.3125 0.4450 
*I *21:g B *C 2.8675 1.1450 
*I *23:g B *C 3.1225 1.1450 
*I *25:d B *C 3.4600 1.1850 
*I *27:d B *C 3.4600 1.1850 
*I *29:g B *C 3.9675 1.2325 
*I *9:g B *C 2.6625 1.1450 
*I *16:g B *C 1.6375 1.1450 
*I *17:g B *C 1.8425 1.1450 
*I *18:g B *C 2.0475 1.1450 
*I *19:g B *C 2.2525 1.1450 
*I *33:g B *C 2.4575 1.1450 
*N *51:30 *C 3.9300 0.7000 
*N *51:33 *C 3.6200 0.6700 
*N *51:34 *C 3.4600 0.7175 

*CAP
0 *19:g 2.21734e-16
1 *29:g 5.26077e-17
2 *25:d 6.86163e-17
3 *23:g 2.60608e-16
4 *45:g 5.57081e-17
5 *41:d 2.64429e-17
6 *51:34 3.61008e-17
7 *51:33 2.61269e-17
8 *51:30 1.0402e-16

*RES
0 *51:30 *29:g 99.488556  // $poly_conn
1 *45:g *51:30 44.574535  // $poly_conn
2 *23:g *19:g 33.435036  // $poly_conn
3 *51:34 *23:g 45.259949  // $metal1_conn
4 *51:33 *51:30 45.210526  // $metal1_conn
5 *41:d *51:33 75.084366  // $metal1_conn
6 *51:34 *25:d 31.335501  // $metal1_conn
7 *51:33 *51:34 0.149969  // $metal1_conn

*END

*D_NET *50 4.55846e-16

*CONN
*I *46:g B *C 4.1775 0.5025 
*I *52:d B *C 4.9150 0.5025 
*I *32:g B *C 4.4625 1.2325 
*I *35:d B *C 4.8850 1.2325 
*N *50:2 *C 4.5000 0.8100 
*N *50:6 *C 4.9250 0.4900 

*CAP
0 *35:d 5.54378e-17
1 *32:g 5.60185e-17
2 *52:d 9.98181e-17
3 *46:g 8.37269e-17
4 *50:2 1.60845e-16

*RES
0 *32:g *50:2 71.283424  // $poly_conn
1 *50:2 *46:g 118.933517  // $poly_conn
2 *35:d *50:6 62.49506  // $metal1_conn
3 *50:6 *50:2 45.469353  // $metal1_conn
4 *52:d *50:6 75  // $metal1_conn

*END

*D_NET *48 4.21869e-16

*CONN
*I *41:g B *C 3.5175 0.4725 
*I *43:g B *C 3.7225 0.4725 
*I *46:d B *C 4.2800 0.5025 
*I *47:d B *C 4.2800 0.5025 
*I *25:g B *C 3.3575 1.1850 
*I *27:g B *C 3.5625 1.1850 
*I *31:d B *C 4.3100 1.2325 
*I *32:d B *C 4.3100 1.2325 
*N *48:9 *C 4.3100 1.0750 

*CAP
0 *31:d 1.57252e-17
1 *27:g 2.55671e-16
2 *46:d 7.76034e-17
3 *48:9 7.28692e-17

*RES
0 *48:9 *27:g 45.527363  // $metal1_conn
1 *48:9 *46:d 75.435944  // $metal1_conn
2 *31:d *48:9 62.083839  // $metal1_conn

*END

