*SPEF "IEEE 1481-1999"
*DESIGN  "TLATNSRX4"
*DATE "Mon Sep 27 11:28:00 2010"
*VENDOR "Cadence Design Systems"
*PROGRAM "Assura RCX"
*VERSION "3.2 Red Hat Linux release 7.2 (Enigma) - (09/09/2009-10:39)"
*DESIGN_FLOW "Physical Verification"
*DIVIDER /
*DELIMITER :
*BUS_DELIMITER []
*T_UNIT 1 PS
*C_UNIT 1e15 FF
*R_UNIT 1 OHM
*L_UNIT 1 MH
// DeviceFingerDelim "@"
// MATCHED
// caps2d version: 10

*NAME_MAP
*1 mn3
*2 net350
*3 net342
*4 net342\@1
*5 mn5
*6 mn6
*7 mn17
*8 mn16
*9 mn15
*10 mn10
*11 GN
*12 mp22
*13 mp22\@1
*14 mp22\@2
*15 mp22\@3
*16 mp20\@3
*17 mp11\@1
*18 mp0
*19 mp1
*20 mp2
*21 mp3
*22 mp5
*23 mp6
*24 VDD
*25 mp17
*26 mp16
*27 mp15
*28 mp10\@1
*29 net270
*30 mn20
*31 mn20\@1
*32 mp20
*33 mn20\@2
*34 QN
*35 mp20\@1
*36 mn20\@3
*37 VSS
*38 mp20\@2
*39 mn21
*40 mp21
*41 mn21\@1
*42 mp21\@1
*43 mn21\@2
*44 mp21\@2
*45 mn21\@3
*46 mp21\@3
*47 mn11
*48 mp11
*49 mp10
*50 D
*51 RN
*52 Q
*53 SN
*54 qbint
*55 GNbp
*56 GNb
*57 qint
*58 n5
*59 GNbb
*60 net313
*61 net326
*62 mn11\@1
*63 net366
*64 mn10\@1
*65 net354
*66 mn22
*67 mn22\@1
*68 mn22\@2
*69 mn22\@3
*70 mn0
*71 mn1
*72 mn2

*GROUND_NETS VSS

*PORTS
*24 I
*37 I
*50 I
*11 I
*51 I
*53 I
*52 O
*34 O

*D_NET *24 9.76133e-16

*CONN
*P *24 I *C 0.1000 1.7100 
*I *32:s B *C 5.1200 1.1200 
*I *35:s B *C 5.1200 1.1200 
*I *38:s B *C 5.5600 1.1200 
*I *40:s B *C 5.5600 1.1200 
*I *42:s B *C 6.0050 1.1200 
*I *44:s B *C 6.0050 1.1200 
*I *46:s B *C 6.4050 1.1200 
*I *48:s B *C 3.4700 1.5700 
*I *49:s B *C 3.9000 1.1200 
*I *12:s B *C 3.9000 1.1200 
*I *13:s B *C 4.3000 1.1200 
*I *14:s B *C 4.3000 1.1200 
*I *15:s B *C 4.7100 1.1200 
*I *16:s B *C 4.7100 1.1200 
*I *17:s B *C 3.4700 1.5700 
*I *18:s B *C 0.4475 1.2325 
*I *19:s B *C 0.4475 1.2325 
*I *20:s B *C 0.8650 1.3775 
*I *21:s B *C 1.6850 1.1425 
*I *22:s B *C 1.6850 1.1425 
*I *26:s B *C 2.6150 1.1425 
*I *27:s B *C 3.0700 1.5700 
*I *28:s B *C 3.0700 1.5700 
*N *24:3 *C 5.5000 1.7100 
*N *24:12 *C 2.5300 1.7100 
*N *24:13 *C 1.5950 1.7100 
*N *24:14 *C 1.1000 1.7100 
*N *24:15 *C 0.8650 1.7100 
*N *24:16 *C 0.3300 1.7100 

*CAP
0 *26:s 2.04449e-17
1 *21:s 1.7217e-17
2 *20:s 6.14062e-18
3 *18:s 7.83246e-18
4 *48:s 7.68308e-18
5 *46:s 5.20281e-16
6 *24:16 6.03608e-18
7 *24:15 8.80113e-18
8 *24:13 2.80139e-17
9 *24:12 2.17479e-17
10 *24:3 3.26292e-16
11 *24 5.64326e-18

*RES
0 *24:16 *24 0.114837  // $metal1_conn
1 *24:3 *46:s 6.818182  // $metal1_conn
2 *24:3 *46:s 6.818182  // $metal1_conn
3 *24:3 *24:14 6.818182  // $metal1_conn
4 *46:s *48:s 62.074306  // $metal1_conn
5 *24:12 *26:s 62.187267  // $metal1_conn
6 *24:13 *21:s 62.045795  // $metal1_conn
7 *24:15 *20:s 62.045795  // $metal1_conn
8 *24:16 *18:s 62.074306  // $metal1_conn
9 *46:s *24:12 0.257742  // $metal1_conn
10 *24:12 *24:13 0.467311  // $metal1_conn
11 *24:13 *24:14 0.246965  // $metal1_conn
12 *24:14 *24:15 0.116644  // $metal1_conn
13 *24:15 *24:16 0.266818  // $metal1_conn

*END

*D_NET *37 0

*CONN
*P *37 I *C 0.1000 0.0000 
*I *30:s B *C 4.6950 0.5300 
*I *31:s B *C 5.1050 0.5300 
*I *33:s B *C 5.1050 0.5300 
*I *36:s B *C 5.5150 0.5300 
*I *39:s B *C 5.5150 0.5300 
*I *41:s B *C 5.9250 0.5300 
*I *43:s B *C 5.9250 0.5300 
*I *45:s B *C 6.3250 0.5300 
*I *64:s B *C 3.8850 0.5300 
*I *66:s B *C 3.8850 0.5300 
*I *67:s B *C 4.2850 0.5300 
*I *68:s B *C 4.2850 0.5300 
*I *69:s B *C 4.6950 0.5300 
*I *70:s B *C 0.4250 0.3925 
*I *71:s B *C 0.4250 0.3925 
*I *1:s B *C 1.7400 0.5325 
*I *5:s B *C 1.7400 0.5325 
*I *9:s B *C 3.0900 0.5025 
*I *10:s B *C 3.0900 0.5025 
*N *37:3 *C 5.5000 0.0000 
*N *37:9 *C 3.3000 0.0000 
*N *37:10 *C 3.0800 0.0000 
*N *37:11 *C 1.8150 0.0000 
*N *37:12 *C 1.6550 0.0000 
*N *37:13 *C 1.1000 0.0000 
*N *37:14 *C 0.4250 0.0000 


*RES
0 *37:14 *37 0.162454  // $metal1_conn
1 *37:3 *45:s 5.636364  // $metal1_conn
2 *37:3 *37:9 5.636364  // $metal1_conn
3 *37:3 *37:13 5.636364  // $metal1_conn
4 *37:10 *9:s 75.291367  // $metal1_conn
5 *37:11 *1:s 75.080215  // $metal1_conn
6 *37:12 *1:s 75.080215  // $metal1_conn
7 *37:14 *70:s 75.236366  // $metal1_conn
8 *45:s *37:9 0.277988  // $metal1_conn
9 *37:9 *37:10 0.110518  // $metal1_conn
10 *37:10 *37:11 0.633666  // $metal1_conn
11 *37:11 *37:12 0.079805  // $metal1_conn
12 *37:12 *37:13 0.277988  // $metal1_conn
13 *37:13 *37:14 0.338136  // $metal1_conn

*END

*D_NET *50 2.60724e-16

*CONN
*P *50 I *C 1.7000 1.0450 
*I *5:g B *C 1.7875 0.5325 
*I *22:g B *C 1.7375 1.1425 
*N *50:2 *C 1.7100 0.7550 

*CAP
0 *22:g 6.98768e-17
1 *5:g 3.185e-17
2 *50:2 9.63592e-17
3 *50 6.26376e-17

*RES
0 *5:g *50:2 32.973343  // $poly_conn
1 *50:2 *22:g 62.930374  // $poly_conn
2 *50 *50:2 45.173695  // $metal1_conn

*END

*D_NET *11 1.99285e-16

*CONN
*P *11 I *C 0.3000 0.8550 
*I *70:g B *C 0.3225 0.3925 
*I *18:g B *C 0.2675 1.2325 
*N *11:2 *C 0.2950 0.7600 

*CAP
0 *18:g 3.90785e-17
1 *70:g 3.44057e-17
2 *11:2 6.50224e-17
3 *11 6.07789e-17

*RES
0 *70:g *11:2 67.127846  // $poly_conn
1 *11:2 *18:g 85.076569  // $poly_conn
2 *11 *11:2 45.0569  // $metal1_conn

*END

*D_NET *51 8.17045e-16

*CONN
*P *51 I *C 0.7000 0.8550 
*I *71:g B *C 0.5275 0.3925 
*I *9:g B *C 2.9125 0.5325 
*I *19:g B *C 0.5275 1.2325 
*I *27:g B *C 2.9125 1.1425 
*N *51:2 *C 0.5000 0.8450 
*N *51:6 *C 2.8750 0.3300 

*CAP
0 *27:g 7.86991e-17
1 *19:g 4.53738e-17
2 *9:g 4.26377e-17
3 *71:g 6.24347e-17
4 *51:2 7.57145e-17
5 *51:6 2.38127e-16
6 *51 2.74058e-16

*RES
0 *19:g *51:2 63.281693  // $poly_conn
1 *51:2 *71:g 88.922722  // $poly_conn
2 *27:g *9:g 110.256416  // $poly_conn
3 *9:g *51:6 68.847527  // $poly_conn
4 *51:6 *51 2.018037  // $metal1_conn
5 *51 *51:2 45.131325  // $metal1_conn

*END

*D_NET *53 4.59492e-16

*CONN
*P *53 I *C 3.7000 0.8550 
*I *64:g B *C 3.7025 0.5025 
*I *10:g B *C 3.1825 0.5025 
*I *49:g B *C 3.7575 1.0800 
*I *28:g B *C 3.1075 1.0800 

*CAP
0 *10:g 5.70371e-17
1 *64:g 6.28585e-17
2 *53 3.39596e-16

*RES
0 *53 *64:g 45.332973  // $poly_conn
1 *10:g *53 49.194759  // $poly_conn

*END

*D_NET *52 2.37465e-16

*CONN
*P *52 O *C 5.9000 0.8550 
*I *39:d B *C 5.7200 0.5300 
*I *41:d B *C 5.7200 0.5300 
*I *43:d B *C 6.1300 0.5300 
*I *45:d B *C 6.1300 0.5300 
*I *40:d B *C 5.7975 1.1200 
*I *42:d B *C 5.7975 1.1200 
*I *44:d B *C 6.2100 1.1200 
*I *46:d B *C 6.2100 1.1200 

*CAP
0 *44:d 1.61742e-16
1 *39:d 6.50881e-17
2 *52 1.06349e-17

*RES
0 *44:d *52 0.019085  // $metal1_conn
1 *52 *39:d 0.086507  // $metal1_conn

*END

*D_NET *34 2.46073e-16

*CONN
*P *34 O *C 4.1000 1.0450 
*I *66:d B *C 4.0700 0.5300 
*I *67:d B *C 4.0700 0.5300 
*I *68:d B *C 4.4900 0.5300 
*I *69:d B *C 4.4900 0.5300 
*I *12:d B *C 4.0950 1.1200 
*I *13:d B *C 4.0950 1.1200 
*I *14:d B *C 4.5050 1.1200 
*I *15:d B *C 4.5050 1.1200 

*CAP
0 *66:d 8.12944e-17
1 *34 1.64779e-16

*RES
0 *34 *66:d 0.264063  // $metal1_conn

*END

*D_NET *4 0

*CONN
*I *62:s B *C 3.6500 0.5025 
*I *64:d B *C 3.6500 0.5025 


*RES
0 *64:d *62:s 0.001  // $mwires

*END

*D_NET *3 0

*CONN
*I *47:s B *C 3.2450 0.5025 
*I *10:d B *C 3.2450 0.5025 


*RES
0 *10:d *47:s 0.001  // $mwires

*END

*D_NET *2 0

*CONN
*I *8:s B *C 2.7875 0.5325 
*I *9:d B *C 2.7875 0.5325 


*RES
0 *9:d *8:s 0.001  // $mwires

*END

*D_NET *65 3.24326e-19

*CONN
*I *7:s B *C 2.5450 0.5325 
*I *8:d B *C 2.5450 0.5325 

*CAP
0 *7:s 3.24326e-19

*RES
0 *8:d *7:s 0.001  // $mwires

*END

*D_NET *63 6.4792e-18

*CONN
*I *5:d B *C 1.9600 0.5325 
*I *6:s B *C 1.9600 0.5325 

*CAP
0 *5:d 6.4792e-18

*RES
0 *6:s *5:d 0.001  // $mwires

*END

*D_NET *61 0

*CONN
*I *71:d B *C 0.6300 0.3925 
*I *72:s B *C 0.6300 0.3925 


*RES
0 *72:s *71:d 0.001  // $mwires

*END

*D_NET *60 0

*CONN
*I *22:d B *C 1.7900 1.1425 
*I *23:s B *C 1.7900 1.1425 


*RES
0 *23:s *22:d 0.001  // $mwires

*END

*D_NET *59 8.52881e-16

*CONN
*I *72:d B *C 0.9325 0.3925 
*I *1:g B *C 1.4625 0.5325 
*I *7:g B *C 2.4275 0.5325 
*I *19:d B *C 0.6300 1.2325 
*I *20:d B *C 0.6300 1.2325 
*I *21:g B *C 1.4625 1.1425 
*I *23:g B *C 1.8425 1.1425 
*N *59:2 *C 1.5000 0.8500 
*N *59:5 *C 1.8700 0.9000 
*N *59:7 *C 2.3900 0.8700 
*N *59:8 *C 1.4700 1.3350 
*N *59:9 *C 1.0200 1.0250 

*CAP
0 *23:g 5.69551e-17
1 *21:g 3.36196e-17
2 *19:d 5.29749e-17
3 *7:g 4.31467e-17
4 *1:g 2.87877e-17
5 *72:d 7.78806e-17
6 *59:9 1.03915e-16
7 *59:8 1.13161e-16
8 *59:2 9.48572e-17
9 *59:5 1.37081e-16
10 *59:7 1.10503e-16

*RES
0 *21:g *59:2 37.950092  // $poly_conn
1 *59:2 *1:g 53.334705  // $poly_conn
2 *23:g *59:5 71.102211  // $poly_conn
3 *7:g *59:7 103.462914  // $poly_conn
4 *59:7 *59:5 0.390931  // $metal1_conn
5 *59:5 *59:8 0.636901  // $metal1_conn
6 *59:8 *59:9 0.539357  // $metal1_conn
7 *59:9 *19:d 62.365803  // $metal1_conn
8 *59:8 *59:2 45.338486  // $metal1_conn
9 *59:9 *72:d 75.453018  // $metal1_conn

*END

*D_NET *58 5.91277e-16

*CONN
*I *47:g B *C 3.3075 0.5025 
*I *62:g B *C 3.5975 0.5025 
*I *6:d B *C 2.2800 0.5325 
*I *7:d B *C 2.2800 0.5325 
*I *48:g B *C 3.5075 1.0800 
*I *17:g B *C 3.3125 1.0800 
*I *23:d B *C 1.9875 1.1425 
*I *25:d B *C 1.9875 1.1425 
*N *58:7 *C 2.5800 0.6650 
*N *58:9 *C 2.3250 0.5200 
*N *58:11 *C 2.0300 1.1200 

*CAP
0 *23:d 1.30291e-16
1 *48:g 2.04988e-16
2 *6:d 6.13243e-17
3 *62:g 4.87034e-17
4 *47:g 3.28048e-17
5 *58:7 1.13166e-16

*RES
0 *62:g *48:g 53.831417  // $poly_conn
1 *48:g *47:g 16.530039  // $poly_conn
2 *48:g *58:7 45.522591  // $metal1_conn
3 *23:d *58:11 62  // $metal1_conn
4 *6:d *58:9 75  // $metal1_conn
5 *58:7 *58:9 0.260425  // $metal1_conn
6 *58:7 *58:11 0.697316  // $metal1_conn

*END

*D_NET *57 8.58262e-16

*CONN
*I *30:g B *C 4.7975 0.5300 
*I *31:g B *C 5.0025 0.5300 
*I *33:g B *C 5.2075 0.5300 
*I *36:g B *C 5.4125 0.5300 
*I *47:d B *C 3.4525 0.5025 
*I *62:d B *C 3.4525 0.5025 
*I *66:g B *C 3.9575 0.5300 
*I *67:g B *C 4.1825 0.5300 
*I *68:g B *C 4.3875 0.5300 
*I *69:g B *C 4.5925 0.5300 
*I *8:g B *C 2.6625 0.5325 
*I *32:g B *C 5.0175 1.1200 
*I *35:g B *C 5.2225 1.1200 
*I *38:g B *C 5.4275 1.1200 
*I *48:d B *C 3.6325 1.0800 
*I *49:d B *C 3.6325 1.0800 
*I *12:g B *C 3.9925 1.1200 
*I *13:g B *C 4.1975 1.1200 
*I *14:g B *C 4.4025 1.1200 
*I *15:g B *C 4.6075 1.1200 
*I *16:g B *C 4.8125 1.1200 
*I *17:d B *C 3.2100 1.0800 
*I *26:g B *C 2.6625 1.1425 
*I *28:d B *C 3.2100 1.0800 
*N *57:1 *C 2.7700 0.9350 
*N *57:2 *C 2.6625 0.9350 
*N *57:31 *C 3.9200 0.7600 

*CAP
0 *26:g 3.13537e-17
1 *15:g 3.06783e-16
2 *48:d 1.28364e-16
3 *38:g 1.78483e-16
4 *8:g 4.78247e-17
5 *47:d 6.21579e-17
6 *57:2 2.24374e-17
7 *57:1 8.08584e-17

*RES
0 *57:2 *26:g 20.563484  // $poly_conn
1 *57:2 *8:g 79.537842  // $poly_conn
2 *57:1 *57:2 51.017776  // $poly_conn
3 *38:g *15:g 50.743431  // $poly_conn
4 *48:d *57:1 0.373633  // $metal1_conn
5 *47:d *57:31 75.441185  // $metal1_conn
6 *15:g *57:31 45  // $metal1_conn
7 *57:31 *48:d 0.444145  // $metal1_conn

*END

*D_NET *56 3.90976e-16

*CONN
*I *1:d B *C 1.3700 0.5325 
*I *6:g B *C 2.1325 0.5325 
*I *21:d B *C 1.3300 1.1425 
*I *25:g B *C 2.1325 1.1425 
*N *56:2 *C 2.1700 0.7100 
*N *56:6 *C 1.3600 0.5450 

*CAP
0 *25:g 4.0991e-17
1 *21:d 8.01718e-17
2 *6:g 2.48749e-17
3 *1:d 1.184e-16
4 *56:2 1.26538e-16

*RES
0 *25:g *56:2 73.847527  // $poly_conn
1 *56:2 *6:g 17.437269  // $poly_conn
2 *21:d *56:6 62.436344  // $metal1_conn
3 *56:6 *56:2 45.646111  // $metal1_conn
4 *1:d *56:6 75  // $metal1_conn

*END

*D_NET *55 3.18592e-16

*CONN
*I *70:d B *C 0.2300 0.3925 
*I *72:g B *C 0.7325 0.3925 
*I *18:d B *C 0.1425 1.2325 
*I *20:g B *C 0.7325 1.2325 
*N *55:2 *C 0.7325 0.5700 
*N *55:3 *C 0.6700 0.5700 
*N *55:5 *C 0.2200 0.5700 

*CAP
0 *20:g 5.11686e-17
1 *18:d 5.0358e-17
2 *72:g 2.44156e-17
3 *70:d 1.9986e-17
4 *55:5 7.49439e-17
5 *55:2 3.19591e-17
6 *55:3 6.57612e-17

*RES
0 *20:g *55:2 139.553009  // $poly_conn
1 *55:2 *55:3 46.294373  // $poly_conn
2 *55:2 *72:g 24.16839  // $poly_conn
3 *55:3 *55:5 0.320094  // $metal1_conn
4 *55:5 *18:d 62.596432  // $metal1_conn
5 *55:5 *70:d 75.092163  // $metal1_conn

*END

*D_NET *54 4.63757e-16

*CONN
*I *30:d B *C 4.9000 0.5300 
*I *31:d B *C 4.9000 0.5300 
*I *33:d B *C 5.3100 0.5300 
*I *36:d B *C 5.3100 0.5300 
*I *39:g B *C 5.6175 0.5300 
*I *41:g B *C 5.8225 0.5300 
*I *43:g B *C 6.0275 0.5300 
*I *45:g B *C 6.2325 0.5300 
*I *32:d B *C 4.9150 1.1200 
*I *35:d B *C 5.3250 1.1200 
*I *38:d B *C 5.3250 1.1200 
*I *40:g B *C 5.6925 1.1200 
*I *42:g B *C 5.9025 1.1200 
*I *44:g B *C 6.1075 1.1200 
*I *46:g B *C 6.3125 1.1200 
*I *16:d B *C 4.9150 1.1200 

*CAP
0 *46:g 2.34947e-16
1 *35:d 2.28811e-16

*RES
0 *46:g *35:d 45.265316  // $metal1_conn

*END

*D_NET *29 1.25833e-16

*CONN
*I *25:s B *C 2.2250 1.1425 
*I *26:d B *C 2.7875 1.1425 
*I *27:d B *C 2.7875 1.1425 

*CAP
0 *26:d 5.93254e-17
1 *25:s 6.65076e-17

*RES
0 *26:d *25:s 124.317444  // $metal1_conn

*END

