*SPEF "IEEE 1481-1999"
*DESIGN  "TLATX1"
*DATE "Mon Sep 27 11:34:47 2010"
*VENDOR "Cadence Design Systems"
*PROGRAM "Assura RCX"
*VERSION "3.2 Red Hat Linux release 7.2 (Enigma) - (09/09/2009-10:39)"
*DESIGN_FLOW "Physical Verification"
*DIVIDER /
*DELIMITER :
*BUS_DELIMITER []
*T_UNIT 1 PS
*C_UNIT 1e15 FF
*R_UNIT 1 OHM
*L_UNIT 1 MH
// DeviceFingerDelim "@"
// MATCHED
// caps2d version: 10

*NAME_MAP
*1 VDD
*2 mn1
*3 mn5
*4 mn6
*5 mn16
*6 mn15
*7 VSS
*8 mp21
*9 mn10
*10 mn0
*11 mn22
*12 mn20
*13 D
*14 G
*15 QN
*16 Qint
*17 Q
*18 Gb
*19 net220
*20 net212
*21 net257
*22 net245
*23 Qbint
*24 n0
*25 mp1
*26 Gbb
*27 mp5
*28 mp6
*29 mp16
*30 mp15
*31 mp10
*32 mp0
*33 mp22
*34 mp20
*35 mn21

*GROUND_NETS VSS

*PORTS
*1 I
*7 I
*13 I
*14 I
*17 O
*15 O

*D_NET *1 4.70713e-16

*CONN
*P *1 I *C 0.1000 1.7100 
*I *25:s B *C 0.4275 1.2975 
*I *27:s B *C 0.4275 1.2975 
*I *30:s B *C 1.3800 1.2975 
*I *31:s B *C 1.3800 1.2975 
*I *32:s B *C 2.1150 1.2200 
*I *33:s B *C 2.1150 1.2200 
*I *34:s B *C 2.8700 1.1300 
*I *8:s B *C 2.8700 1.1300 
*N *1:2 *C 2.4000 1.7100 
*N *1:3 *C 2.4000 1.7100 
*N *1:4 *C 2.1050 1.7100 
*N *1:5 *C 1.2950 1.7100 
*N *1:6 *C 0.8000 1.7100 
*N *1:7 *C 0.4050 1.7100 

*CAP
0 *34:s 8.49756e-17
1 *32:s 3.08202e-17
2 *30:s 2.29374e-17
3 *25:s 3.34171e-17
4 *1:7 1.13301e-17
5 *1:5 3.27663e-17
6 *1:4 1.59074e-17
7 *1:2 2.33204e-16
8 *1 5.35523e-18

*RES
0 *34:s *1:3 21.312262  // $metal1_conn
1 *1:3 *1:4 0.147692  // $metal1_conn
2 *1:4 *1:5 0.404724  // $metal1_conn
3 *1:5 *1:6 0.247006  // $metal1_conn
4 *1:6 *1:7 0.197824  // $metal1_conn
5 *1:7 *1 0.152455  // $metal1_conn
6 *1:4 *32:s 62.221912  // $metal1_conn
7 *1:5 *30:s 62.045803  // $metal1_conn
8 *1:7 *25:s 62.224129  // $metal1_conn
9 *1:2 *1:3 9.375  // $metal1_conn
10 *1:2 *1:6 9.375  // $metal1_conn

*END

*D_NET *7 0

*CONN
*P *7 I *C 0.1000 0.0000 
*I *2:s B *C 0.5050 0.4725 
*I *3:s B *C 0.5050 0.4725 
*I *6:s B *C 1.4700 0.4725 
*I *9:s B *C 1.4700 0.4725 
*I *10:s B *C 2.1350 0.5300 
*I *11:s B *C 2.1350 0.5300 
*I *12:s B *C 2.8700 0.5300 
*I *35:s B *C 2.8700 0.5300 
*N *7:2 *C 2.4000 0.0000 
*N *7:3 *C 2.4000 0.0000 
*N *7:4 *C 2.0750 0.0000 
*N *7:5 *C 1.3500 0.0000 
*N *7:6 *C 0.8000 0.0000 
*N *7:7 *C 0.4900 0.0000 


*RES
0 *12:s *7:3 75.551193  // $metal1_conn
1 *7:3 *7:4 0.162732  // $metal1_conn
2 *7:4 *7:5 0.363062  // $metal1_conn
3 *7:5 *7:6 0.275528  // $metal1_conn
4 *7:6 *7:7 0.155212  // $metal1_conn
5 *7:7 *7 0.195066  // $metal1_conn
6 *7:4 *10:s 75.301765  // $metal1_conn
7 *7:5 *6:s 75.074409  // $metal1_conn
8 *7:7 *2:s 75.074409  // $metal1_conn
9 *7:2 *7:3 7.75  // $metal1_conn
10 *7:2 *7:6 7.75  // $metal1_conn

*END

*D_NET *13 2.55122e-16

*CONN
*P *13 I *C 0.5000 0.8550 
*I *3:g B *C 0.5525 0.4725 
*I *27:g B *C 0.5525 1.2975 
*N *13:2 *C 0.5250 0.7850 

*CAP
0 *27:g 5.59971e-17
1 *3:g 3.86474e-17
2 *13:2 1.02735e-16
3 *13 5.77427e-17

*RES
0 *27:g *13:2 95.332977  // $poly_conn
1 *13:2 *3:g 53.025284  // $poly_conn
2 *13 *13:2 45.024506  // $metal1_conn

*END

*D_NET *14 1.92437e-16

*CONN
*P *14 I *C 1.9000 0.8550 
*I *10:g B *C 1.9725 0.4725 
*I *32:g B *C 1.8825 1.1325 
*N *14:2 *C 1.9100 0.8400 
*N *14:4 *C 1.9050 0.8400 

*CAP
0 *32:g 3.28997e-17
1 *10:g 3.53127e-17
2 *14:4 2.11298e-17
3 *14:2 4.17549e-17
4 *14 6.13399e-17

*RES
0 *10:g *14:2 68.531548  // $poly_conn
1 *14:2 *32:g 36.629444  // $poly_conn
2 *14:4 *14 0.009328  // $metal1_conn
3 *14:2 *14:4 45  // $metal1_conn

*END

*D_NET *17 1.08277e-16

*CONN
*P *17 O *C 3.1000 0.6650 
*I *35:d B *C 3.0650 0.5300 
*I *8:d B *C 3.0775 1.1300 

*CAP
0 *8:d 6.60922e-17
1 *35:d 4.21845e-17

*RES
0 *8:d *17 20.924938  // $metal1_conn
1 *17 *35:d 75.032684  // $metal1_conn

*END

*D_NET *15 1.23987e-16

*CONN
*P *15 O *C 2.3000 0.6650 
*I *11:d B *C 2.3000 0.5300 
*I *33:d B *C 2.3000 1.2200 

*CAP
0 *33:d 6.43446e-17
1 *11:d 5.96427e-17

*RES
0 *33:d *15 21.053438  // $metal1_conn
1 *15 *11:d 75.054062  // $metal1_conn

*END

*D_NET *22 0

*CONN
*I *5:s B *C 1.2700 0.4725 
*I *6:d B *C 1.2700 0.4725 


*RES
0 *6:d *5:s 0.001  // $mwires

*END

*D_NET *21 1.02332e-17

*CONN
*I *3:d B *C 0.7825 0.4725 
*I *4:s B *C 0.7825 0.4725 

*CAP
0 *3:d 1.02332e-17

*RES
0 *4:s *3:d 0.001  // $mwires

*END

*D_NET *20 1.15923e-18

*CONN
*I *29:s B *C 1.0950 1.2975 
*I *30:d B *C 1.0950 1.2975 

*CAP
0 *29:s 1.15923e-18

*RES
0 *30:d *29:s 0.001  // $mwires

*END

*D_NET *19 0

*CONN
*I *27:d B *C 0.6400 1.2975 
*I *28:s B *C 0.6400 1.2975 


*RES
0 *28:s *27:d 0.001  // $mwires

*END

*D_NET *18 9.94445e-16

*CONN
*I *2:g B *C 0.3575 0.4725 
*I *5:g B *C 1.2175 0.4725 
*I *10:d B *C 1.8800 0.4725 
*I *25:g B *C 0.3025 1.2975 
*I *28:g B *C 0.7275 1.2975 
*I *32:d B *C 1.7650 1.1325 
*N *18:2 *C 0.3300 1.0800 
*N *18:5 *C 0.7650 0.9800 
*N *18:7 *C 1.1600 0.2900 
*N *18:9 *C 0.7650 1.1550 

*CAP
0 *32:d 1.41555e-16
1 *28:g 3.53281e-17
2 *25:g 2.37473e-17
3 *10:d 8.09612e-17
4 *5:g 8.06552e-17
5 *2:g 5.44676e-17
6 *18:9 1.38065e-16
7 *18:2 1.0387e-16
8 *18:5 1.39118e-16
9 *18:7 1.96678e-16

*RES
0 *2:g *18:2 128.666306  // $poly_conn
1 *18:2 *25:g 19.691952  // $poly_conn
2 *28:g *18:5 89.360352  // $poly_conn
3 *5:g *18:7 65.678978  // $poly_conn
4 *10:d *18:7 75.68557  // $metal1_conn
5 *18:7 *18:5 0.709586  // $metal1_conn
6 *18:5 *18:9 0.122695  // $metal1_conn
7 *18:9 *18:2 45.343403  // $metal1_conn
8 *18:9 *32:d 63.111141  // $metal1_conn

*END

*D_NET *16 7.04532e-16

*CONN
*I *6:g B *C 1.3225 0.4725 
*I *9:d B *C 1.6350 0.4725 
*I *11:g B *C 2.2075 0.5300 
*I *12:g B *C 2.7675 0.5300 
*I *30:g B *C 1.1625 1.2975 
*I *31:d B *C 1.5200 1.2975 
*I *33:g B *C 2.2075 1.2200 
*I *34:g B *C 2.7675 1.1300 
*N *16:2 *C 1.2950 0.9350 
*N *16:5 *C 2.7675 0.7375 
*N *16:6 *C 2.2075 0.7600 
*N *16:7 *C 2.1300 0.7600 
*N *16:11 *C 1.6700 0.6500 
*N *16:12 *C 1.5600 0.9350 

*CAP
0 *34:g 4.30278e-17
1 *33:g 3.31559e-17
2 *31:d 5.05226e-17
3 *30:g 6.24699e-17
4 *12:g 2.73575e-17
5 *11:g 3.10251e-17
6 *9:d 2.86284e-17
7 *6:g 8.84892e-17
8 *16:12 4.32304e-17
9 *16:11 5.414e-17
10 *16:6 1.80331e-17
11 *16:5 2.97745e-17
12 *16:2 1.08702e-16
13 *16:7 8.59759e-17

*RES
0 *6:g *16:2 88.324913  // $poly_conn
1 *16:2 *30:g 74.343773  // $poly_conn
2 *34:g *16:5 49.489017  // $poly_conn
3 *16:5 *16:6 137.339966  // $poly_conn
4 *16:6 *16:7 50.288631  // $poly_conn
5 *16:5 *12:g 18.71979  // $poly_conn
6 *16:6 *11:g 22.29151  // $poly_conn
7 *16:6 *33:g 64.599205  // $poly_conn
8 *16:7 *16:11 0.384971  // $metal1_conn
9 *16:11 *16:12 0.290528  // $metal1_conn
10 *16:12 *16:2 45.187096  // $metal1_conn
11 *16:11 *9:d 75.112915  // $metal1_conn
12 *16:12 *31:d 62.199417  // $metal1_conn

*END

*D_NET *26 3.85524e-16

*CONN
*I *2:d B *C 0.2650 0.4725 
*I *4:g B *C 1.0125 0.4725 
*I *25:d B *C 0.1950 1.2975 
*I *29:g B *C 1.0275 1.2975 
*N *26:2 *C 1.0200 0.6725 
*N *26:3 *C 0.7650 0.6450 
*N *26:6 *C 0.2550 0.4600 

*CAP
0 *29:g 7.23132e-17
1 *25:d 6.03596e-17
2 *4:g 3.27165e-17
3 *2:d 8.44297e-17
4 *26:2 3.8438e-17
5 *26:3 9.72667e-17

*RES
0 *29:g *26:2 132.096405  // $poly_conn
1 *26:2 *26:3 98.682816  // $poly_conn
2 *26:2 *4:g 33.566013  // $poly_conn
3 *26:3 *26:6 0.450918  // $metal1_conn
4 *26:6 *25:d 62.570053  // $metal1_conn
5 *2:d *26:6 75  // $metal1_conn

*END

*D_NET *24 3.80884e-16

*CONN
*I *4:d B *C 1.1150 0.4725 
*I *5:d B *C 1.1150 0.4725 
*I *9:g B *C 1.5175 0.4725 
*I *28:d B *C 0.8775 1.2975 
*I *29:d B *C 0.8775 1.2975 
*I *31:g B *C 1.4275 1.2975 
*N *24:2 *C 1.4550 0.6800 
*N *24:4 *C 1.0850 0.6800 

*CAP
0 *31:g 5.65984e-17
1 *28:d 7.52593e-17
2 *9:g 3.39026e-17
3 *4:d 4.0893e-17
4 *24:4 7.44032e-17
5 *24:2 9.9827e-17

*RES
0 *9:g *24:2 28.86861  // $poly_conn
1 *24:2 *31:g 119.094139  // $poly_conn
2 *24:2 *24:4 45.237999  // $metal1_conn
3 *24:4 *28:d 62.500492  // $metal1_conn
4 *24:4 *4:d 75.144287  // $metal1_conn

*END

*D_NET *23 2.35918e-16

*CONN
*I *12:d B *C 2.6750 0.5300 
*I *35:g B *C 2.9725 0.5300 
*I *34:d B *C 2.6750 1.1300 
*I *8:g B *C 2.9725 1.1300 
*N *23:2 *C 2.9725 0.8350 
*N *23:3 *C 2.9100 0.8350 
*N *23:5 *C 2.6650 0.8350 

*CAP
0 *8:g 3.5928e-17
1 *34:d 5.04705e-17
2 *35:g 3.18422e-17
3 *12:d 2.19851e-17
4 *23:5 2.84261e-17
5 *23:2 1.3804e-17
6 *23:3 5.34623e-17

*RES
0 *8:g *23:2 22.886339  // $poly_conn
1 *23:2 *23:3 46.294373  // $poly_conn
2 *23:2 *35:g 42.117107  // $poly_conn
3 *23:3 *23:5 0.154823  // $metal1_conn
4 *23:5 *12:d 75.164589  // $metal1_conn
5 *23:5 *34:d 20.883377  // $metal1_conn

*END

