*SPEF "IEEE 1481-1999"
*DESIGN  "TLATX2"
*DATE "Mon Sep 27 11:35:09 2010"
*VENDOR "Cadence Design Systems"
*PROGRAM "Assura RCX"
*VERSION "3.2 Red Hat Linux release 7.2 (Enigma) - (09/09/2009-10:39)"
*DESIGN_FLOW "Physical Verification"
*DIVIDER /
*DELIMITER :
*BUS_DELIMITER []
*T_UNIT 1 PS
*C_UNIT 1e15 FF
*R_UNIT 1 OHM
*L_UNIT 1 MH
// DeviceFingerDelim "@"
// MATCHED
// caps2d version: 10

*NAME_MAP
*1 D
*2 G
*3 mn6
*4 mn16
*5 mn15
*6 Q
*7 mp6
*8 mn10
*9 VDD
*10 mp16
*11 mp15
*12 VSS
*13 mp10
*14 Qint
*15 Gb
*16 net220
*17 net212
*18 net257
*19 net245
*20 mn0
*21 mn22
*22 mn22\@1
*23 n0
*24 mn20
*25 Qbint
*26 mn20\@1
*27 Gbb
*28 mn21
*29 mn21\@1
*30 QN
*31 mn1
*32 mn5
*33 mp0
*34 mp22
*35 mp22\@1
*36 mp20
*37 mp20\@1
*38 mp21
*39 mp21\@1
*40 mp1
*41 mp5

*GROUND_NETS VSS

*PORTS
*9 I
*12 I
*1 I
*2 I
*6 O
*30 O

*D_NET *9 6.42759e-16

*CONN
*P *9 I *C 0.1000 1.7100 
*I *33:s B *C 2.1150 1.1100 
*I *34:s B *C 2.1150 1.1100 
*I *35:s B *C 2.4950 1.1100 
*I *36:s B *C 2.4950 1.1100 
*I *37:s B *C 2.9700 1.1100 
*I *38:s B *C 2.9700 1.1100 
*I *39:s B *C 3.4850 1.1100 
*I *40:s B *C 0.3600 1.3575 
*I *41:s B *C 0.3600 1.3575 
*I *11:s B *C 1.4750 1.1450 
*I *13:s B *C 1.4750 1.1450 
*N *9:3 *C 2.7000 1.7100 
*N *9:7 *C 1.3600 1.7100 
*N *9:8 *C 0.9000 1.7100 
*N *9:9 *C 0.3600 1.7100 

*CAP
0 *11:s 4.19508e-17
1 *40:s 3.4401e-17
2 *39:s 2.61209e-16
3 *9:9 1.39027e-17
4 *9:7 2.12795e-17
5 *9:3 2.54698e-16
6 *9 1.53183e-17

*RES
0 *9:9 *9 0.129895  // $metal1_conn
1 *9:3 *39:s 8.333333  // $metal1_conn
2 *9:3 *9:8 8.333333  // $metal1_conn
3 *9:7 *11:s 62.185345  // $metal1_conn
4 *9:9 *40:s 62.188641  // $metal1_conn
5 *39:s *9:7 0.363062  // $metal1_conn
6 *9:7 *9:8 0.230409  // $metal1_conn
7 *9:8 *9:9 0.270514  // $metal1_conn

*END

*D_NET *12 0

*CONN
*P *12 I *C 0.1000 0.0000 
*I *20:s B *C 2.1050 0.4500 
*I *21:s B *C 2.1050 0.4500 
*I *22:s B *C 2.4950 0.4500 
*I *24:s B *C 2.4950 0.4500 
*I *26:s B *C 2.9700 0.4500 
*I *28:s B *C 2.9700 0.4500 
*I *29:s B *C 3.4850 0.4500 
*I *31:s B *C 0.4100 0.5875 
*I *32:s B *C 0.4100 0.5875 
*I *5:s B *C 1.4500 0.5575 
*I *8:s B *C 1.4500 0.5575 
*N *12:3 *C 2.7000 0.0000 
*N *12:7 *C 1.3350 0.0000 
*N *12:8 *C 0.9000 0.0000 
*N *12:9 *C 0.3900 0.0000 


*RES
0 *12:9 *12 0.143986  // $metal1_conn
1 *12:3 *29:s 6.888889  // $metal1_conn
2 *12:3 *12:8 6.888889  // $metal1_conn
3 *12:7 *5:s 75.074409  // $metal1_conn
4 *12:9 *31:s 75.045799  // $metal1_conn
5 *29:s *12:7 0.343009  // $metal1_conn
6 *12:7 *12:8 0.217876  // $metal1_conn
7 *12:8 *12:9 0.254526  // $metal1_conn

*END

*D_NET *1 2.34016e-16

*CONN
*P *1 I *C 0.5000 1.0450 
*I *32:g B *C 0.4625 0.5875 
*I *41:g B *C 0.4625 1.3575 
*N *1:2 *C 0.4350 0.7700 

*CAP
0 *41:g 4.85193e-17
1 *32:g 2.76254e-17
2 *1:2 1.07022e-16
3 *1 5.08487e-17

*RES
0 *41:g *1:2 114.563744  // $poly_conn
1 *1:2 *32:g 19.691952  // $poly_conn
2 *1 *1:2 45.083488  // $metal1_conn

*END

*D_NET *2 2.1483e-16

*CONN
*P *2 I *C 1.9000 1.0450 
*I *20:g B *C 1.9575 0.5075 
*I *33:g B *C 1.9825 1.1975 
*N *2:2 *C 1.9550 0.9800 
*N *2:4 *C 1.9275 0.9800 
*N *2:5 *C 1.9550 0.9800 
*N *2:6 *C 1.9275 1.0450 

*CAP
0 *33:g 4.14713e-17
1 *20:g 5.73876e-17
2 *2:6 2.93853e-17
3 *2:4 4.98649e-17
4 *2:2 3.67204e-17

*RES
0 *33:g *2:2 19.691952  // $poly_conn
1 *2:2 *20:g 92.294304  // $poly_conn
2 *2:4 *2:5 0.006478  // $metal1_conn
3 *2 *2:6 0.00636  // $metal1_conn
4 *2:4 *2:6 0.02202  // $metal1_conn
5 *2:2 *2:5 45  // $metal1_conn

*END

*D_NET *6 1.05411e-16

*CONN
*P *6 O *C 3.3000 0.6650 
*I *28:d B *C 3.2650 0.4500 
*I *29:d B *C 3.2650 0.4500 
*I *38:d B *C 3.2650 1.1100 
*I *39:d B *C 3.2650 1.1100 

*CAP
0 *38:d 7.25269e-17
1 *28:d 1.28453e-17
2 *6 2.00386e-17

*RES
0 *6 *38:d 20.933369  // $metal1_conn
1 *6 *28:d 75.090652  // $metal1_conn

*END

*D_NET *30 1.33445e-16

*CONN
*P *30 O *C 2.3000 0.4750 
*I *21:d B *C 2.2725 0.4500 
*I *22:d B *C 2.2725 0.4500 
*I *34:d B *C 2.2900 1.1100 
*I *35:d B *C 2.2900 1.1100 

*CAP
0 *34:d 8.083e-17
1 *30 5.26153e-17

*RES
0 *34:d *30 21.107929  // $metal1_conn
1 *30 *21:d 75.003326  // $metal1_conn

*END

*D_NET *19 0

*CONN
*I *4:s B *C 1.2250 0.5875 
*I *5:d B *C 1.2250 0.5875 


*RES
0 *5:d *4:s 0.001  // $mwires

*END

*D_NET *18 1.17353e-17

*CONN
*I *32:d B *C 0.7150 0.5875 
*I *3:s B *C 0.7150 0.5875 

*CAP
0 *32:d 1.17353e-17

*RES
0 *3:s *32:d 0.001  // $mwires

*END

*D_NET *17 1.30876e-18

*CONN
*I *10:s B *C 1.1450 1.3575 
*I *11:d B *C 1.1450 1.3575 

*CAP
0 *10:s 1.30876e-18

*RES
0 *11:d *10:s 0.001  // $mwires

*END

*D_NET *16 6.81972e-19

*CONN
*I *41:d B *C 0.6200 1.3575 
*I *7:s B *C 0.6200 1.3575 

*CAP
0 *41:d 6.81972e-19

*RES
0 *7:s *41:d 0.001  // $mwires

*END

*D_NET *15 9.45344e-16

*CONN
*I *20:d B *C 1.8650 0.5075 
*I *31:g B *C 0.2575 0.5875 
*I *4:g B *C 1.1725 0.5875 
*I *33:d B *C 1.8900 1.1975 
*I *40:g B *C 0.2575 1.3575 
*I *7:g B *C 0.7775 1.3575 
*N *15:2 *C 0.2300 1.1400 
*N *15:5 *C 0.8050 1.0300 
*N *15:7 *C 1.1450 0.2800 
*N *15:9 *C 0.7750 1.2150 

*CAP
0 *7:g 2.6536e-17
1 *40:g 2.83164e-17
2 *33:d 1.44882e-16
3 *4:g 7.71374e-17
4 *31:g 5.11368e-17
5 *20:d 6.92073e-17
6 *15:9 1.39951e-16
7 *15:2 1.1493e-16
8 *15:5 1.42102e-16
9 *15:7 1.51144e-16

*RES
0 *40:g *15:2 19.691952  // $poly_conn
1 *15:2 *31:g 114.563744  // $poly_conn
2 *7:g *15:5 92.897079  // $poly_conn
3 *4:g *15:7 96.743225  // $poly_conn
4 *33:d *15:9 63.172634  // $metal1_conn
5 *15:9 *15:2 45.419373  // $metal1_conn
6 *15:9 *15:5 0.126875  // $metal1_conn
7 *15:5 *15:7 0.713122  // $metal1_conn
8 *15:7 *20:d 75.58017  // $metal1_conn

*END

*D_NET *14 6.41712e-16

*CONN
*I *21:g B *C 2.1525 0.4500 
*I *22:g B *C 2.3925 0.4500 
*I *24:g B *C 2.5975 0.4500 
*I *26:g B *C 2.8025 0.4500 
*I *5:g B *C 1.2775 0.5875 
*I *8:d B *C 1.6300 0.5575 
*I *34:g B *C 2.1875 1.1100 
*I *35:g B *C 2.3925 1.1100 
*I *36:g B *C 2.5975 1.1100 
*I *37:g B *C 2.8025 1.1100 
*I *11:g B *C 1.2225 1.3575 
*I *13:d B *C 1.6150 1.1450 
*N *14:2 *C 1.2500 1.0500 
*N *14:10 *C 2.1000 0.6850 
*N *14:18 *C 1.6550 0.6850 
*N *14:20 *C 1.6250 1.0500 

*CAP
0 *13:d 5.66305e-17
1 *11:g 4.80415e-17
2 *37:g 9.81956e-17
3 *35:g 1.14626e-16
4 *8:d 1.6744e-17
5 *5:g 8.99124e-17
6 *14:18 4.5585e-17
7 *14:2 9.76952e-17
8 *14:10 7.42809e-17

*RES
0 *14:2 *11:g 42.768875  // $poly_conn
1 *5:g *14:2 91.486824  // $poly_conn
2 *35:g *14:10 46.972527  // $poly_conn
3 *37:g *35:g 48.231998  // $poly_conn
4 *14:10 *14:18 0.302138  // $metal1_conn
5 *14:20 *14:2 45.249531  // $metal1_conn
6 *14:18 *8:d 75.064774  // $metal1_conn
7 *13:d *14:20 62  // $metal1_conn
8 *14:18 *14:20 0.264432  // $metal1_conn

*END

*D_NET *27 4.12372e-16

*CONN
*I *31:d B *C 0.1650 0.5875 
*I *3:g B *C 0.9675 0.5875 
*I *40:d B *C 0.1650 1.3575 
*I *10:g B *C 1.0675 1.3575 
*N *27:2 *C 0.9675 0.7875 
*N *27:3 *C 0.7200 0.7600 
*N *27:6 *C 0.1550 0.5750 

*CAP
0 *10:g 6.77199e-17
1 *40:d 7.62065e-17
2 *3:g 2.63577e-17
3 *31:d 8.36726e-17
4 *27:2 4.96631e-17
5 *27:3 1.08752e-16

*RES
0 *10:g *27:2 137.164749  // $poly_conn
1 *27:2 *27:3 98.796356  // $poly_conn
2 *27:2 *3:g 27.992792  // $poly_conn
3 *27:3 *27:6 0.501243  // $metal1_conn
4 *27:6 *40:d 62.624863  // $metal1_conn
5 *31:d *27:6 75  // $metal1_conn

*END

*D_NET *25 2.65499e-16

*CONN
*I *24:d B *C 2.7000 0.4500 
*I *26:d B *C 2.7000 0.4500 
*I *28:g B *C 3.1375 0.4500 
*I *29:g B *C 3.3925 0.4500 
*I *36:d B *C 2.7000 1.1100 
*I *37:d B *C 2.7000 1.1100 
*I *38:g B *C 3.1375 1.1100 
*I *39:g B *C 3.3925 1.1100 
*N *25:7 *C 2.7000 0.6800 

*CAP
0 *39:g 1.40027e-16
1 *36:d 7.58448e-17
2 *24:d 1.61611e-17
3 *25:7 3.34666e-17

*RES
0 *25:7 *36:d 20.975426  // $metal1_conn
1 *25:7 *24:d 75.107178  // $metal1_conn
2 *39:g *25:7 45.253525  // $metal1_conn

*END

*D_NET *23 3.4269e-16

*CONN
*I *3:d B *C 1.0700 0.5875 
*I *4:d B *C 1.0700 0.5875 
*I *8:g B *C 1.5225 0.5575 
*I *7:d B *C 0.9225 1.3575 
*I *10:d B *C 0.9225 1.3575 
*I *13:g B *C 1.5225 1.1450 
*N *23:2 *C 1.5225 0.7600 
*N *23:3 *C 1.4650 0.7600 
*N *23:5 *C 1.0400 0.7600 

*CAP
0 *13:g 5.71783e-17
1 *7:d 7.59184e-17
2 *8:g 3.68312e-17
3 *3:d 2.88323e-17
4 *23:5 7.221e-17
5 *23:2 1.72726e-17
6 *23:3 5.44476e-17

*RES
0 *13:g *23:2 56.219673  // $poly_conn
1 *23:2 *23:3 45.794373  // $poly_conn
2 *23:2 *8:g 22.886339  // $poly_conn
3 *23:3 *23:5 0.274597  // $metal1_conn
4 *23:5 *7:d 62.454624  // $metal1_conn
5 *23:5 *3:d 75.110657  // $metal1_conn

*END

