*SPEF "IEEE 1481-1999"
*DESIGN  "TLATX4"
*DATE "Mon Sep 27 11:35:31 2010"
*VENDOR "Cadence Design Systems"
*PROGRAM "Assura RCX"
*VERSION "3.2 Red Hat Linux release 7.2 (Enigma) - (09/09/2009-10:39)"
*DESIGN_FLOW "Physical Verification"
*DIVIDER /
*DELIMITER :
*BUS_DELIMITER []
*T_UNIT 1 PS
*C_UNIT 1e15 FF
*R_UNIT 1 OHM
*L_UNIT 1 MH
// DeviceFingerDelim "@"
// MATCHED
// caps2d version: 10

*NAME_MAP
*1 mn21\@2
*2 QN
*3 mn21\@3
*4 mn20
*5 mn20\@1
*6 mn20\@2
*7 mn20\@3
*8 mn22\@3
*9 mp22\@2
*10 mp0
*11 mp21
*12 mp21\@1
*13 mp21\@2
*14 mp21\@3
*15 mp20
*16 mp20\@1
*17 mp20\@2
*18 mp20\@3
*19 Qbint
*20 mp22
*21 Gb
*22 mp22\@1
*23 net212
*24 mp10
*25 net220
*26 mp10\@1
*27 net245
*28 mp15
*29 net257
*30 mp16
*31 mp6
*32 mp22\@3
*33 mp5
*34 mp1
*35 VSS
*36 D
*37 G
*38 mn22
*39 mn22\@1
*40 mn22\@2
*41 mn10
*42 Q
*43 mn10\@1
*44 VDD
*45 mn15
*46 mn16
*47 mn6
*48 n0
*49 mn5
*50 Qint
*51 Gbb
*52 mn1
*53 mn0
*54 mn21
*55 mn21\@1

*GROUND_NETS VSS

*PORTS
*44 I
*35 I
*36 I
*37 I
*42 O
*2 O

*D_NET *44 8.33938e-16

*CONN
*P *44 I *C 0.1000 1.7100 
*I *20:s B *C 2.5350 1.1600 
*I *22:s B *C 3.0300 1.2000 
*I *24:s B *C 3.0300 1.2000 
*I *26:s B *C 3.4700 1.1775 
*I *28:s B *C 3.4700 1.1775 
*I *33:s B *C 4.3850 1.1775 
*I *34:s B *C 4.3850 1.1775 
*I *9:s B *C 2.5350 1.1600 
*I *10:s B *C 0.4950 1.1600 
*I *11:s B *C 0.4950 1.1600 
*I *12:s B *C 0.8950 1.1600 
*I *13:s B *C 0.8950 1.1600 
*I *14:s B *C 1.3050 1.1600 
*I *15:s B *C 1.3050 1.1600 
*I *16:s B *C 1.7150 1.1600 
*I *17:s B *C 1.7150 1.1600 
*I *18:s B *C 2.1250 1.1600 
*I *32:s B *C 2.1250 1.1600 
*N *44:2 *C 3.6000 1.7100 
*N *44:3 *C 3.6000 1.7100 

*CAP
0 *33:s 3.18841e-17
1 *26:s 5.81857e-16
2 *44:2 2.12186e-16
3 *44 8.0105e-18

*RES
0 *26:s *44 0.192592  // $metal1_conn
1 *44:2 *44:3 6.25  // $metal1_conn
2 *44:2 *26:s 6.25  // $metal1_conn
3 *33:s *44:3 62.720467  // $metal1_conn
4 *44:3 *26:s 0.107803  // $metal1_conn

*END

*D_NET *35 0

*CONN
*P *35 I *C 0.1000 0.0000 
*I *38:s B *C 2.7700 0.4550 
*I *39:s B *C 2.7700 0.4550 
*I *40:s B *C 3.2400 0.4825 
*I *41:s B *C 3.2400 0.4825 
*I *43:s B *C 3.6400 0.5125 
*I *45:s B *C 3.6400 0.5125 
*I *49:s B *C 4.4700 0.5125 
*I *52:s B *C 4.4700 0.5125 
*I *53:s B *C 0.4200 0.4550 
*I *54:s B *C 0.4200 0.4550 
*I *55:s B *C 0.8900 0.4550 
*I *1:s B *C 0.8900 0.4550 
*I *3:s B *C 1.3600 0.4550 
*I *4:s B *C 1.3600 0.4550 
*I *5:s B *C 1.8300 0.4550 
*I *6:s B *C 1.8300 0.4550 
*I *7:s B *C 2.3000 0.4550 
*I *8:s B *C 2.3000 0.4550 
*N *35:3 *C 3.6000 0.0000 


*RES
0 *43:s *35 0.074763  // $metal1_conn
1 *35:3 *43:s 5.166667  // $metal1_conn
2 *35:3 *43:s 5.166667  // $metal1_conn
3 *49:s *43:s 75.445992  // $metal1_conn

*END

*D_NET *36 2.40698e-16

*CONN
*P *36 I *C 4.5000 0.8550 
*I *49:g B *C 4.2375 0.5125 
*I *33:g B *C 4.2375 1.1775 
*N *36:2 *C 4.2650 0.8500 

*CAP
0 *33:g 3.07266e-17
1 *49:g 6.87637e-17
2 *36:2 7.62579e-17
3 *36 6.49497e-17

*RES
0 *33:g *36:2 47.897079  // $poly_conn
1 *36:2 *49:g 59.435539  // $poly_conn
2 *36:2 *36 45.103622  // $metal1_conn

*END

*D_NET *37 2.02638e-16

*CONN
*P *37 I *C 0.3000 0.8550 
*I *53:g B *C 0.2725 0.5125 
*I *10:g B *C 0.3525 1.0725 
*N *37:2 *C 0.3100 0.6850 

*CAP
0 *10:g 4.0865e-17
1 *53:g 2.84727e-17
2 *37:2 9.60326e-17
3 *37 3.72678e-17

*RES
0 *10:g *37:2 63.016102  // $poly_conn
1 *37:2 *53:g 14.93473  // $poly_conn
2 *37 *37:2 45.101952  // $metal1_conn

*END

*D_NET *42 2.85934e-16

*CONN
*P *42 O *C 0.7000 0.8550 
*I *54:d B *C 0.5700 0.4550 
*I *55:d B *C 0.5700 0.4550 
*I *1:d B *C 1.0400 0.4550 
*I *3:d B *C 1.0400 0.4550 
*I *11:d B *C 0.6900 1.1600 
*I *12:d B *C 0.6900 1.1600 
*I *13:d B *C 1.1000 1.1600 
*I *14:d B *C 1.1000 1.1600 

*CAP
0 *13:d 1.63069e-16
1 *54:d 1.03508e-16
2 *42 1.93572e-17

*RES
0 *13:d *42 0.091051  // $metal1_conn
1 *42 *54:d 0.172405  // $metal1_conn

*END

*D_NET *2 2.76884e-16

*CONN
*P *2 O *C 2.3000 1.0450 
*I *38:d B *C 2.4500 0.4550 
*I *39:d B *C 2.9200 0.4550 
*I *40:d B *C 2.9200 0.4550 
*I *8:d B *C 2.4500 0.4550 
*I *20:d B *C 2.7400 1.1600 
*I *22:d B *C 2.7400 1.1600 
*I *9:d B *C 2.3300 1.1600 
*I *32:d B *C 2.3300 1.1600 

*CAP
0 *38:d 1.08181e-16
1 *2 1.68703e-16

*RES
0 *38:d *2 0.328678  // $metal1_conn

*END

*D_NET *29 0

*CONN
*I *47:s B *C 4.1850 0.5125 
*I *49:d B *C 4.1850 0.5125 


*RES
0 *49:d *47:s 0.001  // $mwires

*END

*D_NET *27 2.23215e-18

*CONN
*I *45:d B *C 3.8075 0.5125 
*I *46:s B *C 3.8075 0.5125 

*CAP
0 *45:d 2.23215e-18

*RES
0 *46:s *45:d 0.001  // $mwires

*END

*D_NET *25 2.57138e-20

*CONN
*I *31:s B *C 4.1050 1.1775 
*I *33:d B *C 4.1050 1.1775 

*CAP
0 *31:s 2.57138e-20

*RES
0 *33:d *31:s 0.001  // $mwires

*END

*D_NET *23 2.18943e-18

*CONN
*I *28:d B *C 3.6450 1.1775 
*I *30:s B *C 3.6450 1.1775 

*CAP
0 *28:d 2.18943e-18

*RES
0 *30:s *28:d 0.001  // $mwires

*END

*D_NET *21 1.08727e-15

*CONN
*I *46:g B *C 3.9275 0.5125 
*I *52:g B *C 4.5325 0.5125 
*I *53:d B *C 0.1600 0.5125 
*I *31:g B *C 3.9725 1.1775 
*I *34:g B *C 4.5325 1.1775 
*I *10:d B *C 0.2600 1.0725 
*N *21:3 *C 3.9650 0.3400 
*N *21:6 *C 4.5600 0.3300 
*N *21:8 *C 0.1300 0.5000 

*CAP
0 *10:d 6.0801e-17
1 *34:g 4.19038e-17
2 *31:g 6.3944e-17
3 *53:d 3.69831e-16
4 *52:g 3.39738e-17
5 *46:g 5.7189e-17
6 *21:3 3.77948e-16
7 *21:6 8.16787e-17

*RES
0 *31:g *46:g 124.069405  // $poly_conn
1 *46:g *21:3 61.15522  // $poly_conn
2 *34:g *52:g 124.358978  // $poly_conn
3 *52:g *21:6 64.691956  // $poly_conn
4 *21:6 *21:3 0.429363  // $metal1_conn
5 *21:3 *21:8 2.874298  // $metal1_conn
6 *21:8 *10:d 62.500751  // $metal1_conn
7 *53:d *21:8 75  // $metal1_conn

*END

*D_NET *19 5.76986e-16

*CONN
*I *54:g B *C 0.4675 0.4550 
*I *55:g B *C 0.6725 0.4550 
*I *1:g B *C 0.9375 0.4550 
*I *3:g B *C 1.1425 0.4550 
*I *4:d B *C 1.5100 0.4550 
*I *5:d B *C 1.5100 0.4550 
*I *6:d B *C 1.9800 0.4550 
*I *7:d B *C 1.9800 0.4550 
*I *11:g B *C 0.5875 1.1600 
*I *12:g B *C 0.7925 1.1600 
*I *13:g B *C 0.9975 1.1600 
*I *14:g B *C 1.2025 1.1600 
*I *15:d B *C 1.5100 1.1600 
*I *16:d B *C 1.5100 1.1600 
*I *17:d B *C 1.9200 1.1600 
*I *18:d B *C 1.9200 1.1600 
*N *19:18 *C 1.5100 0.7150 

*CAP
0 *17:d 1.53905e-16
1 *14:g 3.14361e-16
2 *4:d 8.16143e-17
3 *19:18 2.71053e-17

*RES
0 *19:18 *14:g 45.255943  // $metal1_conn
1 *4:d *19:18 0.137609  // $metal1_conn
2 *19:18 *17:d 0.208134  // $metal1_conn

*END

*D_NET *51 4.43678e-16

*CONN
*I *47:g B *C 4.1325 0.5125 
*I *52:d B *C 4.6575 0.5125 
*I *30:g B *C 3.7325 1.1775 
*I *34:d B *C 4.6425 1.1775 
*N *51:1 *C 3.8400 0.9300 
*N *51:4 *C 4.1050 0.6950 
*N *51:6 *C 4.6700 0.6600 

*CAP
0 *34:d 3.84376e-17
1 *30:g 3.98005e-17
2 *52:d 1.07111e-17
3 *47:g 6.9857e-17
4 *51:6 6.19809e-17
5 *51:1 1.03251e-16
6 *51:4 1.1964e-16

*RES
0 *51:1 *30:g 83.446335  // $poly_conn
1 *47:g *51:4 64.691956  // $poly_conn
2 *34:d *51:6 62.344326  // $metal1_conn
3 *51:6 *51:4 0.389699  // $metal1_conn
4 *51:4 *51:1 0.341917  // $metal1_conn
5 *51:6 *52:d 75.089592  // $metal1_conn

*END

*D_NET *50 8.03983e-16

*CONN
*I *38:g B *C 2.5525 0.4550 
*I *39:g B *C 2.8175 0.4550 
*I *40:g B *C 3.0225 0.4550 
*I *41:d B *C 3.3900 0.4825 
*I *43:d B *C 3.3900 0.4825 
*I *45:g B *C 3.6875 0.5125 
*I *4:g B *C 1.4075 0.4550 
*I *5:g B *C 1.6125 0.4550 
*I *6:g B *C 1.8775 0.4550 
*I *7:g B *C 2.0825 0.4550 
*I *8:g B *C 2.3475 0.4550 
*I *20:g B *C 2.6375 1.1600 
*I *22:g B *C 2.8425 1.1600 
*I *24:d B *C 3.1800 1.2000 
*I *26:d B *C 3.1800 1.2000 
*I *28:g B *C 3.5575 1.1775 
*I *9:g B *C 2.4325 1.1600 
*I *15:g B *C 1.4075 1.1600 
*I *16:g B *C 1.6125 1.1600 
*I *17:g B *C 1.8175 1.1600 
*I *18:g B *C 2.0225 1.1600 
*I *32:g B *C 2.2275 1.1600 
*N *50:32 *C 3.5200 0.8150 
*N *50:34 *C 3.3900 0.7550 
*N *50:35 *C 3.1800 0.7550 

*CAP
0 *18:g 2.19547e-16
1 *28:g 5.04174e-17
2 *24:d 7.05263e-17
3 *22:g 2.39906e-16
4 *45:g 5.2269e-17
5 *41:d 3.02827e-17
6 *50:35 2.80393e-17
7 *50:34 2.60801e-17
8 *50:32 8.69147e-17

*RES
0 *50:32 *28:g 55.898808  // $poly_conn
1 *45:g *50:32 77.907867  // $poly_conn
2 *22:g *18:g 34.875477  // $poly_conn
3 *50:35 *22:g 45.236031  // $metal1_conn
4 *50:32 *50:34 45.136856  // $metal1_conn
5 *50:34 *41:d 75.139328  // $metal1_conn
6 *50:35 *24:d 31.306396  // $metal1_conn
7 *50:34 *50:35 0.16519  // $metal1_conn

*END

*D_NET *48 4.66847e-16

*CONN
*I *41:g B *C 3.2875 0.4825 
*I *43:g B *C 3.4925 0.4825 
*I *46:d B *C 4.0300 0.5125 
*I *47:d B *C 4.0300 0.5125 
*I *24:g B *C 3.0775 1.2000 
*I *26:g B *C 3.2825 1.2000 
*I *30:d B *C 3.8525 1.1775 
*I *31:d B *C 3.8525 1.1775 
*N *48:7 *C 3.3400 0.9450 
*N *48:9 *C 3.6800 1.0050 

*CAP
0 *30:d 2.13715e-17
1 *26:g 1.02661e-16
2 *46:d 1.08509e-16
3 *41:g 9.24972e-17
4 *48:9 8.6268e-17
5 *48:7 5.55405e-17

*RES
0 *41:g *26:g 62.876759  // $poly_conn
1 *26:g *48:7 47.539192  // $poly_conn
2 *48:9 *48:7 0.259856  // $metal1_conn
3 *46:d *48:9 75.623383  // $metal1_conn
4 *48:9 *30:d 62.196457  // $metal1_conn

*END

