*SPEF "IEEE 1481-1999"
*DESIGN  "TLATNTSCAX8"
*DATE "Mon Sep 27 11:31:25 2010"
*VENDOR "Cadence Design Systems"
*PROGRAM "Assura RCX"
*VERSION "3.2 Red Hat Linux release 7.2 (Enigma) - (09/09/2009-10:39)"
*DESIGN_FLOW "Physical Verification"
*DIVIDER /
*DELIMITER :
*BUS_DELIMITER []
*T_UNIT 1 PS
*C_UNIT 1e15 FF
*R_UNIT 1 OHM
*L_UNIT 1 MH
// DeviceFingerDelim "@"
// MATCHED
// caps2d version: 10

*NAME_MAP
*1 mn0
*2 mn2
*3 mn5
*4 mn16
*5 mn15
*6 mn3
*7 ECK
*8 mp22\@5
*9 mp22\@6
*10 SE
*11 mp1
*12 mp0
*13 mp2
*14 mp5
*15 mp16
*16 mp15
*17 mp3
*18 mp10
*19 CKb
*20 mp20
*21 CKbb
*22 mp21
*23 Eint
*24 mp21\@1
*25 net246
*26 mp20\@1
*27 net234
*28 mp22
*29 net263
*30 mp22\@1
*31 net271
*32 mp22\@2
*33 net271\@1
*34 mp22\@3
*35 mp22\@4
*36 CK
*37 VSS
*38 E
*39 mn22
*40 mn22\@1
*41 mn22\@2
*42 mn22\@3
*43 mn22\@4
*44 VDD
*45 mn22\@5
*46 mn10
*47 mn20
*48 ECKb
*49 mn21
*50 Eb
*51 n5
*52 mn21\@1
*53 mn20\@1
*54 mn22\@6
*55 mn1

*GROUND_NETS VSS

*PORTS
*44 I
*37 I
*36 I
*38 I
*10 I
*7 O

*D_NET *44 8.92663e-16

*CONN
*P *44 I *C 0.1000 1.7100 
*I *20:s B *C 2.7150 1.2100 
*I *22:s B *C 3.0950 1.2100 
*I *24:s B *C 3.0950 1.2100 
*I *26:s B *C 3.5350 1.1825 
*I *28:s B *C 3.5350 1.1825 
*I *30:s B *C 3.9150 1.1825 
*I *32:s B *C 3.9150 1.1825 
*I *34:s B *C 4.3250 1.1825 
*I *35:s B *C 4.3250 1.1825 
*I *8:s B *C 4.7350 1.1825 
*I *9:s B *C 4.7350 1.1825 
*I *12:s B *C 0.5500 1.1775 
*I *13:s B *C 0.5500 1.1775 
*I *16:s B *C 1.8725 1.2325 
*I *17:s B *C 1.8725 1.2325 
*I *18:s B *C 2.7150 1.2100 
*N *44:2 *C 4.3000 1.7100 
*N *44:8 *C 2.6000 1.7100 
*N *44:9 *C 1.8150 1.7100 
*N *44:10 *C 0.9000 1.7100 
*N *44:11 *C 0.5700 1.7100 

*CAP
0 *16:s 5.59221e-17
1 *12:s 4.69756e-17
2 *8:s 3.7741e-16
3 *22:s 3.78408e-17
4 *44:11 9.11498e-18
5 *44:9 3.01768e-17
6 *44:2 3.23839e-16
7 *44 1.13844e-17

*RES
0 *44:11 *44 0.235289  // $metal1_conn
1 *44:2 *8:s 8.333333  // $metal1_conn
2 *44:2 *44:8 9.375  // $metal1_conn
3 *44:2 *44:10 8.333333  // $metal1_conn
4 *8:s *22:s 62.235111  // $metal1_conn
5 *44:9 *16:s 62.269669  // $metal1_conn
6 *44:11 *12:s 62.306423  // $metal1_conn
7 *8:s *44:8 0.04243  // $metal1_conn
8 *44:8 *44:9 0.393534  // $metal1_conn
9 *44:9 *44:10 0.458737  // $metal1_conn
10 *44:10 *44:11 0.165321  // $metal1_conn

*END

*D_NET *37 0

*CONN
*P *37 I *C 0.1000 0.0000 
*I *39:s B *C 3.9150 0.4875 
*I *40:s B *C 3.9150 0.4875 
*I *41:s B *C 4.3250 0.4875 
*I *42:s B *C 4.3250 0.4875 
*I *43:s B *C 4.7350 0.4875 
*I *45:s B *C 4.7350 0.4875 
*I *46:s B *C 2.8800 0.4700 
*I *47:s B *C 2.8800 0.4700 
*I *53:s B *C 3.5200 0.4875 
*I *54:s B *C 3.5200 0.4875 
*I *55:s B *C 0.1200 0.3025 
*I *1:s B *C 0.5500 0.3025 
*I *2:s B *C 0.5500 0.3025 
*I *5:s B *C 2.0750 0.5875 
*I *6:s B *C 2.0750 0.5875 
*N *37:2 *C 4.3000 0.0000 
*N *37:6 *C 2.8500 0.0000 
*N *37:7 *C 2.6000 0.0000 
*N *37:8 *C 1.9900 0.0000 
*N *37:9 *C 0.9000 0.0000 
*N *37:10 *C 0.5400 0.0000 


*RES
0 *37 *55:s 75.184334  // $metal1_conn
1 *37:10 *37 0.220647  // $metal1_conn
2 *37:2 *43:s 6.888889  // $metal1_conn
3 *37:2 *37:7 7.75  // $metal1_conn
4 *37:2 *37:9 6.888889  // $metal1_conn
5 *37:6 *46:s 75.295258  // $metal1_conn
6 *37:8 *5:s 75.191338  // $metal1_conn
7 *37:10 *1:s 75.177139  // $metal1_conn
8 *43:s *37:6 0.32061  // $metal1_conn
9 *37:6 *37:7 0.125196  // $metal1_conn
10 *37:7 *37:8 0.30576  // $metal1_conn
11 *37:8 *37:9 0.546512  // $metal1_conn
12 *37:9 *37:10 0.180368  // $metal1_conn

*END

*D_NET *36 2.33575e-16

*CONN
*P *36 I *C 0.7000 0.6650 
*I *2:g B *C 0.6625 0.3025 
*I *13:g B *C 0.6625 1.1775 
*N *36:2 *C 0.6900 0.6600 

*CAP
0 *13:g 4.16636e-17
1 *2:g 3.57237e-17
2 *36:2 1.56188e-16

*RES
0 *13:g *36:2 96.615021  // $poly_conn
1 *36:2 *2:g 64.563744  // $poly_conn
2 *36 *36:2 45.002804  // $metal1_conn

*END

*D_NET *38 2.73578e-16

*CONN
*P *38 I *C 0.1000 0.8550 
*I *55:g B *C 0.2125 0.3025 
*I *11:g B *C 0.3325 1.1775 
*N *38:2 *C 0.2125 0.4950 
*N *38:3 *C 0.1250 0.4950 

*CAP
0 *11:g 9.07559e-17
1 *55:g 2.40241e-17
2 *38:2 5.4577e-17
3 *38:3 5.35794e-17
4 *38 5.06415e-17

*RES
0 *11:g *38:2 165.590195  // $poly_conn
1 *38:2 *38:3 51.496479  // $poly_conn
2 *38:2 *55:g 20.954977  // $poly_conn
3 *38:3 *38 0.175887  // $metal1_conn

*END

*D_NET *10 3.15884e-16

*CONN
*P *10 I *C 0.5000 0.6650 
*I *1:g B *C 0.4375 0.3025 
*I *12:g B *C 0.4375 1.1775 
*N *10:2 *C 0.4750 0.5100 

*CAP
0 *12:g 9.25987e-17
1 *1:g 2.9843e-17
2 *10:2 1.93442e-16

*RES
0 *12:g *10:2 134.103943  // $poly_conn
1 *10:2 *1:g 25.129578  // $poly_conn
2 *10 *10:2 45.003403  // $metal1_conn

*END

*D_NET *7 4.47792e-16

*CONN
*P *7 O *C 3.7000 1.0450 
*I *39:d B *C 3.7025 0.4875 
*I *40:d B *C 4.1200 0.4875 
*I *41:d B *C 4.1200 0.4875 
*I *42:d B *C 4.5300 0.4875 
*I *43:d B *C 4.5300 0.4875 
*I *45:d B *C 4.9300 0.4875 
*I *54:d B *C 3.7025 0.4875 
*I *28:d B *C 3.7100 1.1825 
*I *30:d B *C 3.7100 1.1825 
*I *32:d B *C 4.1200 1.1825 
*I *34:d B *C 4.1200 1.1825 
*I *35:d B *C 4.5300 1.1825 
*I *8:d B *C 4.5300 1.1825 
*I *9:d B *C 4.9300 1.1825 

*CAP
0 *7 4.47792e-16


*END

*D_NET *33 3.22196e-18

*CONN
*I *52:s B *C 3.3350 0.4700 
*I *53:d B *C 3.3350 0.4700 

*CAP
0 *52:s 3.22196e-18

*RES
0 *53:d *52:s 0.001  // $mwires

*END

*D_NET *31 0

*CONN
*I *47:d B *C 3.0150 0.4700 
*I *49:s B *C 3.0150 0.4700 


*RES
0 *49:s *47:d 0.001  // $mwires

*END

*D_NET *29 1.22737e-18

*CONN
*I *4:s B *C 1.7375 0.5875 
*I *5:d B *C 1.7375 0.5875 

*CAP
0 *4:s 1.22737e-18

*RES
0 *5:d *4:s 0.001  // $mwires

*END

*D_NET *27 1.33092e-18

*CONN
*I *15:s B *C 1.6300 1.2325 
*I *16:d B *C 1.6300 1.2325 

*CAP
0 *15:s 1.33092e-18

*RES
0 *16:d *15:s 0.001  // $mwires

*END

*D_NET *25 1.44649e-18

*CONN
*I *11:s B *C 0.3850 1.1775 
*I *12:d B *C 0.3850 1.1775 

*CAP
0 *11:s 1.44649e-18

*RES
0 *12:d *11:s 0.001  // $mwires

*END

*D_NET *23 9.68696e-16

*CONN
*I *46:d B *C 2.5400 0.4975 
*I *47:g B *C 2.9525 0.4700 
*I *53:g B *C 3.3875 0.4700 
*I *5:g B *C 1.8275 0.5875 
*I *20:g B *C 2.7875 1.2100 
*I *26:g B *C 3.4025 1.2100 
*I *16:g B *C 1.6825 1.2325 
*I *18:d B *C 2.3850 1.2500 
*N *23:2 *C 1.8750 0.8000 
*N *23:12 *C 2.5300 0.8025 
*N *23:13 *C 2.3650 0.8025 

*CAP
0 *18:d 6.22742e-17
1 *16:g 7.57762e-17
2 *26:g 3.60414e-16
3 *5:g 3.48837e-17
4 *53:g 8.39127e-17
5 *47:g 6.11795e-17
6 *46:d 4.93231e-17
7 *23:13 5.89696e-17
8 *23:12 2.97531e-17
9 *23:2 1.52211e-16

*RES
0 *23:2 *16:g 97.878334  // $poly_conn
1 *26:g *53:g 71.138496  // $poly_conn
2 *47:g *26:g 70.497612  // $poly_conn
3 *5:g *23:2 25.090984  // $poly_conn
4 *23:13 *23:2 45.398415  // $metal1_conn
5 *23:13 *18:d 62.237362  // $metal1_conn
6 *23:12 *46:d 75.182976  // $metal1_conn
7 *26:g *23:12 0.209631  // $metal1_conn
8 *23:12 *23:13 0.121479  // $metal1_conn

*END

*D_NET *21 9.76358e-16

*CONN
*I *49:g B *C 3.0775 0.4700 
*I *52:g B *C 3.2825 0.4700 
*I *4:g B *C 1.6475 0.5875 
*I *6:d B *C 2.2725 0.5875 
*I *22:g B *C 2.9925 1.2100 
*I *24:g B *C 3.1975 1.2100 
*I *14:g B *C 1.3725 1.2325 
*I *17:d B *C 2.1550 1.2325 
*N *21:2 *C 1.6850 0.7600 
*N *21:11 *C 2.3100 0.5950 
*N *21:12 *C 1.6850 0.7600 

*CAP
0 *17:d 1.10527e-16
1 *14:g 6.41617e-17
2 *24:g 2.61471e-16
3 *6:d 1.91357e-16
4 *4:g 2.3137e-17
5 *52:g 5.30625e-17
6 *49:g 3.63305e-17
7 *21:2 2.36311e-16

*RES
0 *21:2 *14:g 149.702744  // $poly_conn
1 *52:g *24:g 52.549366  // $poly_conn
2 *24:g *49:g 16.530039  // $poly_conn
3 *4:g *21:2 16.15522  // $poly_conn
4 *24:g *21:11 45.96698  // $metal1_conn
5 *21:2 *21:12 45  // $metal1_conn
6 *21:12 *17:d 62.654236  // $metal1_conn
7 *6:d *21:11 75  // $metal1_conn
8 *21:11 *21:12 0.584444  // $metal1_conn

*END

*D_NET *19 7.78789e-16

*CONN
*I *2:d B *C 0.7950 0.3025 
*I *3:g B *C 1.2325 0.5875 
*I *6:g B *C 2.1525 0.5875 
*I *13:d B *C 0.8325 1.1775 
*I *15:g B *C 1.5775 1.2325 
*I *17:g B *C 2.0625 1.2325 
*N *19:2 *C 1.2700 0.2850 
*N *19:4 *C 1.5250 0.9300 
*N *19:7 *C 2.1800 0.4050 
*N *19:8 *C 1.5250 0.4800 
*N *19:10 *C 0.8450 0.3150 

*CAP
0 *17:g 4.71912e-17
1 *15:g 6.63701e-17
2 *13:d 1.02036e-16
3 *6:g 4.84409e-17
4 *3:g 2.75515e-17
5 *2:d 9.22021e-17
6 *19:8 9.08463e-17
7 *19:2 6.18754e-17
8 *19:4 1.30668e-16
9 *19:7 1.11608e-16

*RES
0 *3:g *19:2 94.488556  // $poly_conn
1 *15:g *19:4 94.612106  // $poly_conn
2 *17:g *6:g 130.47966  // $poly_conn
3 *6:g *19:7 64.691956  // $poly_conn
4 *19:4 *19:8 0.335283  // $metal1_conn
5 *19:8 *19:2 0.308765  // $metal1_conn
6 *19:2 *19:10 0.275486  // $metal1_conn
7 *19:8 *19:7 0.494145  // $metal1_conn
8 *19:10 *13:d 62.593525  // $metal1_conn
9 *2:d *19:10 75  // $metal1_conn

*END

*D_NET *51 5.52948e-16

*CONN
*I *46:g B *C 2.6325 0.4975 
*I *3:s B *C 1.4400 0.5875 
*I *4:d B *C 1.4400 0.5875 
*I *14:d B *C 1.4750 1.2325 
*I *15:d B *C 1.4750 1.2325 
*I *18:g B *C 2.4875 1.2500 
*N *51:2 *C 2.5250 0.9950 
*N *51:4 *C 1.4750 1.1200 

*CAP
0 *18:g 3.79784e-17
1 *14:d 9.56262e-18
2 *3:s 7.75812e-17
3 *46:g 4.56764e-17
4 *51:4 1.92829e-16
5 *51:2 1.8932e-16

*RES
0 *46:g *51:2 100.187241  // $poly_conn
1 *51:2 *18:g 18.425531  // $poly_conn
2 *51:2 *51:4 46.185349  // $metal1_conn
3 *51:4 *3:s 75.473389  // $metal1_conn
4 *51:4 *14:d 62.029465  // $metal1_conn

*END

*D_NET *50 4.53845e-16

*CONN
*I *55:d B *C 0.3250 0.3025 
*I *1:d B *C 0.3250 0.3025 
*I *3:d B *C 1.1400 0.5875 
*I *11:d B *C 0.2400 1.1775 
*I *14:s B *C 1.2475 1.2325 
*N *50:2 *C 1.1300 1.2700 
*N *50:3 *C 0.3150 1.0650 

*CAP
0 *14:s 1.74213e-17
1 *11:d 1.16308e-17
2 *3:d 7.27934e-17
3 *55:d 8.7303e-17
4 *50:3 1.50986e-16
5 *50:2 1.13711e-16

*RES
0 *3:d *50:2 75.451492  // $metal1_conn
1 *50:2 *50:3 0.75021  // $metal1_conn
2 *50:3 *11:d 62.108288  // $metal1_conn
3 *50:2 *14:s 62.043358  // $metal1_conn
4 *50:3 *55:d 75.568451  // $metal1_conn

*END

*D_NET *48 6.88062e-16

*CONN
*I *39:g B *C 3.8125 0.4875 
*I *40:g B *C 4.0175 0.4875 
*I *41:g B *C 4.2225 0.4875 
*I *42:g B *C 4.4275 0.4875 
*I *43:g B *C 4.6325 0.4875 
*I *45:g B *C 4.8375 0.4875 
*I *49:d B *C 3.1800 0.4700 
*I *52:d B *C 3.1800 0.4700 
*I *54:g B *C 3.5925 0.4875 
*I *20:d B *C 2.8900 1.2100 
*I *22:d B *C 2.8900 1.2100 
*I *24:d B *C 3.3000 1.2100 
*I *26:d B *C 3.3000 1.2100 
*I *28:g B *C 3.6075 1.1825 
*I *30:g B *C 3.8125 1.1825 
*I *32:g B *C 4.0175 1.1825 
*I *34:g B *C 4.2225 1.1825 
*I *35:g B *C 4.4275 1.1825 
*I *8:g B *C 4.6325 1.1825 
*I *9:g B *C 4.8375 1.1825 
*N *48:9 *C 3.5300 0.7350 

*CAP
0 *9:g 3.2532e-16
1 *24:d 2.02414e-16
2 *49:d 4.36829e-17
3 *48:9 1.16646e-16

*RES
0 *9:g *48:9 49.402832  // $poly_conn
1 *48:9 *49:d 75.363976  // $metal1_conn
2 *24:d *48:9 0.420894  // $metal1_conn

*END

