*SPEF "IEEE 1481-1999"
*DESIGN  "XNOR2X1"
*DATE "Mon Sep 27 11:36:17 2010"
*VENDOR "Cadence Design Systems"
*PROGRAM "Assura RCX"
*VERSION "3.2 Red Hat Linux release 7.2 (Enigma) - (09/09/2009-10:39)"
*DESIGN_FLOW "Physical Verification"
*DIVIDER /
*DELIMITER :
*BUS_DELIMITER []
*T_UNIT 1 PS
*C_UNIT 1e15 FF
*R_UNIT 1 OHM
*L_UNIT 1 MH
// DeviceFingerDelim "@"
// MATCHED
// caps2d version: 10

*NAME_MAP
*1 net145
*2 mp5
*3 mp0
*4 A
*5 mp4
*6 B
*7 mp3
*8 mp2
*9 mp1
*10 VDD
*11 n0
*12 n1
*13 n2
*14 mn5
*15 net112
*16 mn0
*17 mn4
*18 mn3
*19 mn2
*20 mn1
*21 Y
*22 VSS

*GROUND_NETS VSS

*PORTS
*10 I
*22 I
*4 I
*6 I
*21 O

*D_NET *10 1.8427e-16

*CONN
*P *10 I *C 0.1000 1.7100 
*I *2:s B *C 0.3550 1.0525 
*I *3:s B *C 0.3550 1.0525 
*I *8:s B *C 1.0850 1.0525 
*I *9:s B *C 1.0850 1.0525 
*N *10:2 *C 0.7000 1.7100 
*N *10:3 *C 0.7000 1.7100 
*N *10:4 *C 0.2600 1.7100 

*CAP
0 *8:s 4.28986e-17
1 *2:s 7.68378e-18
2 *10:4 5.81342e-18
3 *10:2 1.2132e-16
4 *10 6.55363e-18

*RES
0 *8:s *10:3 62.270119  // $metal1_conn
1 *10:3 *10:4 0.220678  // $metal1_conn
2 *10:4 *10 0.07987  // $metal1_conn
3 *10:4 *2:s 62.075268  // $metal1_conn
4 *10:2 *10:3 10.714286  // $metal1_conn

*END

*D_NET *22 0

*CONN
*P *22 I *C 0.1000 0.0000 
*I *14:s B *C 0.3550 0.4575 
*I *16:s B *C 0.3550 0.4575 
*I *19:s B *C 1.0300 0.4575 
*I *20:s B *C 1.0300 0.4575 
*N *22:2 *C 0.7000 0.0000 
*N *22:3 *C 0.7000 0.0000 
*N *22:4 *C 0.3050 0.0000 


*RES
0 *19:s *22:3 75.515472  // $metal1_conn
1 *22:3 *22:4 0.198088  // $metal1_conn
2 *22:4 *22 0.10246  // $metal1_conn
3 *22:4 *14:s 75.304474  // $metal1_conn
4 *22:2 *22:3 8.857142  // $metal1_conn

*END

*D_NET *4 2.02962e-16

*CONN
*P *4 I *C 0.3700 0.6600 
*I *16:g B *C 0.4075 0.4575 
*I *3:g B *C 0.4075 1.0525 
*N *4:2 *C 0.3700 0.8350 

*CAP
0 *3:g 4.0135e-17
1 *16:g 4.04193e-17
2 *4:2 9.08792e-17
3 *4 3.15284e-17

*RES
0 *3:g *4:2 17.320902  // $poly_conn
1 *4:2 *16:g 67.3209  // $poly_conn
2 *4 *4:2 45.109924  // $metal1_conn

*END

*D_NET *6 3.79791e-16

*CONN
*P *6 I *C 0.9400 0.8550 
*I *17:g B *C 0.6125 0.4575 
*I *20:g B *C 1.1325 0.4575 
*I *7:g B *C 0.8225 1.0525 
*I *9:g B *C 1.1325 1.0525 
*N *6:2 *C 0.7850 0.8200 
*N *6:5 *C 1.0850 0.8450 

*CAP
0 *9:g 3.44387e-17
1 *7:g 5.64005e-17
2 *20:g 3.47892e-17
3 *17:g 4.9302e-17
4 *6:2 1.12301e-16
5 *6:5 6.80602e-17
6 *6 2.44987e-17

*RES
0 *7:g *6:2 17.398676  // $poly_conn
1 *6:2 *17:g 87.031639  // $poly_conn
2 *9:g *6:5 16.15522  // $poly_conn
3 *6:5 *20:g 71.283424  // $poly_conn
4 *6:5 *6 45.087048  // $metal1_conn
5 *6 *6:2 45.09201  // $metal1_conn

*END

*D_NET *21 1.28167e-16

*CONN
*P *21 O *C 0.0900 0.4250 
*I *14:d B *C 0.1100 0.5150 
*I *2:d B *C 0.1100 1.1400 
*N *21:3 *C 0.1000 0.5200 

*CAP
0 *2:d 8.6116e-17
1 *14:d 2.42395e-17
2 *21 1.78118e-17

*RES
0 *2:d *21:3 21.145374  // $metal1_conn
1 *21:3 *21 0.064236  // $metal1_conn
2 *14:d *21:3 37.5  // $metal1_conn

*END

*D_NET *1 0

*CONN
*I *18:s B *C 0.8750 0.4575 
*I *19:d B *C 0.8750 0.4575 


*RES
0 *19:d *18:s 0.001  // $mwires

*END

*D_NET *15 0

*CONN
*I *7:s B *C 0.8750 1.0525 
*I *8:d B *C 0.8750 1.0525 


*RES
0 *8:d *7:s 0.001  // $mwires

*END

*D_NET *13 4.74542e-16

*CONN
*I *18:g B *C 0.8225 0.4575 
*I *20:d B *C 1.2250 0.4575 
*I *5:g B *C 0.6125 1.0525 
*I *9:d B *C 1.2750 1.0050 
*N *13:2 *C 0.6400 1.3300 
*N *13:4 *C 0.7850 0.6400 
*N *13:6 *C 1.2350 0.6400 
*N *13:8 *C 1.2350 1.0050 

*CAP
0 *9:d 6.84676e-17
1 *5:g 4.35859e-17
2 *20:d 1.90133e-17
3 *18:g 4.84952e-17
4 *13:6 4.70806e-17
5 *13:2 1.27897e-16
6 *13:4 1.20003e-16

*RES
0 *5:g *13:2 80.076569  // $poly_conn
1 *18:g *13:4 61.565342  // $poly_conn
2 *20:d *13:6 75.124718  // $metal1_conn
3 *13:6 *13:8 0.276494  // $metal1_conn
4 *13:8 *13:2 0.644472  // $metal1_conn
5 *13:6 *13:4 0.230024  // $metal1_conn
6 *9:d *13:8 62  // $metal1_conn

*END

*D_NET *12 4.85535e-16

*CONN
*I *16:d B *C 0.5100 0.4575 
*I *17:s B *C 0.5100 0.4575 
*I *19:g B *C 0.9275 0.4575 
*I *3:d B *C 0.5100 1.0525 
*I *5:d B *C 0.5100 1.0525 
*I *8:g B *C 0.9275 1.0525 
*N *12:3 *C 0.8800 0.1750 
*N *12:6 *C 0.5100 0.4450 

*CAP
0 *8:g 1.07322e-16
1 *3:d 8.9782e-17
2 *19:g 6.73875e-17
3 *16:d 1.14424e-16
4 *12:3 1.0662e-16

*RES
0 *8:g *19:g 106.410255  // $poly_conn
1 *19:g *12:3 89.360352  // $poly_conn
2 *3:d *12:6 62.483753  // $metal1_conn
3 *12:6 *12:3 0.437512  // $metal1_conn
4 *16:d *12:6 75  // $metal1_conn

*END

*D_NET *11 4.48111e-16

*CONN
*I *14:g B *C 0.2025 0.5150 
*I *17:d B *C 0.7175 0.4575 
*I *18:d B *C 0.7175 0.4575 
*I *2:g B *C 0.2025 1.1400 
*I *5:s B *C 0.7175 1.0525 
*I *7:d B *C 0.7175 1.0525 
*N *11:2 *C 0.2200 0.8350 
*N *11:6 *C 0.7150 1.0450 

*CAP
0 *5:s 1.42424e-16
1 *2:g 3.92043e-17
2 *17:d 9.06171e-17
3 *14:g 3.82792e-17
4 *11:2 1.37587e-16

*RES
0 *2:g *11:2 17.398676  // $poly_conn
1 *11:2 *14:g 37.911495  // $poly_conn
2 *17:d *11:6 75.583069  // $metal1_conn
3 *11:6 *11:2 45.748554  // $metal1_conn
4 *5:s *11:6 62  // $metal1_conn

*END

