*SPEF "IEEE 1481-1999"
*DESIGN  "XNOR3XL"
*DATE "Mon Sep 27 11:38:12 2010"
*VENDOR "Cadence Design Systems"
*PROGRAM "Assura RCX"
*VERSION "3.2 Red Hat Linux release 7.2 (Enigma) - (09/09/2009-10:39)"
*DESIGN_FLOW "Physical Verification"
*DIVIDER /
*DELIMITER :
*BUS_DELIMITER []
*T_UNIT 1 PS
*C_UNIT 1e15 FF
*R_UNIT 1 OHM
*L_UNIT 1 MH
// DeviceFingerDelim "@"
// MATCHED
// caps2d version: 10

*NAME_MAP
*1 VDD
*2 A
*3 B
*4 C
*5 mp7
*6 mp8
*7 n61
*8 n12
*9 n8
*10 n62
*11 Y
*12 n60
*13 n9
*14 n11
*15 VSS
*16 mp3
*17 mp4
*18 mp9
*19 mp1
*20 mp2
*21 mp11
*22 mp10
*23 mn3
*24 mp6
*25 mn4
*26 mp5
*27 mn9
*28 mn1
*29 mn2
*30 mn11
*31 mn10
*32 mn7
*33 mn6
*34 mn8
*35 mn5

*GROUND_NETS VSS

*PORTS
*1 I
*15 I
*2 I
*3 I
*4 I
*11 O

*D_NET *1 5.98474e-16

*CONN
*P *1 I *C 0.5000 1.7100 
*I *16:s B *C 0.4700 1.1650 
*I *17:s B *C 0.4700 1.1650 
*I *18:s B *C 1.1650 1.3250 
*I *5:s B *C 4.1200 1.1125 
*I *6:s B *C 4.1200 1.1125 
*N *1:2 *C 3.3000 1.7100 
*N *1:3 *C 3.3000 1.7100 
*N *1:4 *C 1.1000 1.7100 

*CAP
0 *5:s 8.188e-17
1 *18:s 1.10695e-17
2 *16:s 3.47341e-17
3 *1:2 4.3956e-16
4 *1 3.12304e-17

*RES
0 *5:s *1:3 13.045666  // $metal1_conn
1 *1:3 *1:4 1.103856  // $metal1_conn
2 *1:4 *1 0.301508  // $metal1_conn
3 *1 *16:s 31.206152  // $metal1_conn
4 *1:4 *18:s 62.071472  // $metal1_conn
5 *1:2 *1:3 6.818182  // $metal1_conn
6 *1:2 *1:4 6.818182  // $metal1_conn

*END

*D_NET *15 0

*CONN
*P *15 I *C 0.5000 0.0000 
*I *23:s B *C 0.4700 0.5100 
*I *25:s B *C 0.4700 0.5100 
*I *27:s B *C 1.0900 0.3850 
*I *32:s B *C 4.1200 0.5575 
*I *34:s B *C 4.1200 0.5575 
*N *15:2 *C 3.3000 0.0000 
*N *15:3 *C 3.3000 0.0000 
*N *15:4 *C 1.1000 0.0000 
*N *15:5 *C 1.0050 0.0000 


*RES
0 *32:s *15:3 19.39509  // $metal1_conn
1 *15:3 *15:4 1.103447  // $metal1_conn
2 *15:4 *15:5 0.046581  // $metal1_conn
3 *15:5 *15 0.251894  // $metal1_conn
4 *15 *23:s 75.123024  // $metal1_conn
5 *15:5 *27:s 75.045822  // $metal1_conn
6 *15:2 *15:3 5.636364  // $metal1_conn
7 *15:2 *15:4 5.636364  // $metal1_conn

*END

*D_NET *2 1.98349e-16

*CONN
*P *2 I *C 0.1000 0.8550 
*I *23:g B *C 0.2475 0.5175 
*I *16:g B *C 0.2475 1.1650 
*N *2:2 *C 0.2475 0.7200 
*N *2:3 *C 0.1450 0.7200 

*CAP
0 *16:g 3.74577e-17
1 *23:g 2.78148e-17
2 *2:2 1.79759e-17
3 *2:3 4.25413e-17
4 *2 7.25594e-17

*RES
0 *16:g *2:2 71.604286  // $poly_conn
1 *2:2 *2:3 50.485863  // $poly_conn
2 *2:2 *23:g 22.886339  // $poly_conn
3 *2:3 *2 0.074026  // $metal1_conn

*END

*D_NET *3 7.52168e-16

*CONN
*P *3 I *C 0.5000 0.8550 
*I *25:g B *C 0.5225 0.5100 
*I *28:g B *C 1.4025 0.3850 
*I *30:g B *C 2.1525 0.3850 
*I *17:g B *C 0.5225 1.1650 
*I *20:g B *C 1.7425 1.1650 
*I *22:g B *C 2.2275 1.2700 
*N *3:4 *C 1.4025 0.6475 
*N *3:5 *C 0.4850 0.7200 
*N *3:9 *C 0.4850 0.7200 

*CAP
0 *22:g 9.91355e-17
1 *20:g 9.07529e-17
2 *17:g 4.71022e-17
3 *30:g 1.00431e-16
4 *28:g 3.83635e-17
5 *25:g 3.54826e-17
6 *3:4 1.49555e-16
7 *3:5 1.24895e-16
8 *3 6.645e-17

*RES
0 *30:g *22:g 162.776321  // $poly_conn
1 *22:g *20:g 189.454025  // $poly_conn
2 *20:g *3:4 161.234146  // $poly_conn
3 *3:4 *3:5 224.538513  // $poly_conn
4 *3:4 *28:g 38.249203  // $poly_conn
5 *3:5 *25:g 20.001371  // $poly_conn
6 *3:5 *17:g 64.873169  // $poly_conn
7 *3 *3:9 0.078535  // $metal1_conn
8 *3:5 *3:9 45  // $metal1_conn

*END

*D_NET *4 3.56435e-16

*CONN
*P *4 I *C 3.1000 0.8550 
*I *33:g B *C 3.0675 0.4750 
*I *32:g B *C 3.8175 0.5650 
*I *26:g B *C 3.3325 1.1650 
*I *5:g B *C 3.8175 1.1650 
*N *4:2 *C 2.9850 0.6950 
*N *4:4 *C 3.8175 0.9325 
*N *4:5 *C 3.3050 0.9050 

*CAP
0 *5:g 2.76364e-17
1 *26:g 3.37198e-17
2 *32:g 4.34662e-17
3 *33:g 3.91304e-17
4 *4:4 3.53964e-17
5 *4:2 5.45444e-17
6 *4:5 8.3218e-17
7 *4 3.93239e-17

*RES
0 *33:g *4:2 76.726654  // $poly_conn
1 *5:g *4:4 18.71979  // $poly_conn
2 *4:4 *4:5 115.03566  // $poly_conn
3 *4:4 *32:g 68.719788  // $poly_conn
4 *4:5 *26:g 17.437269  // $poly_conn
5 *4:5 *4 45.158573  // $metal1_conn
6 *4 *4:2 0.16122  // $metal1_conn

*END

*D_NET *11 8.29434e-17

*CONN
*P *11 O *C 4.3000 0.6650 
*I *34:d B *C 4.2750 0.5575 
*I *6:d B *C 4.2750 1.1125 

*CAP
0 *6:d 3.48695e-17
1 *34:d 4.80739e-17

*RES
0 *6:d *11 62.28804  // $metal1_conn
1 *11 *34:d 75.034477  // $metal1_conn

*END

*D_NET *10 9.05205e-16

*CONN
*I *23:d B *C 0.1400 0.5175 
*I *27:g B *C 1.1375 0.3850 
*I *29:s B *C 2.0000 0.3850 
*I *30:s B *C 2.0000 0.3850 
*I *16:d B *C 0.1550 1.1650 
*I *18:g B *C 1.2125 1.3250 
*I *20:d B *C 1.8675 1.1650 
*I *21:d B *C 1.8675 1.1650 
*N *10:2 *C 0.8150 0.3150 
*N *10:4 *C 0.9200 1.1300 
*N *10:7 *C 1.8750 1.1000 
*N *10:8 *C 0.3050 1.2300 
*N *10:10 *C 0.1150 0.4750 

*CAP
0 *20:d 1.49459e-16
1 *18:g 4.05333e-17
2 *16:d 2.6934e-17
3 *29:s 8.16537e-17
4 *27:g 6.80027e-17
5 *23:d 1.10366e-16
6 *10:8 1.56757e-16
7 *10:2 1.21277e-16
8 *10:4 1.50223e-16

*RES
0 *27:g *10:2 192.607513  // $poly_conn
1 *18:g *10:4 133.601562  // $poly_conn
2 *29:s *10:7 75.518517  // $metal1_conn
3 *10:7 *10:4 0.638185  // $metal1_conn
4 *10:4 *10:8 0.752095  // $metal1_conn
5 *10:8 *10:10 0.683766  // $metal1_conn
6 *10:8 *16:d 62.106289  // $metal1_conn
7 *10:10 *10:2 0.583018  // $metal1_conn
8 *20:d *10:7 62  // $metal1_conn
9 *23:d *10:10 75  // $metal1_conn

*END

*D_NET *9 7.08828e-16

*CONN
*I *27:d B *C 1.3550 0.3850 
*I *28:s B *C 1.3550 0.3850 
*I *31:s B *C 2.5200 0.3475 
*I *18:d B *C 1.3450 1.3250 
*I *19:d B *C 1.3450 1.3250 
*I *22:d B *C 2.3600 1.2975 
*N *9:1 *C 2.6800 1.4200 
*N *9:2 *C 2.6800 0.2600 
*N *9:4 *C 2.3600 1.4200 
*N *9:7 *C 2.5200 0.2600 

*CAP
0 *22:d 1.26511e-16
1 *18:d 1.00086e-16
2 *31:s 1.27076e-16
3 *27:d 1.37331e-16
4 *9:2 9.68299e-17
5 *9:1 1.20995e-16

*RES
0 *9:1 *9:2 207.354706  // $poly_conn
1 *9:1 *9:4 0.237603  // $metal1_conn
2 *9:4 *18:d 62.736198  // $metal1_conn
3 *22:d *9:4 62  // $metal1_conn
4 *9:2 *9:7 0.111182  // $metal1_conn
5 *9:7 *27:d 75.966156  // $metal1_conn
6 *31:s *9:7 75  // $metal1_conn

*END

*D_NET *8 5.41999e-16

*CONN
*I *30:d B *C 2.2950 0.3925 
*I *31:d B *C 2.2950 0.3925 
*I *35:s B *C 3.4650 0.5200 
*I *21:s B *C 2.1800 1.2700 
*I *22:s B *C 2.1800 1.2700 
*I *26:d B *C 3.4400 1.1650 
*N *8:3 *C 3.4650 1.1000 
*N *8:4 *C 2.5400 1.1000 

*CAP
0 *26:d 1.42196e-16
1 *21:s 6.79721e-17
2 *35:s 7.24286e-17
3 *30:d 9.68531e-17
4 *8:4 1.62549e-16

*RES
0 *35:s *8:3 75.366859  // $metal1_conn
1 *8:3 *8:4 0.628945  // $metal1_conn
2 *8:4 *21:s 62.338997  // $metal1_conn
3 *8:4 *30:d 75.632317  // $metal1_conn
4 *26:d *8:3 62  // $metal1_conn

*END

*D_NET *7 8.7736e-16

*CONN
*I *25:d B *C 0.6300 0.5100 
*I *29:g B *C 1.8475 0.3850 
*I *31:g B *C 2.3875 0.3925 
*I *17:d B *C 0.6675 1.1650 
*I *19:g B *C 1.4775 1.3250 
*I *21:g B *C 1.9925 1.1650 
*N *7:2 *C 1.4400 0.7800 
*N *7:3 *C 0.8050 0.8350 
*N *7:5 *C 1.9875 0.7375 
*N *7:6 *C 1.8475 0.5800 
*N *7:7 *C 1.7450 0.5800 
*N *7:8 *C 2.0650 0.7100 
*N *7:11 *C 2.3500 0.6550 
*N *7:12 *C 0.7100 0.8450 

*CAP
0 *21:g 7.13496e-17
1 *19:g 6.25585e-17
2 *17:d 6.44719e-17
3 *31:g 5.31373e-17
4 *29:g 2.31501e-17
5 *25:d 5.32785e-17
6 *7:12 4.45721e-17
7 *7:6 2.39001e-17
8 *7:5 4.72089e-17
9 *7:3 8.44423e-17
10 *7:2 1.40967e-16
11 *7:7 7.68273e-17
12 *7:8 5.42598e-17
13 *7:11 7.72368e-17

*RES
0 *19:g *7:2 90.514198  // $poly_conn
1 *7:2 *7:3 187.632248  // $poly_conn
2 *21:g *7:5 66.042351  // $poly_conn
3 *7:5 *7:6 67.360626  // $poly_conn
4 *7:6 *7:7 50.485863  // $poly_conn
5 *7:5 *7:8 56.105888  // $poly_conn
6 *7:6 *29:g 22.886339  // $poly_conn
7 *31:g *7:11 76.539833  // $poly_conn
8 *7:3 *7:12 0.039634  // $metal1_conn
9 *7:12 *25:d 75.201195  // $metal1_conn
10 *7:12 *17:d 62.229282  // $metal1_conn
11 *7:2 *7:7 45.256252  // $metal1_conn
12 *7:11 *7:8 0.164803  // $metal1_conn

*END

*D_NET *14 4.59349e-16

*CONN
*I *33:d B *C 3.2000 0.4750 
*I *35:d B *C 3.2000 0.4750 
*I *34:g B *C 4.1675 0.5575 
*I *24:s B *C 3.2300 1.1650 
*I *26:s B *C 3.2300 1.1650 
*I *6:g B *C 4.1675 1.1125 
*N *14:2 *C 4.1300 0.8650 
*N *14:4 *C 3.8750 0.8950 

*CAP
0 *6:g 2.28133e-17
1 *24:s 9.55689e-17
2 *34:g 2.54602e-17
3 *33:d 8.77876e-17
4 *14:4 1.74002e-16
5 *14:2 5.37161e-17

*RES
0 *6:g *14:2 27.69368  // $poly_conn
1 *14:2 *34:g 43.078297  // $poly_conn
2 *14:2 *14:4 45.158485  // $metal1_conn
3 *14:4 *33:d 75.808701  // $metal1_conn
4 *14:4 *24:s 62.733521  // $metal1_conn

*END

*D_NET *13 7.0132e-16

*CONN
*I *28:d B *C 1.6250 0.3850 
*I *29:d B *C 1.6250 0.3850 
*I *33:s B *C 2.9600 0.4750 
*I *19:s B *C 1.6950 1.1650 
*I *20:s B *C 1.6950 1.1650 
*I *24:d B *C 3.0200 1.1650 

*CAP
0 *24:d 2.32727e-16
1 *19:s 3.082e-16
2 *33:s 5.2618e-17
3 *28:d 1.07775e-16

*RES
0 *19:s *28:d 137.844193  // $metal1_conn
1 *24:d *19:s 125.009811  // $metal1_conn
2 *33:s *24:d 137.437759  // $metal1_conn

*END

*D_NET *12 3.33805e-16

*CONN
*I *35:g B *C 3.3325 0.4750 
*I *32:d B *C 3.7100 0.5650 
*I *24:g B *C 3.1275 1.1650 
*I *5:d B *C 3.7100 1.1650 
*N *12:1 *C 3.6550 0.7600 
*N *12:2 *C 3.3325 0.7725 

*CAP
0 *5:d 5.81929e-17
1 *24:g 6.8163e-17
2 *32:d 4.20764e-17
3 *35:g 3.5247e-17
4 *12:2 4.52509e-17
5 *12:1 8.48749e-17

*RES
0 *12:1 *12:2 115.733849  // $poly_conn
1 *12:2 *24:g 106.395523  // $poly_conn
2 *12:2 *35:g 47.22356  // $poly_conn
3 *5:d *12:1 62.180634  // $metal1_conn
4 *12:1 *32:d 75.090561  // $metal1_conn

*END

