*SPEF "IEEE 1481-1999"
*DESIGN  "XNOR2X2"
*DATE "Mon Sep 27 11:36:40 2010"
*VENDOR "Cadence Design Systems"
*PROGRAM "Assura RCX"
*VERSION "3.2 Red Hat Linux release 7.2 (Enigma) - (09/09/2009-10:39)"
*DESIGN_FLOW "Physical Verification"
*DIVIDER /
*DELIMITER :
*BUS_DELIMITER []
*T_UNIT 1 PS
*C_UNIT 1e15 FF
*R_UNIT 1 OHM
*L_UNIT 1 MH
// DeviceFingerDelim "@"
// MATCHED
// caps2d version: 10

*NAME_MAP
*1 n2
*2 mp5
*3 net112
*4 mp5\@1
*5 mp0
*6 mn5
*7 net145
*8 mp4
*9 mn5\@1
*10 VSS
*11 mp3
*12 mn0
*13 mp2
*14 mn4
*15 mp1
*16 mn3
*17 mn2
*18 mn1
*19 Y
*20 A
*21 B
*22 VDD
*23 n0
*24 n1

*GROUND_NETS VSS

*PORTS
*22 I
*10 I
*20 I
*21 I
*19 O

*D_NET *22 3.34075e-16

*CONN
*P *22 I *C 0.1000 1.7100 
*I *2:s B *C 0.1100 1.2250 
*I *4:s B *C 0.6000 1.1375 
*I *5:s B *C 0.6000 1.1375 
*I *13:s B *C 1.4050 1.1375 
*I *15:s B *C 1.4050 1.1375 
*N *22:4 *C 0.9000 1.7100 
*N *22:5 *C 0.9000 1.7100 

*CAP
0 *13:s 6.47336e-17
1 *22:4 1.46945e-16
2 *22 1.22397e-16

*RES
0 *22:4 *22:5 8.333333  // $metal1_conn
1 *22:5 *13:s 62.62212  // $metal1_conn
2 *22 *22:5 0.195134  // $metal1_conn

*END

*D_NET *10 0

*CONN
*P *10 I *C 0.1000 0.0000 
*I *6:s B *C 0.1100 0.5300 
*I *9:s B *C 0.5975 0.5375 
*I *12:s B *C 0.5975 0.5375 
*I *17:s B *C 1.4050 0.5375 
*I *18:s B *C 1.4050 0.5375 
*N *10:2 *C 0.9000 0.0000 
*N *10:3 *C 0.9000 0.0000 


*RES
0 *10:2 *10:3 6.888889  // $metal1_conn
1 *17:s *10:3 75.658943  // $metal1_conn
2 *10:3 *10 0.195546  // $metal1_conn

*END

*D_NET *20 2.10048e-16

*CONN
*P *20 I *C 0.6850 0.8400 
*I *12:g B *C 0.6475 0.5375 
*I *5:g B *C 0.6475 1.1375 
*N *20:2 *C 0.6750 0.7450 
*N *20:4 *C 0.6750 0.7450 
*N *20:5 *C 0.6800 0.7450 
*N *20:6 *C 0.6800 0.8400 

*CAP
0 *5:g 4.85192e-17
1 *12:g 2.64552e-17
2 *20:5 6.29181e-17
3 *20:2 3.59097e-17
4 *20 3.62456e-17

*RES
0 *5:g *20:2 64.563744  // $poly_conn
1 *20:2 *12:g 26.102209  // $poly_conn
2 *20:4 *20:5 0.00105  // $metal1_conn
3 *20:6 *20 0.001155  // $metal1_conn
4 *20:5 *20:6 0.065696  // $metal1_conn
5 *20:2 *20:4 45  // $metal1_conn

*END

*D_NET *21 3.94026e-16

*CONN
*P *21 I *C 1.2200 0.8800 
*I *14:g B *C 0.9175 0.5375 
*I *18:g B *C 1.5075 0.5375 
*I *11:g B *C 1.1225 1.1375 
*I *15:g B *C 1.5075 1.1375 
*N *21:2 *C 1.1600 0.9150 
*N *21:5 *C 1.4800 0.8700 

*CAP
0 *15:g 3.03315e-17
1 *11:g 4.14724e-17
2 *18:g 3.58371e-17
3 *14:g 5.33695e-17
4 *21:2 1.13067e-16
5 *21:5 8.20026e-17
6 *21 3.79462e-17

*RES
0 *11:g *21:2 20.411495  // $poly_conn
1 *21:2 *14:g 103.502777  // $poly_conn
2 *15:g *21:5 32.512466  // $poly_conn
3 *21:5 *18:g 58.153492  // $poly_conn
4 *21:5 *21 45.15686  // $metal1_conn
5 *21 *21:2 45.034798  // $metal1_conn

*END

*D_NET *19 1.84373e-16

*CONN
*P *19 O *C 0.2950 0.8550 
*I *6:d B *C 0.3050 0.5300 
*I *9:d B *C 0.3050 0.5300 
*I *2:d B *C 0.3050 1.2250 
*I *4:d B *C 0.3050 1.2250 

*CAP
0 *2:d 8.50192e-17
1 *6:d 6.62927e-17
2 *19 3.30607e-17

*RES
0 *19 *2:d 20.903673  // $metal1_conn
1 *19 *6:d 37.696766  // $metal1_conn

*END

*D_NET *7 0

*CONN
*I *16:s B *C 1.2150 0.5375 
*I *17:d B *C 1.2150 0.5375 


*RES
0 *17:d *16:s 0.001  // $mwires

*END

*D_NET *3 2.27405e-18

*CONN
*I *11:s B *C 1.2125 1.1375 
*I *13:d B *C 1.2125 1.1375 

*CAP
0 *11:s 2.27405e-18

*RES
0 *13:d *11:s 0.001  // $mwires

*END

*D_NET *1 5.19868e-16

*CONN
*I *16:g B *C 1.1275 0.5375 
*I *18:d B *C 1.6025 0.5375 
*I *8:g B *C 0.9175 1.1375 
*I *15:d B *C 1.6000 1.1375 
*N *1:2 *C 0.9450 1.4100 
*N *1:4 *C 1.1550 0.7200 
*N *1:6 *C 1.6100 1.0900 
*N *1:7 *C 1.6250 0.6850 

*CAP
0 *15:d 1.18536e-16
1 *8:g 4.03462e-17
2 *18:d 1.42596e-17
3 *16:g 4.14659e-17
4 *1:7 5.03875e-17
5 *1:2 1.27828e-16
6 *1:4 1.27045e-16

*RES
0 *8:g *1:2 78.794518  // $poly_conn
1 *16:g *1:4 64.691956  // $poly_conn
2 *1:2 *1:6 0.757761  // $metal1_conn
3 *1:6 *1:7 0.289204  // $metal1_conn
4 *1:7 *1:4 0.33941  // $metal1_conn
5 *1:7 *18:d 75.090546  // $metal1_conn
6 *15:d *1:6 62  // $metal1_conn

*END

*D_NET *24 4.01347e-16

*CONN
*I *12:d B *C 0.7825 0.5375 
*I *14:s B *C 0.7825 0.5375 
*I *17:g B *C 1.3025 0.5375 
*I *5:d B *C 0.7825 1.1375 
*I *8:d B *C 0.7825 1.1375 
*I *13:g B *C 1.3025 1.1375 
*N *24:3 *C 1.2750 0.3600 
*N *24:5 *C 0.8150 0.5250 

*CAP
0 *13:g 7.13893e-17
1 *5:d 8.6173e-17
2 *17:g 4.94711e-17
3 *12:d 1.07844e-16
4 *24:3 8.64696e-17

*RES
0 *13:g *17:g 107.692307  // $poly_conn
1 *17:g *24:3 62.437271  // $poly_conn
2 *24:3 *24:5 0.424374  // $metal1_conn
3 *24:5 *5:d 62.421921  // $metal1_conn
4 *12:d *24:5 75  // $metal1_conn

*END

*D_NET *23 4.76964e-16

*CONN
*I *6:g B *C 0.2025 0.5300 
*I *9:g B *C 0.4075 0.5300 
*I *14:d B *C 1.0225 0.5375 
*I *16:d B *C 1.0225 0.5375 
*I *2:g B *C 0.2025 1.2250 
*I *4:g B *C 0.4075 1.2250 
*I *8:s B *C 1.0200 1.1375 
*I *11:d B *C 1.0200 1.1375 
*N *23:8 *C 1.0200 1.0900 

*CAP
0 *8:s 1.33018e-16
1 *4:g 2.7289e-16
2 *14:d 7.10566e-17

*RES
0 *23:8 *4:g 45.792713  // $metal1_conn
1 *8:s *23:8 62  // $metal1_conn
2 *23:8 *14:d 75.436745  // $metal1_conn

*END

