*SPEF "IEEE 1481-1999"
*DESIGN  "XOR2X1"
*DATE "Mon Sep 27 11:38:34 2010"
*VENDOR "Cadence Design Systems"
*PROGRAM "Assura RCX"
*VERSION "3.2 Red Hat Linux release 7.2 (Enigma) - (09/09/2009-10:39)"
*DESIGN_FLOW "Physical Verification"
*DIVIDER /
*DELIMITER :
*BUS_DELIMITER []
*T_UNIT 1 PS
*C_UNIT 1e15 FF
*R_UNIT 1 OHM
*L_UNIT 1 MH
// DeviceFingerDelim "@"
// MATCHED
// caps2d version: 10

*NAME_MAP
*1 mp3
*2 mp2
*3 mp1
*4 mn5
*5 Y
*6 mn0
*7 mn4
*8 mn3
*9 mn2
*10 n2
*11 mn1
*12 n1
*13 net131
*14 A
*15 VDD
*16 n0
*17 B
*18 net130
*19 VSS
*20 mp5
*21 mp0
*22 mp4

*GROUND_NETS VSS

*PORTS
*15 I
*19 I
*14 I
*17 I
*5 O

*D_NET *15 2.0392e-16

*CONN
*P *15 I *C 0.1000 1.7100 
*I *20:s B *C 0.4400 1.5450 
*I *21:s B *C 0.4400 1.5450 
*I *2:s B *C 1.1950 1.1825 
*I *3:s B *C 1.1950 1.1825 
*N *15:2 *C 0.8000 1.7100 
*N *15:3 *C 0.8000 1.7100 
*N *15:4 *C 0.4050 1.7100 

*CAP
0 *2:s 3.29053e-17
1 *20:s 2.29146e-17
2 *15:4 1.10613e-17
3 *15:2 1.31547e-16
4 *15 5.49188e-18

*RES
0 *2:s *15:3 62.533035  // $metal1_conn
1 *15:3 *15:4 0.197039  // $metal1_conn
2 *15:4 *15 0.151632  // $metal1_conn
3 *15:4 *20:s 62.070927  // $metal1_conn
4 *15:2 *15:3 9.375  // $metal1_conn

*END

*D_NET *19 0

*CONN
*P *19 I *C 0.1000 0.0000 
*I *4:s B *C 0.4400 0.5025 
*I *6:s B *C 0.4400 0.5025 
*I *9:s B *C 1.2150 0.5025 
*I *11:s B *C 1.2150 0.5025 
*N *19:2 *C 0.8000 0.0000 
*N *19:3 *C 0.8000 0.0000 
*N *19:4 *C 0.4050 0.0000 


*RES
0 *9:s *19:3 75.566734  // $metal1_conn
1 *19:3 *19:4 0.197039  // $metal1_conn
2 *19:4 *19 0.151632  // $metal1_conn
3 *19:4 *4:s 75.073433  // $metal1_conn
4 *19:2 *19:3 7.75  // $metal1_conn

*END

*D_NET *14 2.45498e-16

*CONN
*P *14 I *C 0.4500 0.9800 
*I *6:g B *C 0.4875 0.5025 
*I *21:g B *C 0.4875 1.1825 
*N *14:2 *C 0.4600 0.7900 

*CAP
0 *21:g 4.59701e-17
1 *6:g 3.62666e-17
2 *14:2 1.08079e-16
3 *14 5.51827e-17

*RES
0 *21:g *14:2 64.563744  // $poly_conn
1 *14:2 *6:g 46.615028  // $poly_conn
2 *14 *14:2 45.12693  // $metal1_conn

*END

*D_NET *17 5.65241e-16

*CONN
*P *17 I *C 1.1700 0.8150 
*I *8:g B *C 1.0075 0.5025 
*I *11:g B *C 1.3175 0.5025 
*I *22:g B *C 0.6925 1.1825 
*I *3:g B *C 1.2975 1.1825 
*N *17:2 *C 0.7300 0.8050 
*N *17:4 *C 1.0150 0.8050 
*N *17:6 *C 1.3450 0.8050 

*CAP
0 *3:g 3.91992e-17
1 *22:g 4.49181e-17
2 *11:g 3.48856e-17
3 *8:g 6.51962e-17
4 *17:2 1.17553e-16
5 *17:4 1.27631e-16
6 *17:6 9.35403e-17
7 *17 4.23181e-17

*RES
0 *22:g *17:2 103.424316  // $poly_conn
1 *8:g *17:4 94.488556  // $poly_conn
2 *11:g *17:6 47.299271  // $poly_conn
3 *17:6 *3:g 61.059681  // $poly_conn
4 *17:6 *17 45.10228  // $metal1_conn
5 *17 *17:4 0.095366  // $metal1_conn
6 *17:4 *17:2 0.17378  // $metal1_conn

*END

*D_NET *5 1.40439e-16

*CONN
*P *5 O *C 0.1600 0.6400 
*I *4:d B *C 0.1800 0.5100 
*I *20:d B *C 0.1800 1.0950 

*CAP
0 *20:d 7.98654e-17
1 *4:d 2.11971e-17
2 *5 3.93762e-17

*RES
0 *20:d *5 21.022083  // $metal1_conn
1 *5 *4:d 37.58873  // $metal1_conn

*END

*D_NET *13 0

*CONN
*I *8:s B *C 1.0600 0.5025 
*I *9:d B *C 1.0600 0.5025 


*RES
0 *9:d *8:s 0.001  // $mwires

*END

*D_NET *18 0

*CONN
*I *1:s B *C 1.0025 1.1825 
*I *2:d B *C 1.0025 1.1825 


*RES
0 *2:d *1:s 0.001  // $mwires

*END

*D_NET *16 5.44562e-16

*CONN
*I *4:g B *C 0.2725 0.5100 
*I *7:d B *C 0.9050 0.5025 
*I *8:d B *C 0.9050 0.5025 
*I *20:g B *C 0.2725 1.0950 
*I *22:s B *C 0.8025 1.1825 
*I *1:d B *C 0.8025 1.1825 
*N *16:2 *C 0.3000 0.7750 
*N *16:5 *C 0.3000 0.7750 

*CAP
0 *22:s 1.0015e-16
1 *20:g 4.12446e-17
2 *7:d 9.01023e-17
3 *4:g 3.28896e-17
4 *16:2 2.80176e-16

*RES
0 *20:g *16:2 23.538105  // $poly_conn
1 *16:2 *4:g 26.102209  // $poly_conn
2 *7:d *16:5 75.809052  // $metal1_conn
3 *16:5 *22:s 62.861588  // $metal1_conn
4 *16:2 *16:5 45  // $metal1_conn

*END

*D_NET *12 4.92369e-16

*CONN
*I *6:d B *C 0.6450 0.5025 
*I *7:s B *C 0.6450 0.5025 
*I *9:g B *C 1.1125 0.5025 
*I *21:d B *C 0.5900 1.1825 
*I *22:d B *C 0.5900 1.1825 
*I *2:g B *C 1.0925 1.1825 
*N *12:2 *C 1.1850 0.6850 
*N *12:4 *C 0.5850 0.6850 

*CAP
0 *2:g 7.31326e-17
1 *21:d 5.59757e-17
2 *9:g 4.68247e-17
3 *6:d 3.8379e-17
4 *12:4 1.21376e-16
5 *12:2 1.56681e-16

*RES
0 *9:g *12:2 21.511328  // $poly_conn
1 *12:2 *2:g 91.337082  // $poly_conn
2 *12:2 *12:4 45.481533  // $metal1_conn
3 *12:4 *6:d 75.112709  // $metal1_conn
4 *12:4 *21:d 62.335747  // $metal1_conn

*END

*D_NET *10 3.86074e-16

*CONN
*I *7:g B *C 0.8025 0.5025 
*I *11:d B *C 1.4100 0.5025 
*I *1:g B *C 0.9125 1.1825 
*I *3:d B *C 1.3900 1.1825 
*N *10:2 *C 0.8750 0.9750 
*N *10:5 *C 1.4000 0.9775 

*CAP
0 *3:d 1.49428e-17
1 *1:g 3.61808e-17
2 *11:d 4.64278e-17
3 *7:g 6.10318e-17
4 *10:5 9.50172e-17
5 *10:2 1.32474e-16

*RES
0 *1:g *10:2 16.15522  // $poly_conn
1 *10:2 *7:g 99.198982  // $poly_conn
2 *11:d *10:5 75.418526  // $metal1_conn
3 *10:5 *10:2 45.416336  // $metal1_conn
4 *10:5 *3:d 62.084503  // $metal1_conn

*END

