*SPEF "IEEE 1481-1999"
*DESIGN  "XOR3X1"
*DATE "Mon Sep 27 11:40:04 2010"
*VENDOR "Cadence Design Systems"
*PROGRAM "Assura RCX"
*VERSION "3.2 Red Hat Linux release 7.2 (Enigma) - (09/09/2009-10:39)"
*DESIGN_FLOW "Physical Verification"
*DIVIDER /
*DELIMITER :
*BUS_DELIMITER []
*T_UNIT 1 PS
*C_UNIT 1e15 FF
*R_UNIT 1 OHM
*L_UNIT 1 MH
// DeviceFingerDelim "@"
// MATCHED
// caps2d version: 10

*NAME_MAP
*1 VDD
*2 A
*3 B
*4 C
*5 mp8
*6 mp7
*7 n56
*8 n11
*9 n61
*10 n62
*11 Y
*12 n60
*13 n44
*14 n50
*15 VSS
*16 mp10
*17 mp9
*18 mp0
*19 mp2
*20 mp1
*21 mp5
*22 mp6
*23 mn10
*24 mp4
*25 mn9
*26 mp3
*27 mn0
*28 mn2
*29 mn1
*30 mn5
*31 mn6
*32 mn8
*33 mn4
*34 mn7
*35 mn3

*GROUND_NETS VSS

*PORTS
*1 I
*15 I
*2 I
*3 I
*4 I
*11 O

*D_NET *1 5.8353e-16

*CONN
*P *1 I *C 0.3000 1.7100 
*I *16:s B *C 0.4600 1.0700 
*I *17:s B *C 0.4600 1.0700 
*I *18:s B *C 1.2700 1.3250 
*I *5:s B *C 4.1200 1.1900 
*I *6:s B *C 4.1200 1.1900 
*N *1:2 *C 3.3000 1.7100 
*N *1:3 *C 3.3000 1.7100 
*N *1:4 *C 1.1000 1.7100 

*CAP
0 *5:s 8.59937e-17
1 *18:s 1.08522e-17
2 *16:s 3.74364e-17
3 *1:2 4.31135e-16
4 *1 1.81127e-17

*RES
0 *5:s *1:3 13.04751  // $metal1_conn
1 *1:3 *1:4 1.105044  // $metal1_conn
2 *1:4 *1 0.402104  // $metal1_conn
3 *1:4 *18:s 62.058495  // $metal1_conn
4 *1 *16:s 31.089746  // $metal1_conn
5 *1:2 *1:3 6.818182  // $metal1_conn
6 *1:2 *1:4 6.818182  // $metal1_conn

*END

*D_NET *15 0

*CONN
*P *15 I *C 0.5000 0.0950 
*I *23:s B *C 0.4600 0.4800 
*I *25:s B *C 0.4600 0.4800 
*I *27:s B *C 1.1650 0.3700 
*I *32:s B *C 4.1200 0.5575 
*I *34:s B *C 4.1200 0.5575 
*N *15:2 *C 3.3000 0.0000 
*N *15:3 *C 3.3000 0.0000 
*N *15:4 *C 1.1000 0.0000 
*N *15:6 *C 1.0800 0.1400 


*RES
0 *32:s *15:3 19.396935  // $metal1_conn
1 *15:3 *15:4 1.102105  // $metal1_conn
2 *15:4 *15:6 0.005454  // $metal1_conn
3 *15:6 *15 0.185901  // $metal1_conn
4 *15 *23:s 75.041  // $metal1_conn
5 *15:2 *15:3 5.636364  // $metal1_conn
6 *15:2 *15:4 5.636364  // $metal1_conn
7 *27:s *15:6 75  // $metal1_conn

*END

*D_NET *2 2.0482e-16

*CONN
*P *2 I *C 0.1000 0.8550 
*I *23:g B *C 0.2325 0.4725 
*I *16:g B *C 0.2325 1.1100 
*N *2:2 *C 0.2325 0.6750 
*N *2:3 *C 0.1400 0.6750 

*CAP
0 *16:g 4.2094e-17
1 *23:g 3.11176e-17
2 *2:2 1.57014e-17
3 *2:3 4.32372e-17
4 *2 7.267e-17

*RES
0 *16:g *2:2 58.783772  // $poly_conn
1 *2:2 *2:3 49.422031  // $poly_conn
2 *2:2 *23:g 22.886339  // $poly_conn
3 *2:3 *2 0.103401  // $metal1_conn

*END

*D_NET *3 9.20379e-16

*CONN
*P *3 I *C 0.5000 0.8550 
*I *25:g B *C 0.5175 0.4800 
*I *29:g B *C 1.9525 0.3775 
*I *31:g B *C 2.4625 0.3700 
*I *17:g B *C 0.5175 1.0700 
*I *19:g B *C 1.5825 1.3250 
*I *21:g B *C 2.0525 1.0950 
*N *3:2 *C 1.5450 0.7800 
*N *3:3 *C 0.5175 0.8075 
*N *3:4 *C 0.4800 0.6750 
*N *3:7 *C 2.1400 0.7100 
*N *3:8 *C 2.0525 0.7375 
*N *3:9 *C 1.9525 0.5900 
*N *3:10 *C 1.8200 0.5900 
*N *3:14 *C 2.4250 0.6550 

*CAP
0 *21:g 8.07178e-17
1 *19:g 6.22504e-17
2 *17:g 4.39117e-17
3 *31:g 4.74067e-17
4 *29:g 2.52774e-17
5 *25:g 3.63486e-17
6 *3:9 1.36231e-17
7 *3:8 2.36945e-17
8 *3:3 5.96559e-17
9 *3:4 7.24647e-17
10 *3:2 1.64962e-16
11 *3:10 8.30949e-17
12 *3:7 8.09908e-17
13 *3:14 7.1941e-17
14 *3 5.40394e-17

*RES
0 *19:g *3:2 90.514198  // $poly_conn
1 *3:2 *3:3 247.27832  // $poly_conn
2 *3:3 *3:4 22.953773  // $poly_conn
3 *3:3 *17:g 26.029324  // $poly_conn
4 *3:4 *25:g 16.15522  // $poly_conn
5 *3:7 *3:8 57.770714  // $poly_conn
6 *3:8 *3:9 53.08448  // $poly_conn
7 *3:9 *3:10 52.24773  // $poly_conn
8 *3:8 *21:g 36.967152  // $poly_conn
9 *3:9 *29:g 24.894089  // $poly_conn
10 *31:g *3:14 84.232147  // $poly_conn
11 *3:4 *3 45.099449  // $metal1_conn
12 *3:2 *3:10 45.238544  // $metal1_conn
13 *3:14 *3:7 0.165014  // $metal1_conn

*END

*D_NET *4 3.73273e-16

*CONN
*P *4 I *C 3.3000 0.8550 
*I *33:g B *C 3.0675 0.4750 
*I *32:g B *C 3.8175 0.5650 
*I *26:g B *C 3.3325 1.1650 
*I *5:g B *C 3.8175 1.1650 
*N *4:2 *C 2.9850 0.6950 
*N *4:4 *C 3.8175 0.9325 
*N *4:5 *C 3.3050 0.9050 

*CAP
0 *5:g 2.9121e-17
1 *26:g 3.34154e-17
2 *32:g 4.35004e-17
3 *33:g 4.09411e-17
4 *4:4 3.53815e-17
5 *4:2 6.81539e-17
6 *4:5 7.99719e-17
7 *4 4.27882e-17

*RES
0 *33:g *4:2 76.726654  // $poly_conn
1 *5:g *4:4 18.71979  // $poly_conn
2 *4:4 *4:5 115.03566  // $poly_conn
3 *4:4 *32:g 68.719788  // $poly_conn
4 *4:5 *26:g 17.437269  // $poly_conn
5 *4 *4:2 0.310292  // $metal1_conn
6 *4 *4:5 45.024193  // $metal1_conn

*END

*D_NET *11 7.9159e-17

*CONN
*P *11 O *C 4.3000 0.6650 
*I *34:d B *C 4.2750 0.5575 
*I *6:d B *C 4.2750 1.1900 

*CAP
0 *6:d 3.20135e-17
1 *34:d 4.71455e-17

*RES
0 *6:d *11 62.278812  // $metal1_conn
1 *11 *34:d 75.034569  // $metal1_conn

*END

*D_NET *10 8.89803e-16

*CONN
*I *23:d B *C 0.1250 0.4725 
*I *27:g B *C 1.2125 0.3700 
*I *29:d B *C 2.0900 0.3775 
*I *30:d B *C 2.0900 0.3775 
*I *16:d B *C 0.1275 1.1100 
*I *18:g B *C 1.3175 1.3250 
*I *20:s B *C 2.0000 1.0950 
*I *21:s B *C 2.0000 1.0950 
*N *10:2 *C 0.8900 0.2950 
*N *10:4 *C 1.0250 1.1300 
*N *10:7 *C 1.9500 1.1000 
*N *10:8 *C 0.3000 1.2150 
*N *10:10 *C 0.1000 0.4300 

*CAP
0 *20:s 1.46287e-16
1 *18:g 4.38327e-17
2 *16:d 3.67922e-17
3 *29:d 8.19203e-17
4 *27:g 6.4207e-17
5 *23:d 1.2498e-16
6 *10:8 1.29087e-16
7 *10:2 1.34703e-16
8 *10:4 1.27994e-16

*RES
0 *27:g *10:2 188.049652  // $poly_conn
1 *18:g *10:4 127.686287  // $poly_conn
2 *29:d *10:7 75.519997  // $metal1_conn
3 *10:7 *10:4 0.619904  // $metal1_conn
4 *10:4 *10:8 0.568033  // $metal1_conn
5 *10:8 *10:10 0.68476  // $metal1_conn
6 *10:8 *16:d 62.14304  // $metal1_conn
7 *10:10 *10:2 0.666218  // $metal1_conn
8 *20:s *10:7 62  // $metal1_conn
9 *23:d *10:10 75  // $metal1_conn

*END

*D_NET *9 6.73079e-16

*CONN
*I *25:d B *C 0.6650 0.4800 
*I *28:g B *C 1.4775 0.3700 
*I *30:g B *C 2.2275 0.3775 
*I *17:d B *C 0.6575 1.0700 
*I *20:g B *C 1.8475 1.1250 
*I *22:g B *C 2.3025 1.1950 
*N *9:4 *C 1.4775 0.6475 
*N *9:5 *C 0.8000 0.6750 

*CAP
0 *22:g 8.85005e-17
1 *20:g 1.27429e-16
2 *17:d 5.59356e-17
3 *30:g 9.83738e-17
4 *28:g 3.797e-17
5 *25:d 3.58736e-17
6 *9:4 1.04237e-16
7 *9:5 1.24759e-16

*RES
0 *30:g *22:g 143.545547  // $poly_conn
1 *22:g *20:g 185.60788  // $poly_conn
2 *20:g *9:4 148.413635  // $poly_conn
3 *9:4 *9:5 204.845596  // $poly_conn
4 *9:4 *28:g 42.09536  // $poly_conn
5 *25:d *9:5 75.112129  // $metal1_conn
6 *9:5 *17:d 62.201847  // $metal1_conn

*END

*D_NET *8 7.01043e-16

*CONN
*I *27:d B *C 1.4300 0.3700 
*I *28:d B *C 1.4300 0.3700 
*I *31:s B *C 2.5950 0.3325 
*I *18:d B *C 1.4500 1.3250 
*I *19:s B *C 1.4500 1.3250 
*I *22:d B *C 2.4350 1.2600 
*N *8:1 *C 2.7550 1.4200 
*N *8:2 *C 2.7550 0.2600 
*N *8:4 *C 2.4350 1.4200 
*N *8:7 *C 2.5950 0.2600 

*CAP
0 *22:d 1.25674e-16
1 *18:d 9.52484e-17
2 *31:s 1.39913e-16
3 *27:d 1.31159e-16
4 *8:2 9.48588e-17
5 *8:1 1.1419e-16

*RES
0 *8:1 *8:2 370.409546  // $poly_conn
1 *8:1 *8:4 0.238281  // $metal1_conn
2 *8:4 *18:d 62.715961  // $metal1_conn
3 *22:d *8:4 62  // $metal1_conn
4 *8:2 *8:7 0.111293  // $metal1_conn
5 *8:7 *27:d 75.971519  // $metal1_conn
6 *31:s *8:7 75  // $metal1_conn

*END

*D_NET *7 5.81527e-16

*CONN
*I *30:s B *C 2.4150 0.3700 
*I *31:d B *C 2.4150 0.3700 
*I *35:d B *C 3.4650 0.5200 
*I *21:d B *C 2.2300 1.1950 
*I *22:s B *C 2.2300 1.1950 
*I *26:s B *C 3.4400 1.1650 
*N *7:3 *C 3.4650 1.1000 
*N *7:4 *C 2.6150 1.1000 

*CAP
0 *26:s 1.46893e-16
1 *21:d 6.72444e-17
2 *35:d 8.03122e-17
3 *30:s 1.12032e-16
4 *7:4 1.75046e-16

*RES
0 *35:d *7:3 75.382919  // $metal1_conn
1 *7:3 *7:4 0.580479  // $metal1_conn
2 *7:4 *21:d 62.339966  // $metal1_conn
3 *7:4 *30:s 75.700363  // $metal1_conn
4 *26:s *7:3 62  // $metal1_conn

*END

*D_NET *14 4.77316e-16

*CONN
*I *33:s B *C 3.2000 0.4750 
*I *35:s B *C 3.2000 0.4750 
*I *34:g B *C 4.1675 0.5575 
*I *24:d B *C 3.2300 1.1650 
*I *26:d B *C 3.2300 1.1650 
*I *6:g B *C 4.1675 1.1900 
*N *14:2 *C 4.1300 0.8650 
*N *14:4 *C 3.8750 0.8950 

*CAP
0 *6:g 2.89333e-17
1 *24:d 9.69118e-17
2 *34:g 2.54586e-17
3 *33:s 9.63028e-17
4 *14:4 1.73015e-16
5 *14:2 5.6694e-17

*RES
0 *6:g *14:2 23.847527  // $poly_conn
1 *14:2 *34:g 43.078297  // $poly_conn
2 *14:2 *14:4 45.158936  // $metal1_conn
3 *14:4 *33:s 75.811012  // $metal1_conn
4 *14:4 *24:d 62.735615  // $metal1_conn

*END

*D_NET *13 7.37941e-16

*CONN
*I *28:s B *C 1.7400 0.3775 
*I *29:s B *C 1.7400 0.3775 
*I *33:d B *C 2.9600 0.4750 
*I *19:d B *C 1.8000 1.1250 
*I *20:d B *C 1.8000 1.1250 
*I *24:s B *C 3.0800 1.1650 

*CAP
0 *24:s 2.51072e-16
1 *19:d 3.06088e-16
2 *33:d 6.96774e-17
3 *28:s 1.11104e-16

*RES
0 *19:d *28:s 137.821472  // $metal1_conn
1 *24:s *33:d 137.558228  // $metal1_conn
2 *24:s *19:d 125.021072  // $metal1_conn

*END

*D_NET *12 3.36122e-16

*CONN
*I *35:g B *C 3.3325 0.4750 
*I *32:d B *C 3.7100 0.5650 
*I *24:g B *C 3.1275 1.1650 
*I *5:d B *C 3.7100 1.1650 
*N *12:1 *C 3.6550 0.7600 
*N *12:2 *C 3.3325 0.7725 

*CAP
0 *5:d 5.79954e-17
1 *24:g 6.64508e-17
2 *32:d 4.20258e-17
3 *35:g 3.50762e-17
4 *12:2 4.96772e-17
5 *12:1 8.48962e-17

*RES
0 *12:1 *12:2 115.733849  // $poly_conn
1 *12:2 *24:g 106.395523  // $poly_conn
2 *12:2 *35:g 47.22356  // $poly_conn
3 *5:d *12:1 62.180866  // $metal1_conn
4 *12:1 *32:d 75.090675  // $metal1_conn

*END

